# vtk DataFile Version 5.1
vtk output
ASCII

DATASET UNSTRUCTURED_GRID
POINTS 18785 float
0 0 3.4
0.125 0 3.4
0.25 0 3.4
0.375 0 3.4
0.5 0 3.4
0.625 0 3.4
0.75 0 3.4
0.875 0 3.4
1 0 3.4
1.125 0 3.4
1.25 0 3.4
1.375 0 3.4
1.5 0 3.4
1.625 0 3.4
1.75 0 3.4
1.875 0 3.4
2 0 3.4
2.125 0 3.4
2.25 0 3.4
2.375 0 3.4
2.5 0 3.4
2.625 0 3.4
2.75 0 3.4
2.875 0 3.4
3 0 3.4
3.125 0 3.4
3.25 0 3.4
3.375 0 3.4
3.5 0 3.4
3.625 0 3.4
3.75 0 3.4
3.875 0 3.4
4 0 3.4
0 0.125 3.4
0.125 0.125 3.4
0.25 0.125 3.4
0.375 0.125 3.4
0.5 0.125 3.4
0.625 0.125 3.4
0.75 0.125 3.4
0.875 0.125 3.4
1 0.125 3.4
1.125 0.125 3.4
1.25 0.125 3.4
1.375 0.125 3.4
1.5 0.125 3.4
1.625 0.125 3.4
1.75 0.125 3.4
1.875 0.125 3.4
2 0.125 3.4
2.125 0.125 3.4
2.25 0.125 3.4
2.375 0.125 3.4
2.5 0.125 3.4
2.625 0.125 3.4
2.75 0.125 3.4
2.875 0.125 3.4
3 0.125 3.4
3.125 0.125 3.4
3.25 0.125 3.4
3.375 0.125 3.4
3.5 0.125 3.4
3.625 0.125 3.4
3.75 0.125 3.4
3.875 0.125 3.4
4 0.125 3.4
0 0.25 3.4
0.125 0.25 3.4
0.25 0.25 3.4
0.375 0.25 3.4
0.5 0.25 3.4
0.625 0.25 3.4
0.75 0.25 3.4
0.875 0.25 3.4
1 0.25 3.4
1.125 0.25 3.4
1.25 0.25 3.4
1.375 0.25 3.4
1.5 0.25 3.4
1.625 0.25 3.4
1.75 0.25 3.4
1.875 0.25 3.4
2 0.25 3.4
2.125 0.25 3.4
2.25 0.25 3.4
2.375 0.25 3.4
2.5 0.25 3.4
2.625 0.25 3.4
2.75 0.25 3.4
2.875 0.25 3.4
3 0.25 3.4
3.125 0.25 3.4
3.25 0.25 3.4
3.375 0.25 3.4
3.5 0.25 3.4
3.625 0.25 3.4
3.75 0.25 3.4
3.875 0.25 3.4
4 0.25 3.4
0 0.375 3.4
0.125 0.375 3.4
0.25 0.375 3.4
0.375 0.375 3.4
0.5 0.375 3.4
0.625 0.375 3.4
0.75 0.375 3.4
0.875 0.375 3.4
1 0.375 3.4
1.125 0.375 3.4
1.25 0.375 3.4
1.375 0.375 3.4
1.5 0.375 3.4
1.625 0.375 3.4
1.75 0.375 3.4
1.875 0.375 3.4
2 0.375 3.4
2.125 0.375 3.4
2.25 0.375 3.4
2.375 0.375 3.4
2.5 0.375 3.4
2.625 0.375 3.4
2.75 0.375 3.4
2.875 0.375 3.4
3 0.375 3.4
3.125 0.375 3.4
3.25 0.375 3.4
3.375 0.375 3.4
3.5 0.375 3.4
3.625 0.375 3.4
3.75 0.375 3.4
3.875 0.375 3.4
4 0.375 3.4
0 0.5 3.4
0.125 0.5 3.4
0.25 0.5 3.4
0.375 0.5 3.4
0.5 0.5 3.4
0.625 0.5 3.4
0.75 0.5 3.4
0.875 0.5 3.4
1 0.5 3.4
1.125 0.5 3.4
1.25 0.5 3.4
1.375 0.5 3.4
1.5 0.5 3.4
1.625 0.5 3.4
1.75 0.5 3.4
1.875 0.5 3.4
2 0.5 3.4
2.125 0.5 3.4
2.25 0.5 3.4
2.375 0.5 3.4
2.5 0.5 3.4
2.625 0.5 3.4
2.75 0.5 3.4
2.875 0.5 3.4
3 0.5 3.4
3.125 0.5 3.4
3.25 0.5 3.4
3.375 0.5 3.4
3.5 0.5 3.4
3.625 0.5 3.4
3.75 0.5 3.4
3.875 0.5 3.4
4 0.5 3.4
0 0.625 3.4
0.125 0.625 3.4
0.25 0.625 3.4
0.375 0.625 3.4
0.5 0.625 3.4
0.625 0.625 3.4
0.75 0.625 3.4
0.875 0.625 3.4
1 0.625 3.4
1.125 0.625 3.4
1.25 0.625 3.4
1.375 0.625 3.4
1.5 0.625 3.4
1.625 0.625 3.4
1.75 0.625 3.4
1.875 0.625 3.4
2 0.625 3.4
2.125 0.625 3.4
2.25 0.625 3.4
2.375 0.625 3.4
2.5 0.625 3.4
2.625 0.625 3.4
2.75 0.625 3.4
2.875 0.625 3.4
3 0.625 3.4
3.125 0.625 3.4
3.25 0.625 3.4
3.375 0.625 3.4
3.5 0.625 3.4
3.625 0.625 3.4
3.75 0.625 3.4
3.875 0.625 3.4
4 0.625 3.4
0 0.75 3.4
0.125 0.75 3.4
0.25 0.75 3.4
0.375 0.75 3.4
0.5 0.75 3.4
0.625 0.75 3.4
0.75 0.75 3.4
0.875 0.75 3.4
1 0.75 3.4
1.125 0.75 3.4
1.25 0.75 3.4
1.375 0.75 3.4
1.5 0.75 3.4
1.625 0.75 3.4
1.75 0.75 3.4
1.875 0.75 3.4
2 0.75 3.4
2.125 0.75 3.4
2.25 0.75 3.4
2.375 0.75 3.4
2.5 0.75 3.4
2.625 0.75 3.4
2.75 0.75 3.4
2.875 0.75 3.4
3 0.75 3.4
3.125 0.75 3.4
3.25 0.75 3.4
3.375 0.75 3.4
3.5 0.75 3.4
3.625 0.75 3.4
3.75 0.75 3.4
3.875 0.75 3.4
4 0.75 3.4
0 0.875 3.4
0.125 0.875 3.4
0.25 0.875 3.4
0.375 0.875 3.4
0.5 0.875 3.4
0.625 0.875 3.4
0.75 0.875 3.4
0.875 0.875 3.4
1 0.875 3.4
1.125 0.875 3.4
1.25 0.875 3.4
1.375 0.875 3.4
1.5 0.875 3.4
1.625 0.875 3.4
1.75 0.875 3.4
1.875 0.875 3.4
2 0.875 3.4
2.125 0.875 3.4
2.25 0.875 3.4
2.375 0.875 3.4
2.5 0.875 3.4
2.625 0.875 3.4
2.75 0.875 3.4
2.875 0.875 3.4
3 0.875 3.4
3.125 0.875 3.4
3.25 0.875 3.4
3.375 0.875 3.4
3.5 0.875 3.4
3.625 0.875 3.4
3.75 0.875 3.4
3.875 0.875 3.4
4 0.875 3.4
0 1 3.4
0.125 1 3.4
0.25 1 3.4
0.375 1 3.4
0.5 1 3.4
0.625 1 3.4
0.75 1 3.4
0.875 1 3.4
1 1 3.4
1.125 1 3.4
1.25 1 3.4
1.375 1 3.4
1.5 1 3.4
1.625 1 3.4
1.75 1 3.4
1.875 1 3.4
2 1 3.4
2.125 1 3.4
2.25 1 3.4
2.375 1 3.4
2.5 1 3.4
2.625 1 3.4
2.75 1 3.4
2.875 1 3.4
3 1 3.4
3.125 1 3.4
3.25 1 3.4
3.375 1 3.4
3.5 1 3.4
3.625 1 3.4
3.75 1 3.4
3.875 1 3.4
4 1 3.4
0 0 3.525
0.125 0 3.525
0.25 0 3.525
0.375 0 3.525
0.5 0 3.525
0.625 0 3.525
0.75 0 3.525
0.875 0 3.525
1 0 3.525
1.125 0 3.525
1.25 0 3.525
1.375 0 3.525
1.5 0 3.525
1.625 0 3.525
1.75 0 3.525
1.875 0 3.525
2 0 3.525
2.125 0 3.525
2.25 0 3.525
2.375 0 3.525
2.5 0 3.525
2.625 0 3.525
2.75 0 3.525
2.875 0 3.525
3 0 3.525
3.125 0 3.525
3.25 0 3.525
3.375 0 3.525
3.5 0 3.525
3.625 0 3.525
3.75 0 3.525
3.875 0 3.525
4 0 3.525
0 0.125 3.525
0.125 0.125 3.525
0.25 0.125 3.525
0.375 0.125 3.525
0.5 0.125 3.525
0.625 0.125 3.525
0.75 0.125 3.525
0.875 0.125 3.525
1 0.125 3.525
1.125 0.125 3.525
1.25 0.125 3.525
1.375 0.125 3.525
1.5 0.125 3.525
1.625 0.125 3.525
1.75 0.125 3.525
1.875 0.125 3.525
2 0.125 3.525
2.125 0.125 3.525
2.25 0.125 3.525
2.375 0.125 3.525
2.5 0.125 3.525
2.625 0.125 3.525
2.75 0.125 3.525
2.875 0.125 3.525
3 0.125 3.525
3.125 0.125 3.525
3.25 0.125 3.525
3.375 0.125 3.525
3.5 0.125 3.525
3.625 0.125 3.525
3.75 0.125 3.525
3.875 0.125 3.525
4 0.125 3.525
0 0.25 3.525
0.125 0.25 3.525
0.25 0.25 3.525
0.375 0.25 3.525
0.5 0.25 3.525
0.625 0.25 3.525
0.75 0.25 3.525
0.875 0.25 3.525
1 0.25 3.525
1.125 0.25 3.525
1.25 0.25 3.525
1.375 0.25 3.525
1.5 0.25 3.525
1.625 0.25 3.525
1.75 0.25 3.525
1.875 0.25 3.525
2 0.25 3.525
2.125 0.25 3.525
2.25 0.25 3.525
2.375 0.25 3.525
2.5 0.25 3.525
2.625 0.25 3.525
2.75 0.25 3.525
2.875 0.25 3.525
3 0.25 3.525
3.125 0.25 3.525
3.25 0.25 3.525
3.375 0.25 3.525
3.5 0.25 3.525
3.625 0.25 3.525
3.75 0.25 3.525
3.875 0.25 3.525
4 0.25 3.525
0 0.375 3.525
0.125 0.375 3.525
0.25 0.375 3.525
0.375 0.375 3.525
0.5 0.375 3.525
0.625 0.375 3.525
0.75 0.375 3.525
0.875 0.375 3.525
1 0.375 3.525
1.125 0.375 3.525
1.25 0.375 3.525
1.375 0.375 3.525
1.5 0.375 3.525
1.625 0.375 3.525
1.75 0.375 3.525
1.875 0.375 3.525
2 0.375 3.525
2.125 0.375 3.525
2.25 0.375 3.525
2.375 0.375 3.525
2.5 0.375 3.525
2.625 0.375 3.525
2.75 0.375 3.525
2.875 0.375 3.525
3 0.375 3.525
3.125 0.375 3.525
3.25 0.375 3.525
3.375 0.375 3.525
3.5 0.375 3.525
3.625 0.375 3.525
3.75 0.375 3.525
3.875 0.375 3.525
4 0.375 3.525
0 0.5 3.525
0.125 0.5 3.525
0.25 0.5 3.525
0.375 0.5 3.525
0.5 0.5 3.525
0.625 0.5 3.525
0.75 0.5 3.525
0.875 0.5 3.525
1 0.5 3.525
1.125 0.5 3.525
1.25 0.5 3.525
1.375 0.5 3.525
1.5 0.5 3.525
1.625 0.5 3.525
1.75 0.5 3.525
1.875 0.5 3.525
2 0.5 3.525
2.125 0.5 3.525
2.25 0.5 3.525
2.375 0.5 3.525
2.5 0.5 3.525
2.625 0.5 3.525
2.75 0.5 3.525
2.875 0.5 3.525
3 0.5 3.525
3.125 0.5 3.525
3.25 0.5 3.525
3.375 0.5 3.525
3.5 0.5 3.525
3.625 0.5 3.525
3.75 0.5 3.525
3.875 0.5 3.525
4 0.5 3.525
0 0.625 3.525
0.125 0.625 3.525
0.25 0.625 3.525
0.375 0.625 3.525
0.5 0.625 3.525
0.625 0.625 3.525
0.75 0.625 3.525
0.875 0.625 3.525
1 0.625 3.525
1.125 0.625 3.525
1.25 0.625 3.525
1.375 0.625 3.525
1.5 0.625 3.525
1.625 0.625 3.525
1.75 0.625 3.525
1.875 0.625 3.525
2 0.625 3.525
2.125 0.625 3.525
2.25 0.625 3.525
2.375 0.625 3.525
2.5 0.625 3.525
2.625 0.625 3.525
2.75 0.625 3.525
2.875 0.625 3.525
3 0.625 3.525
3.125 0.625 3.525
3.25 0.625 3.525
3.375 0.625 3.525
3.5 0.625 3.525
3.625 0.625 3.525
3.75 0.625 3.525
3.875 0.625 3.525
4 0.625 3.525
0 0.75 3.525
0.125 0.75 3.525
0.25 0.75 3.525
0.375 0.75 3.525
0.5 0.75 3.525
0.625 0.75 3.525
0.75 0.75 3.525
0.875 0.75 3.525
1 0.75 3.525
1.125 0.75 3.525
1.25 0.75 3.525
1.375 0.75 3.525
1.5 0.75 3.525
1.625 0.75 3.525
1.75 0.75 3.525
1.875 0.75 3.525
2 0.75 3.525
2.125 0.75 3.525
2.25 0.75 3.525
2.375 0.75 3.525
2.5 0.75 3.525
2.625 0.75 3.525
2.75 0.75 3.525
2.875 0.75 3.525
3 0.75 3.525
3.125 0.75 3.525
3.25 0.75 3.525
3.375 0.75 3.525
3.5 0.75 3.525
3.625 0.75 3.525
3.75 0.75 3.525
3.875 0.75 3.525
4 0.75 3.525
0 0.875 3.525
0.125 0.875 3.525
0.25 0.875 3.525
0.375 0.875 3.525
0.5 0.875 3.525
0.625 0.875 3.525
0.75 0.875 3.525
0.875 0.875 3.525
1 0.875 3.525
1.125 0.875 3.525
1.25 0.875 3.525
1.375 0.875 3.525
1.5 0.875 3.525
1.625 0.875 3.525
1.75 0.875 3.525
1.875 0.875 3.525
2 0.875 3.525
2.125 0.875 3.525
2.25 0.875 3.525
2.375 0.875 3.525
2.5 0.875 3.525
2.625 0.875 3.525
2.75 0.875 3.525
2.875 0.875 3.525
3 0.875 3.525
3.125 0.875 3.525
3.25 0.875 3.525
3.375 0.875 3.525
3.5 0.875 3.525
3.625 0.875 3.525
3.75 0.875 3.525
3.875 0.875 3.525
4 0.875 3.525
0 1 3.525
0.125 1 3.525
0.25 1 3.525
0.375 1 3.525
0.5 1 3.525
0.625 1 3.525
0.75 1 3.525
0.875 1 3.525
1 1 3.525
1.125 1 3.525
1.25 1 3.525
1.375 1 3.525
1.5 1 3.525
1.625 1 3.525
1.75 1 3.525
1.875 1 3.525
2 1 3.525
2.125 1 3.525
2.25 1 3.525
2.375 1 3.525
2.5 1 3.525
2.625 1 3.525
2.75 1 3.525
2.875 1 3.525
3 1 3.525
3.125 1 3.525
3.25 1 3.525
3.375 1 3.525
3.5 1 3.525
3.625 1 3.525
3.75 1 3.525
3.875 1 3.525
4 1 3.525
0 0 3.65
0.125 0 3.65
0.25 0 3.65
0.375 0 3.65
0.5 0 3.65
0.625 0 3.65
0.75 0 3.65
0.875 0 3.65
1 0 3.65
1.125 0 3.65
1.25 0 3.65
1.375 0 3.65
1.5 0 3.65
1.625 0 3.65
1.75 0 3.65
1.875 0 3.65
2 0 3.65
2.125 0 3.65
2.25 0 3.65
2.375 0 3.65
2.5 0 3.65
2.625 0 3.65
2.75 0 3.65
2.875 0 3.65
3 0 3.65
3.125 0 3.65
3.25 0 3.65
3.375 0 3.65
3.5 0 3.65
3.625 0 3.65
3.75 0 3.65
3.875 0 3.65
4 0 3.65
0 0.125 3.65
0.125 0.125 3.65
0.25 0.125 3.65
0.375 0.125 3.65
0.5 0.125 3.65
0.625 0.125 3.65
0.75 0.125 3.65
0.875 0.125 3.65
1 0.125 3.65
1.125 0.125 3.65
1.25 0.125 3.65
1.375 0.125 3.65
1.5 0.125 3.65
1.625 0.125 3.65
1.75 0.125 3.65
1.875 0.125 3.65
2 0.125 3.65
2.125 0.125 3.65
2.25 0.125 3.65
2.375 0.125 3.65
2.5 0.125 3.65
2.625 0.125 3.65
2.75 0.125 3.65
2.875 0.125 3.65
3 0.125 3.65
3.125 0.125 3.65
3.25 0.125 3.65
3.375 0.125 3.65
3.5 0.125 3.65
3.625 0.125 3.65
3.75 0.125 3.65
3.875 0.125 3.65
4 0.125 3.65
0 0.25 3.65
0.125 0.25 3.65
0.25 0.25 3.65
0.375 0.25 3.65
0.5 0.25 3.65
0.625 0.25 3.65
0.75 0.25 3.65
0.875 0.25 3.65
1 0.25 3.65
1.125 0.25 3.65
1.25 0.25 3.65
1.375 0.25 3.65
1.5 0.25 3.65
1.625 0.25 3.65
1.75 0.25 3.65
1.875 0.25 3.65
2 0.25 3.65
2.125 0.25 3.65
2.25 0.25 3.65
2.375 0.25 3.65
2.5 0.25 3.65
2.625 0.25 3.65
2.75 0.25 3.65
2.875 0.25 3.65
3 0.25 3.65
3.125 0.25 3.65
3.25 0.25 3.65
3.375 0.25 3.65
3.5 0.25 3.65
3.625 0.25 3.65
3.75 0.25 3.65
3.875 0.25 3.65
4 0.25 3.65
0 0.375 3.65
0.125 0.375 3.65
0.25 0.375 3.65
0.375 0.375 3.65
0.5 0.375 3.65
0.625 0.375 3.65
0.75 0.375 3.65
0.875 0.375 3.65
1 0.375 3.65
1.125 0.375 3.65
1.25 0.375 3.65
1.375 0.375 3.65
1.5 0.375 3.65
1.625 0.375 3.65
1.75 0.375 3.65
1.875 0.375 3.65
2 0.375 3.65
2.125 0.375 3.65
2.25 0.375 3.65
2.375 0.375 3.65
2.5 0.375 3.65
2.625 0.375 3.65
2.75 0.375 3.65
2.875 0.375 3.65
3 0.375 3.65
3.125 0.375 3.65
3.25 0.375 3.65
3.375 0.375 3.65
3.5 0.375 3.65
3.625 0.375 3.65
3.75 0.375 3.65
3.875 0.375 3.65
4 0.375 3.65
0 0.5 3.65
0.125 0.5 3.65
0.25 0.5 3.65
0.375 0.5 3.65
0.5 0.5 3.65
0.625 0.5 3.65
0.75 0.5 3.65
0.875 0.5 3.65
1 0.5 3.65
1.125 0.5 3.65
1.25 0.5 3.65
1.375 0.5 3.65
1.5 0.5 3.65
1.625 0.5 3.65
1.75 0.5 3.65
1.875 0.5 3.65
2 0.5 3.65
2.125 0.5 3.65
2.25 0.5 3.65
2.375 0.5 3.65
2.5 0.5 3.65
2.625 0.5 3.65
2.75 0.5 3.65
2.875 0.5 3.65
3 0.5 3.65
3.125 0.5 3.65
3.25 0.5 3.65
3.375 0.5 3.65
3.5 0.5 3.65
3.625 0.5 3.65
3.75 0.5 3.65
3.875 0.5 3.65
4 0.5 3.65
0 0.625 3.65
0.125 0.625 3.65
0.25 0.625 3.65
0.375 0.625 3.65
0.5 0.625 3.65
0.625 0.625 3.65
0.75 0.625 3.65
0.875 0.625 3.65
1 0.625 3.65
1.125 0.625 3.65
1.25 0.625 3.65
1.375 0.625 3.65
1.5 0.625 3.65
1.625 0.625 3.65
1.75 0.625 3.65
1.875 0.625 3.65
2 0.625 3.65
2.125 0.625 3.65
2.25 0.625 3.65
2.375 0.625 3.65
2.5 0.625 3.65
2.625 0.625 3.65
2.75 0.625 3.65
2.875 0.625 3.65
3 0.625 3.65
3.125 0.625 3.65
3.25 0.625 3.65
3.375 0.625 3.65
3.5 0.625 3.65
3.625 0.625 3.65
3.75 0.625 3.65
3.875 0.625 3.65
4 0.625 3.65
0 0.75 3.65
0.125 0.75 3.65
0.25 0.75 3.65
0.375 0.75 3.65
0.5 0.75 3.65
0.625 0.75 3.65
0.75 0.75 3.65
0.875 0.75 3.65
1 0.75 3.65
1.125 0.75 3.65
1.25 0.75 3.65
1.375 0.75 3.65
1.5 0.75 3.65
1.625 0.75 3.65
1.75 0.75 3.65
1.875 0.75 3.65
2 0.75 3.65
2.125 0.75 3.65
2.25 0.75 3.65
2.375 0.75 3.65
2.5 0.75 3.65
2.625 0.75 3.65
2.75 0.75 3.65
2.875 0.75 3.65
3 0.75 3.65
3.125 0.75 3.65
3.25 0.75 3.65
3.375 0.75 3.65
3.5 0.75 3.65
3.625 0.75 3.65
3.75 0.75 3.65
3.875 0.75 3.65
4 0.75 3.65
0 0.875 3.65
0.125 0.875 3.65
0.25 0.875 3.65
0.375 0.875 3.65
0.5 0.875 3.65
0.625 0.875 3.65
0.75 0.875 3.65
0.875 0.875 3.65
1 0.875 3.65
1.125 0.875 3.65
1.25 0.875 3.65
1.375 0.875 3.65
1.5 0.875 3.65
1.625 0.875 3.65
1.75 0.875 3.65
1.875 0.875 3.65
2 0.875 3.65
2.125 0.875 3.65
2.25 0.875 3.65
2.375 0.875 3.65
2.5 0.875 3.65
2.625 0.875 3.65
2.75 0.875 3.65
2.875 0.875 3.65
3 0.875 3.65
3.125 0.875 3.65
3.25 0.875 3.65
3.375 0.875 3.65
3.5 0.875 3.65
3.625 0.875 3.65
3.75 0.875 3.65
3.875 0.875 3.65
4 0.875 3.65
0 1 3.65
0.125 1 3.65
0.25 1 3.65
0.375 1 3.65
0.5 1 3.65
0.625 1 3.65
0.75 1 3.65
0.875 1 3.65
1 1 3.65
1.125 1 3.65
1.25 1 3.65
1.375 1 3.65
1.5 1 3.65
1.625 1 3.65
1.75 1 3.65
1.875 1 3.65
2 1 3.65
2.125 1 3.65
2.25 1 3.65
2.375 1 3.65
2.5 1 3.65
2.625 1 3.65
2.75 1 3.65
2.875 1 3.65
3 1 3.65
3.125 1 3.65
3.25 1 3.65
3.375 1 3.65
3.5 1 3.65
3.625 1 3.65
3.75 1 3.65
3.875 1 3.65
4 1 3.65
0 0 3.775
0.125 0 3.775
0.25 0 3.775
0.375 0 3.775
0.5 0 3.775
0.625 0 3.775
0.75 0 3.775
0.875 0 3.775
1 0 3.775
1.125 0 3.775
1.25 0 3.775
1.375 0 3.775
1.5 0 3.775
1.625 0 3.775
1.75 0 3.775
1.875 0 3.775
2 0 3.775
2.125 0 3.775
2.25 0 3.775
2.375 0 3.775
2.5 0 3.775
2.625 0 3.775
2.75 0 3.775
2.875 0 3.775
3 0 3.775
3.125 0 3.775
3.25 0 3.775
3.375 0 3.775
3.5 0 3.775
3.625 0 3.775
3.75 0 3.775
3.875 0 3.775
4 0 3.775
0 0.125 3.775
0.125 0.125 3.775
0.25 0.125 3.775
0.375 0.125 3.775
0.5 0.125 3.775
0.625 0.125 3.775
0.75 0.125 3.775
0.875 0.125 3.775
1 0.125 3.775
1.125 0.125 3.775
1.25 0.125 3.775
1.375 0.125 3.775
1.5 0.125 3.775
1.625 0.125 3.775
1.75 0.125 3.775
1.875 0.125 3.775
2 0.125 3.775
2.125 0.125 3.775
2.25 0.125 3.775
2.375 0.125 3.775
2.5 0.125 3.775
2.625 0.125 3.775
2.75 0.125 3.775
2.875 0.125 3.775
3 0.125 3.775
3.125 0.125 3.775
3.25 0.125 3.775
3.375 0.125 3.775
3.5 0.125 3.775
3.625 0.125 3.775
3.75 0.125 3.775
3.875 0.125 3.775
4 0.125 3.775
0 0.25 3.775
0.125 0.25 3.775
0.25 0.25 3.775
0.375 0.25 3.775
0.5 0.25 3.775
0.625 0.25 3.775
0.75 0.25 3.775
0.875 0.25 3.775
1 0.25 3.775
1.125 0.25 3.775
1.25 0.25 3.775
1.375 0.25 3.775
1.5 0.25 3.775
1.625 0.25 3.775
1.75 0.25 3.775
1.875 0.25 3.775
2 0.25 3.775
2.125 0.25 3.775
2.25 0.25 3.775
2.375 0.25 3.775
2.5 0.25 3.775
2.625 0.25 3.775
2.75 0.25 3.775
2.875 0.25 3.775
3 0.25 3.775
3.125 0.25 3.775
3.25 0.25 3.775
3.375 0.25 3.775
3.5 0.25 3.775
3.625 0.25 3.775
3.75 0.25 3.775
3.875 0.25 3.775
4 0.25 3.775
0 0.375 3.775
0.125 0.375 3.775
0.25 0.375 3.775
0.375 0.375 3.775
0.5 0.375 3.775
0.625 0.375 3.775
0.75 0.375 3.775
0.875 0.375 3.775
1 0.375 3.775
1.125 0.375 3.775
1.25 0.375 3.775
1.375 0.375 3.775
1.5 0.375 3.775
1.625 0.375 3.775
1.75 0.375 3.775
1.875 0.375 3.775
2 0.375 3.775
2.125 0.375 3.775
2.25 0.375 3.775
2.375 0.375 3.775
2.5 0.375 3.775
2.625 0.375 3.775
2.75 0.375 3.775
2.875 0.375 3.775
3 0.375 3.775
3.125 0.375 3.775
3.25 0.375 3.775
3.375 0.375 3.775
3.5 0.375 3.775
3.625 0.375 3.775
3.75 0.375 3.775
3.875 0.375 3.775
4 0.375 3.775
0 0.5 3.775
0.125 0.5 3.775
0.25 0.5 3.775
0.375 0.5 3.775
0.5 0.5 3.775
0.625 0.5 3.775
0.75 0.5 3.775
0.875 0.5 3.775
1 0.5 3.775
1.125 0.5 3.775
1.25 0.5 3.775
1.375 0.5 3.775
1.5 0.5 3.775
1.625 0.5 3.775
1.75 0.5 3.775
1.875 0.5 3.775
2 0.5 3.775
2.125 0.5 3.775
2.25 0.5 3.775
2.375 0.5 3.775
2.5 0.5 3.775
2.625 0.5 3.775
2.75 0.5 3.775
2.875 0.5 3.775
3 0.5 3.775
3.125 0.5 3.775
3.25 0.5 3.775
3.375 0.5 3.775
3.5 0.5 3.775
3.625 0.5 3.775
3.75 0.5 3.775
3.875 0.5 3.775
4 0.5 3.775
0 0.625 3.775
0.125 0.625 3.775
0.25 0.625 3.775
0.375 0.625 3.775
0.5 0.625 3.775
0.625 0.625 3.775
0.75 0.625 3.775
0.875 0.625 3.775
1 0.625 3.775
1.125 0.625 3.775
1.25 0.625 3.775
1.375 0.625 3.775
1.5 0.625 3.775
1.625 0.625 3.775
1.75 0.625 3.775
1.875 0.625 3.775
2 0.625 3.775
2.125 0.625 3.775
2.25 0.625 3.775
2.375 0.625 3.775
2.5 0.625 3.775
2.625 0.625 3.775
2.75 0.625 3.775
2.875 0.625 3.775
3 0.625 3.775
3.125 0.625 3.775
3.25 0.625 3.775
3.375 0.625 3.775
3.5 0.625 3.775
3.625 0.625 3.775
3.75 0.625 3.775
3.875 0.625 3.775
4 0.625 3.775
0 0.75 3.775
0.125 0.75 3.775
0.25 0.75 3.775
0.375 0.75 3.775
0.5 0.75 3.775
0.625 0.75 3.775
0.75 0.75 3.775
0.875 0.75 3.775
1 0.75 3.775
1.125 0.75 3.775
1.25 0.75 3.775
1.375 0.75 3.775
1.5 0.75 3.775
1.625 0.75 3.775
1.75 0.75 3.775
1.875 0.75 3.775
2 0.75 3.775
2.125 0.75 3.775
2.25 0.75 3.775
2.375 0.75 3.775
2.5 0.75 3.775
2.625 0.75 3.775
2.75 0.75 3.775
2.875 0.75 3.775
3 0.75 3.775
3.125 0.75 3.775
3.25 0.75 3.775
3.375 0.75 3.775
3.5 0.75 3.775
3.625 0.75 3.775
3.75 0.75 3.775
3.875 0.75 3.775
4 0.75 3.775
0 0.875 3.775
0.125 0.875 3.775
0.25 0.875 3.775
0.375 0.875 3.775
0.5 0.875 3.775
0.625 0.875 3.775
0.75 0.875 3.775
0.875 0.875 3.775
1 0.875 3.775
1.125 0.875 3.775
1.25 0.875 3.775
1.375 0.875 3.775
1.5 0.875 3.775
1.625 0.875 3.775
1.75 0.875 3.775
1.875 0.875 3.775
2 0.875 3.775
2.125 0.875 3.775
2.25 0.875 3.775
2.375 0.875 3.775
2.5 0.875 3.775
2.625 0.875 3.775
2.75 0.875 3.775
2.875 0.875 3.775
3 0.875 3.775
3.125 0.875 3.775
3.25 0.875 3.775
3.375 0.875 3.775
3.5 0.875 3.775
3.625 0.875 3.775
3.75 0.875 3.775
3.875 0.875 3.775
4 0.875 3.775
0 1 3.775
0.125 1 3.775
0.25 1 3.775
0.375 1 3.775
0.5 1 3.775
0.625 1 3.775
0.75 1 3.775
0.875 1 3.775
1 1 3.775
1.125 1 3.775
1.25 1 3.775
1.375 1 3.775
1.5 1 3.775
1.625 1 3.775
1.75 1 3.775
1.875 1 3.775
2 1 3.775
2.125 1 3.775
2.25 1 3.775
2.375 1 3.775
2.5 1 3.775
2.625 1 3.775
2.75 1 3.775
2.875 1 3.775
3 1 3.775
3.125 1 3.775
3.25 1 3.775
3.375 1 3.775
3.5 1 3.775
3.625 1 3.775
3.75 1 3.775
3.875 1 3.775
4 1 3.775
0 0 3.9
0.125 0 3.9
0.25 0 3.9
0.375 0 3.9
0.5 0 3.9
0.625 0 3.9
0.75 0 3.9
0.875 0 3.9
1 0 3.9
1.125 0 3.9
1.25 0 3.9
1.375 0 3.9
1.5 0 3.9
1.625 0 3.9
1.75 0 3.9
1.875 0 3.9
2 0 3.9
2.125 0 3.9
2.25 0 3.9
2.375 0 3.9
2.5 0 3.9
2.625 0 3.9
2.75 0 3.9
2.875 0 3.9
3 0 3.9
3.125 0 3.9
3.25 0 3.9
3.375 0 3.9
3.5 0 3.9
3.625 0 3.9
3.75 0 3.9
3.875 0 3.9
4 0 3.9
0 0.125 3.9
0.125 0.125 3.9
0.25 0.125 3.9
0.375 0.125 3.9
0.5 0.125 3.9
0.625 0.125 3.9
0.75 0.125 3.9
0.875 0.125 3.9
1 0.125 3.9
1.125 0.125 3.9
1.25 0.125 3.9
1.375 0.125 3.9
1.5 0.125 3.9
1.625 0.125 3.9
1.75 0.125 3.9
1.875 0.125 3.9
2 0.125 3.9
2.125 0.125 3.9
2.25 0.125 3.9
2.375 0.125 3.9
2.5 0.125 3.9
2.625 0.125 3.9
2.75 0.125 3.9
2.875 0.125 3.9
3 0.125 3.9
3.125 0.125 3.9
3.25 0.125 3.9
3.375 0.125 3.9
3.5 0.125 3.9
3.625 0.125 3.9
3.75 0.125 3.9
3.875 0.125 3.9
4 0.125 3.9
0 0.25 3.9
0.125 0.25 3.9
0.25 0.25 3.9
0.375 0.25 3.9
0.5 0.25 3.9
0.625 0.25 3.9
0.75 0.25 3.9
0.875 0.25 3.9
1 0.25 3.9
1.125 0.25 3.9
1.25 0.25 3.9
1.375 0.25 3.9
1.5 0.25 3.9
1.625 0.25 3.9
1.75 0.25 3.9
1.875 0.25 3.9
2 0.25 3.9
2.125 0.25 3.9
2.25 0.25 3.9
2.375 0.25 3.9
2.5 0.25 3.9
2.625 0.25 3.9
2.75 0.25 3.9
2.875 0.25 3.9
3 0.25 3.9
3.125 0.25 3.9
3.25 0.25 3.9
3.375 0.25 3.9
3.5 0.25 3.9
3.625 0.25 3.9
3.75 0.25 3.9
3.875 0.25 3.9
4 0.25 3.9
0 0.375 3.9
0.125 0.375 3.9
0.25 0.375 3.9
0.375 0.375 3.9
0.5 0.375 3.9
0.625 0.375 3.9
0.75 0.375 3.9
0.875 0.375 3.9
1 0.375 3.9
1.125 0.375 3.9
1.25 0.375 3.9
1.375 0.375 3.9
1.5 0.375 3.9
1.625 0.375 3.9
1.75 0.375 3.9
1.875 0.375 3.9
2 0.375 3.9
2.125 0.375 3.9
2.25 0.375 3.9
2.375 0.375 3.9
2.5 0.375 3.9
2.625 0.375 3.9
2.75 0.375 3.9
2.875 0.375 3.9
3 0.375 3.9
3.125 0.375 3.9
3.25 0.375 3.9
3.375 0.375 3.9
3.5 0.375 3.9
3.625 0.375 3.9
3.75 0.375 3.9
3.875 0.375 3.9
4 0.375 3.9
0 0.5 3.9
0.125 0.5 3.9
0.25 0.5 3.9
0.375 0.5 3.9
0.5 0.5 3.9
0.625 0.5 3.9
0.75 0.5 3.9
0.875 0.5 3.9
1 0.5 3.9
1.125 0.5 3.9
1.25 0.5 3.9
1.375 0.5 3.9
1.5 0.5 3.9
1.625 0.5 3.9
1.75 0.5 3.9
1.875 0.5 3.9
2 0.5 3.9
2.125 0.5 3.9
2.25 0.5 3.9
2.375 0.5 3.9
2.5 0.5 3.9
2.625 0.5 3.9
2.75 0.5 3.9
2.875 0.5 3.9
3 0.5 3.9
3.125 0.5 3.9
3.25 0.5 3.9
3.375 0.5 3.9
3.5 0.5 3.9
3.625 0.5 3.9
3.75 0.5 3.9
3.875 0.5 3.9
4 0.5 3.9
0 0.625 3.9
0.125 0.625 3.9
0.25 0.625 3.9
0.375 0.625 3.9
0.5 0.625 3.9
0.625 0.625 3.9
0.75 0.625 3.9
0.875 0.625 3.9
1 0.625 3.9
1.125 0.625 3.9
1.25 0.625 3.9
1.375 0.625 3.9
1.5 0.625 3.9
1.625 0.625 3.9
1.75 0.625 3.9
1.875 0.625 3.9
2 0.625 3.9
2.125 0.625 3.9
2.25 0.625 3.9
2.375 0.625 3.9
2.5 0.625 3.9
2.625 0.625 3.9
2.75 0.625 3.9
2.875 0.625 3.9
3 0.625 3.9
3.125 0.625 3.9
3.25 0.625 3.9
3.375 0.625 3.9
3.5 0.625 3.9
3.625 0.625 3.9
3.75 0.625 3.9
3.875 0.625 3.9
4 0.625 3.9
0 0.75 3.9
0.125 0.75 3.9
0.25 0.75 3.9
0.375 0.75 3.9
0.5 0.75 3.9
0.625 0.75 3.9
0.75 0.75 3.9
0.875 0.75 3.9
1 0.75 3.9
1.125 0.75 3.9
1.25 0.75 3.9
1.375 0.75 3.9
1.5 0.75 3.9
1.625 0.75 3.9
1.75 0.75 3.9
1.875 0.75 3.9
2 0.75 3.9
2.125 0.75 3.9
2.25 0.75 3.9
2.375 0.75 3.9
2.5 0.75 3.9
2.625 0.75 3.9
2.75 0.75 3.9
2.875 0.75 3.9
3 0.75 3.9
3.125 0.75 3.9
3.25 0.75 3.9
3.375 0.75 3.9
3.5 0.75 3.9
3.625 0.75 3.9
3.75 0.75 3.9
3.875 0.75 3.9
4 0.75 3.9
0 0.875 3.9
0.125 0.875 3.9
0.25 0.875 3.9
0.375 0.875 3.9
0.5 0.875 3.9
0.625 0.875 3.9
0.75 0.875 3.9
0.875 0.875 3.9
1 0.875 3.9
1.125 0.875 3.9
1.25 0.875 3.9
1.375 0.875 3.9
1.5 0.875 3.9
1.625 0.875 3.9
1.75 0.875 3.9
1.875 0.875 3.9
2 0.875 3.9
2.125 0.875 3.9
2.25 0.875 3.9
2.375 0.875 3.9
2.5 0.875 3.9
2.625 0.875 3.9
2.75 0.875 3.9
2.875 0.875 3.9
3 0.875 3.9
3.125 0.875 3.9
3.25 0.875 3.9
3.375 0.875 3.9
3.5 0.875 3.9
3.625 0.875 3.9
3.75 0.875 3.9
3.875 0.875 3.9
4 0.875 3.9
0 1 3.9
0.125 1 3.9
0.25 1 3.9
0.375 1 3.9
0.5 1 3.9
0.625 1 3.9
0.75 1 3.9
0.875 1 3.9
1 1 3.9
1.125 1 3.9
1.25 1 3.9
1.375 1 3.9
1.5 1 3.9
1.625 1 3.9
1.75 1 3.9
1.875 1 3.9
2 1 3.9
2.125 1 3.9
2.25 1 3.9
2.375 1 3.9
2.5 1 3.9
2.625 1 3.9
2.75 1 3.9
2.875 1 3.9
3 1 3.9
3.125 1 3.9
3.25 1 3.9
3.375 1 3.9
3.5 1 3.9
3.625 1 3.9
3.75 1 3.9
3.875 1 3.9
4 1 3.9
0 0 4.025
0.125 0 4.025
0.25 0 4.025
0.375 0 4.025
0.5 0 4.025
0.625 0 4.025
0.75 0 4.025
0.875 0 4.025
1 0 4.025
1.125 0 4.025
1.25 0 4.025
1.375 0 4.025
1.5 0 4.025
1.625 0 4.025
1.75 0 4.025
1.875 0 4.025
2 0 4.025
2.125 0 4.025
2.25 0 4.025
2.375 0 4.025
2.5 0 4.025
2.625 0 4.025
2.75 0 4.025
2.875 0 4.025
3 0 4.025
3.125 0 4.025
3.25 0 4.025
3.375 0 4.025
3.5 0 4.025
3.625 0 4.025
3.75 0 4.025
3.875 0 4.025
4 0 4.025
0 0.125 4.025
0.125 0.125 4.025
0.25 0.125 4.025
0.375 0.125 4.025
0.5 0.125 4.025
0.625 0.125 4.025
0.75 0.125 4.025
0.875 0.125 4.025
1 0.125 4.025
1.125 0.125 4.025
1.25 0.125 4.025
1.375 0.125 4.025
1.5 0.125 4.025
1.625 0.125 4.025
1.75 0.125 4.025
1.875 0.125 4.025
2 0.125 4.025
2.125 0.125 4.025
2.25 0.125 4.025
2.375 0.125 4.025
2.5 0.125 4.025
2.625 0.125 4.025
2.75 0.125 4.025
2.875 0.125 4.025
3 0.125 4.025
3.125 0.125 4.025
3.25 0.125 4.025
3.375 0.125 4.025
3.5 0.125 4.025
3.625 0.125 4.025
3.75 0.125 4.025
3.875 0.125 4.025
4 0.125 4.025
0 0.25 4.025
0.125 0.25 4.025
0.25 0.25 4.025
0.375 0.25 4.025
0.5 0.25 4.025
0.625 0.25 4.025
0.75 0.25 4.025
0.875 0.25 4.025
1 0.25 4.025
1.125 0.25 4.025
1.25 0.25 4.025
1.375 0.25 4.025
1.5 0.25 4.025
1.625 0.25 4.025
1.75 0.25 4.025
1.875 0.25 4.025
2 0.25 4.025
2.125 0.25 4.025
2.25 0.25 4.025
2.375 0.25 4.025
2.5 0.25 4.025
2.625 0.25 4.025
2.75 0.25 4.025
2.875 0.25 4.025
3 0.25 4.025
3.125 0.25 4.025
3.25 0.25 4.025
3.375 0.25 4.025
3.5 0.25 4.025
3.625 0.25 4.025
3.75 0.25 4.025
3.875 0.25 4.025
4 0.25 4.025
0 0.375 4.025
0.125 0.375 4.025
0.25 0.375 4.025
0.375 0.375 4.025
0.5 0.375 4.025
0.625 0.375 4.025
0.75 0.375 4.025
0.875 0.375 4.025
1 0.375 4.025
1.125 0.375 4.025
1.25 0.375 4.025
1.375 0.375 4.025
1.5 0.375 4.025
1.625 0.375 4.025
1.75 0.375 4.025
1.875 0.375 4.025
2 0.375 4.025
2.125 0.375 4.025
2.25 0.375 4.025
2.375 0.375 4.025
2.5 0.375 4.025
2.625 0.375 4.025
2.75 0.375 4.025
2.875 0.375 4.025
3 0.375 4.025
3.125 0.375 4.025
3.25 0.375 4.025
3.375 0.375 4.025
3.5 0.375 4.025
3.625 0.375 4.025
3.75 0.375 4.025
3.875 0.375 4.025
4 0.375 4.025
0 0.5 4.025
0.125 0.5 4.025
0.25 0.5 4.025
0.375 0.5 4.025
0.5 0.5 4.025
0.625 0.5 4.025
0.75 0.5 4.025
0.875 0.5 4.025
1 0.5 4.025
1.125 0.5 4.025
1.25 0.5 4.025
1.375 0.5 4.025
1.5 0.5 4.025
1.625 0.5 4.025
1.75 0.5 4.025
1.875 0.5 4.025
2 0.5 4.025
2.125 0.5 4.025
2.25 0.5 4.025
2.375 0.5 4.025
2.5 0.5 4.025
2.625 0.5 4.025
2.75 0.5 4.025
2.875 0.5 4.025
3 0.5 4.025
3.125 0.5 4.025
3.25 0.5 4.025
3.375 0.5 4.025
3.5 0.5 4.025
3.625 0.5 4.025
3.75 0.5 4.025
3.875 0.5 4.025
4 0.5 4.025
0 0.625 4.025
0.125 0.625 4.025
0.25 0.625 4.025
0.375 0.625 4.025
0.5 0.625 4.025
0.625 0.625 4.025
0.75 0.625 4.025
0.875 0.625 4.025
1 0.625 4.025
1.125 0.625 4.025
1.25 0.625 4.025
1.375 0.625 4.025
1.5 0.625 4.025
1.625 0.625 4.025
1.75 0.625 4.025
1.875 0.625 4.025
2 0.625 4.025
2.125 0.625 4.025
2.25 0.625 4.025
2.375 0.625 4.025
2.5 0.625 4.025
2.625 0.625 4.025
2.75 0.625 4.025
2.875 0.625 4.025
3 0.625 4.025
3.125 0.625 4.025
3.25 0.625 4.025
3.375 0.625 4.025
3.5 0.625 4.025
3.625 0.625 4.025
3.75 0.625 4.025
3.875 0.625 4.025
4 0.625 4.025
0 0.75 4.025
0.125 0.75 4.025
0.25 0.75 4.025
0.375 0.75 4.025
0.5 0.75 4.025
0.625 0.75 4.025
0.75 0.75 4.025
0.875 0.75 4.025
1 0.75 4.025
1.125 0.75 4.025
1.25 0.75 4.025
1.375 0.75 4.025
1.5 0.75 4.025
1.625 0.75 4.025
1.75 0.75 4.025
1.875 0.75 4.025
2 0.75 4.025
2.125 0.75 4.025
2.25 0.75 4.025
2.375 0.75 4.025
2.5 0.75 4.025
2.625 0.75 4.025
2.75 0.75 4.025
2.875 0.75 4.025
3 0.75 4.025
3.125 0.75 4.025
3.25 0.75 4.025
3.375 0.75 4.025
3.5 0.75 4.025
3.625 0.75 4.025
3.75 0.75 4.025
3.875 0.75 4.025
4 0.75 4.025
0 0.875 4.025
0.125 0.875 4.025
0.25 0.875 4.025
0.375 0.875 4.025
0.5 0.875 4.025
0.625 0.875 4.025
0.75 0.875 4.025
0.875 0.875 4.025
1 0.875 4.025
1.125 0.875 4.025
1.25 0.875 4.025
1.375 0.875 4.025
1.5 0.875 4.025
1.625 0.875 4.025
1.75 0.875 4.025
1.875 0.875 4.025
2 0.875 4.025
2.125 0.875 4.025
2.25 0.875 4.025
2.375 0.875 4.025
2.5 0.875 4.025
2.625 0.875 4.025
2.75 0.875 4.025
2.875 0.875 4.025
3 0.875 4.025
3.125 0.875 4.025
3.25 0.875 4.025
3.375 0.875 4.025
3.5 0.875 4.025
3.625 0.875 4.025
3.75 0.875 4.025
3.875 0.875 4.025
4 0.875 4.025
0 1 4.025
0.125 1 4.025
0.25 1 4.025
0.375 1 4.025
0.5 1 4.025
0.625 1 4.025
0.75 1 4.025
0.875 1 4.025
1 1 4.025
1.125 1 4.025
1.25 1 4.025
1.375 1 4.025
1.5 1 4.025
1.625 1 4.025
1.75 1 4.025
1.875 1 4.025
2 1 4.025
2.125 1 4.025
2.25 1 4.025
2.375 1 4.025
2.5 1 4.025
2.625 1 4.025
2.75 1 4.025
2.875 1 4.025
3 1 4.025
3.125 1 4.025
3.25 1 4.025
3.375 1 4.025
3.5 1 4.025
3.625 1 4.025
3.75 1 4.025
3.875 1 4.025
4 1 4.025
0 0 4.15
0.125 0 4.15
0.25 0 4.15
0.375 0 4.15
0.5 0 4.15
0.625 0 4.15
0.75 0 4.15
0.875 0 4.15
1 0 4.15
1.125 0 4.15
1.25 0 4.15
1.375 0 4.15
1.5 0 4.15
1.625 0 4.15
1.75 0 4.15
1.875 0 4.15
2 0 4.15
2.125 0 4.15
2.25 0 4.15
2.375 0 4.15
2.5 0 4.15
2.625 0 4.15
2.75 0 4.15
2.875 0 4.15
3 0 4.15
3.125 0 4.15
3.25 0 4.15
3.375 0 4.15
3.5 0 4.15
3.625 0 4.15
3.75 0 4.15
3.875 0 4.15
4 0 4.15
0 0.125 4.15
0.125 0.125 4.15
0.25 0.125 4.15
0.375 0.125 4.15
0.5 0.125 4.15
0.625 0.125 4.15
0.75 0.125 4.15
0.875 0.125 4.15
1 0.125 4.15
1.125 0.125 4.15
1.25 0.125 4.15
1.375 0.125 4.15
1.5 0.125 4.15
1.625 0.125 4.15
1.75 0.125 4.15
1.875 0.125 4.15
2 0.125 4.15
2.125 0.125 4.15
2.25 0.125 4.15
2.375 0.125 4.15
2.5 0.125 4.15
2.625 0.125 4.15
2.75 0.125 4.15
2.875 0.125 4.15
3 0.125 4.15
3.125 0.125 4.15
3.25 0.125 4.15
3.375 0.125 4.15
3.5 0.125 4.15
3.625 0.125 4.15
3.75 0.125 4.15
3.875 0.125 4.15
4 0.125 4.15
0 0.25 4.15
0.125 0.25 4.15
0.25 0.25 4.15
0.375 0.25 4.15
0.5 0.25 4.15
0.625 0.25 4.15
0.75 0.25 4.15
0.875 0.25 4.15
1 0.25 4.15
1.125 0.25 4.15
1.25 0.25 4.15
1.375 0.25 4.15
1.5 0.25 4.15
1.625 0.25 4.15
1.75 0.25 4.15
1.875 0.25 4.15
2 0.25 4.15
2.125 0.25 4.15
2.25 0.25 4.15
2.375 0.25 4.15
2.5 0.25 4.15
2.625 0.25 4.15
2.75 0.25 4.15
2.875 0.25 4.15
3 0.25 4.15
3.125 0.25 4.15
3.25 0.25 4.15
3.375 0.25 4.15
3.5 0.25 4.15
3.625 0.25 4.15
3.75 0.25 4.15
3.875 0.25 4.15
4 0.25 4.15
0 0.375 4.15
0.125 0.375 4.15
0.25 0.375 4.15
0.375 0.375 4.15
0.5 0.375 4.15
0.625 0.375 4.15
0.75 0.375 4.15
0.875 0.375 4.15
1 0.375 4.15
1.125 0.375 4.15
1.25 0.375 4.15
1.375 0.375 4.15
1.5 0.375 4.15
1.625 0.375 4.15
1.75 0.375 4.15
1.875 0.375 4.15
2 0.375 4.15
2.125 0.375 4.15
2.25 0.375 4.15
2.375 0.375 4.15
2.5 0.375 4.15
2.625 0.375 4.15
2.75 0.375 4.15
2.875 0.375 4.15
3 0.375 4.15
3.125 0.375 4.15
3.25 0.375 4.15
3.375 0.375 4.15
3.5 0.375 4.15
3.625 0.375 4.15
3.75 0.375 4.15
3.875 0.375 4.15
4 0.375 4.15
0 0.5 4.15
0.125 0.5 4.15
0.25 0.5 4.15
0.375 0.5 4.15
0.5 0.5 4.15
0.625 0.5 4.15
0.75 0.5 4.15
0.875 0.5 4.15
1 0.5 4.15
1.125 0.5 4.15
1.25 0.5 4.15
1.375 0.5 4.15
1.5 0.5 4.15
1.625 0.5 4.15
1.75 0.5 4.15
1.875 0.5 4.15
2 0.5 4.15
2.125 0.5 4.15
2.25 0.5 4.15
2.375 0.5 4.15
2.5 0.5 4.15
2.625 0.5 4.15
2.75 0.5 4.15
2.875 0.5 4.15
3 0.5 4.15
3.125 0.5 4.15
3.25 0.5 4.15
3.375 0.5 4.15
3.5 0.5 4.15
3.625 0.5 4.15
3.75 0.5 4.15
3.875 0.5 4.15
4 0.5 4.15
0 0.625 4.15
0.125 0.625 4.15
0.25 0.625 4.15
0.375 0.625 4.15
0.5 0.625 4.15
0.625 0.625 4.15
0.75 0.625 4.15
0.875 0.625 4.15
1 0.625 4.15
1.125 0.625 4.15
1.25 0.625 4.15
1.375 0.625 4.15
1.5 0.625 4.15
1.625 0.625 4.15
1.75 0.625 4.15
1.875 0.625 4.15
2 0.625 4.15
2.125 0.625 4.15
2.25 0.625 4.15
2.375 0.625 4.15
2.5 0.625 4.15
2.625 0.625 4.15
2.75 0.625 4.15
2.875 0.625 4.15
3 0.625 4.15
3.125 0.625 4.15
3.25 0.625 4.15
3.375 0.625 4.15
3.5 0.625 4.15
3.625 0.625 4.15
3.75 0.625 4.15
3.875 0.625 4.15
4 0.625 4.15
0 0.75 4.15
0.125 0.75 4.15
0.25 0.75 4.15
0.375 0.75 4.15
0.5 0.75 4.15
0.625 0.75 4.15
0.75 0.75 4.15
0.875 0.75 4.15
1 0.75 4.15
1.125 0.75 4.15
1.25 0.75 4.15
1.375 0.75 4.15
1.5 0.75 4.15
1.625 0.75 4.15
1.75 0.75 4.15
1.875 0.75 4.15
2 0.75 4.15
2.125 0.75 4.15
2.25 0.75 4.15
2.375 0.75 4.15
2.5 0.75 4.15
2.625 0.75 4.15
2.75 0.75 4.15
2.875 0.75 4.15
3 0.75 4.15
3.125 0.75 4.15
3.25 0.75 4.15
3.375 0.75 4.15
3.5 0.75 4.15
3.625 0.75 4.15
3.75 0.75 4.15
3.875 0.75 4.15
4 0.75 4.15
0 0.875 4.15
0.125 0.875 4.15
0.25 0.875 4.15
0.375 0.875 4.15
0.5 0.875 4.15
0.625 0.875 4.15
0.75 0.875 4.15
0.875 0.875 4.15
1 0.875 4.15
1.125 0.875 4.15
1.25 0.875 4.15
1.375 0.875 4.15
1.5 0.875 4.15
1.625 0.875 4.15
1.75 0.875 4.15
1.875 0.875 4.15
2 0.875 4.15
2.125 0.875 4.15
2.25 0.875 4.15
2.375 0.875 4.15
2.5 0.875 4.15
2.625 0.875 4.15
2.75 0.875 4.15
2.875 0.875 4.15
3 0.875 4.15
3.125 0.875 4.15
3.25 0.875 4.15
3.375 0.875 4.15
3.5 0.875 4.15
3.625 0.875 4.15
3.75 0.875 4.15
3.875 0.875 4.15
4 0.875 4.15
0 1 4.15
0.125 1 4.15
0.25 1 4.15
0.375 1 4.15
0.5 1 4.15
0.625 1 4.15
0.75 1 4.15
0.875 1 4.15
1 1 4.15
1.125 1 4.15
1.25 1 4.15
1.375 1 4.15
1.5 1 4.15
1.625 1 4.15
1.75 1 4.15
1.875 1 4.15
2 1 4.15
2.125 1 4.15
2.25 1 4.15
2.375 1 4.15
2.5 1 4.15
2.625 1 4.15
2.75 1 4.15
2.875 1 4.15
3 1 4.15
3.125 1 4.15
3.25 1 4.15
3.375 1 4.15
3.5 1 4.15
3.625 1 4.15
3.75 1 4.15
3.875 1 4.15
4 1 4.15
0 0 4.275
0.125 0 4.275
0.25 0 4.275
0.375 0 4.275
0.5 0 4.275
0.625 0 4.275
0.75 0 4.275
0.875 0 4.275
1 0 4.275
1.125 0 4.275
1.25 0 4.275
1.375 0 4.275
1.5 0 4.275
1.625 0 4.275
1.75 0 4.275
1.875 0 4.275
2 0 4.275
2.125 0 4.275
2.25 0 4.275
2.375 0 4.275
2.5 0 4.275
2.625 0 4.275
2.75 0 4.275
2.875 0 4.275
3 0 4.275
3.125 0 4.275
3.25 0 4.275
3.375 0 4.275
3.5 0 4.275
3.625 0 4.275
3.75 0 4.275
3.875 0 4.275
4 0 4.275
0 0.125 4.275
0.125 0.125 4.275
0.25 0.125 4.275
0.375 0.125 4.275
0.5 0.125 4.275
0.625 0.125 4.275
0.75 0.125 4.275
0.875 0.125 4.275
1 0.125 4.275
1.125 0.125 4.275
1.25 0.125 4.275
1.375 0.125 4.275
1.5 0.125 4.275
1.625 0.125 4.275
1.75 0.125 4.275
1.875 0.125 4.275
2 0.125 4.275
2.125 0.125 4.275
2.25 0.125 4.275
2.375 0.125 4.275
2.5 0.125 4.275
2.625 0.125 4.275
2.75 0.125 4.275
2.875 0.125 4.275
3 0.125 4.275
3.125 0.125 4.275
3.25 0.125 4.275
3.375 0.125 4.275
3.5 0.125 4.275
3.625 0.125 4.275
3.75 0.125 4.275
3.875 0.125 4.275
4 0.125 4.275
0 0.25 4.275
0.125 0.25 4.275
0.25 0.25 4.275
0.375 0.25 4.275
0.5 0.25 4.275
0.625 0.25 4.275
0.75 0.25 4.275
0.875 0.25 4.275
1 0.25 4.275
1.125 0.25 4.275
1.25 0.25 4.275
1.375 0.25 4.275
1.5 0.25 4.275
1.625 0.25 4.275
1.75 0.25 4.275
1.875 0.25 4.275
2 0.25 4.275
2.125 0.25 4.275
2.25 0.25 4.275
2.375 0.25 4.275
2.5 0.25 4.275
2.625 0.25 4.275
2.75 0.25 4.275
2.875 0.25 4.275
3 0.25 4.275
3.125 0.25 4.275
3.25 0.25 4.275
3.375 0.25 4.275
3.5 0.25 4.275
3.625 0.25 4.275
3.75 0.25 4.275
3.875 0.25 4.275
4 0.25 4.275
0 0.375 4.275
0.125 0.375 4.275
0.25 0.375 4.275
0.375 0.375 4.275
0.5 0.375 4.275
0.625 0.375 4.275
0.75 0.375 4.275
0.875 0.375 4.275
1 0.375 4.275
1.125 0.375 4.275
1.25 0.375 4.275
1.375 0.375 4.275
1.5 0.375 4.275
1.625 0.375 4.275
1.75 0.375 4.275
1.875 0.375 4.275
2 0.375 4.275
2.125 0.375 4.275
2.25 0.375 4.275
2.375 0.375 4.275
2.5 0.375 4.275
2.625 0.375 4.275
2.75 0.375 4.275
2.875 0.375 4.275
3 0.375 4.275
3.125 0.375 4.275
3.25 0.375 4.275
3.375 0.375 4.275
3.5 0.375 4.275
3.625 0.375 4.275
3.75 0.375 4.275
3.875 0.375 4.275
4 0.375 4.275
0 0.5 4.275
0.125 0.5 4.275
0.25 0.5 4.275
0.375 0.5 4.275
0.5 0.5 4.275
0.625 0.5 4.275
0.75 0.5 4.275
0.875 0.5 4.275
1 0.5 4.275
1.125 0.5 4.275
1.25 0.5 4.275
1.375 0.5 4.275
1.5 0.5 4.275
1.625 0.5 4.275
1.75 0.5 4.275
1.875 0.5 4.275
2 0.5 4.275
2.125 0.5 4.275
2.25 0.5 4.275
2.375 0.5 4.275
2.5 0.5 4.275
2.625 0.5 4.275
2.75 0.5 4.275
2.875 0.5 4.275
3 0.5 4.275
3.125 0.5 4.275
3.25 0.5 4.275
3.375 0.5 4.275
3.5 0.5 4.275
3.625 0.5 4.275
3.75 0.5 4.275
3.875 0.5 4.275
4 0.5 4.275
0 0.625 4.275
0.125 0.625 4.275
0.25 0.625 4.275
0.375 0.625 4.275
0.5 0.625 4.275
0.625 0.625 4.275
0.75 0.625 4.275
0.875 0.625 4.275
1 0.625 4.275
1.125 0.625 4.275
1.25 0.625 4.275
1.375 0.625 4.275
1.5 0.625 4.275
1.625 0.625 4.275
1.75 0.625 4.275
1.875 0.625 4.275
2 0.625 4.275
2.125 0.625 4.275
2.25 0.625 4.275
2.375 0.625 4.275
2.5 0.625 4.275
2.625 0.625 4.275
2.75 0.625 4.275
2.875 0.625 4.275
3 0.625 4.275
3.125 0.625 4.275
3.25 0.625 4.275
3.375 0.625 4.275
3.5 0.625 4.275
3.625 0.625 4.275
3.75 0.625 4.275
3.875 0.625 4.275
4 0.625 4.275
0 0.75 4.275
0.125 0.75 4.275
0.25 0.75 4.275
0.375 0.75 4.275
0.5 0.75 4.275
0.625 0.75 4.275
0.75 0.75 4.275
0.875 0.75 4.275
1 0.75 4.275
1.125 0.75 4.275
1.25 0.75 4.275
1.375 0.75 4.275
1.5 0.75 4.275
1.625 0.75 4.275
1.75 0.75 4.275
1.875 0.75 4.275
2 0.75 4.275
2.125 0.75 4.275
2.25 0.75 4.275
2.375 0.75 4.275
2.5 0.75 4.275
2.625 0.75 4.275
2.75 0.75 4.275
2.875 0.75 4.275
3 0.75 4.275
3.125 0.75 4.275
3.25 0.75 4.275
3.375 0.75 4.275
3.5 0.75 4.275
3.625 0.75 4.275
3.75 0.75 4.275
3.875 0.75 4.275
4 0.75 4.275
0 0.875 4.275
0.125 0.875 4.275
0.25 0.875 4.275
0.375 0.875 4.275
0.5 0.875 4.275
0.625 0.875 4.275
0.75 0.875 4.275
0.875 0.875 4.275
1 0.875 4.275
1.125 0.875 4.275
1.25 0.875 4.275
1.375 0.875 4.275
1.5 0.875 4.275
1.625 0.875 4.275
1.75 0.875 4.275
1.875 0.875 4.275
2 0.875 4.275
2.125 0.875 4.275
2.25 0.875 4.275
2.375 0.875 4.275
2.5 0.875 4.275
2.625 0.875 4.275
2.75 0.875 4.275
2.875 0.875 4.275
3 0.875 4.275
3.125 0.875 4.275
3.25 0.875 4.275
3.375 0.875 4.275
3.5 0.875 4.275
3.625 0.875 4.275
3.75 0.875 4.275
3.875 0.875 4.275
4 0.875 4.275
0 1 4.275
0.125 1 4.275
0.25 1 4.275
0.375 1 4.275
0.5 1 4.275
0.625 1 4.275
0.75 1 4.275
0.875 1 4.275
1 1 4.275
1.125 1 4.275
1.25 1 4.275
1.375 1 4.275
1.5 1 4.275
1.625 1 4.275
1.75 1 4.275
1.875 1 4.275
2 1 4.275
2.125 1 4.275
2.25 1 4.275
2.375 1 4.275
2.5 1 4.275
2.625 1 4.275
2.75 1 4.275
2.875 1 4.275
3 1 4.275
3.125 1 4.275
3.25 1 4.275
3.375 1 4.275
3.5 1 4.275
3.625 1 4.275
3.75 1 4.275
3.875 1 4.275
4 1 4.275
0 0 4.4
0.125 0 4.4
0.25 0 4.4
0.375 0 4.4
0.5 0 4.4
0.625 0 4.4
0.75 0 4.4
0.875 0 4.4
1 0 4.4
1.125 0 4.4
1.25 0 4.4
1.375 0 4.4
1.5 0 4.4
1.625 0 4.4
1.75 0 4.4
1.875 0 4.4
2 0 4.4
2.125 0 4.4
2.25 0 4.4
2.375 0 4.4
2.5 0 4.4
2.625 0 4.4
2.75 0 4.4
2.875 0 4.4
3 0 4.4
3.125 0 4.4
3.25 0 4.4
3.375 0 4.4
3.5 0 4.4
3.625 0 4.4
3.75 0 4.4
3.875 0 4.4
4 0 4.4
0 0.125 4.4
0.125 0.125 4.4
0.25 0.125 4.4
0.375 0.125 4.4
0.5 0.125 4.4
0.625 0.125 4.4
0.75 0.125 4.4
0.875 0.125 4.4
1 0.125 4.4
1.125 0.125 4.4
1.25 0.125 4.4
1.375 0.125 4.4
1.5 0.125 4.4
1.625 0.125 4.4
1.75 0.125 4.4
1.875 0.125 4.4
2 0.125 4.4
2.125 0.125 4.4
2.25 0.125 4.4
2.375 0.125 4.4
2.5 0.125 4.4
2.625 0.125 4.4
2.75 0.125 4.4
2.875 0.125 4.4
3 0.125 4.4
3.125 0.125 4.4
3.25 0.125 4.4
3.375 0.125 4.4
3.5 0.125 4.4
3.625 0.125 4.4
3.75 0.125 4.4
3.875 0.125 4.4
4 0.125 4.4
0 0.25 4.4
0.125 0.25 4.4
0.25 0.25 4.4
0.375 0.25 4.4
0.5 0.25 4.4
0.625 0.25 4.4
0.75 0.25 4.4
0.875 0.25 4.4
1 0.25 4.4
1.125 0.25 4.4
1.25 0.25 4.4
1.375 0.25 4.4
1.5 0.25 4.4
1.625 0.25 4.4
1.75 0.25 4.4
1.875 0.25 4.4
2 0.25 4.4
2.125 0.25 4.4
2.25 0.25 4.4
2.375 0.25 4.4
2.5 0.25 4.4
2.625 0.25 4.4
2.75 0.25 4.4
2.875 0.25 4.4
3 0.25 4.4
3.125 0.25 4.4
3.25 0.25 4.4
3.375 0.25 4.4
3.5 0.25 4.4
3.625 0.25 4.4
3.75 0.25 4.4
3.875 0.25 4.4
4 0.25 4.4
0 0.375 4.4
0.125 0.375 4.4
0.25 0.375 4.4
0.375 0.375 4.4
0.5 0.375 4.4
0.625 0.375 4.4
0.75 0.375 4.4
0.875 0.375 4.4
1 0.375 4.4
1.125 0.375 4.4
1.25 0.375 4.4
1.375 0.375 4.4
1.5 0.375 4.4
1.625 0.375 4.4
1.75 0.375 4.4
1.875 0.375 4.4
2 0.375 4.4
2.125 0.375 4.4
2.25 0.375 4.4
2.375 0.375 4.4
2.5 0.375 4.4
2.625 0.375 4.4
2.75 0.375 4.4
2.875 0.375 4.4
3 0.375 4.4
3.125 0.375 4.4
3.25 0.375 4.4
3.375 0.375 4.4
3.5 0.375 4.4
3.625 0.375 4.4
3.75 0.375 4.4
3.875 0.375 4.4
4 0.375 4.4
0 0.5 4.4
0.125 0.5 4.4
0.25 0.5 4.4
0.375 0.5 4.4
0.5 0.5 4.4
0.625 0.5 4.4
0.75 0.5 4.4
0.875 0.5 4.4
1 0.5 4.4
1.125 0.5 4.4
1.25 0.5 4.4
1.375 0.5 4.4
1.5 0.5 4.4
1.625 0.5 4.4
1.75 0.5 4.4
1.875 0.5 4.4
2 0.5 4.4
2.125 0.5 4.4
2.25 0.5 4.4
2.375 0.5 4.4
2.5 0.5 4.4
2.625 0.5 4.4
2.75 0.5 4.4
2.875 0.5 4.4
3 0.5 4.4
3.125 0.5 4.4
3.25 0.5 4.4
3.375 0.5 4.4
3.5 0.5 4.4
3.625 0.5 4.4
3.75 0.5 4.4
3.875 0.5 4.4
4 0.5 4.4
0 0.625 4.4
0.125 0.625 4.4
0.25 0.625 4.4
0.375 0.625 4.4
0.5 0.625 4.4
0.625 0.625 4.4
0.75 0.625 4.4
0.875 0.625 4.4
1 0.625 4.4
1.125 0.625 4.4
1.25 0.625 4.4
1.375 0.625 4.4
1.5 0.625 4.4
1.625 0.625 4.4
1.75 0.625 4.4
1.875 0.625 4.4
2 0.625 4.4
2.125 0.625 4.4
2.25 0.625 4.4
2.375 0.625 4.4
2.5 0.625 4.4
2.625 0.625 4.4
2.75 0.625 4.4
2.875 0.625 4.4
3 0.625 4.4
3.125 0.625 4.4
3.25 0.625 4.4
3.375 0.625 4.4
3.5 0.625 4.4
3.625 0.625 4.4
3.75 0.625 4.4
3.875 0.625 4.4
4 0.625 4.4
0 0.75 4.4
0.125 0.75 4.4
0.25 0.75 4.4
0.375 0.75 4.4
0.5 0.75 4.4
0.625 0.75 4.4
0.75 0.75 4.4
0.875 0.75 4.4
1 0.75 4.4
1.125 0.75 4.4
1.25 0.75 4.4
1.375 0.75 4.4
1.5 0.75 4.4
1.625 0.75 4.4
1.75 0.75 4.4
1.875 0.75 4.4
2 0.75 4.4
2.125 0.75 4.4
2.25 0.75 4.4
2.375 0.75 4.4
2.5 0.75 4.4
2.625 0.75 4.4
2.75 0.75 4.4
2.875 0.75 4.4
3 0.75 4.4
3.125 0.75 4.4
3.25 0.75 4.4
3.375 0.75 4.4
3.5 0.75 4.4
3.625 0.75 4.4
3.75 0.75 4.4
3.875 0.75 4.4
4 0.75 4.4
0 0.875 4.4
0.125 0.875 4.4
0.25 0.875 4.4
0.375 0.875 4.4
0.5 0.875 4.4
0.625 0.875 4.4
0.75 0.875 4.4
0.875 0.875 4.4
1 0.875 4.4
1.125 0.875 4.4
1.25 0.875 4.4
1.375 0.875 4.4
1.5 0.875 4.4
1.625 0.875 4.4
1.75 0.875 4.4
1.875 0.875 4.4
2 0.875 4.4
2.125 0.875 4.4
2.25 0.875 4.4
2.375 0.875 4.4
2.5 0.875 4.4
2.625 0.875 4.4
2.75 0.875 4.4
2.875 0.875 4.4
3 0.875 4.4
3.125 0.875 4.4
3.25 0.875 4.4
3.375 0.875 4.4
3.5 0.875 4.4
3.625 0.875 4.4
3.75 0.875 4.4
3.875 0.875 4.4
4 0.875 4.4
0 1 4.4
0.125 1 4.4
0.25 1 4.4
0.375 1 4.4
0.5 1 4.4
0.625 1 4.4
0.75 1 4.4
0.875 1 4.4
1 1 4.4
1.125 1 4.4
1.25 1 4.4
1.375 1 4.4
1.5 1 4.4
1.625 1 4.4
1.75 1 4.4
1.875 1 4.4
2 1 4.4
2.125 1 4.4
2.25 1 4.4
2.375 1 4.4
2.5 1 4.4
2.625 1 4.4
2.75 1 4.4
2.875 1 4.4
3 1 4.4
3.125 1 4.4
3.25 1 4.4
3.375 1 4.4
3.5 1 4.4
3.625 1 4.4
3.75 1 4.4
3.875 1 4.4
4 1 4.4
0.0625 0 3.4
0.125 0 3.4625
0.0625 0 3.525
0 0 3.4625
0 0.0625 3.4
0.125 0.0625 3.4
0.125 0.0625 3.525
0 0.0625 3.525
0.0625 0.125 3.4
0.125 0.125 3.4625
0.0625 0.125 3.525
0 0.125 3.4625
0.0625 0 3.4625
0.0625 0.0625 3.4
0.125 0.0625 3.4625
0.0625 0.0625 3.525
0 0.0625 3.4625
0.0625 0.125 3.4625
0.0625 0.0625 3.4625
0.1875 0 3.4
0.25 0 3.4625
0.1875 0 3.525
0.25 0.0625 3.4
0.25 0.0625 3.525
0.1875 0.125 3.4
0.25 0.125 3.4625
0.1875 0.125 3.525
0.1875 0 3.4625
0.1875 0.0625 3.4
0.25 0.0625 3.4625
0.1875 0.0625 3.525
0.1875 0.125 3.4625
0.1875 0.0625 3.4625
0.3125 0 3.4
0.375 0 3.4625
0.3125 0 3.525
0.375 0.0625 3.4
0.375 0.0625 3.525
0.3125 0.125 3.4
0.375 0.125 3.4625
0.3125 0.125 3.525
0.3125 0 3.4625
0.3125 0.0625 3.4
0.375 0.0625 3.4625
0.3125 0.0625 3.525
0.3125 0.125 3.4625
0.3125 0.0625 3.4625
0.4375 0 3.4
0.5 0 3.4625
0.4375 0 3.525
0.5 0.0625 3.4
0.5 0.0625 3.525
0.4375 0.125 3.4
0.5 0.125 3.4625
0.4375 0.125 3.525
0.4375 0 3.4625
0.4375 0.0625 3.4
0.5 0.0625 3.4625
0.4375 0.0625 3.525
0.4375 0.125 3.4625
0.4375 0.0625 3.4625
0.5625 0 3.4
0.625 0 3.4625
0.5625 0 3.525
0.625 0.0625 3.4
0.625 0.0625 3.525
0.5625 0.125 3.4
0.625 0.125 3.4625
0.5625 0.125 3.525
0.5625 0 3.4625
0.5625 0.0625 3.4
0.625 0.0625 3.4625
0.5625 0.0625 3.525
0.5625 0.125 3.4625
0.5625 0.0625 3.4625
0.6875 0 3.4
0.75 0 3.4625
0.6875 0 3.525
0.75 0.0625 3.4
0.75 0.0625 3.525
0.6875 0.125 3.4
0.75 0.125 3.4625
0.6875 0.125 3.525
0.6875 0 3.4625
0.6875 0.0625 3.4
0.75 0.0625 3.4625
0.6875 0.0625 3.525
0.6875 0.125 3.4625
0.6875 0.0625 3.4625
0.8125 0 3.4
0.875 0 3.4625
0.8125 0 3.525
0.875 0.0625 3.4
0.875 0.0625 3.525
0.8125 0.125 3.4
0.875 0.125 3.4625
0.8125 0.125 3.525
0.8125 0 3.4625
0.8125 0.0625 3.4
0.875 0.0625 3.4625
0.8125 0.0625 3.525
0.8125 0.125 3.4625
0.8125 0.0625 3.4625
0.9375 0 3.4
1 0 3.4625
0.9375 0 3.525
1 0.0625 3.4
1 0.0625 3.525
0.9375 0.125 3.4
1 0.125 3.4625
0.9375 0.125 3.525
0.9375 0 3.4625
0.9375 0.0625 3.4
1 0.0625 3.4625
0.9375 0.0625 3.525
0.9375 0.125 3.4625
0.9375 0.0625 3.4625
1.0625 0 3.4
1.125 0 3.4625
1.0625 0 3.525
1.125 0.0625 3.4
1.125 0.0625 3.525
1.0625 0.125 3.4
1.125 0.125 3.4625
1.0625 0.125 3.525
1.0625 0 3.4625
1.0625 0.0625 3.4
1.125 0.0625 3.4625
1.0625 0.0625 3.525
1.0625 0.125 3.4625
1.0625 0.0625 3.4625
1.1875 0 3.4
1.25 0 3.4625
1.1875 0 3.525
1.25 0.0625 3.4
1.25 0.0625 3.525
1.1875 0.125 3.4
1.25 0.125 3.4625
1.1875 0.125 3.525
1.1875 0 3.4625
1.1875 0.0625 3.4
1.25 0.0625 3.4625
1.1875 0.0625 3.525
1.1875 0.125 3.4625
1.1875 0.0625 3.4625
1.3125 0 3.4
1.375 0 3.4625
1.3125 0 3.525
1.375 0.0625 3.4
1.375 0.0625 3.525
1.3125 0.125 3.4
1.375 0.125 3.4625
1.3125 0.125 3.525
1.3125 0 3.4625
1.3125 0.0625 3.4
1.375 0.0625 3.4625
1.3125 0.0625 3.525
1.3125 0.125 3.4625
1.3125 0.0625 3.4625
1.4375 0 3.4
1.5 0 3.4625
1.4375 0 3.525
1.5 0.0625 3.4
1.5 0.0625 3.525
1.4375 0.125 3.4
1.5 0.125 3.4625
1.4375 0.125 3.525
1.4375 0 3.4625
1.4375 0.0625 3.4
1.5 0.0625 3.4625
1.4375 0.0625 3.525
1.4375 0.125 3.4625
1.4375 0.0625 3.4625
1.5625 0 3.4
1.625 0 3.4625
1.5625 0 3.525
1.625 0.0625 3.4
1.625 0.0625 3.525
1.5625 0.125 3.4
1.625 0.125 3.4625
1.5625 0.125 3.525
1.5625 0 3.4625
1.5625 0.0625 3.4
1.625 0.0625 3.4625
1.5625 0.0625 3.525
1.5625 0.125 3.4625
1.5625 0.0625 3.4625
1.6875 0 3.4
1.75 0 3.4625
1.6875 0 3.525
1.75 0.0625 3.4
1.75 0.0625 3.525
1.6875 0.125 3.4
1.75 0.125 3.4625
1.6875 0.125 3.525
1.6875 0 3.4625
1.6875 0.0625 3.4
1.75 0.0625 3.4625
1.6875 0.0625 3.525
1.6875 0.125 3.4625
1.6875 0.0625 3.4625
1.8125 0 3.4
1.875 0 3.4625
1.8125 0 3.525
1.875 0.0625 3.4
1.875 0.0625 3.525
1.8125 0.125 3.4
1.875 0.125 3.4625
1.8125 0.125 3.525
1.8125 0 3.4625
1.8125 0.0625 3.4
1.875 0.0625 3.4625
1.8125 0.0625 3.525
1.8125 0.125 3.4625
1.8125 0.0625 3.4625
1.9375 0 3.4
2 0 3.4625
1.9375 0 3.525
2 0.0625 3.4
2 0.0625 3.525
1.9375 0.125 3.4
2 0.125 3.4625
1.9375 0.125 3.525
1.9375 0 3.4625
1.9375 0.0625 3.4
2 0.0625 3.4625
1.9375 0.0625 3.525
1.9375 0.125 3.4625
1.9375 0.0625 3.4625
2.0625 0 3.4
2.125 0 3.4625
2.0625 0 3.525
2.125 0.0625 3.4
2.125 0.0625 3.525
2.0625 0.125 3.4
2.125 0.125 3.4625
2.0625 0.125 3.525
2.0625 0 3.4625
2.0625 0.0625 3.4
2.125 0.0625 3.4625
2.0625 0.0625 3.525
2.0625 0.125 3.4625
2.0625 0.0625 3.4625
2.1875 0 3.4
2.25 0 3.4625
2.1875 0 3.525
2.25 0.0625 3.4
2.25 0.0625 3.525
2.1875 0.125 3.4
2.25 0.125 3.4625
2.1875 0.125 3.525
2.1875 0 3.4625
2.1875 0.0625 3.4
2.25 0.0625 3.4625
2.1875 0.0625 3.525
2.1875 0.125 3.4625
2.1875 0.0625 3.4625
2.3125 0 3.4
2.375 0 3.4625
2.3125 0 3.525
2.375 0.0625 3.4
2.375 0.0625 3.525
2.3125 0.125 3.4
2.375 0.125 3.4625
2.3125 0.125 3.525
2.3125 0 3.4625
2.3125 0.0625 3.4
2.375 0.0625 3.4625
2.3125 0.0625 3.525
2.3125 0.125 3.4625
2.3125 0.0625 3.4625
2.4375 0 3.4
2.5 0 3.4625
2.4375 0 3.525
2.5 0.0625 3.4
2.5 0.0625 3.525
2.4375 0.125 3.4
2.5 0.125 3.4625
2.4375 0.125 3.525
2.4375 0 3.4625
2.4375 0.0625 3.4
2.5 0.0625 3.4625
2.4375 0.0625 3.525
2.4375 0.125 3.4625
2.4375 0.0625 3.4625
2.5625 0 3.4
2.625 0 3.4625
2.5625 0 3.525
2.625 0.0625 3.4
2.625 0.0625 3.525
2.5625 0.125 3.4
2.625 0.125 3.4625
2.5625 0.125 3.525
2.5625 0 3.4625
2.5625 0.0625 3.4
2.625 0.0625 3.4625
2.5625 0.0625 3.525
2.5625 0.125 3.4625
2.5625 0.0625 3.4625
2.6875 0 3.4
2.75 0 3.4625
2.6875 0 3.525
2.75 0.0625 3.4
2.75 0.0625 3.525
2.6875 0.125 3.4
2.75 0.125 3.4625
2.6875 0.125 3.525
2.6875 0 3.4625
2.6875 0.0625 3.4
2.75 0.0625 3.4625
2.6875 0.0625 3.525
2.6875 0.125 3.4625
2.6875 0.0625 3.4625
2.8125 0 3.4
2.875 0 3.4625
2.8125 0 3.525
2.875 0.0625 3.4
2.875 0.0625 3.525
2.8125 0.125 3.4
2.875 0.125 3.4625
2.8125 0.125 3.525
2.8125 0 3.4625
2.8125 0.0625 3.4
2.875 0.0625 3.4625
2.8125 0.0625 3.525
2.8125 0.125 3.4625
2.8125 0.0625 3.4625
2.9375 0 3.4
3 0 3.4625
2.9375 0 3.525
3 0.0625 3.4
3 0.0625 3.525
2.9375 0.125 3.4
3 0.125 3.4625
2.9375 0.125 3.525
2.9375 0 3.4625
2.9375 0.0625 3.4
3 0.0625 3.4625
2.9375 0.0625 3.525
2.9375 0.125 3.4625
2.9375 0.0625 3.4625
3.0625 0 3.4
3.125 0 3.4625
3.0625 0 3.525
3.125 0.0625 3.4
3.125 0.0625 3.525
3.0625 0.125 3.4
3.125 0.125 3.4625
3.0625 0.125 3.525
3.0625 0 3.4625
3.0625 0.0625 3.4
3.125 0.0625 3.4625
3.0625 0.0625 3.525
3.0625 0.125 3.4625
3.0625 0.0625 3.4625
3.1875 0 3.4
3.25 0 3.4625
3.1875 0 3.525
3.25 0.0625 3.4
3.25 0.0625 3.525
3.1875 0.125 3.4
3.25 0.125 3.4625
3.1875 0.125 3.525
3.1875 0 3.4625
3.1875 0.0625 3.4
3.25 0.0625 3.4625
3.1875 0.0625 3.525
3.1875 0.125 3.4625
3.1875 0.0625 3.4625
3.3125 0 3.4
3.375 0 3.4625
3.3125 0 3.525
3.375 0.0625 3.4
3.375 0.0625 3.525
3.3125 0.125 3.4
3.375 0.125 3.4625
3.3125 0.125 3.525
3.3125 0 3.4625
3.3125 0.0625 3.4
3.375 0.0625 3.4625
3.3125 0.0625 3.525
3.3125 0.125 3.4625
3.3125 0.0625 3.4625
3.4375 0 3.4
3.5 0 3.4625
3.4375 0 3.525
3.5 0.0625 3.4
3.5 0.0625 3.525
3.4375 0.125 3.4
3.5 0.125 3.4625
3.4375 0.125 3.525
3.4375 0 3.4625
3.4375 0.0625 3.4
3.5 0.0625 3.4625
3.4375 0.0625 3.525
3.4375 0.125 3.4625
3.4375 0.0625 3.4625
3.5625 0 3.4
3.625 0 3.4625
3.5625 0 3.525
3.625 0.0625 3.4
3.625 0.0625 3.525
3.5625 0.125 3.4
3.625 0.125 3.4625
3.5625 0.125 3.525
3.5625 0 3.4625
3.5625 0.0625 3.4
3.625 0.0625 3.4625
3.5625 0.0625 3.525
3.5625 0.125 3.4625
3.5625 0.0625 3.4625
3.6875 0 3.4
3.75 0 3.4625
3.6875 0 3.525
3.75 0.0625 3.4
3.75 0.0625 3.525
3.6875 0.125 3.4
3.75 0.125 3.4625
3.6875 0.125 3.525
3.6875 0 3.4625
3.6875 0.0625 3.4
3.75 0.0625 3.4625
3.6875 0.0625 3.525
3.6875 0.125 3.4625
3.6875 0.0625 3.4625
3.8125 0 3.4
3.875 0 3.4625
3.8125 0 3.525
3.875 0.0625 3.4
3.875 0.0625 3.525
3.8125 0.125 3.4
3.875 0.125 3.4625
3.8125 0.125 3.525
3.8125 0 3.4625
3.8125 0.0625 3.4
3.875 0.0625 3.4625
3.8125 0.0625 3.525
3.8125 0.125 3.4625
3.8125 0.0625 3.4625
3.9375 0 3.4
4 0 3.4625
3.9375 0 3.525
4 0.0625 3.4
4 0.0625 3.525
3.9375 0.125 3.4
4 0.125 3.4625
3.9375 0.125 3.525
3.9375 0 3.4625
3.9375 0.0625 3.4
4 0.0625 3.4625
3.9375 0.0625 3.525
3.9375 0.125 3.4625
3.9375 0.0625 3.4625
0 0.1875 3.4
0.125 0.1875 3.4
0.125 0.1875 3.525
0 0.1875 3.525
0.0625 0.25 3.4
0.125 0.25 3.4625
0.0625 0.25 3.525
0 0.25 3.4625
0.0625 0.1875 3.4
0.125 0.1875 3.4625
0.0625 0.1875 3.525
0 0.1875 3.4625
0.0625 0.25 3.4625
0.0625 0.1875 3.4625
0.25 0.1875 3.4
0.25 0.1875 3.525
0.1875 0.25 3.4
0.25 0.25 3.4625
0.1875 0.25 3.525
0.1875 0.1875 3.4
0.25 0.1875 3.4625
0.1875 0.1875 3.525
0.1875 0.25 3.4625
0.1875 0.1875 3.4625
0.375 0.1875 3.4
0.375 0.1875 3.525
0.3125 0.25 3.4
0.375 0.25 3.4625
0.3125 0.25 3.525
0.3125 0.1875 3.4
0.375 0.1875 3.4625
0.3125 0.1875 3.525
0.3125 0.25 3.4625
0.3125 0.1875 3.4625
0.5 0.1875 3.4
0.5 0.1875 3.525
0.4375 0.25 3.4
0.5 0.25 3.4625
0.4375 0.25 3.525
0.4375 0.1875 3.4
0.5 0.1875 3.4625
0.4375 0.1875 3.525
0.4375 0.25 3.4625
0.4375 0.1875 3.4625
0.625 0.1875 3.4
0.625 0.1875 3.525
0.5625 0.25 3.4
0.625 0.25 3.4625
0.5625 0.25 3.525
0.5625 0.1875 3.4
0.625 0.1875 3.4625
0.5625 0.1875 3.525
0.5625 0.25 3.4625
0.5625 0.1875 3.4625
0.75 0.1875 3.4
0.75 0.1875 3.525
0.6875 0.25 3.4
0.75 0.25 3.4625
0.6875 0.25 3.525
0.6875 0.1875 3.4
0.75 0.1875 3.4625
0.6875 0.1875 3.525
0.6875 0.25 3.4625
0.6875 0.1875 3.4625
0.875 0.1875 3.4
0.875 0.1875 3.525
0.8125 0.25 3.4
0.875 0.25 3.4625
0.8125 0.25 3.525
0.8125 0.1875 3.4
0.875 0.1875 3.4625
0.8125 0.1875 3.525
0.8125 0.25 3.4625
0.8125 0.1875 3.4625
1 0.1875 3.4
1 0.1875 3.525
0.9375 0.25 3.4
1 0.25 3.4625
0.9375 0.25 3.525
0.9375 0.1875 3.4
1 0.1875 3.4625
0.9375 0.1875 3.525
0.9375 0.25 3.4625
0.9375 0.1875 3.4625
1.125 0.1875 3.4
1.125 0.1875 3.525
1.0625 0.25 3.4
1.125 0.25 3.4625
1.0625 0.25 3.525
1.0625 0.1875 3.4
1.125 0.1875 3.4625
1.0625 0.1875 3.525
1.0625 0.25 3.4625
1.0625 0.1875 3.4625
1.25 0.1875 3.4
1.25 0.1875 3.525
1.1875 0.25 3.4
1.25 0.25 3.4625
1.1875 0.25 3.525
1.1875 0.1875 3.4
1.25 0.1875 3.4625
1.1875 0.1875 3.525
1.1875 0.25 3.4625
1.1875 0.1875 3.4625
1.375 0.1875 3.4
1.375 0.1875 3.525
1.3125 0.25 3.4
1.375 0.25 3.4625
1.3125 0.25 3.525
1.3125 0.1875 3.4
1.375 0.1875 3.4625
1.3125 0.1875 3.525
1.3125 0.25 3.4625
1.3125 0.1875 3.4625
1.5 0.1875 3.4
1.5 0.1875 3.525
1.4375 0.25 3.4
1.5 0.25 3.4625
1.4375 0.25 3.525
1.4375 0.1875 3.4
1.5 0.1875 3.4625
1.4375 0.1875 3.525
1.4375 0.25 3.4625
1.4375 0.1875 3.4625
1.625 0.1875 3.4
1.625 0.1875 3.525
1.5625 0.25 3.4
1.625 0.25 3.4625
1.5625 0.25 3.525
1.5625 0.1875 3.4
1.625 0.1875 3.4625
1.5625 0.1875 3.525
1.5625 0.25 3.4625
1.5625 0.1875 3.4625
1.75 0.1875 3.4
1.75 0.1875 3.525
1.6875 0.25 3.4
1.75 0.25 3.4625
1.6875 0.25 3.525
1.6875 0.1875 3.4
1.75 0.1875 3.4625
1.6875 0.1875 3.525
1.6875 0.25 3.4625
1.6875 0.1875 3.4625
1.875 0.1875 3.4
1.875 0.1875 3.525
1.8125 0.25 3.4
1.875 0.25 3.4625
1.8125 0.25 3.525
1.8125 0.1875 3.4
1.875 0.1875 3.4625
1.8125 0.1875 3.525
1.8125 0.25 3.4625
1.8125 0.1875 3.4625
2 0.1875 3.4
2 0.1875 3.525
1.9375 0.25 3.4
2 0.25 3.4625
1.9375 0.25 3.525
1.9375 0.1875 3.4
2 0.1875 3.4625
1.9375 0.1875 3.525
1.9375 0.25 3.4625
1.9375 0.1875 3.4625
2.125 0.1875 3.4
2.125 0.1875 3.525
2.0625 0.25 3.4
2.125 0.25 3.4625
2.0625 0.25 3.525
2.0625 0.1875 3.4
2.125 0.1875 3.4625
2.0625 0.1875 3.525
2.0625 0.25 3.4625
2.0625 0.1875 3.4625
2.25 0.1875 3.4
2.25 0.1875 3.525
2.1875 0.25 3.4
2.25 0.25 3.4625
2.1875 0.25 3.525
2.1875 0.1875 3.4
2.25 0.1875 3.4625
2.1875 0.1875 3.525
2.1875 0.25 3.4625
2.1875 0.1875 3.4625
2.375 0.1875 3.4
2.375 0.1875 3.525
2.3125 0.25 3.4
2.375 0.25 3.4625
2.3125 0.25 3.525
2.3125 0.1875 3.4
2.375 0.1875 3.4625
2.3125 0.1875 3.525
2.3125 0.25 3.4625
2.3125 0.1875 3.4625
2.5 0.1875 3.4
2.5 0.1875 3.525
2.4375 0.25 3.4
2.5 0.25 3.4625
2.4375 0.25 3.525
2.4375 0.1875 3.4
2.5 0.1875 3.4625
2.4375 0.1875 3.525
2.4375 0.25 3.4625
2.4375 0.1875 3.4625
2.625 0.1875 3.4
2.625 0.1875 3.525
2.5625 0.25 3.4
2.625 0.25 3.4625
2.5625 0.25 3.525
2.5625 0.1875 3.4
2.625 0.1875 3.4625
2.5625 0.1875 3.525
2.5625 0.25 3.4625
2.5625 0.1875 3.4625
2.75 0.1875 3.4
2.75 0.1875 3.525
2.6875 0.25 3.4
2.75 0.25 3.4625
2.6875 0.25 3.525
2.6875 0.1875 3.4
2.75 0.1875 3.4625
2.6875 0.1875 3.525
2.6875 0.25 3.4625
2.6875 0.1875 3.4625
2.875 0.1875 3.4
2.875 0.1875 3.525
2.8125 0.25 3.4
2.875 0.25 3.4625
2.8125 0.25 3.525
2.8125 0.1875 3.4
2.875 0.1875 3.4625
2.8125 0.1875 3.525
2.8125 0.25 3.4625
2.8125 0.1875 3.4625
3 0.1875 3.4
3 0.1875 3.525
2.9375 0.25 3.4
3 0.25 3.4625
2.9375 0.25 3.525
2.9375 0.1875 3.4
3 0.1875 3.4625
2.9375 0.1875 3.525
2.9375 0.25 3.4625
2.9375 0.1875 3.4625
3.125 0.1875 3.4
3.125 0.1875 3.525
3.0625 0.25 3.4
3.125 0.25 3.4625
3.0625 0.25 3.525
3.0625 0.1875 3.4
3.125 0.1875 3.4625
3.0625 0.1875 3.525
3.0625 0.25 3.4625
3.0625 0.1875 3.4625
3.25 0.1875 3.4
3.25 0.1875 3.525
3.1875 0.25 3.4
3.25 0.25 3.4625
3.1875 0.25 3.525
3.1875 0.1875 3.4
3.25 0.1875 3.4625
3.1875 0.1875 3.525
3.1875 0.25 3.4625
3.1875 0.1875 3.4625
3.375 0.1875 3.4
3.375 0.1875 3.525
3.3125 0.25 3.4
3.375 0.25 3.4625
3.3125 0.25 3.525
3.3125 0.1875 3.4
3.375 0.1875 3.4625
3.3125 0.1875 3.525
3.3125 0.25 3.4625
3.3125 0.1875 3.4625
3.5 0.1875 3.4
3.5 0.1875 3.525
3.4375 0.25 3.4
3.5 0.25 3.4625
3.4375 0.25 3.525
3.4375 0.1875 3.4
3.5 0.1875 3.4625
3.4375 0.1875 3.525
3.4375 0.25 3.4625
3.4375 0.1875 3.4625
3.625 0.1875 3.4
3.625 0.1875 3.525
3.5625 0.25 3.4
3.625 0.25 3.4625
3.5625 0.25 3.525
3.5625 0.1875 3.4
3.625 0.1875 3.4625
3.5625 0.1875 3.525
3.5625 0.25 3.4625
3.5625 0.1875 3.4625
3.75 0.1875 3.4
3.75 0.1875 3.525
3.6875 0.25 3.4
3.75 0.25 3.4625
3.6875 0.25 3.525
3.6875 0.1875 3.4
3.75 0.1875 3.4625
3.6875 0.1875 3.525
3.6875 0.25 3.4625
3.6875 0.1875 3.4625
3.875 0.1875 3.4
3.875 0.1875 3.525
3.8125 0.25 3.4
3.875 0.25 3.4625
3.8125 0.25 3.525
3.8125 0.1875 3.4
3.875 0.1875 3.4625
3.8125 0.1875 3.525
3.8125 0.25 3.4625
3.8125 0.1875 3.4625
4 0.1875 3.4
4 0.1875 3.525
3.9375 0.25 3.4
4 0.25 3.4625
3.9375 0.25 3.525
3.9375 0.1875 3.4
4 0.1875 3.4625
3.9375 0.1875 3.525
3.9375 0.25 3.4625
3.9375 0.1875 3.4625
0 0.3125 3.4
0.125 0.3125 3.4
0.125 0.3125 3.525
0 0.3125 3.525
0.0625 0.375 3.4
0.125 0.375 3.4625
0.0625 0.375 3.525
0 0.375 3.4625
0.0625 0.3125 3.4
0.125 0.3125 3.4625
0.0625 0.3125 3.525
0 0.3125 3.4625
0.0625 0.375 3.4625
0.0625 0.3125 3.4625
0.25 0.3125 3.4
0.25 0.3125 3.525
0.1875 0.375 3.4
0.25 0.375 3.4625
0.1875 0.375 3.525
0.1875 0.3125 3.4
0.25 0.3125 3.4625
0.1875 0.3125 3.525
0.1875 0.375 3.4625
0.1875 0.3125 3.4625
0.375 0.3125 3.4
0.375 0.3125 3.525
0.3125 0.375 3.4
0.375 0.375 3.4625
0.3125 0.375 3.525
0.3125 0.3125 3.4
0.375 0.3125 3.4625
0.3125 0.3125 3.525
0.3125 0.375 3.4625
0.3125 0.3125 3.4625
0.5 0.3125 3.4
0.5 0.3125 3.525
0.4375 0.375 3.4
0.5 0.375 3.4625
0.4375 0.375 3.525
0.4375 0.3125 3.4
0.5 0.3125 3.4625
0.4375 0.3125 3.525
0.4375 0.375 3.4625
0.4375 0.3125 3.4625
0.625 0.3125 3.4
0.625 0.3125 3.525
0.5625 0.375 3.4
0.625 0.375 3.4625
0.5625 0.375 3.525
0.5625 0.3125 3.4
0.625 0.3125 3.4625
0.5625 0.3125 3.525
0.5625 0.375 3.4625
0.5625 0.3125 3.4625
0.75 0.3125 3.4
0.75 0.3125 3.525
0.6875 0.375 3.4
0.75 0.375 3.4625
0.6875 0.375 3.525
0.6875 0.3125 3.4
0.75 0.3125 3.4625
0.6875 0.3125 3.525
0.6875 0.375 3.4625
0.6875 0.3125 3.4625
0.875 0.3125 3.4
0.875 0.3125 3.525
0.8125 0.375 3.4
0.875 0.375 3.4625
0.8125 0.375 3.525
0.8125 0.3125 3.4
0.875 0.3125 3.4625
0.8125 0.3125 3.525
0.8125 0.375 3.4625
0.8125 0.3125 3.4625
1 0.3125 3.4
1 0.3125 3.525
0.9375 0.375 3.4
1 0.375 3.4625
0.9375 0.375 3.525
0.9375 0.3125 3.4
1 0.3125 3.4625
0.9375 0.3125 3.525
0.9375 0.375 3.4625
0.9375 0.3125 3.4625
1.125 0.3125 3.4
1.125 0.3125 3.525
1.0625 0.375 3.4
1.125 0.375 3.4625
1.0625 0.375 3.525
1.0625 0.3125 3.4
1.125 0.3125 3.4625
1.0625 0.3125 3.525
1.0625 0.375 3.4625
1.0625 0.3125 3.4625
1.25 0.3125 3.4
1.25 0.3125 3.525
1.1875 0.375 3.4
1.25 0.375 3.4625
1.1875 0.375 3.525
1.1875 0.3125 3.4
1.25 0.3125 3.4625
1.1875 0.3125 3.525
1.1875 0.375 3.4625
1.1875 0.3125 3.4625
1.375 0.3125 3.4
1.375 0.3125 3.525
1.3125 0.375 3.4
1.375 0.375 3.4625
1.3125 0.375 3.525
1.3125 0.3125 3.4
1.375 0.3125 3.4625
1.3125 0.3125 3.525
1.3125 0.375 3.4625
1.3125 0.3125 3.4625
1.5 0.3125 3.4
1.5 0.3125 3.525
1.4375 0.375 3.4
1.5 0.375 3.4625
1.4375 0.375 3.525
1.4375 0.3125 3.4
1.5 0.3125 3.4625
1.4375 0.3125 3.525
1.4375 0.375 3.4625
1.4375 0.3125 3.4625
1.625 0.3125 3.4
1.625 0.3125 3.525
1.5625 0.375 3.4
1.625 0.375 3.4625
1.5625 0.375 3.525
1.5625 0.3125 3.4
1.625 0.3125 3.4625
1.5625 0.3125 3.525
1.5625 0.375 3.4625
1.5625 0.3125 3.4625
1.75 0.3125 3.4
1.75 0.3125 3.525
1.6875 0.375 3.4
1.75 0.375 3.4625
1.6875 0.375 3.525
1.6875 0.3125 3.4
1.75 0.3125 3.4625
1.6875 0.3125 3.525
1.6875 0.375 3.4625
1.6875 0.3125 3.4625
1.875 0.3125 3.4
1.875 0.3125 3.525
1.8125 0.375 3.4
1.875 0.375 3.4625
1.8125 0.375 3.525
1.8125 0.3125 3.4
1.875 0.3125 3.4625
1.8125 0.3125 3.525
1.8125 0.375 3.4625
1.8125 0.3125 3.4625
2 0.3125 3.4
2 0.3125 3.525
1.9375 0.375 3.4
2 0.375 3.4625
1.9375 0.375 3.525
1.9375 0.3125 3.4
2 0.3125 3.4625
1.9375 0.3125 3.525
1.9375 0.375 3.4625
1.9375 0.3125 3.4625
2.125 0.3125 3.4
2.125 0.3125 3.525
2.0625 0.375 3.4
2.125 0.375 3.4625
2.0625 0.375 3.525
2.0625 0.3125 3.4
2.125 0.3125 3.4625
2.0625 0.3125 3.525
2.0625 0.375 3.4625
2.0625 0.3125 3.4625
2.25 0.3125 3.4
2.25 0.3125 3.525
2.1875 0.375 3.4
2.25 0.375 3.4625
2.1875 0.375 3.525
2.1875 0.3125 3.4
2.25 0.3125 3.4625
2.1875 0.3125 3.525
2.1875 0.375 3.4625
2.1875 0.3125 3.4625
2.375 0.3125 3.4
2.375 0.3125 3.525
2.3125 0.375 3.4
2.375 0.375 3.4625
2.3125 0.375 3.525
2.3125 0.3125 3.4
2.375 0.3125 3.4625
2.3125 0.3125 3.525
2.3125 0.375 3.4625
2.3125 0.3125 3.4625
2.5 0.3125 3.4
2.5 0.3125 3.525
2.4375 0.375 3.4
2.5 0.375 3.4625
2.4375 0.375 3.525
2.4375 0.3125 3.4
2.5 0.3125 3.4625
2.4375 0.3125 3.525
2.4375 0.375 3.4625
2.4375 0.3125 3.4625
2.625 0.3125 3.4
2.625 0.3125 3.525
2.5625 0.375 3.4
2.625 0.375 3.4625
2.5625 0.375 3.525
2.5625 0.3125 3.4
2.625 0.3125 3.4625
2.5625 0.3125 3.525
2.5625 0.375 3.4625
2.5625 0.3125 3.4625
2.75 0.3125 3.4
2.75 0.3125 3.525
2.6875 0.375 3.4
2.75 0.375 3.4625
2.6875 0.375 3.525
2.6875 0.3125 3.4
2.75 0.3125 3.4625
2.6875 0.3125 3.525
2.6875 0.375 3.4625
2.6875 0.3125 3.4625
2.875 0.3125 3.4
2.875 0.3125 3.525
2.8125 0.375 3.4
2.875 0.375 3.4625
2.8125 0.375 3.525
2.8125 0.3125 3.4
2.875 0.3125 3.4625
2.8125 0.3125 3.525
2.8125 0.375 3.4625
2.8125 0.3125 3.4625
3 0.3125 3.4
3 0.3125 3.525
2.9375 0.375 3.4
3 0.375 3.4625
2.9375 0.375 3.525
2.9375 0.3125 3.4
3 0.3125 3.4625
2.9375 0.3125 3.525
2.9375 0.375 3.4625
2.9375 0.3125 3.4625
3.125 0.3125 3.4
3.125 0.3125 3.525
3.0625 0.375 3.4
3.125 0.375 3.4625
3.0625 0.375 3.525
3.0625 0.3125 3.4
3.125 0.3125 3.4625
3.0625 0.3125 3.525
3.0625 0.375 3.4625
3.0625 0.3125 3.4625
3.25 0.3125 3.4
3.25 0.3125 3.525
3.1875 0.375 3.4
3.25 0.375 3.4625
3.1875 0.375 3.525
3.1875 0.3125 3.4
3.25 0.3125 3.4625
3.1875 0.3125 3.525
3.1875 0.375 3.4625
3.1875 0.3125 3.4625
3.375 0.3125 3.4
3.375 0.3125 3.525
3.3125 0.375 3.4
3.375 0.375 3.4625
3.3125 0.375 3.525
3.3125 0.3125 3.4
3.375 0.3125 3.4625
3.3125 0.3125 3.525
3.3125 0.375 3.4625
3.3125 0.3125 3.4625
3.5 0.3125 3.4
3.5 0.3125 3.525
3.4375 0.375 3.4
3.5 0.375 3.4625
3.4375 0.375 3.525
3.4375 0.3125 3.4
3.5 0.3125 3.4625
3.4375 0.3125 3.525
3.4375 0.375 3.4625
3.4375 0.3125 3.4625
3.625 0.3125 3.4
3.625 0.3125 3.525
3.5625 0.375 3.4
3.625 0.375 3.4625
3.5625 0.375 3.525
3.5625 0.3125 3.4
3.625 0.3125 3.4625
3.5625 0.3125 3.525
3.5625 0.375 3.4625
3.5625 0.3125 3.4625
3.75 0.3125 3.4
3.75 0.3125 3.525
3.6875 0.375 3.4
3.75 0.375 3.4625
3.6875 0.375 3.525
3.6875 0.3125 3.4
3.75 0.3125 3.4625
3.6875 0.3125 3.525
3.6875 0.375 3.4625
3.6875 0.3125 3.4625
3.875 0.3125 3.4
3.875 0.3125 3.525
3.8125 0.375 3.4
3.875 0.375 3.4625
3.8125 0.375 3.525
3.8125 0.3125 3.4
3.875 0.3125 3.4625
3.8125 0.3125 3.525
3.8125 0.375 3.4625
3.8125 0.3125 3.4625
4 0.3125 3.4
4 0.3125 3.525
3.9375 0.375 3.4
4 0.375 3.4625
3.9375 0.375 3.525
3.9375 0.3125 3.4
4 0.3125 3.4625
3.9375 0.3125 3.525
3.9375 0.375 3.4625
3.9375 0.3125 3.4625
0 0.4375 3.4
0.125 0.4375 3.4
0.125 0.4375 3.525
0 0.4375 3.525
0.0625 0.5 3.4
0.125 0.5 3.4625
0.0625 0.5 3.525
0 0.5 3.4625
0.0625 0.4375 3.4
0.125 0.4375 3.4625
0.0625 0.4375 3.525
0 0.4375 3.4625
0.0625 0.5 3.4625
0.0625 0.4375 3.4625
0.25 0.4375 3.4
0.25 0.4375 3.525
0.1875 0.5 3.4
0.25 0.5 3.4625
0.1875 0.5 3.525
0.1875 0.4375 3.4
0.25 0.4375 3.4625
0.1875 0.4375 3.525
0.1875 0.5 3.4625
0.1875 0.4375 3.4625
0.375 0.4375 3.4
0.375 0.4375 3.525
0.3125 0.5 3.4
0.375 0.5 3.4625
0.3125 0.5 3.525
0.3125 0.4375 3.4
0.375 0.4375 3.4625
0.3125 0.4375 3.525
0.3125 0.5 3.4625
0.3125 0.4375 3.4625
0.5 0.4375 3.4
0.5 0.4375 3.525
0.4375 0.5 3.4
0.5 0.5 3.4625
0.4375 0.5 3.525
0.4375 0.4375 3.4
0.5 0.4375 3.4625
0.4375 0.4375 3.525
0.4375 0.5 3.4625
0.4375 0.4375 3.4625
0.625 0.4375 3.4
0.625 0.4375 3.525
0.5625 0.5 3.4
0.625 0.5 3.4625
0.5625 0.5 3.525
0.5625 0.4375 3.4
0.625 0.4375 3.4625
0.5625 0.4375 3.525
0.5625 0.5 3.4625
0.5625 0.4375 3.4625
0.75 0.4375 3.4
0.75 0.4375 3.525
0.6875 0.5 3.4
0.75 0.5 3.4625
0.6875 0.5 3.525
0.6875 0.4375 3.4
0.75 0.4375 3.4625
0.6875 0.4375 3.525
0.6875 0.5 3.4625
0.6875 0.4375 3.4625
0.875 0.4375 3.4
0.875 0.4375 3.525
0.8125 0.5 3.4
0.875 0.5 3.4625
0.8125 0.5 3.525
0.8125 0.4375 3.4
0.875 0.4375 3.4625
0.8125 0.4375 3.525
0.8125 0.5 3.4625
0.8125 0.4375 3.4625
1 0.4375 3.4
1 0.4375 3.525
0.9375 0.5 3.4
1 0.5 3.4625
0.9375 0.5 3.525
0.9375 0.4375 3.4
1 0.4375 3.4625
0.9375 0.4375 3.525
0.9375 0.5 3.4625
0.9375 0.4375 3.4625
1.125 0.4375 3.4
1.125 0.4375 3.525
1.0625 0.5 3.4
1.125 0.5 3.4625
1.0625 0.5 3.525
1.0625 0.4375 3.4
1.125 0.4375 3.4625
1.0625 0.4375 3.525
1.0625 0.5 3.4625
1.0625 0.4375 3.4625
1.25 0.4375 3.4
1.25 0.4375 3.525
1.1875 0.5 3.4
1.25 0.5 3.4625
1.1875 0.5 3.525
1.1875 0.4375 3.4
1.25 0.4375 3.4625
1.1875 0.4375 3.525
1.1875 0.5 3.4625
1.1875 0.4375 3.4625
1.375 0.4375 3.4
1.375 0.4375 3.525
1.3125 0.5 3.4
1.375 0.5 3.4625
1.3125 0.5 3.525
1.3125 0.4375 3.4
1.375 0.4375 3.4625
1.3125 0.4375 3.525
1.3125 0.5 3.4625
1.3125 0.4375 3.4625
1.5 0.4375 3.4
1.5 0.4375 3.525
1.4375 0.5 3.4
1.5 0.5 3.4625
1.4375 0.5 3.525
1.4375 0.4375 3.4
1.5 0.4375 3.4625
1.4375 0.4375 3.525
1.4375 0.5 3.4625
1.4375 0.4375 3.4625
1.625 0.4375 3.4
1.625 0.4375 3.525
1.5625 0.5 3.4
1.625 0.5 3.4625
1.5625 0.5 3.525
1.5625 0.4375 3.4
1.625 0.4375 3.4625
1.5625 0.4375 3.525
1.5625 0.5 3.4625
1.5625 0.4375 3.4625
1.75 0.4375 3.4
1.75 0.4375 3.525
1.6875 0.5 3.4
1.75 0.5 3.4625
1.6875 0.5 3.525
1.6875 0.4375 3.4
1.75 0.4375 3.4625
1.6875 0.4375 3.525
1.6875 0.5 3.4625
1.6875 0.4375 3.4625
1.875 0.4375 3.4
1.875 0.4375 3.525
1.8125 0.5 3.4
1.875 0.5 3.4625
1.8125 0.5 3.525
1.8125 0.4375 3.4
1.875 0.4375 3.4625
1.8125 0.4375 3.525
1.8125 0.5 3.4625
1.8125 0.4375 3.4625
2 0.4375 3.4
2 0.4375 3.525
1.9375 0.5 3.4
2 0.5 3.4625
1.9375 0.5 3.525
1.9375 0.4375 3.4
2 0.4375 3.4625
1.9375 0.4375 3.525
1.9375 0.5 3.4625
1.9375 0.4375 3.4625
2.125 0.4375 3.4
2.125 0.4375 3.525
2.0625 0.5 3.4
2.125 0.5 3.4625
2.0625 0.5 3.525
2.0625 0.4375 3.4
2.125 0.4375 3.4625
2.0625 0.4375 3.525
2.0625 0.5 3.4625
2.0625 0.4375 3.4625
2.25 0.4375 3.4
2.25 0.4375 3.525
2.1875 0.5 3.4
2.25 0.5 3.4625
2.1875 0.5 3.525
2.1875 0.4375 3.4
2.25 0.4375 3.4625
2.1875 0.4375 3.525
2.1875 0.5 3.4625
2.1875 0.4375 3.4625
2.375 0.4375 3.4
2.375 0.4375 3.525
2.3125 0.5 3.4
2.375 0.5 3.4625
2.3125 0.5 3.525
2.3125 0.4375 3.4
2.375 0.4375 3.4625
2.3125 0.4375 3.525
2.3125 0.5 3.4625
2.3125 0.4375 3.4625
2.5 0.4375 3.4
2.5 0.4375 3.525
2.4375 0.5 3.4
2.5 0.5 3.4625
2.4375 0.5 3.525
2.4375 0.4375 3.4
2.5 0.4375 3.4625
2.4375 0.4375 3.525
2.4375 0.5 3.4625
2.4375 0.4375 3.4625
2.625 0.4375 3.4
2.625 0.4375 3.525
2.5625 0.5 3.4
2.625 0.5 3.4625
2.5625 0.5 3.525
2.5625 0.4375 3.4
2.625 0.4375 3.4625
2.5625 0.4375 3.525
2.5625 0.5 3.4625
2.5625 0.4375 3.4625
2.75 0.4375 3.4
2.75 0.4375 3.525
2.6875 0.5 3.4
2.75 0.5 3.4625
2.6875 0.5 3.525
2.6875 0.4375 3.4
2.75 0.4375 3.4625
2.6875 0.4375 3.525
2.6875 0.5 3.4625
2.6875 0.4375 3.4625
2.875 0.4375 3.4
2.875 0.4375 3.525
2.8125 0.5 3.4
2.875 0.5 3.4625
2.8125 0.5 3.525
2.8125 0.4375 3.4
2.875 0.4375 3.4625
2.8125 0.4375 3.525
2.8125 0.5 3.4625
2.8125 0.4375 3.4625
3 0.4375 3.4
3 0.4375 3.525
2.9375 0.5 3.4
3 0.5 3.4625
2.9375 0.5 3.525
2.9375 0.4375 3.4
3 0.4375 3.4625
2.9375 0.4375 3.525
2.9375 0.5 3.4625
2.9375 0.4375 3.4625
3.125 0.4375 3.4
3.125 0.4375 3.525
3.0625 0.5 3.4
3.125 0.5 3.4625
3.0625 0.5 3.525
3.0625 0.4375 3.4
3.125 0.4375 3.4625
3.0625 0.4375 3.525
3.0625 0.5 3.4625
3.0625 0.4375 3.4625
3.25 0.4375 3.4
3.25 0.4375 3.525
3.1875 0.5 3.4
3.25 0.5 3.4625
3.1875 0.5 3.525
3.1875 0.4375 3.4
3.25 0.4375 3.4625
3.1875 0.4375 3.525
3.1875 0.5 3.4625
3.1875 0.4375 3.4625
3.375 0.4375 3.4
3.375 0.4375 3.525
3.3125 0.5 3.4
3.375 0.5 3.4625
3.3125 0.5 3.525
3.3125 0.4375 3.4
3.375 0.4375 3.4625
3.3125 0.4375 3.525
3.3125 0.5 3.4625
3.3125 0.4375 3.4625
3.5 0.4375 3.4
3.5 0.4375 3.525
3.4375 0.5 3.4
3.5 0.5 3.4625
3.4375 0.5 3.525
3.4375 0.4375 3.4
3.5 0.4375 3.4625
3.4375 0.4375 3.525
3.4375 0.5 3.4625
3.4375 0.4375 3.4625
3.625 0.4375 3.4
3.625 0.4375 3.525
3.5625 0.5 3.4
3.625 0.5 3.4625
3.5625 0.5 3.525
3.5625 0.4375 3.4
3.625 0.4375 3.4625
3.5625 0.4375 3.525
3.5625 0.5 3.4625
3.5625 0.4375 3.4625
3.75 0.4375 3.4
3.75 0.4375 3.525
3.6875 0.5 3.4
3.75 0.5 3.4625
3.6875 0.5 3.525
3.6875 0.4375 3.4
3.75 0.4375 3.4625
3.6875 0.4375 3.525
3.6875 0.5 3.4625
3.6875 0.4375 3.4625
3.875 0.4375 3.4
3.875 0.4375 3.525
3.8125 0.5 3.4
3.875 0.5 3.4625
3.8125 0.5 3.525
3.8125 0.4375 3.4
3.875 0.4375 3.4625
3.8125 0.4375 3.525
3.8125 0.5 3.4625
3.8125 0.4375 3.4625
4 0.4375 3.4
4 0.4375 3.525
3.9375 0.5 3.4
4 0.5 3.4625
3.9375 0.5 3.525
3.9375 0.4375 3.4
4 0.4375 3.4625
3.9375 0.4375 3.525
3.9375 0.5 3.4625
3.9375 0.4375 3.4625
0 0.5625 3.4
0.125 0.5625 3.4
0.125 0.5625 3.525
0 0.5625 3.525
0.0625 0.625 3.4
0.125 0.625 3.4625
0.0625 0.625 3.525
0 0.625 3.4625
0.0625 0.5625 3.4
0.125 0.5625 3.4625
0.0625 0.5625 3.525
0 0.5625 3.4625
0.0625 0.625 3.4625
0.0625 0.5625 3.4625
0.25 0.5625 3.4
0.25 0.5625 3.525
0.1875 0.625 3.4
0.25 0.625 3.4625
0.1875 0.625 3.525
0.1875 0.5625 3.4
0.25 0.5625 3.4625
0.1875 0.5625 3.525
0.1875 0.625 3.4625
0.1875 0.5625 3.4625
0.375 0.5625 3.4
0.375 0.5625 3.525
0.3125 0.625 3.4
0.375 0.625 3.4625
0.3125 0.625 3.525
0.3125 0.5625 3.4
0.375 0.5625 3.4625
0.3125 0.5625 3.525
0.3125 0.625 3.4625
0.3125 0.5625 3.4625
0.5 0.5625 3.4
0.5 0.5625 3.525
0.4375 0.625 3.4
0.5 0.625 3.4625
0.4375 0.625 3.525
0.4375 0.5625 3.4
0.5 0.5625 3.4625
0.4375 0.5625 3.525
0.4375 0.625 3.4625
0.4375 0.5625 3.4625
0.625 0.5625 3.4
0.625 0.5625 3.525
0.5625 0.625 3.4
0.625 0.625 3.4625
0.5625 0.625 3.525
0.5625 0.5625 3.4
0.625 0.5625 3.4625
0.5625 0.5625 3.525
0.5625 0.625 3.4625
0.5625 0.5625 3.4625
0.75 0.5625 3.4
0.75 0.5625 3.525
0.6875 0.625 3.4
0.75 0.625 3.4625
0.6875 0.625 3.525
0.6875 0.5625 3.4
0.75 0.5625 3.4625
0.6875 0.5625 3.525
0.6875 0.625 3.4625
0.6875 0.5625 3.4625
0.875 0.5625 3.4
0.875 0.5625 3.525
0.8125 0.625 3.4
0.875 0.625 3.4625
0.8125 0.625 3.525
0.8125 0.5625 3.4
0.875 0.5625 3.4625
0.8125 0.5625 3.525
0.8125 0.625 3.4625
0.8125 0.5625 3.4625
1 0.5625 3.4
1 0.5625 3.525
0.9375 0.625 3.4
1 0.625 3.4625
0.9375 0.625 3.525
0.9375 0.5625 3.4
1 0.5625 3.4625
0.9375 0.5625 3.525
0.9375 0.625 3.4625
0.9375 0.5625 3.4625
1.125 0.5625 3.4
1.125 0.5625 3.525
1.0625 0.625 3.4
1.125 0.625 3.4625
1.0625 0.625 3.525
1.0625 0.5625 3.4
1.125 0.5625 3.4625
1.0625 0.5625 3.525
1.0625 0.625 3.4625
1.0625 0.5625 3.4625
1.25 0.5625 3.4
1.25 0.5625 3.525
1.1875 0.625 3.4
1.25 0.625 3.4625
1.1875 0.625 3.525
1.1875 0.5625 3.4
1.25 0.5625 3.4625
1.1875 0.5625 3.525
1.1875 0.625 3.4625
1.1875 0.5625 3.4625
1.375 0.5625 3.4
1.375 0.5625 3.525
1.3125 0.625 3.4
1.375 0.625 3.4625
1.3125 0.625 3.525
1.3125 0.5625 3.4
1.375 0.5625 3.4625
1.3125 0.5625 3.525
1.3125 0.625 3.4625
1.3125 0.5625 3.4625
1.5 0.5625 3.4
1.5 0.5625 3.525
1.4375 0.625 3.4
1.5 0.625 3.4625
1.4375 0.625 3.525
1.4375 0.5625 3.4
1.5 0.5625 3.4625
1.4375 0.5625 3.525
1.4375 0.625 3.4625
1.4375 0.5625 3.4625
1.625 0.5625 3.4
1.625 0.5625 3.525
1.5625 0.625 3.4
1.625 0.625 3.4625
1.5625 0.625 3.525
1.5625 0.5625 3.4
1.625 0.5625 3.4625
1.5625 0.5625 3.525
1.5625 0.625 3.4625
1.5625 0.5625 3.4625
1.75 0.5625 3.4
1.75 0.5625 3.525
1.6875 0.625 3.4
1.75 0.625 3.4625
1.6875 0.625 3.525
1.6875 0.5625 3.4
1.75 0.5625 3.4625
1.6875 0.5625 3.525
1.6875 0.625 3.4625
1.6875 0.5625 3.4625
1.875 0.5625 3.4
1.875 0.5625 3.525
1.8125 0.625 3.4
1.875 0.625 3.4625
1.8125 0.625 3.525
1.8125 0.5625 3.4
1.875 0.5625 3.4625
1.8125 0.5625 3.525
1.8125 0.625 3.4625
1.8125 0.5625 3.4625
2 0.5625 3.4
2 0.5625 3.525
1.9375 0.625 3.4
2 0.625 3.4625
1.9375 0.625 3.525
1.9375 0.5625 3.4
2 0.5625 3.4625
1.9375 0.5625 3.525
1.9375 0.625 3.4625
1.9375 0.5625 3.4625
2.125 0.5625 3.4
2.125 0.5625 3.525
2.0625 0.625 3.4
2.125 0.625 3.4625
2.0625 0.625 3.525
2.0625 0.5625 3.4
2.125 0.5625 3.4625
2.0625 0.5625 3.525
2.0625 0.625 3.4625
2.0625 0.5625 3.4625
2.25 0.5625 3.4
2.25 0.5625 3.525
2.1875 0.625 3.4
2.25 0.625 3.4625
2.1875 0.625 3.525
2.1875 0.5625 3.4
2.25 0.5625 3.4625
2.1875 0.5625 3.525
2.1875 0.625 3.4625
2.1875 0.5625 3.4625
2.375 0.5625 3.4
2.375 0.5625 3.525
2.3125 0.625 3.4
2.375 0.625 3.4625
2.3125 0.625 3.525
2.3125 0.5625 3.4
2.375 0.5625 3.4625
2.3125 0.5625 3.525
2.3125 0.625 3.4625
2.3125 0.5625 3.4625
2.5 0.5625 3.4
2.5 0.5625 3.525
2.4375 0.625 3.4
2.5 0.625 3.4625
2.4375 0.625 3.525
2.4375 0.5625 3.4
2.5 0.5625 3.4625
2.4375 0.5625 3.525
2.4375 0.625 3.4625
2.4375 0.5625 3.4625
2.625 0.5625 3.4
2.625 0.5625 3.525
2.5625 0.625 3.4
2.625 0.625 3.4625
2.5625 0.625 3.525
2.5625 0.5625 3.4
2.625 0.5625 3.4625
2.5625 0.5625 3.525
2.5625 0.625 3.4625
2.5625 0.5625 3.4625
2.75 0.5625 3.4
2.75 0.5625 3.525
2.6875 0.625 3.4
2.75 0.625 3.4625
2.6875 0.625 3.525
2.6875 0.5625 3.4
2.75 0.5625 3.4625
2.6875 0.5625 3.525
2.6875 0.625 3.4625
2.6875 0.5625 3.4625
2.875 0.5625 3.4
2.875 0.5625 3.525
2.8125 0.625 3.4
2.875 0.625 3.4625
2.8125 0.625 3.525
2.8125 0.5625 3.4
2.875 0.5625 3.4625
2.8125 0.5625 3.525
2.8125 0.625 3.4625
2.8125 0.5625 3.4625
3 0.5625 3.4
3 0.5625 3.525
2.9375 0.625 3.4
3 0.625 3.4625
2.9375 0.625 3.525
2.9375 0.5625 3.4
3 0.5625 3.4625
2.9375 0.5625 3.525
2.9375 0.625 3.4625
2.9375 0.5625 3.4625
3.125 0.5625 3.4
3.125 0.5625 3.525
3.0625 0.625 3.4
3.125 0.625 3.4625
3.0625 0.625 3.525
3.0625 0.5625 3.4
3.125 0.5625 3.4625
3.0625 0.5625 3.525
3.0625 0.625 3.4625
3.0625 0.5625 3.4625
3.25 0.5625 3.4
3.25 0.5625 3.525
3.1875 0.625 3.4
3.25 0.625 3.4625
3.1875 0.625 3.525
3.1875 0.5625 3.4
3.25 0.5625 3.4625
3.1875 0.5625 3.525
3.1875 0.625 3.4625
3.1875 0.5625 3.4625
3.375 0.5625 3.4
3.375 0.5625 3.525
3.3125 0.625 3.4
3.375 0.625 3.4625
3.3125 0.625 3.525
3.3125 0.5625 3.4
3.375 0.5625 3.4625
3.3125 0.5625 3.525
3.3125 0.625 3.4625
3.3125 0.5625 3.4625
3.5 0.5625 3.4
3.5 0.5625 3.525
3.4375 0.625 3.4
3.5 0.625 3.4625
3.4375 0.625 3.525
3.4375 0.5625 3.4
3.5 0.5625 3.4625
3.4375 0.5625 3.525
3.4375 0.625 3.4625
3.4375 0.5625 3.4625
3.625 0.5625 3.4
3.625 0.5625 3.525
3.5625 0.625 3.4
3.625 0.625 3.4625
3.5625 0.625 3.525
3.5625 0.5625 3.4
3.625 0.5625 3.4625
3.5625 0.5625 3.525
3.5625 0.625 3.4625
3.5625 0.5625 3.4625
3.75 0.5625 3.4
3.75 0.5625 3.525
3.6875 0.625 3.4
3.75 0.625 3.4625
3.6875 0.625 3.525
3.6875 0.5625 3.4
3.75 0.5625 3.4625
3.6875 0.5625 3.525
3.6875 0.625 3.4625
3.6875 0.5625 3.4625
3.875 0.5625 3.4
3.875 0.5625 3.525
3.8125 0.625 3.4
3.875 0.625 3.4625
3.8125 0.625 3.525
3.8125 0.5625 3.4
3.875 0.5625 3.4625
3.8125 0.5625 3.525
3.8125 0.625 3.4625
3.8125 0.5625 3.4625
4 0.5625 3.4
4 0.5625 3.525
3.9375 0.625 3.4
4 0.625 3.4625
3.9375 0.625 3.525
3.9375 0.5625 3.4
4 0.5625 3.4625
3.9375 0.5625 3.525
3.9375 0.625 3.4625
3.9375 0.5625 3.4625
0 0.6875 3.4
0.125 0.6875 3.4
0.125 0.6875 3.525
0 0.6875 3.525
0.0625 0.75 3.4
0.125 0.75 3.4625
0.0625 0.75 3.525
0 0.75 3.4625
0.0625 0.6875 3.4
0.125 0.6875 3.4625
0.0625 0.6875 3.525
0 0.6875 3.4625
0.0625 0.75 3.4625
0.0625 0.6875 3.4625
0.25 0.6875 3.4
0.25 0.6875 3.525
0.1875 0.75 3.4
0.25 0.75 3.4625
0.1875 0.75 3.525
0.1875 0.6875 3.4
0.25 0.6875 3.4625
0.1875 0.6875 3.525
0.1875 0.75 3.4625
0.1875 0.6875 3.4625
0.375 0.6875 3.4
0.375 0.6875 3.525
0.3125 0.75 3.4
0.375 0.75 3.4625
0.3125 0.75 3.525
0.3125 0.6875 3.4
0.375 0.6875 3.4625
0.3125 0.6875 3.525
0.3125 0.75 3.4625
0.3125 0.6875 3.4625
0.5 0.6875 3.4
0.5 0.6875 3.525
0.4375 0.75 3.4
0.5 0.75 3.4625
0.4375 0.75 3.525
0.4375 0.6875 3.4
0.5 0.6875 3.4625
0.4375 0.6875 3.525
0.4375 0.75 3.4625
0.4375 0.6875 3.4625
0.625 0.6875 3.4
0.625 0.6875 3.525
0.5625 0.75 3.4
0.625 0.75 3.4625
0.5625 0.75 3.525
0.5625 0.6875 3.4
0.625 0.6875 3.4625
0.5625 0.6875 3.525
0.5625 0.75 3.4625
0.5625 0.6875 3.4625
0.75 0.6875 3.4
0.75 0.6875 3.525
0.6875 0.75 3.4
0.75 0.75 3.4625
0.6875 0.75 3.525
0.6875 0.6875 3.4
0.75 0.6875 3.4625
0.6875 0.6875 3.525
0.6875 0.75 3.4625
0.6875 0.6875 3.4625
0.875 0.6875 3.4
0.875 0.6875 3.525
0.8125 0.75 3.4
0.875 0.75 3.4625
0.8125 0.75 3.525
0.8125 0.6875 3.4
0.875 0.6875 3.4625
0.8125 0.6875 3.525
0.8125 0.75 3.4625
0.8125 0.6875 3.4625
1 0.6875 3.4
1 0.6875 3.525
0.9375 0.75 3.4
1 0.75 3.4625
0.9375 0.75 3.525
0.9375 0.6875 3.4
1 0.6875 3.4625
0.9375 0.6875 3.525
0.9375 0.75 3.4625
0.9375 0.6875 3.4625
1.125 0.6875 3.4
1.125 0.6875 3.525
1.0625 0.75 3.4
1.125 0.75 3.4625
1.0625 0.75 3.525
1.0625 0.6875 3.4
1.125 0.6875 3.4625
1.0625 0.6875 3.525
1.0625 0.75 3.4625
1.0625 0.6875 3.4625
1.25 0.6875 3.4
1.25 0.6875 3.525
1.1875 0.75 3.4
1.25 0.75 3.4625
1.1875 0.75 3.525
1.1875 0.6875 3.4
1.25 0.6875 3.4625
1.1875 0.6875 3.525
1.1875 0.75 3.4625
1.1875 0.6875 3.4625
1.375 0.6875 3.4
1.375 0.6875 3.525
1.3125 0.75 3.4
1.375 0.75 3.4625
1.3125 0.75 3.525
1.3125 0.6875 3.4
1.375 0.6875 3.4625
1.3125 0.6875 3.525
1.3125 0.75 3.4625
1.3125 0.6875 3.4625
1.5 0.6875 3.4
1.5 0.6875 3.525
1.4375 0.75 3.4
1.5 0.75 3.4625
1.4375 0.75 3.525
1.4375 0.6875 3.4
1.5 0.6875 3.4625
1.4375 0.6875 3.525
1.4375 0.75 3.4625
1.4375 0.6875 3.4625
1.625 0.6875 3.4
1.625 0.6875 3.525
1.5625 0.75 3.4
1.625 0.75 3.4625
1.5625 0.75 3.525
1.5625 0.6875 3.4
1.625 0.6875 3.4625
1.5625 0.6875 3.525
1.5625 0.75 3.4625
1.5625 0.6875 3.4625
1.75 0.6875 3.4
1.75 0.6875 3.525
1.6875 0.75 3.4
1.75 0.75 3.4625
1.6875 0.75 3.525
1.6875 0.6875 3.4
1.75 0.6875 3.4625
1.6875 0.6875 3.525
1.6875 0.75 3.4625
1.6875 0.6875 3.4625
1.875 0.6875 3.4
1.875 0.6875 3.525
1.8125 0.75 3.4
1.875 0.75 3.4625
1.8125 0.75 3.525
1.8125 0.6875 3.4
1.875 0.6875 3.4625
1.8125 0.6875 3.525
1.8125 0.75 3.4625
1.8125 0.6875 3.4625
2 0.6875 3.4
2 0.6875 3.525
1.9375 0.75 3.4
2 0.75 3.4625
1.9375 0.75 3.525
1.9375 0.6875 3.4
2 0.6875 3.4625
1.9375 0.6875 3.525
1.9375 0.75 3.4625
1.9375 0.6875 3.4625
2.125 0.6875 3.4
2.125 0.6875 3.525
2.0625 0.75 3.4
2.125 0.75 3.4625
2.0625 0.75 3.525
2.0625 0.6875 3.4
2.125 0.6875 3.4625
2.0625 0.6875 3.525
2.0625 0.75 3.4625
2.0625 0.6875 3.4625
2.25 0.6875 3.4
2.25 0.6875 3.525
2.1875 0.75 3.4
2.25 0.75 3.4625
2.1875 0.75 3.525
2.1875 0.6875 3.4
2.25 0.6875 3.4625
2.1875 0.6875 3.525
2.1875 0.75 3.4625
2.1875 0.6875 3.4625
2.375 0.6875 3.4
2.375 0.6875 3.525
2.3125 0.75 3.4
2.375 0.75 3.4625
2.3125 0.75 3.525
2.3125 0.6875 3.4
2.375 0.6875 3.4625
2.3125 0.6875 3.525
2.3125 0.75 3.4625
2.3125 0.6875 3.4625
2.5 0.6875 3.4
2.5 0.6875 3.525
2.4375 0.75 3.4
2.5 0.75 3.4625
2.4375 0.75 3.525
2.4375 0.6875 3.4
2.5 0.6875 3.4625
2.4375 0.6875 3.525
2.4375 0.75 3.4625
2.4375 0.6875 3.4625
2.625 0.6875 3.4
2.625 0.6875 3.525
2.5625 0.75 3.4
2.625 0.75 3.4625
2.5625 0.75 3.525
2.5625 0.6875 3.4
2.625 0.6875 3.4625
2.5625 0.6875 3.525
2.5625 0.75 3.4625
2.5625 0.6875 3.4625
2.75 0.6875 3.4
2.75 0.6875 3.525
2.6875 0.75 3.4
2.75 0.75 3.4625
2.6875 0.75 3.525
2.6875 0.6875 3.4
2.75 0.6875 3.4625
2.6875 0.6875 3.525
2.6875 0.75 3.4625
2.6875 0.6875 3.4625
2.875 0.6875 3.4
2.875 0.6875 3.525
2.8125 0.75 3.4
2.875 0.75 3.4625
2.8125 0.75 3.525
2.8125 0.6875 3.4
2.875 0.6875 3.4625
2.8125 0.6875 3.525
2.8125 0.75 3.4625
2.8125 0.6875 3.4625
3 0.6875 3.4
3 0.6875 3.525
2.9375 0.75 3.4
3 0.75 3.4625
2.9375 0.75 3.525
2.9375 0.6875 3.4
3 0.6875 3.4625
2.9375 0.6875 3.525
2.9375 0.75 3.4625
2.9375 0.6875 3.4625
3.125 0.6875 3.4
3.125 0.6875 3.525
3.0625 0.75 3.4
3.125 0.75 3.4625
3.0625 0.75 3.525
3.0625 0.6875 3.4
3.125 0.6875 3.4625
3.0625 0.6875 3.525
3.0625 0.75 3.4625
3.0625 0.6875 3.4625
3.25 0.6875 3.4
3.25 0.6875 3.525
3.1875 0.75 3.4
3.25 0.75 3.4625
3.1875 0.75 3.525
3.1875 0.6875 3.4
3.25 0.6875 3.4625
3.1875 0.6875 3.525
3.1875 0.75 3.4625
3.1875 0.6875 3.4625
3.375 0.6875 3.4
3.375 0.6875 3.525
3.3125 0.75 3.4
3.375 0.75 3.4625
3.3125 0.75 3.525
3.3125 0.6875 3.4
3.375 0.6875 3.4625
3.3125 0.6875 3.525
3.3125 0.75 3.4625
3.3125 0.6875 3.4625
3.5 0.6875 3.4
3.5 0.6875 3.525
3.4375 0.75 3.4
3.5 0.75 3.4625
3.4375 0.75 3.525
3.4375 0.6875 3.4
3.5 0.6875 3.4625
3.4375 0.6875 3.525
3.4375 0.75 3.4625
3.4375 0.6875 3.4625
3.625 0.6875 3.4
3.625 0.6875 3.525
3.5625 0.75 3.4
3.625 0.75 3.4625
3.5625 0.75 3.525
3.5625 0.6875 3.4
3.625 0.6875 3.4625
3.5625 0.6875 3.525
3.5625 0.75 3.4625
3.5625 0.6875 3.4625
3.75 0.6875 3.4
3.75 0.6875 3.525
3.6875 0.75 3.4
3.75 0.75 3.4625
3.6875 0.75 3.525
3.6875 0.6875 3.4
3.75 0.6875 3.4625
3.6875 0.6875 3.525
3.6875 0.75 3.4625
3.6875 0.6875 3.4625
3.875 0.6875 3.4
3.875 0.6875 3.525
3.8125 0.75 3.4
3.875 0.75 3.4625
3.8125 0.75 3.525
3.8125 0.6875 3.4
3.875 0.6875 3.4625
3.8125 0.6875 3.525
3.8125 0.75 3.4625
3.8125 0.6875 3.4625
4 0.6875 3.4
4 0.6875 3.525
3.9375 0.75 3.4
4 0.75 3.4625
3.9375 0.75 3.525
3.9375 0.6875 3.4
4 0.6875 3.4625
3.9375 0.6875 3.525
3.9375 0.75 3.4625
3.9375 0.6875 3.4625
0 0.8125 3.4
0.125 0.8125 3.4
0.125 0.8125 3.525
0 0.8125 3.525
0.0625 0.875 3.4
0.125 0.875 3.4625
0.0625 0.875 3.525
0 0.875 3.4625
0.0625 0.8125 3.4
0.125 0.8125 3.4625
0.0625 0.8125 3.525
0 0.8125 3.4625
0.0625 0.875 3.4625
0.0625 0.8125 3.4625
0.25 0.8125 3.4
0.25 0.8125 3.525
0.1875 0.875 3.4
0.25 0.875 3.4625
0.1875 0.875 3.525
0.1875 0.8125 3.4
0.25 0.8125 3.4625
0.1875 0.8125 3.525
0.1875 0.875 3.4625
0.1875 0.8125 3.4625
0.375 0.8125 3.4
0.375 0.8125 3.525
0.3125 0.875 3.4
0.375 0.875 3.4625
0.3125 0.875 3.525
0.3125 0.8125 3.4
0.375 0.8125 3.4625
0.3125 0.8125 3.525
0.3125 0.875 3.4625
0.3125 0.8125 3.4625
0.5 0.8125 3.4
0.5 0.8125 3.525
0.4375 0.875 3.4
0.5 0.875 3.4625
0.4375 0.875 3.525
0.4375 0.8125 3.4
0.5 0.8125 3.4625
0.4375 0.8125 3.525
0.4375 0.875 3.4625
0.4375 0.8125 3.4625
0.625 0.8125 3.4
0.625 0.8125 3.525
0.5625 0.875 3.4
0.625 0.875 3.4625
0.5625 0.875 3.525
0.5625 0.8125 3.4
0.625 0.8125 3.4625
0.5625 0.8125 3.525
0.5625 0.875 3.4625
0.5625 0.8125 3.4625
0.75 0.8125 3.4
0.75 0.8125 3.525
0.6875 0.875 3.4
0.75 0.875 3.4625
0.6875 0.875 3.525
0.6875 0.8125 3.4
0.75 0.8125 3.4625
0.6875 0.8125 3.525
0.6875 0.875 3.4625
0.6875 0.8125 3.4625
0.875 0.8125 3.4
0.875 0.8125 3.525
0.8125 0.875 3.4
0.875 0.875 3.4625
0.8125 0.875 3.525
0.8125 0.8125 3.4
0.875 0.8125 3.4625
0.8125 0.8125 3.525
0.8125 0.875 3.4625
0.8125 0.8125 3.4625
1 0.8125 3.4
1 0.8125 3.525
0.9375 0.875 3.4
1 0.875 3.4625
0.9375 0.875 3.525
0.9375 0.8125 3.4
1 0.8125 3.4625
0.9375 0.8125 3.525
0.9375 0.875 3.4625
0.9375 0.8125 3.4625
1.125 0.8125 3.4
1.125 0.8125 3.525
1.0625 0.875 3.4
1.125 0.875 3.4625
1.0625 0.875 3.525
1.0625 0.8125 3.4
1.125 0.8125 3.4625
1.0625 0.8125 3.525
1.0625 0.875 3.4625
1.0625 0.8125 3.4625
1.25 0.8125 3.4
1.25 0.8125 3.525
1.1875 0.875 3.4
1.25 0.875 3.4625
1.1875 0.875 3.525
1.1875 0.8125 3.4
1.25 0.8125 3.4625
1.1875 0.8125 3.525
1.1875 0.875 3.4625
1.1875 0.8125 3.4625
1.375 0.8125 3.4
1.375 0.8125 3.525
1.3125 0.875 3.4
1.375 0.875 3.4625
1.3125 0.875 3.525
1.3125 0.8125 3.4
1.375 0.8125 3.4625
1.3125 0.8125 3.525
1.3125 0.875 3.4625
1.3125 0.8125 3.4625
1.5 0.8125 3.4
1.5 0.8125 3.525
1.4375 0.875 3.4
1.5 0.875 3.4625
1.4375 0.875 3.525
1.4375 0.8125 3.4
1.5 0.8125 3.4625
1.4375 0.8125 3.525
1.4375 0.875 3.4625
1.4375 0.8125 3.4625
1.625 0.8125 3.4
1.625 0.8125 3.525
1.5625 0.875 3.4
1.625 0.875 3.4625
1.5625 0.875 3.525
1.5625 0.8125 3.4
1.625 0.8125 3.4625
1.5625 0.8125 3.525
1.5625 0.875 3.4625
1.5625 0.8125 3.4625
1.75 0.8125 3.4
1.75 0.8125 3.525
1.6875 0.875 3.4
1.75 0.875 3.4625
1.6875 0.875 3.525
1.6875 0.8125 3.4
1.75 0.8125 3.4625
1.6875 0.8125 3.525
1.6875 0.875 3.4625
1.6875 0.8125 3.4625
1.875 0.8125 3.4
1.875 0.8125 3.525
1.8125 0.875 3.4
1.875 0.875 3.4625
1.8125 0.875 3.525
1.8125 0.8125 3.4
1.875 0.8125 3.4625
1.8125 0.8125 3.525
1.8125 0.875 3.4625
1.8125 0.8125 3.4625
2 0.8125 3.4
2 0.8125 3.525
1.9375 0.875 3.4
2 0.875 3.4625
1.9375 0.875 3.525
1.9375 0.8125 3.4
2 0.8125 3.4625
1.9375 0.8125 3.525
1.9375 0.875 3.4625
1.9375 0.8125 3.4625
2.125 0.8125 3.4
2.125 0.8125 3.525
2.0625 0.875 3.4
2.125 0.875 3.4625
2.0625 0.875 3.525
2.0625 0.8125 3.4
2.125 0.8125 3.4625
2.0625 0.8125 3.525
2.0625 0.875 3.4625
2.0625 0.8125 3.4625
2.25 0.8125 3.4
2.25 0.8125 3.525
2.1875 0.875 3.4
2.25 0.875 3.4625
2.1875 0.875 3.525
2.1875 0.8125 3.4
2.25 0.8125 3.4625
2.1875 0.8125 3.525
2.1875 0.875 3.4625
2.1875 0.8125 3.4625
2.375 0.8125 3.4
2.375 0.8125 3.525
2.3125 0.875 3.4
2.375 0.875 3.4625
2.3125 0.875 3.525
2.3125 0.8125 3.4
2.375 0.8125 3.4625
2.3125 0.8125 3.525
2.3125 0.875 3.4625
2.3125 0.8125 3.4625
2.5 0.8125 3.4
2.5 0.8125 3.525
2.4375 0.875 3.4
2.5 0.875 3.4625
2.4375 0.875 3.525
2.4375 0.8125 3.4
2.5 0.8125 3.4625
2.4375 0.8125 3.525
2.4375 0.875 3.4625
2.4375 0.8125 3.4625
2.625 0.8125 3.4
2.625 0.8125 3.525
2.5625 0.875 3.4
2.625 0.875 3.4625
2.5625 0.875 3.525
2.5625 0.8125 3.4
2.625 0.8125 3.4625
2.5625 0.8125 3.525
2.5625 0.875 3.4625
2.5625 0.8125 3.4625
2.75 0.8125 3.4
2.75 0.8125 3.525
2.6875 0.875 3.4
2.75 0.875 3.4625
2.6875 0.875 3.525
2.6875 0.8125 3.4
2.75 0.8125 3.4625
2.6875 0.8125 3.525
2.6875 0.875 3.4625
2.6875 0.8125 3.4625
2.875 0.8125 3.4
2.875 0.8125 3.525
2.8125 0.875 3.4
2.875 0.875 3.4625
2.8125 0.875 3.525
2.8125 0.8125 3.4
2.875 0.8125 3.4625
2.8125 0.8125 3.525
2.8125 0.875 3.4625
2.8125 0.8125 3.4625
3 0.8125 3.4
3 0.8125 3.525
2.9375 0.875 3.4
3 0.875 3.4625
2.9375 0.875 3.525
2.9375 0.8125 3.4
3 0.8125 3.4625
2.9375 0.8125 3.525
2.9375 0.875 3.4625
2.9375 0.8125 3.4625
3.125 0.8125 3.4
3.125 0.8125 3.525
3.0625 0.875 3.4
3.125 0.875 3.4625
3.0625 0.875 3.525
3.0625 0.8125 3.4
3.125 0.8125 3.4625
3.0625 0.8125 3.525
3.0625 0.875 3.4625
3.0625 0.8125 3.4625
3.25 0.8125 3.4
3.25 0.8125 3.525
3.1875 0.875 3.4
3.25 0.875 3.4625
3.1875 0.875 3.525
3.1875 0.8125 3.4
3.25 0.8125 3.4625
3.1875 0.8125 3.525
3.1875 0.875 3.4625
3.1875 0.8125 3.4625
3.375 0.8125 3.4
3.375 0.8125 3.525
3.3125 0.875 3.4
3.375 0.875 3.4625
3.3125 0.875 3.525
3.3125 0.8125 3.4
3.375 0.8125 3.4625
3.3125 0.8125 3.525
3.3125 0.875 3.4625
3.3125 0.8125 3.4625
3.5 0.8125 3.4
3.5 0.8125 3.525
3.4375 0.875 3.4
3.5 0.875 3.4625
3.4375 0.875 3.525
3.4375 0.8125 3.4
3.5 0.8125 3.4625
3.4375 0.8125 3.525
3.4375 0.875 3.4625
3.4375 0.8125 3.4625
3.625 0.8125 3.4
3.625 0.8125 3.525
3.5625 0.875 3.4
3.625 0.875 3.4625
3.5625 0.875 3.525
3.5625 0.8125 3.4
3.625 0.8125 3.4625
3.5625 0.8125 3.525
3.5625 0.875 3.4625
3.5625 0.8125 3.4625
3.75 0.8125 3.4
3.75 0.8125 3.525
3.6875 0.875 3.4
3.75 0.875 3.4625
3.6875 0.875 3.525
3.6875 0.8125 3.4
3.75 0.8125 3.4625
3.6875 0.8125 3.525
3.6875 0.875 3.4625
3.6875 0.8125 3.4625
3.875 0.8125 3.4
3.875 0.8125 3.525
3.8125 0.875 3.4
3.875 0.875 3.4625
3.8125 0.875 3.525
3.8125 0.8125 3.4
3.875 0.8125 3.4625
3.8125 0.8125 3.525
3.8125 0.875 3.4625
3.8125 0.8125 3.4625
4 0.8125 3.4
4 0.8125 3.525
3.9375 0.875 3.4
4 0.875 3.4625
3.9375 0.875 3.525
3.9375 0.8125 3.4
4 0.8125 3.4625
3.9375 0.8125 3.525
3.9375 0.875 3.4625
3.9375 0.8125 3.4625
0 0.9375 3.4
0.125 0.9375 3.4
0.125 0.9375 3.525
0 0.9375 3.525
0.0625 1 3.4
0.125 1 3.4625
0.0625 1 3.525
0 1 3.4625
0.0625 0.9375 3.4
0.125 0.9375 3.4625
0.0625 0.9375 3.525
0 0.9375 3.4625
0.0625 1 3.4625
0.0625 0.9375 3.4625
0.25 0.9375 3.4
0.25 0.9375 3.525
0.1875 1 3.4
0.25 1 3.4625
0.1875 1 3.525
0.1875 0.9375 3.4
0.25 0.9375 3.4625
0.1875 0.9375 3.525
0.1875 1 3.4625
0.1875 0.9375 3.4625
0.375 0.9375 3.4
0.375 0.9375 3.525
0.3125 1 3.4
0.375 1 3.4625
0.3125 1 3.525
0.3125 0.9375 3.4
0.375 0.9375 3.4625
0.3125 0.9375 3.525
0.3125 1 3.4625
0.3125 0.9375 3.4625
0.5 0.9375 3.4
0.5 0.9375 3.525
0.4375 1 3.4
0.5 1 3.4625
0.4375 1 3.525
0.4375 0.9375 3.4
0.5 0.9375 3.4625
0.4375 0.9375 3.525
0.4375 1 3.4625
0.4375 0.9375 3.4625
0.625 0.9375 3.4
0.625 0.9375 3.525
0.5625 1 3.4
0.625 1 3.4625
0.5625 1 3.525
0.5625 0.9375 3.4
0.625 0.9375 3.4625
0.5625 0.9375 3.525
0.5625 1 3.4625
0.5625 0.9375 3.4625
0.75 0.9375 3.4
0.75 0.9375 3.525
0.6875 1 3.4
0.75 1 3.4625
0.6875 1 3.525
0.6875 0.9375 3.4
0.75 0.9375 3.4625
0.6875 0.9375 3.525
0.6875 1 3.4625
0.6875 0.9375 3.4625
0.875 0.9375 3.4
0.875 0.9375 3.525
0.8125 1 3.4
0.875 1 3.4625
0.8125 1 3.525
0.8125 0.9375 3.4
0.875 0.9375 3.4625
0.8125 0.9375 3.525
0.8125 1 3.4625
0.8125 0.9375 3.4625
1 0.9375 3.4
1 0.9375 3.525
0.9375 1 3.4
1 1 3.4625
0.9375 1 3.525
0.9375 0.9375 3.4
1 0.9375 3.4625
0.9375 0.9375 3.525
0.9375 1 3.4625
0.9375 0.9375 3.4625
1.125 0.9375 3.4
1.125 0.9375 3.525
1.0625 1 3.4
1.125 1 3.4625
1.0625 1 3.525
1.0625 0.9375 3.4
1.125 0.9375 3.4625
1.0625 0.9375 3.525
1.0625 1 3.4625
1.0625 0.9375 3.4625
1.25 0.9375 3.4
1.25 0.9375 3.525
1.1875 1 3.4
1.25 1 3.4625
1.1875 1 3.525
1.1875 0.9375 3.4
1.25 0.9375 3.4625
1.1875 0.9375 3.525
1.1875 1 3.4625
1.1875 0.9375 3.4625
1.375 0.9375 3.4
1.375 0.9375 3.525
1.3125 1 3.4
1.375 1 3.4625
1.3125 1 3.525
1.3125 0.9375 3.4
1.375 0.9375 3.4625
1.3125 0.9375 3.525
1.3125 1 3.4625
1.3125 0.9375 3.4625
1.5 0.9375 3.4
1.5 0.9375 3.525
1.4375 1 3.4
1.5 1 3.4625
1.4375 1 3.525
1.4375 0.9375 3.4
1.5 0.9375 3.4625
1.4375 0.9375 3.525
1.4375 1 3.4625
1.4375 0.9375 3.4625
1.625 0.9375 3.4
1.625 0.9375 3.525
1.5625 1 3.4
1.625 1 3.4625
1.5625 1 3.525
1.5625 0.9375 3.4
1.625 0.9375 3.4625
1.5625 0.9375 3.525
1.5625 1 3.4625
1.5625 0.9375 3.4625
1.75 0.9375 3.4
1.75 0.9375 3.525
1.6875 1 3.4
1.75 1 3.4625
1.6875 1 3.525
1.6875 0.9375 3.4
1.75 0.9375 3.4625
1.6875 0.9375 3.525
1.6875 1 3.4625
1.6875 0.9375 3.4625
1.875 0.9375 3.4
1.875 0.9375 3.525
1.8125 1 3.4
1.875 1 3.4625
1.8125 1 3.525
1.8125 0.9375 3.4
1.875 0.9375 3.4625
1.8125 0.9375 3.525
1.8125 1 3.4625
1.8125 0.9375 3.4625
2 0.9375 3.4
2 0.9375 3.525
1.9375 1 3.4
2 1 3.4625
1.9375 1 3.525
1.9375 0.9375 3.4
2 0.9375 3.4625
1.9375 0.9375 3.525
1.9375 1 3.4625
1.9375 0.9375 3.4625
2.125 0.9375 3.4
2.125 0.9375 3.525
2.0625 1 3.4
2.125 1 3.4625
2.0625 1 3.525
2.0625 0.9375 3.4
2.125 0.9375 3.4625
2.0625 0.9375 3.525
2.0625 1 3.4625
2.0625 0.9375 3.4625
2.25 0.9375 3.4
2.25 0.9375 3.525
2.1875 1 3.4
2.25 1 3.4625
2.1875 1 3.525
2.1875 0.9375 3.4
2.25 0.9375 3.4625
2.1875 0.9375 3.525
2.1875 1 3.4625
2.1875 0.9375 3.4625
2.375 0.9375 3.4
2.375 0.9375 3.525
2.3125 1 3.4
2.375 1 3.4625
2.3125 1 3.525
2.3125 0.9375 3.4
2.375 0.9375 3.4625
2.3125 0.9375 3.525
2.3125 1 3.4625
2.3125 0.9375 3.4625
2.5 0.9375 3.4
2.5 0.9375 3.525
2.4375 1 3.4
2.5 1 3.4625
2.4375 1 3.525
2.4375 0.9375 3.4
2.5 0.9375 3.4625
2.4375 0.9375 3.525
2.4375 1 3.4625
2.4375 0.9375 3.4625
2.625 0.9375 3.4
2.625 0.9375 3.525
2.5625 1 3.4
2.625 1 3.4625
2.5625 1 3.525
2.5625 0.9375 3.4
2.625 0.9375 3.4625
2.5625 0.9375 3.525
2.5625 1 3.4625
2.5625 0.9375 3.4625
2.75 0.9375 3.4
2.75 0.9375 3.525
2.6875 1 3.4
2.75 1 3.4625
2.6875 1 3.525
2.6875 0.9375 3.4
2.75 0.9375 3.4625
2.6875 0.9375 3.525
2.6875 1 3.4625
2.6875 0.9375 3.4625
2.875 0.9375 3.4
2.875 0.9375 3.525
2.8125 1 3.4
2.875 1 3.4625
2.8125 1 3.525
2.8125 0.9375 3.4
2.875 0.9375 3.4625
2.8125 0.9375 3.525
2.8125 1 3.4625
2.8125 0.9375 3.4625
3 0.9375 3.4
3 0.9375 3.525
2.9375 1 3.4
3 1 3.4625
2.9375 1 3.525
2.9375 0.9375 3.4
3 0.9375 3.4625
2.9375 0.9375 3.525
2.9375 1 3.4625
2.9375 0.9375 3.4625
3.125 0.9375 3.4
3.125 0.9375 3.525
3.0625 1 3.4
3.125 1 3.4625
3.0625 1 3.525
3.0625 0.9375 3.4
3.125 0.9375 3.4625
3.0625 0.9375 3.525
3.0625 1 3.4625
3.0625 0.9375 3.4625
3.25 0.9375 3.4
3.25 0.9375 3.525
3.1875 1 3.4
3.25 1 3.4625
3.1875 1 3.525
3.1875 0.9375 3.4
3.25 0.9375 3.4625
3.1875 0.9375 3.525
3.1875 1 3.4625
3.1875 0.9375 3.4625
3.375 0.9375 3.4
3.375 0.9375 3.525
3.3125 1 3.4
3.375 1 3.4625
3.3125 1 3.525
3.3125 0.9375 3.4
3.375 0.9375 3.4625
3.3125 0.9375 3.525
3.3125 1 3.4625
3.3125 0.9375 3.4625
3.5 0.9375 3.4
3.5 0.9375 3.525
3.4375 1 3.4
3.5 1 3.4625
3.4375 1 3.525
3.4375 0.9375 3.4
3.5 0.9375 3.4625
3.4375 0.9375 3.525
3.4375 1 3.4625
3.4375 0.9375 3.4625
3.625 0.9375 3.4
3.625 0.9375 3.525
3.5625 1 3.4
3.625 1 3.4625
3.5625 1 3.525
3.5625 0.9375 3.4
3.625 0.9375 3.4625
3.5625 0.9375 3.525
3.5625 1 3.4625
3.5625 0.9375 3.4625
3.75 0.9375 3.4
3.75 0.9375 3.525
3.6875 1 3.4
3.75 1 3.4625
3.6875 1 3.525
3.6875 0.9375 3.4
3.75 0.9375 3.4625
3.6875 0.9375 3.525
3.6875 1 3.4625
3.6875 0.9375 3.4625
3.875 0.9375 3.4
3.875 0.9375 3.525
3.8125 1 3.4
3.875 1 3.4625
3.8125 1 3.525
3.8125 0.9375 3.4
3.875 0.9375 3.4625
3.8125 0.9375 3.525
3.8125 1 3.4625
3.8125 0.9375 3.4625
4 0.9375 3.4
4 0.9375 3.525
3.9375 1 3.4
4 1 3.4625
3.9375 1 3.525
3.9375 0.9375 3.4
4 0.9375 3.4625
3.9375 0.9375 3.525
3.9375 1 3.4625
3.9375 0.9375 3.4625
0.125 0 3.5875
0.0625 0 3.65
0 0 3.5875
0.125 0.0625 3.65
0 0.0625 3.65
0.125 0.125 3.5875
0.0625 0.125 3.65
0 0.125 3.5875
0.0625 0 3.5875
0.125 0.0625 3.5875
0.0625 0.0625 3.65
0 0.0625 3.5875
0.0625 0.125 3.5875
0.0625 0.0625 3.5875
0.25 0 3.5875
0.1875 0 3.65
0.25 0.0625 3.65
0.25 0.125 3.5875
0.1875 0.125 3.65
0.1875 0 3.5875
0.25 0.0625 3.5875
0.1875 0.0625 3.65
0.1875 0.125 3.5875
0.1875 0.0625 3.5875
0.375 0 3.5875
0.3125 0 3.65
0.375 0.0625 3.65
0.375 0.125 3.5875
0.3125 0.125 3.65
0.3125 0 3.5875
0.375 0.0625 3.5875
0.3125 0.0625 3.65
0.3125 0.125 3.5875
0.3125 0.0625 3.5875
0.5 0 3.5875
0.4375 0 3.65
0.5 0.0625 3.65
0.5 0.125 3.5875
0.4375 0.125 3.65
0.4375 0 3.5875
0.5 0.0625 3.5875
0.4375 0.0625 3.65
0.4375 0.125 3.5875
0.4375 0.0625 3.5875
0.625 0 3.5875
0.5625 0 3.65
0.625 0.0625 3.65
0.625 0.125 3.5875
0.5625 0.125 3.65
0.5625 0 3.5875
0.625 0.0625 3.5875
0.5625 0.0625 3.65
0.5625 0.125 3.5875
0.5625 0.0625 3.5875
0.75 0 3.5875
0.6875 0 3.65
0.75 0.0625 3.65
0.75 0.125 3.5875
0.6875 0.125 3.65
0.6875 0 3.5875
0.75 0.0625 3.5875
0.6875 0.0625 3.65
0.6875 0.125 3.5875
0.6875 0.0625 3.5875
0.875 0 3.5875
0.8125 0 3.65
0.875 0.0625 3.65
0.875 0.125 3.5875
0.8125 0.125 3.65
0.8125 0 3.5875
0.875 0.0625 3.5875
0.8125 0.0625 3.65
0.8125 0.125 3.5875
0.8125 0.0625 3.5875
1 0 3.5875
0.9375 0 3.65
1 0.0625 3.65
1 0.125 3.5875
0.9375 0.125 3.65
0.9375 0 3.5875
1 0.0625 3.5875
0.9375 0.0625 3.65
0.9375 0.125 3.5875
0.9375 0.0625 3.5875
1.125 0 3.5875
1.0625 0 3.65
1.125 0.0625 3.65
1.125 0.125 3.5875
1.0625 0.125 3.65
1.0625 0 3.5875
1.125 0.0625 3.5875
1.0625 0.0625 3.65
1.0625 0.125 3.5875
1.0625 0.0625 3.5875
1.25 0 3.5875
1.1875 0 3.65
1.25 0.0625 3.65
1.25 0.125 3.5875
1.1875 0.125 3.65
1.1875 0 3.5875
1.25 0.0625 3.5875
1.1875 0.0625 3.65
1.1875 0.125 3.5875
1.1875 0.0625 3.5875
1.375 0 3.5875
1.3125 0 3.65
1.375 0.0625 3.65
1.375 0.125 3.5875
1.3125 0.125 3.65
1.3125 0 3.5875
1.375 0.0625 3.5875
1.3125 0.0625 3.65
1.3125 0.125 3.5875
1.3125 0.0625 3.5875
1.5 0 3.5875
1.4375 0 3.65
1.5 0.0625 3.65
1.5 0.125 3.5875
1.4375 0.125 3.65
1.4375 0 3.5875
1.5 0.0625 3.5875
1.4375 0.0625 3.65
1.4375 0.125 3.5875
1.4375 0.0625 3.5875
1.625 0 3.5875
1.5625 0 3.65
1.625 0.0625 3.65
1.625 0.125 3.5875
1.5625 0.125 3.65
1.5625 0 3.5875
1.625 0.0625 3.5875
1.5625 0.0625 3.65
1.5625 0.125 3.5875
1.5625 0.0625 3.5875
1.75 0 3.5875
1.6875 0 3.65
1.75 0.0625 3.65
1.75 0.125 3.5875
1.6875 0.125 3.65
1.6875 0 3.5875
1.75 0.0625 3.5875
1.6875 0.0625 3.65
1.6875 0.125 3.5875
1.6875 0.0625 3.5875
1.875 0 3.5875
1.8125 0 3.65
1.875 0.0625 3.65
1.875 0.125 3.5875
1.8125 0.125 3.65
1.8125 0 3.5875
1.875 0.0625 3.5875
1.8125 0.0625 3.65
1.8125 0.125 3.5875
1.8125 0.0625 3.5875
2 0 3.5875
1.9375 0 3.65
2 0.0625 3.65
2 0.125 3.5875
1.9375 0.125 3.65
1.9375 0 3.5875
2 0.0625 3.5875
1.9375 0.0625 3.65
1.9375 0.125 3.5875
1.9375 0.0625 3.5875
2.125 0 3.5875
2.0625 0 3.65
2.125 0.0625 3.65
2.125 0.125 3.5875
2.0625 0.125 3.65
2.0625 0 3.5875
2.125 0.0625 3.5875
2.0625 0.0625 3.65
2.0625 0.125 3.5875
2.0625 0.0625 3.5875
2.25 0 3.5875
2.1875 0 3.65
2.25 0.0625 3.65
2.25 0.125 3.5875
2.1875 0.125 3.65
2.1875 0 3.5875
2.25 0.0625 3.5875
2.1875 0.0625 3.65
2.1875 0.125 3.5875
2.1875 0.0625 3.5875
2.375 0 3.5875
2.3125 0 3.65
2.375 0.0625 3.65
2.375 0.125 3.5875
2.3125 0.125 3.65
2.3125 0 3.5875
2.375 0.0625 3.5875
2.3125 0.0625 3.65
2.3125 0.125 3.5875
2.3125 0.0625 3.5875
2.5 0 3.5875
2.4375 0 3.65
2.5 0.0625 3.65
2.5 0.125 3.5875
2.4375 0.125 3.65
2.4375 0 3.5875
2.5 0.0625 3.5875
2.4375 0.0625 3.65
2.4375 0.125 3.5875
2.4375 0.0625 3.5875
2.625 0 3.5875
2.5625 0 3.65
2.625 0.0625 3.65
2.625 0.125 3.5875
2.5625 0.125 3.65
2.5625 0 3.5875
2.625 0.0625 3.5875
2.5625 0.0625 3.65
2.5625 0.125 3.5875
2.5625 0.0625 3.5875
2.75 0 3.5875
2.6875 0 3.65
2.75 0.0625 3.65
2.75 0.125 3.5875
2.6875 0.125 3.65
2.6875 0 3.5875
2.75 0.0625 3.5875
2.6875 0.0625 3.65
2.6875 0.125 3.5875
2.6875 0.0625 3.5875
2.875 0 3.5875
2.8125 0 3.65
2.875 0.0625 3.65
2.875 0.125 3.5875
2.8125 0.125 3.65
2.8125 0 3.5875
2.875 0.0625 3.5875
2.8125 0.0625 3.65
2.8125 0.125 3.5875
2.8125 0.0625 3.5875
3 0 3.5875
2.9375 0 3.65
3 0.0625 3.65
3 0.125 3.5875
2.9375 0.125 3.65
2.9375 0 3.5875
3 0.0625 3.5875
2.9375 0.0625 3.65
2.9375 0.125 3.5875
2.9375 0.0625 3.5875
3.125 0 3.5875
3.0625 0 3.65
3.125 0.0625 3.65
3.125 0.125 3.5875
3.0625 0.125 3.65
3.0625 0 3.5875
3.125 0.0625 3.5875
3.0625 0.0625 3.65
3.0625 0.125 3.5875
3.0625 0.0625 3.5875
3.25 0 3.5875
3.1875 0 3.65
3.25 0.0625 3.65
3.25 0.125 3.5875
3.1875 0.125 3.65
3.1875 0 3.5875
3.25 0.0625 3.5875
3.1875 0.0625 3.65
3.1875 0.125 3.5875
3.1875 0.0625 3.5875
3.375 0 3.5875
3.3125 0 3.65
3.375 0.0625 3.65
3.375 0.125 3.5875
3.3125 0.125 3.65
3.3125 0 3.5875
3.375 0.0625 3.5875
3.3125 0.0625 3.65
3.3125 0.125 3.5875
3.3125 0.0625 3.5875
3.5 0 3.5875
3.4375 0 3.65
3.5 0.0625 3.65
3.5 0.125 3.5875
3.4375 0.125 3.65
3.4375 0 3.5875
3.5 0.0625 3.5875
3.4375 0.0625 3.65
3.4375 0.125 3.5875
3.4375 0.0625 3.5875
3.625 0 3.5875
3.5625 0 3.65
3.625 0.0625 3.65
3.625 0.125 3.5875
3.5625 0.125 3.65
3.5625 0 3.5875
3.625 0.0625 3.5875
3.5625 0.0625 3.65
3.5625 0.125 3.5875
3.5625 0.0625 3.5875
3.75 0 3.5875
3.6875 0 3.65
3.75 0.0625 3.65
3.75 0.125 3.5875
3.6875 0.125 3.65
3.6875 0 3.5875
3.75 0.0625 3.5875
3.6875 0.0625 3.65
3.6875 0.125 3.5875
3.6875 0.0625 3.5875
3.875 0 3.5875
3.8125 0 3.65
3.875 0.0625 3.65
3.875 0.125 3.5875
3.8125 0.125 3.65
3.8125 0 3.5875
3.875 0.0625 3.5875
3.8125 0.0625 3.65
3.8125 0.125 3.5875
3.8125 0.0625 3.5875
4 0 3.5875
3.9375 0 3.65
4 0.0625 3.65
4 0.125 3.5875
3.9375 0.125 3.65
3.9375 0 3.5875
4 0.0625 3.5875
3.9375 0.0625 3.65
3.9375 0.125 3.5875
3.9375 0.0625 3.5875
0.125 0.1875 3.65
0 0.1875 3.65
0.125 0.25 3.5875
0.0625 0.25 3.65
0 0.25 3.5875
0.125 0.1875 3.5875
0.0625 0.1875 3.65
0 0.1875 3.5875
0.0625 0.25 3.5875
0.0625 0.1875 3.5875
0.25 0.1875 3.65
0.25 0.25 3.5875
0.1875 0.25 3.65
0.25 0.1875 3.5875
0.1875 0.1875 3.65
0.1875 0.25 3.5875
0.1875 0.1875 3.5875
0.375 0.1875 3.65
0.375 0.25 3.5875
0.3125 0.25 3.65
0.375 0.1875 3.5875
0.3125 0.1875 3.65
0.3125 0.25 3.5875
0.3125 0.1875 3.5875
0.5 0.1875 3.65
0.5 0.25 3.5875
0.4375 0.25 3.65
0.5 0.1875 3.5875
0.4375 0.1875 3.65
0.4375 0.25 3.5875
0.4375 0.1875 3.5875
0.625 0.1875 3.65
0.625 0.25 3.5875
0.5625 0.25 3.65
0.625 0.1875 3.5875
0.5625 0.1875 3.65
0.5625 0.25 3.5875
0.5625 0.1875 3.5875
0.75 0.1875 3.65
0.75 0.25 3.5875
0.6875 0.25 3.65
0.75 0.1875 3.5875
0.6875 0.1875 3.65
0.6875 0.25 3.5875
0.6875 0.1875 3.5875
0.875 0.1875 3.65
0.875 0.25 3.5875
0.8125 0.25 3.65
0.875 0.1875 3.5875
0.8125 0.1875 3.65
0.8125 0.25 3.5875
0.8125 0.1875 3.5875
1 0.1875 3.65
1 0.25 3.5875
0.9375 0.25 3.65
1 0.1875 3.5875
0.9375 0.1875 3.65
0.9375 0.25 3.5875
0.9375 0.1875 3.5875
1.125 0.1875 3.65
1.125 0.25 3.5875
1.0625 0.25 3.65
1.125 0.1875 3.5875
1.0625 0.1875 3.65
1.0625 0.25 3.5875
1.0625 0.1875 3.5875
1.25 0.1875 3.65
1.25 0.25 3.5875
1.1875 0.25 3.65
1.25 0.1875 3.5875
1.1875 0.1875 3.65
1.1875 0.25 3.5875
1.1875 0.1875 3.5875
1.375 0.1875 3.65
1.375 0.25 3.5875
1.3125 0.25 3.65
1.375 0.1875 3.5875
1.3125 0.1875 3.65
1.3125 0.25 3.5875
1.3125 0.1875 3.5875
1.5 0.1875 3.65
1.5 0.25 3.5875
1.4375 0.25 3.65
1.5 0.1875 3.5875
1.4375 0.1875 3.65
1.4375 0.25 3.5875
1.4375 0.1875 3.5875
1.625 0.1875 3.65
1.625 0.25 3.5875
1.5625 0.25 3.65
1.625 0.1875 3.5875
1.5625 0.1875 3.65
1.5625 0.25 3.5875
1.5625 0.1875 3.5875
1.75 0.1875 3.65
1.75 0.25 3.5875
1.6875 0.25 3.65
1.75 0.1875 3.5875
1.6875 0.1875 3.65
1.6875 0.25 3.5875
1.6875 0.1875 3.5875
1.875 0.1875 3.65
1.875 0.25 3.5875
1.8125 0.25 3.65
1.875 0.1875 3.5875
1.8125 0.1875 3.65
1.8125 0.25 3.5875
1.8125 0.1875 3.5875
2 0.1875 3.65
2 0.25 3.5875
1.9375 0.25 3.65
2 0.1875 3.5875
1.9375 0.1875 3.65
1.9375 0.25 3.5875
1.9375 0.1875 3.5875
2.125 0.1875 3.65
2.125 0.25 3.5875
2.0625 0.25 3.65
2.125 0.1875 3.5875
2.0625 0.1875 3.65
2.0625 0.25 3.5875
2.0625 0.1875 3.5875
2.25 0.1875 3.65
2.25 0.25 3.5875
2.1875 0.25 3.65
2.25 0.1875 3.5875
2.1875 0.1875 3.65
2.1875 0.25 3.5875
2.1875 0.1875 3.5875
2.375 0.1875 3.65
2.375 0.25 3.5875
2.3125 0.25 3.65
2.375 0.1875 3.5875
2.3125 0.1875 3.65
2.3125 0.25 3.5875
2.3125 0.1875 3.5875
2.5 0.1875 3.65
2.5 0.25 3.5875
2.4375 0.25 3.65
2.5 0.1875 3.5875
2.4375 0.1875 3.65
2.4375 0.25 3.5875
2.4375 0.1875 3.5875
2.625 0.1875 3.65
2.625 0.25 3.5875
2.5625 0.25 3.65
2.625 0.1875 3.5875
2.5625 0.1875 3.65
2.5625 0.25 3.5875
2.5625 0.1875 3.5875
2.75 0.1875 3.65
2.75 0.25 3.5875
2.6875 0.25 3.65
2.75 0.1875 3.5875
2.6875 0.1875 3.65
2.6875 0.25 3.5875
2.6875 0.1875 3.5875
2.875 0.1875 3.65
2.875 0.25 3.5875
2.8125 0.25 3.65
2.875 0.1875 3.5875
2.8125 0.1875 3.65
2.8125 0.25 3.5875
2.8125 0.1875 3.5875
3 0.1875 3.65
3 0.25 3.5875
2.9375 0.25 3.65
3 0.1875 3.5875
2.9375 0.1875 3.65
2.9375 0.25 3.5875
2.9375 0.1875 3.5875
3.125 0.1875 3.65
3.125 0.25 3.5875
3.0625 0.25 3.65
3.125 0.1875 3.5875
3.0625 0.1875 3.65
3.0625 0.25 3.5875
3.0625 0.1875 3.5875
3.25 0.1875 3.65
3.25 0.25 3.5875
3.1875 0.25 3.65
3.25 0.1875 3.5875
3.1875 0.1875 3.65
3.1875 0.25 3.5875
3.1875 0.1875 3.5875
3.375 0.1875 3.65
3.375 0.25 3.5875
3.3125 0.25 3.65
3.375 0.1875 3.5875
3.3125 0.1875 3.65
3.3125 0.25 3.5875
3.3125 0.1875 3.5875
3.5 0.1875 3.65
3.5 0.25 3.5875
3.4375 0.25 3.65
3.5 0.1875 3.5875
3.4375 0.1875 3.65
3.4375 0.25 3.5875
3.4375 0.1875 3.5875
3.625 0.1875 3.65
3.625 0.25 3.5875
3.5625 0.25 3.65
3.625 0.1875 3.5875
3.5625 0.1875 3.65
3.5625 0.25 3.5875
3.5625 0.1875 3.5875
3.75 0.1875 3.65
3.75 0.25 3.5875
3.6875 0.25 3.65
3.75 0.1875 3.5875
3.6875 0.1875 3.65
3.6875 0.25 3.5875
3.6875 0.1875 3.5875
3.875 0.1875 3.65
3.875 0.25 3.5875
3.8125 0.25 3.65
3.875 0.1875 3.5875
3.8125 0.1875 3.65
3.8125 0.25 3.5875
3.8125 0.1875 3.5875
4 0.1875 3.65
4 0.25 3.5875
3.9375 0.25 3.65
4 0.1875 3.5875
3.9375 0.1875 3.65
3.9375 0.25 3.5875
3.9375 0.1875 3.5875
0.125 0.3125 3.65
0 0.3125 3.65
0.125 0.375 3.5875
0.0625 0.375 3.65
0 0.375 3.5875
0.125 0.3125 3.5875
0.0625 0.3125 3.65
0 0.3125 3.5875
0.0625 0.375 3.5875
0.0625 0.3125 3.5875
0.25 0.3125 3.65
0.25 0.375 3.5875
0.1875 0.375 3.65
0.25 0.3125 3.5875
0.1875 0.3125 3.65
0.1875 0.375 3.5875
0.1875 0.3125 3.5875
0.375 0.3125 3.65
0.375 0.375 3.5875
0.3125 0.375 3.65
0.375 0.3125 3.5875
0.3125 0.3125 3.65
0.3125 0.375 3.5875
0.3125 0.3125 3.5875
0.5 0.3125 3.65
0.5 0.375 3.5875
0.4375 0.375 3.65
0.5 0.3125 3.5875
0.4375 0.3125 3.65
0.4375 0.375 3.5875
0.4375 0.3125 3.5875
0.625 0.3125 3.65
0.625 0.375 3.5875
0.5625 0.375 3.65
0.625 0.3125 3.5875
0.5625 0.3125 3.65
0.5625 0.375 3.5875
0.5625 0.3125 3.5875
0.75 0.3125 3.65
0.75 0.375 3.5875
0.6875 0.375 3.65
0.75 0.3125 3.5875
0.6875 0.3125 3.65
0.6875 0.375 3.5875
0.6875 0.3125 3.5875
0.875 0.3125 3.65
0.875 0.375 3.5875
0.8125 0.375 3.65
0.875 0.3125 3.5875
0.8125 0.3125 3.65
0.8125 0.375 3.5875
0.8125 0.3125 3.5875
1 0.3125 3.65
1 0.375 3.5875
0.9375 0.375 3.65
1 0.3125 3.5875
0.9375 0.3125 3.65
0.9375 0.375 3.5875
0.9375 0.3125 3.5875
1.125 0.3125 3.65
1.125 0.375 3.5875
1.0625 0.375 3.65
1.125 0.3125 3.5875
1.0625 0.3125 3.65
1.0625 0.375 3.5875
1.0625 0.3125 3.5875
1.25 0.3125 3.65
1.25 0.375 3.5875
1.1875 0.375 3.65
1.25 0.3125 3.5875
1.1875 0.3125 3.65
1.1875 0.375 3.5875
1.1875 0.3125 3.5875
1.375 0.3125 3.65
1.375 0.375 3.5875
1.3125 0.375 3.65
1.375 0.3125 3.5875
1.3125 0.3125 3.65
1.3125 0.375 3.5875
1.3125 0.3125 3.5875
1.5 0.3125 3.65
1.5 0.375 3.5875
1.4375 0.375 3.65
1.5 0.3125 3.5875
1.4375 0.3125 3.65
1.4375 0.375 3.5875
1.4375 0.3125 3.5875
1.625 0.3125 3.65
1.625 0.375 3.5875
1.5625 0.375 3.65
1.625 0.3125 3.5875
1.5625 0.3125 3.65
1.5625 0.375 3.5875
1.5625 0.3125 3.5875
1.75 0.3125 3.65
1.75 0.375 3.5875
1.6875 0.375 3.65
1.75 0.3125 3.5875
1.6875 0.3125 3.65
1.6875 0.375 3.5875
1.6875 0.3125 3.5875
1.875 0.3125 3.65
1.875 0.375 3.5875
1.8125 0.375 3.65
1.875 0.3125 3.5875
1.8125 0.3125 3.65
1.8125 0.375 3.5875
1.8125 0.3125 3.5875
2 0.3125 3.65
2 0.375 3.5875
1.9375 0.375 3.65
2 0.3125 3.5875
1.9375 0.3125 3.65
1.9375 0.375 3.5875
1.9375 0.3125 3.5875
2.125 0.3125 3.65
2.125 0.375 3.5875
2.0625 0.375 3.65
2.125 0.3125 3.5875
2.0625 0.3125 3.65
2.0625 0.375 3.5875
2.0625 0.3125 3.5875
2.25 0.3125 3.65
2.25 0.375 3.5875
2.1875 0.375 3.65
2.25 0.3125 3.5875
2.1875 0.3125 3.65
2.1875 0.375 3.5875
2.1875 0.3125 3.5875
2.375 0.3125 3.65
2.375 0.375 3.5875
2.3125 0.375 3.65
2.375 0.3125 3.5875
2.3125 0.3125 3.65
2.3125 0.375 3.5875
2.3125 0.3125 3.5875
2.5 0.3125 3.65
2.5 0.375 3.5875
2.4375 0.375 3.65
2.5 0.3125 3.5875
2.4375 0.3125 3.65
2.4375 0.375 3.5875
2.4375 0.3125 3.5875
2.625 0.3125 3.65
2.625 0.375 3.5875
2.5625 0.375 3.65
2.625 0.3125 3.5875
2.5625 0.3125 3.65
2.5625 0.375 3.5875
2.5625 0.3125 3.5875
2.75 0.3125 3.65
2.75 0.375 3.5875
2.6875 0.375 3.65
2.75 0.3125 3.5875
2.6875 0.3125 3.65
2.6875 0.375 3.5875
2.6875 0.3125 3.5875
2.875 0.3125 3.65
2.875 0.375 3.5875
2.8125 0.375 3.65
2.875 0.3125 3.5875
2.8125 0.3125 3.65
2.8125 0.375 3.5875
2.8125 0.3125 3.5875
3 0.3125 3.65
3 0.375 3.5875
2.9375 0.375 3.65
3 0.3125 3.5875
2.9375 0.3125 3.65
2.9375 0.375 3.5875
2.9375 0.3125 3.5875
3.125 0.3125 3.65
3.125 0.375 3.5875
3.0625 0.375 3.65
3.125 0.3125 3.5875
3.0625 0.3125 3.65
3.0625 0.375 3.5875
3.0625 0.3125 3.5875
3.25 0.3125 3.65
3.25 0.375 3.5875
3.1875 0.375 3.65
3.25 0.3125 3.5875
3.1875 0.3125 3.65
3.1875 0.375 3.5875
3.1875 0.3125 3.5875
3.375 0.3125 3.65
3.375 0.375 3.5875
3.3125 0.375 3.65
3.375 0.3125 3.5875
3.3125 0.3125 3.65
3.3125 0.375 3.5875
3.3125 0.3125 3.5875
3.5 0.3125 3.65
3.5 0.375 3.5875
3.4375 0.375 3.65
3.5 0.3125 3.5875
3.4375 0.3125 3.65
3.4375 0.375 3.5875
3.4375 0.3125 3.5875
3.625 0.3125 3.65
3.625 0.375 3.5875
3.5625 0.375 3.65
3.625 0.3125 3.5875
3.5625 0.3125 3.65
3.5625 0.375 3.5875
3.5625 0.3125 3.5875
3.75 0.3125 3.65
3.75 0.375 3.5875
3.6875 0.375 3.65
3.75 0.3125 3.5875
3.6875 0.3125 3.65
3.6875 0.375 3.5875
3.6875 0.3125 3.5875
3.875 0.3125 3.65
3.875 0.375 3.5875
3.8125 0.375 3.65
3.875 0.3125 3.5875
3.8125 0.3125 3.65
3.8125 0.375 3.5875
3.8125 0.3125 3.5875
4 0.3125 3.65
4 0.375 3.5875
3.9375 0.375 3.65
4 0.3125 3.5875
3.9375 0.3125 3.65
3.9375 0.375 3.5875
3.9375 0.3125 3.5875
0.125 0.4375 3.65
0 0.4375 3.65
0.125 0.5 3.5875
0.0625 0.5 3.65
0 0.5 3.5875
0.125 0.4375 3.5875
0.0625 0.4375 3.65
0 0.4375 3.5875
0.0625 0.5 3.5875
0.0625 0.4375 3.5875
0.25 0.4375 3.65
0.25 0.5 3.5875
0.1875 0.5 3.65
0.25 0.4375 3.5875
0.1875 0.4375 3.65
0.1875 0.5 3.5875
0.1875 0.4375 3.5875
0.375 0.4375 3.65
0.375 0.5 3.5875
0.3125 0.5 3.65
0.375 0.4375 3.5875
0.3125 0.4375 3.65
0.3125 0.5 3.5875
0.3125 0.4375 3.5875
0.5 0.4375 3.65
0.5 0.5 3.5875
0.4375 0.5 3.65
0.5 0.4375 3.5875
0.4375 0.4375 3.65
0.4375 0.5 3.5875
0.4375 0.4375 3.5875
0.625 0.4375 3.65
0.625 0.5 3.5875
0.5625 0.5 3.65
0.625 0.4375 3.5875
0.5625 0.4375 3.65
0.5625 0.5 3.5875
0.5625 0.4375 3.5875
0.75 0.4375 3.65
0.75 0.5 3.5875
0.6875 0.5 3.65
0.75 0.4375 3.5875
0.6875 0.4375 3.65
0.6875 0.5 3.5875
0.6875 0.4375 3.5875
0.875 0.4375 3.65
0.875 0.5 3.5875
0.8125 0.5 3.65
0.875 0.4375 3.5875
0.8125 0.4375 3.65
0.8125 0.5 3.5875
0.8125 0.4375 3.5875
1 0.4375 3.65
1 0.5 3.5875
0.9375 0.5 3.65
1 0.4375 3.5875
0.9375 0.4375 3.65
0.9375 0.5 3.5875
0.9375 0.4375 3.5875
1.125 0.4375 3.65
1.125 0.5 3.5875
1.0625 0.5 3.65
1.125 0.4375 3.5875
1.0625 0.4375 3.65
1.0625 0.5 3.5875
1.0625 0.4375 3.5875
1.25 0.4375 3.65
1.25 0.5 3.5875
1.1875 0.5 3.65
1.25 0.4375 3.5875
1.1875 0.4375 3.65
1.1875 0.5 3.5875
1.1875 0.4375 3.5875
1.375 0.4375 3.65
1.375 0.5 3.5875
1.3125 0.5 3.65
1.375 0.4375 3.5875
1.3125 0.4375 3.65
1.3125 0.5 3.5875
1.3125 0.4375 3.5875
1.5 0.4375 3.65
1.5 0.5 3.5875
1.4375 0.5 3.65
1.5 0.4375 3.5875
1.4375 0.4375 3.65
1.4375 0.5 3.5875
1.4375 0.4375 3.5875
1.625 0.4375 3.65
1.625 0.5 3.5875
1.5625 0.5 3.65
1.625 0.4375 3.5875
1.5625 0.4375 3.65
1.5625 0.5 3.5875
1.5625 0.4375 3.5875
1.75 0.4375 3.65
1.75 0.5 3.5875
1.6875 0.5 3.65
1.75 0.4375 3.5875
1.6875 0.4375 3.65
1.6875 0.5 3.5875
1.6875 0.4375 3.5875
1.875 0.4375 3.65
1.875 0.5 3.5875
1.8125 0.5 3.65
1.875 0.4375 3.5875
1.8125 0.4375 3.65
1.8125 0.5 3.5875
1.8125 0.4375 3.5875
2 0.4375 3.65
2 0.5 3.5875
1.9375 0.5 3.65
2 0.4375 3.5875
1.9375 0.4375 3.65
1.9375 0.5 3.5875
1.9375 0.4375 3.5875
2.125 0.4375 3.65
2.125 0.5 3.5875
2.0625 0.5 3.65
2.125 0.4375 3.5875
2.0625 0.4375 3.65
2.0625 0.5 3.5875
2.0625 0.4375 3.5875
2.25 0.4375 3.65
2.25 0.5 3.5875
2.1875 0.5 3.65
2.25 0.4375 3.5875
2.1875 0.4375 3.65
2.1875 0.5 3.5875
2.1875 0.4375 3.5875
2.375 0.4375 3.65
2.375 0.5 3.5875
2.3125 0.5 3.65
2.375 0.4375 3.5875
2.3125 0.4375 3.65
2.3125 0.5 3.5875
2.3125 0.4375 3.5875
2.5 0.4375 3.65
2.5 0.5 3.5875
2.4375 0.5 3.65
2.5 0.4375 3.5875
2.4375 0.4375 3.65
2.4375 0.5 3.5875
2.4375 0.4375 3.5875
2.625 0.4375 3.65
2.625 0.5 3.5875
2.5625 0.5 3.65
2.625 0.4375 3.5875
2.5625 0.4375 3.65
2.5625 0.5 3.5875
2.5625 0.4375 3.5875
2.75 0.4375 3.65
2.75 0.5 3.5875
2.6875 0.5 3.65
2.75 0.4375 3.5875
2.6875 0.4375 3.65
2.6875 0.5 3.5875
2.6875 0.4375 3.5875
2.875 0.4375 3.65
2.875 0.5 3.5875
2.8125 0.5 3.65
2.875 0.4375 3.5875
2.8125 0.4375 3.65
2.8125 0.5 3.5875
2.8125 0.4375 3.5875
3 0.4375 3.65
3 0.5 3.5875
2.9375 0.5 3.65
3 0.4375 3.5875
2.9375 0.4375 3.65
2.9375 0.5 3.5875
2.9375 0.4375 3.5875
3.125 0.4375 3.65
3.125 0.5 3.5875
3.0625 0.5 3.65
3.125 0.4375 3.5875
3.0625 0.4375 3.65
3.0625 0.5 3.5875
3.0625 0.4375 3.5875
3.25 0.4375 3.65
3.25 0.5 3.5875
3.1875 0.5 3.65
3.25 0.4375 3.5875
3.1875 0.4375 3.65
3.1875 0.5 3.5875
3.1875 0.4375 3.5875
3.375 0.4375 3.65
3.375 0.5 3.5875
3.3125 0.5 3.65
3.375 0.4375 3.5875
3.3125 0.4375 3.65
3.3125 0.5 3.5875
3.3125 0.4375 3.5875
3.5 0.4375 3.65
3.5 0.5 3.5875
3.4375 0.5 3.65
3.5 0.4375 3.5875
3.4375 0.4375 3.65
3.4375 0.5 3.5875
3.4375 0.4375 3.5875
3.625 0.4375 3.65
3.625 0.5 3.5875
3.5625 0.5 3.65
3.625 0.4375 3.5875
3.5625 0.4375 3.65
3.5625 0.5 3.5875
3.5625 0.4375 3.5875
3.75 0.4375 3.65
3.75 0.5 3.5875
3.6875 0.5 3.65
3.75 0.4375 3.5875
3.6875 0.4375 3.65
3.6875 0.5 3.5875
3.6875 0.4375 3.5875
3.875 0.4375 3.65
3.875 0.5 3.5875
3.8125 0.5 3.65
3.875 0.4375 3.5875
3.8125 0.4375 3.65
3.8125 0.5 3.5875
3.8125 0.4375 3.5875
4 0.4375 3.65
4 0.5 3.5875
3.9375 0.5 3.65
4 0.4375 3.5875
3.9375 0.4375 3.65
3.9375 0.5 3.5875
3.9375 0.4375 3.5875
0.125 0.5625 3.65
0 0.5625 3.65
0.125 0.625 3.5875
0.0625 0.625 3.65
0 0.625 3.5875
0.125 0.5625 3.5875
0.0625 0.5625 3.65
0 0.5625 3.5875
0.0625 0.625 3.5875
0.0625 0.5625 3.5875
0.25 0.5625 3.65
0.25 0.625 3.5875
0.1875 0.625 3.65
0.25 0.5625 3.5875
0.1875 0.5625 3.65
0.1875 0.625 3.5875
0.1875 0.5625 3.5875
0.375 0.5625 3.65
0.375 0.625 3.5875
0.3125 0.625 3.65
0.375 0.5625 3.5875
0.3125 0.5625 3.65
0.3125 0.625 3.5875
0.3125 0.5625 3.5875
0.5 0.5625 3.65
0.5 0.625 3.5875
0.4375 0.625 3.65
0.5 0.5625 3.5875
0.4375 0.5625 3.65
0.4375 0.625 3.5875
0.4375 0.5625 3.5875
0.625 0.5625 3.65
0.625 0.625 3.5875
0.5625 0.625 3.65
0.625 0.5625 3.5875
0.5625 0.5625 3.65
0.5625 0.625 3.5875
0.5625 0.5625 3.5875
0.75 0.5625 3.65
0.75 0.625 3.5875
0.6875 0.625 3.65
0.75 0.5625 3.5875
0.6875 0.5625 3.65
0.6875 0.625 3.5875
0.6875 0.5625 3.5875
0.875 0.5625 3.65
0.875 0.625 3.5875
0.8125 0.625 3.65
0.875 0.5625 3.5875
0.8125 0.5625 3.65
0.8125 0.625 3.5875
0.8125 0.5625 3.5875
1 0.5625 3.65
1 0.625 3.5875
0.9375 0.625 3.65
1 0.5625 3.5875
0.9375 0.5625 3.65
0.9375 0.625 3.5875
0.9375 0.5625 3.5875
1.125 0.5625 3.65
1.125 0.625 3.5875
1.0625 0.625 3.65
1.125 0.5625 3.5875
1.0625 0.5625 3.65
1.0625 0.625 3.5875
1.0625 0.5625 3.5875
1.25 0.5625 3.65
1.25 0.625 3.5875
1.1875 0.625 3.65
1.25 0.5625 3.5875
1.1875 0.5625 3.65
1.1875 0.625 3.5875
1.1875 0.5625 3.5875
1.375 0.5625 3.65
1.375 0.625 3.5875
1.3125 0.625 3.65
1.375 0.5625 3.5875
1.3125 0.5625 3.65
1.3125 0.625 3.5875
1.3125 0.5625 3.5875
1.5 0.5625 3.65
1.5 0.625 3.5875
1.4375 0.625 3.65
1.5 0.5625 3.5875
1.4375 0.5625 3.65
1.4375 0.625 3.5875
1.4375 0.5625 3.5875
1.625 0.5625 3.65
1.625 0.625 3.5875
1.5625 0.625 3.65
1.625 0.5625 3.5875
1.5625 0.5625 3.65
1.5625 0.625 3.5875
1.5625 0.5625 3.5875
1.75 0.5625 3.65
1.75 0.625 3.5875
1.6875 0.625 3.65
1.75 0.5625 3.5875
1.6875 0.5625 3.65
1.6875 0.625 3.5875
1.6875 0.5625 3.5875
1.875 0.5625 3.65
1.875 0.625 3.5875
1.8125 0.625 3.65
1.875 0.5625 3.5875
1.8125 0.5625 3.65
1.8125 0.625 3.5875
1.8125 0.5625 3.5875
2 0.5625 3.65
2 0.625 3.5875
1.9375 0.625 3.65
2 0.5625 3.5875
1.9375 0.5625 3.65
1.9375 0.625 3.5875
1.9375 0.5625 3.5875
2.125 0.5625 3.65
2.125 0.625 3.5875
2.0625 0.625 3.65
2.125 0.5625 3.5875
2.0625 0.5625 3.65
2.0625 0.625 3.5875
2.0625 0.5625 3.5875
2.25 0.5625 3.65
2.25 0.625 3.5875
2.1875 0.625 3.65
2.25 0.5625 3.5875
2.1875 0.5625 3.65
2.1875 0.625 3.5875
2.1875 0.5625 3.5875
2.375 0.5625 3.65
2.375 0.625 3.5875
2.3125 0.625 3.65
2.375 0.5625 3.5875
2.3125 0.5625 3.65
2.3125 0.625 3.5875
2.3125 0.5625 3.5875
2.5 0.5625 3.65
2.5 0.625 3.5875
2.4375 0.625 3.65
2.5 0.5625 3.5875
2.4375 0.5625 3.65
2.4375 0.625 3.5875
2.4375 0.5625 3.5875
2.625 0.5625 3.65
2.625 0.625 3.5875
2.5625 0.625 3.65
2.625 0.5625 3.5875
2.5625 0.5625 3.65
2.5625 0.625 3.5875
2.5625 0.5625 3.5875
2.75 0.5625 3.65
2.75 0.625 3.5875
2.6875 0.625 3.65
2.75 0.5625 3.5875
2.6875 0.5625 3.65
2.6875 0.625 3.5875
2.6875 0.5625 3.5875
2.875 0.5625 3.65
2.875 0.625 3.5875
2.8125 0.625 3.65
2.875 0.5625 3.5875
2.8125 0.5625 3.65
2.8125 0.625 3.5875
2.8125 0.5625 3.5875
3 0.5625 3.65
3 0.625 3.5875
2.9375 0.625 3.65
3 0.5625 3.5875
2.9375 0.5625 3.65
2.9375 0.625 3.5875
2.9375 0.5625 3.5875
3.125 0.5625 3.65
3.125 0.625 3.5875
3.0625 0.625 3.65
3.125 0.5625 3.5875
3.0625 0.5625 3.65
3.0625 0.625 3.5875
3.0625 0.5625 3.5875
3.25 0.5625 3.65
3.25 0.625 3.5875
3.1875 0.625 3.65
3.25 0.5625 3.5875
3.1875 0.5625 3.65
3.1875 0.625 3.5875
3.1875 0.5625 3.5875
3.375 0.5625 3.65
3.375 0.625 3.5875
3.3125 0.625 3.65
3.375 0.5625 3.5875
3.3125 0.5625 3.65
3.3125 0.625 3.5875
3.3125 0.5625 3.5875
3.5 0.5625 3.65
3.5 0.625 3.5875
3.4375 0.625 3.65
3.5 0.5625 3.5875
3.4375 0.5625 3.65
3.4375 0.625 3.5875
3.4375 0.5625 3.5875
3.625 0.5625 3.65
3.625 0.625 3.5875
3.5625 0.625 3.65
3.625 0.5625 3.5875
3.5625 0.5625 3.65
3.5625 0.625 3.5875
3.5625 0.5625 3.5875
3.75 0.5625 3.65
3.75 0.625 3.5875
3.6875 0.625 3.65
3.75 0.5625 3.5875
3.6875 0.5625 3.65
3.6875 0.625 3.5875
3.6875 0.5625 3.5875
3.875 0.5625 3.65
3.875 0.625 3.5875
3.8125 0.625 3.65
3.875 0.5625 3.5875
3.8125 0.5625 3.65
3.8125 0.625 3.5875
3.8125 0.5625 3.5875
4 0.5625 3.65
4 0.625 3.5875
3.9375 0.625 3.65
4 0.5625 3.5875
3.9375 0.5625 3.65
3.9375 0.625 3.5875
3.9375 0.5625 3.5875
0.125 0.6875 3.65
0 0.6875 3.65
0.125 0.75 3.5875
0.0625 0.75 3.65
0 0.75 3.5875
0.125 0.6875 3.5875
0.0625 0.6875 3.65
0 0.6875 3.5875
0.0625 0.75 3.5875
0.0625 0.6875 3.5875
0.25 0.6875 3.65
0.25 0.75 3.5875
0.1875 0.75 3.65
0.25 0.6875 3.5875
0.1875 0.6875 3.65
0.1875 0.75 3.5875
0.1875 0.6875 3.5875
0.375 0.6875 3.65
0.375 0.75 3.5875
0.3125 0.75 3.65
0.375 0.6875 3.5875
0.3125 0.6875 3.65
0.3125 0.75 3.5875
0.3125 0.6875 3.5875
0.5 0.6875 3.65
0.5 0.75 3.5875
0.4375 0.75 3.65
0.5 0.6875 3.5875
0.4375 0.6875 3.65
0.4375 0.75 3.5875
0.4375 0.6875 3.5875
0.625 0.6875 3.65
0.625 0.75 3.5875
0.5625 0.75 3.65
0.625 0.6875 3.5875
0.5625 0.6875 3.65
0.5625 0.75 3.5875
0.5625 0.6875 3.5875
0.75 0.6875 3.65
0.75 0.75 3.5875
0.6875 0.75 3.65
0.75 0.6875 3.5875
0.6875 0.6875 3.65
0.6875 0.75 3.5875
0.6875 0.6875 3.5875
0.875 0.6875 3.65
0.875 0.75 3.5875
0.8125 0.75 3.65
0.875 0.6875 3.5875
0.8125 0.6875 3.65
0.8125 0.75 3.5875
0.8125 0.6875 3.5875
1 0.6875 3.65
1 0.75 3.5875
0.9375 0.75 3.65
1 0.6875 3.5875
0.9375 0.6875 3.65
0.9375 0.75 3.5875
0.9375 0.6875 3.5875
1.125 0.6875 3.65
1.125 0.75 3.5875
1.0625 0.75 3.65
1.125 0.6875 3.5875
1.0625 0.6875 3.65
1.0625 0.75 3.5875
1.0625 0.6875 3.5875
1.25 0.6875 3.65
1.25 0.75 3.5875
1.1875 0.75 3.65
1.25 0.6875 3.5875
1.1875 0.6875 3.65
1.1875 0.75 3.5875
1.1875 0.6875 3.5875
1.375 0.6875 3.65
1.375 0.75 3.5875
1.3125 0.75 3.65
1.375 0.6875 3.5875
1.3125 0.6875 3.65
1.3125 0.75 3.5875
1.3125 0.6875 3.5875
1.5 0.6875 3.65
1.5 0.75 3.5875
1.4375 0.75 3.65
1.5 0.6875 3.5875
1.4375 0.6875 3.65
1.4375 0.75 3.5875
1.4375 0.6875 3.5875
1.625 0.6875 3.65
1.625 0.75 3.5875
1.5625 0.75 3.65
1.625 0.6875 3.5875
1.5625 0.6875 3.65
1.5625 0.75 3.5875
1.5625 0.6875 3.5875
1.75 0.6875 3.65
1.75 0.75 3.5875
1.6875 0.75 3.65
1.75 0.6875 3.5875
1.6875 0.6875 3.65
1.6875 0.75 3.5875
1.6875 0.6875 3.5875
1.875 0.6875 3.65
1.875 0.75 3.5875
1.8125 0.75 3.65
1.875 0.6875 3.5875
1.8125 0.6875 3.65
1.8125 0.75 3.5875
1.8125 0.6875 3.5875
2 0.6875 3.65
2 0.75 3.5875
1.9375 0.75 3.65
2 0.6875 3.5875
1.9375 0.6875 3.65
1.9375 0.75 3.5875
1.9375 0.6875 3.5875
2.125 0.6875 3.65
2.125 0.75 3.5875
2.0625 0.75 3.65
2.125 0.6875 3.5875
2.0625 0.6875 3.65
2.0625 0.75 3.5875
2.0625 0.6875 3.5875
2.25 0.6875 3.65
2.25 0.75 3.5875
2.1875 0.75 3.65
2.25 0.6875 3.5875
2.1875 0.6875 3.65
2.1875 0.75 3.5875
2.1875 0.6875 3.5875
2.375 0.6875 3.65
2.375 0.75 3.5875
2.3125 0.75 3.65
2.375 0.6875 3.5875
2.3125 0.6875 3.65
2.3125 0.75 3.5875
2.3125 0.6875 3.5875
2.5 0.6875 3.65
2.5 0.75 3.5875
2.4375 0.75 3.65
2.5 0.6875 3.5875
2.4375 0.6875 3.65
2.4375 0.75 3.5875
2.4375 0.6875 3.5875
2.625 0.6875 3.65
2.625 0.75 3.5875
2.5625 0.75 3.65
2.625 0.6875 3.5875
2.5625 0.6875 3.65
2.5625 0.75 3.5875
2.5625 0.6875 3.5875
2.75 0.6875 3.65
2.75 0.75 3.5875
2.6875 0.75 3.65
2.75 0.6875 3.5875
2.6875 0.6875 3.65
2.6875 0.75 3.5875
2.6875 0.6875 3.5875
2.875 0.6875 3.65
2.875 0.75 3.5875
2.8125 0.75 3.65
2.875 0.6875 3.5875
2.8125 0.6875 3.65
2.8125 0.75 3.5875
2.8125 0.6875 3.5875
3 0.6875 3.65
3 0.75 3.5875
2.9375 0.75 3.65
3 0.6875 3.5875
2.9375 0.6875 3.65
2.9375 0.75 3.5875
2.9375 0.6875 3.5875
3.125 0.6875 3.65
3.125 0.75 3.5875
3.0625 0.75 3.65
3.125 0.6875 3.5875
3.0625 0.6875 3.65
3.0625 0.75 3.5875
3.0625 0.6875 3.5875
3.25 0.6875 3.65
3.25 0.75 3.5875
3.1875 0.75 3.65
3.25 0.6875 3.5875
3.1875 0.6875 3.65
3.1875 0.75 3.5875
3.1875 0.6875 3.5875
3.375 0.6875 3.65
3.375 0.75 3.5875
3.3125 0.75 3.65
3.375 0.6875 3.5875
3.3125 0.6875 3.65
3.3125 0.75 3.5875
3.3125 0.6875 3.5875
3.5 0.6875 3.65
3.5 0.75 3.5875
3.4375 0.75 3.65
3.5 0.6875 3.5875
3.4375 0.6875 3.65
3.4375 0.75 3.5875
3.4375 0.6875 3.5875
3.625 0.6875 3.65
3.625 0.75 3.5875
3.5625 0.75 3.65
3.625 0.6875 3.5875
3.5625 0.6875 3.65
3.5625 0.75 3.5875
3.5625 0.6875 3.5875
3.75 0.6875 3.65
3.75 0.75 3.5875
3.6875 0.75 3.65
3.75 0.6875 3.5875
3.6875 0.6875 3.65
3.6875 0.75 3.5875
3.6875 0.6875 3.5875
3.875 0.6875 3.65
3.875 0.75 3.5875
3.8125 0.75 3.65
3.875 0.6875 3.5875
3.8125 0.6875 3.65
3.8125 0.75 3.5875
3.8125 0.6875 3.5875
4 0.6875 3.65
4 0.75 3.5875
3.9375 0.75 3.65
4 0.6875 3.5875
3.9375 0.6875 3.65
3.9375 0.75 3.5875
3.9375 0.6875 3.5875
0.125 0.8125 3.65
0 0.8125 3.65
0.125 0.875 3.5875
0.0625 0.875 3.65
0 0.875 3.5875
0.125 0.8125 3.5875
0.0625 0.8125 3.65
0 0.8125 3.5875
0.0625 0.875 3.5875
0.0625 0.8125 3.5875
0.25 0.8125 3.65
0.25 0.875 3.5875
0.1875 0.875 3.65
0.25 0.8125 3.5875
0.1875 0.8125 3.65
0.1875 0.875 3.5875
0.1875 0.8125 3.5875
0.375 0.8125 3.65
0.375 0.875 3.5875
0.3125 0.875 3.65
0.375 0.8125 3.5875
0.3125 0.8125 3.65
0.3125 0.875 3.5875
0.3125 0.8125 3.5875
0.5 0.8125 3.65
0.5 0.875 3.5875
0.4375 0.875 3.65
0.5 0.8125 3.5875
0.4375 0.8125 3.65
0.4375 0.875 3.5875
0.4375 0.8125 3.5875
0.625 0.8125 3.65
0.625 0.875 3.5875
0.5625 0.875 3.65
0.625 0.8125 3.5875
0.5625 0.8125 3.65
0.5625 0.875 3.5875
0.5625 0.8125 3.5875
0.75 0.8125 3.65
0.75 0.875 3.5875
0.6875 0.875 3.65
0.75 0.8125 3.5875
0.6875 0.8125 3.65
0.6875 0.875 3.5875
0.6875 0.8125 3.5875
0.875 0.8125 3.65
0.875 0.875 3.5875
0.8125 0.875 3.65
0.875 0.8125 3.5875
0.8125 0.8125 3.65
0.8125 0.875 3.5875
0.8125 0.8125 3.5875
1 0.8125 3.65
1 0.875 3.5875
0.9375 0.875 3.65
1 0.8125 3.5875
0.9375 0.8125 3.65
0.9375 0.875 3.5875
0.9375 0.8125 3.5875
1.125 0.8125 3.65
1.125 0.875 3.5875
1.0625 0.875 3.65
1.125 0.8125 3.5875
1.0625 0.8125 3.65
1.0625 0.875 3.5875
1.0625 0.8125 3.5875
1.25 0.8125 3.65
1.25 0.875 3.5875
1.1875 0.875 3.65
1.25 0.8125 3.5875
1.1875 0.8125 3.65
1.1875 0.875 3.5875
1.1875 0.8125 3.5875
1.375 0.8125 3.65
1.375 0.875 3.5875
1.3125 0.875 3.65
1.375 0.8125 3.5875
1.3125 0.8125 3.65
1.3125 0.875 3.5875
1.3125 0.8125 3.5875
1.5 0.8125 3.65
1.5 0.875 3.5875
1.4375 0.875 3.65
1.5 0.8125 3.5875
1.4375 0.8125 3.65
1.4375 0.875 3.5875
1.4375 0.8125 3.5875
1.625 0.8125 3.65
1.625 0.875 3.5875
1.5625 0.875 3.65
1.625 0.8125 3.5875
1.5625 0.8125 3.65
1.5625 0.875 3.5875
1.5625 0.8125 3.5875
1.75 0.8125 3.65
1.75 0.875 3.5875
1.6875 0.875 3.65
1.75 0.8125 3.5875
1.6875 0.8125 3.65
1.6875 0.875 3.5875
1.6875 0.8125 3.5875
1.875 0.8125 3.65
1.875 0.875 3.5875
1.8125 0.875 3.65
1.875 0.8125 3.5875
1.8125 0.8125 3.65
1.8125 0.875 3.5875
1.8125 0.8125 3.5875
2 0.8125 3.65
2 0.875 3.5875
1.9375 0.875 3.65
2 0.8125 3.5875
1.9375 0.8125 3.65
1.9375 0.875 3.5875
1.9375 0.8125 3.5875
2.125 0.8125 3.65
2.125 0.875 3.5875
2.0625 0.875 3.65
2.125 0.8125 3.5875
2.0625 0.8125 3.65
2.0625 0.875 3.5875
2.0625 0.8125 3.5875
2.25 0.8125 3.65
2.25 0.875 3.5875
2.1875 0.875 3.65
2.25 0.8125 3.5875
2.1875 0.8125 3.65
2.1875 0.875 3.5875
2.1875 0.8125 3.5875
2.375 0.8125 3.65
2.375 0.875 3.5875
2.3125 0.875 3.65
2.375 0.8125 3.5875
2.3125 0.8125 3.65
2.3125 0.875 3.5875
2.3125 0.8125 3.5875
2.5 0.8125 3.65
2.5 0.875 3.5875
2.4375 0.875 3.65
2.5 0.8125 3.5875
2.4375 0.8125 3.65
2.4375 0.875 3.5875
2.4375 0.8125 3.5875
2.625 0.8125 3.65
2.625 0.875 3.5875
2.5625 0.875 3.65
2.625 0.8125 3.5875
2.5625 0.8125 3.65
2.5625 0.875 3.5875
2.5625 0.8125 3.5875
2.75 0.8125 3.65
2.75 0.875 3.5875
2.6875 0.875 3.65
2.75 0.8125 3.5875
2.6875 0.8125 3.65
2.6875 0.875 3.5875
2.6875 0.8125 3.5875
2.875 0.8125 3.65
2.875 0.875 3.5875
2.8125 0.875 3.65
2.875 0.8125 3.5875
2.8125 0.8125 3.65
2.8125 0.875 3.5875
2.8125 0.8125 3.5875
3 0.8125 3.65
3 0.875 3.5875
2.9375 0.875 3.65
3 0.8125 3.5875
2.9375 0.8125 3.65
2.9375 0.875 3.5875
2.9375 0.8125 3.5875
3.125 0.8125 3.65
3.125 0.875 3.5875
3.0625 0.875 3.65
3.125 0.8125 3.5875
3.0625 0.8125 3.65
3.0625 0.875 3.5875
3.0625 0.8125 3.5875
3.25 0.8125 3.65
3.25 0.875 3.5875
3.1875 0.875 3.65
3.25 0.8125 3.5875
3.1875 0.8125 3.65
3.1875 0.875 3.5875
3.1875 0.8125 3.5875
3.375 0.8125 3.65
3.375 0.875 3.5875
3.3125 0.875 3.65
3.375 0.8125 3.5875
3.3125 0.8125 3.65
3.3125 0.875 3.5875
3.3125 0.8125 3.5875
3.5 0.8125 3.65
3.5 0.875 3.5875
3.4375 0.875 3.65
3.5 0.8125 3.5875
3.4375 0.8125 3.65
3.4375 0.875 3.5875
3.4375 0.8125 3.5875
3.625 0.8125 3.65
3.625 0.875 3.5875
3.5625 0.875 3.65
3.625 0.8125 3.5875
3.5625 0.8125 3.65
3.5625 0.875 3.5875
3.5625 0.8125 3.5875
3.75 0.8125 3.65
3.75 0.875 3.5875
3.6875 0.875 3.65
3.75 0.8125 3.5875
3.6875 0.8125 3.65
3.6875 0.875 3.5875
3.6875 0.8125 3.5875
3.875 0.8125 3.65
3.875 0.875 3.5875
3.8125 0.875 3.65
3.875 0.8125 3.5875
3.8125 0.8125 3.65
3.8125 0.875 3.5875
3.8125 0.8125 3.5875
4 0.8125 3.65
4 0.875 3.5875
3.9375 0.875 3.65
4 0.8125 3.5875
3.9375 0.8125 3.65
3.9375 0.875 3.5875
3.9375 0.8125 3.5875
0.125 0.9375 3.65
0 0.9375 3.65
0.125 1 3.5875
0.0625 1 3.65
0 1 3.5875
0.125 0.9375 3.5875
0.0625 0.9375 3.65
0 0.9375 3.5875
0.0625 1 3.5875
0.0625 0.9375 3.5875
0.25 0.9375 3.65
0.25 1 3.5875
0.1875 1 3.65
0.25 0.9375 3.5875
0.1875 0.9375 3.65
0.1875 1 3.5875
0.1875 0.9375 3.5875
0.375 0.9375 3.65
0.375 1 3.5875
0.3125 1 3.65
0.375 0.9375 3.5875
0.3125 0.9375 3.65
0.3125 1 3.5875
0.3125 0.9375 3.5875
0.5 0.9375 3.65
0.5 1 3.5875
0.4375 1 3.65
0.5 0.9375 3.5875
0.4375 0.9375 3.65
0.4375 1 3.5875
0.4375 0.9375 3.5875
0.625 0.9375 3.65
0.625 1 3.5875
0.5625 1 3.65
0.625 0.9375 3.5875
0.5625 0.9375 3.65
0.5625 1 3.5875
0.5625 0.9375 3.5875
0.75 0.9375 3.65
0.75 1 3.5875
0.6875 1 3.65
0.75 0.9375 3.5875
0.6875 0.9375 3.65
0.6875 1 3.5875
0.6875 0.9375 3.5875
0.875 0.9375 3.65
0.875 1 3.5875
0.8125 1 3.65
0.875 0.9375 3.5875
0.8125 0.9375 3.65
0.8125 1 3.5875
0.8125 0.9375 3.5875
1 0.9375 3.65
1 1 3.5875
0.9375 1 3.65
1 0.9375 3.5875
0.9375 0.9375 3.65
0.9375 1 3.5875
0.9375 0.9375 3.5875
1.125 0.9375 3.65
1.125 1 3.5875
1.0625 1 3.65
1.125 0.9375 3.5875
1.0625 0.9375 3.65
1.0625 1 3.5875
1.0625 0.9375 3.5875
1.25 0.9375 3.65
1.25 1 3.5875
1.1875 1 3.65
1.25 0.9375 3.5875
1.1875 0.9375 3.65
1.1875 1 3.5875
1.1875 0.9375 3.5875
1.375 0.9375 3.65
1.375 1 3.5875
1.3125 1 3.65
1.375 0.9375 3.5875
1.3125 0.9375 3.65
1.3125 1 3.5875
1.3125 0.9375 3.5875
1.5 0.9375 3.65
1.5 1 3.5875
1.4375 1 3.65
1.5 0.9375 3.5875
1.4375 0.9375 3.65
1.4375 1 3.5875
1.4375 0.9375 3.5875
1.625 0.9375 3.65
1.625 1 3.5875
1.5625 1 3.65
1.625 0.9375 3.5875
1.5625 0.9375 3.65
1.5625 1 3.5875
1.5625 0.9375 3.5875
1.75 0.9375 3.65
1.75 1 3.5875
1.6875 1 3.65
1.75 0.9375 3.5875
1.6875 0.9375 3.65
1.6875 1 3.5875
1.6875 0.9375 3.5875
1.875 0.9375 3.65
1.875 1 3.5875
1.8125 1 3.65
1.875 0.9375 3.5875
1.8125 0.9375 3.65
1.8125 1 3.5875
1.8125 0.9375 3.5875
2 0.9375 3.65
2 1 3.5875
1.9375 1 3.65
2 0.9375 3.5875
1.9375 0.9375 3.65
1.9375 1 3.5875
1.9375 0.9375 3.5875
2.125 0.9375 3.65
2.125 1 3.5875
2.0625 1 3.65
2.125 0.9375 3.5875
2.0625 0.9375 3.65
2.0625 1 3.5875
2.0625 0.9375 3.5875
2.25 0.9375 3.65
2.25 1 3.5875
2.1875 1 3.65
2.25 0.9375 3.5875
2.1875 0.9375 3.65
2.1875 1 3.5875
2.1875 0.9375 3.5875
2.375 0.9375 3.65
2.375 1 3.5875
2.3125 1 3.65
2.375 0.9375 3.5875
2.3125 0.9375 3.65
2.3125 1 3.5875
2.3125 0.9375 3.5875
2.5 0.9375 3.65
2.5 1 3.5875
2.4375 1 3.65
2.5 0.9375 3.5875
2.4375 0.9375 3.65
2.4375 1 3.5875
2.4375 0.9375 3.5875
2.625 0.9375 3.65
2.625 1 3.5875
2.5625 1 3.65
2.625 0.9375 3.5875
2.5625 0.9375 3.65
2.5625 1 3.5875
2.5625 0.9375 3.5875
2.75 0.9375 3.65
2.75 1 3.5875
2.6875 1 3.65
2.75 0.9375 3.5875
2.6875 0.9375 3.65
2.6875 1 3.5875
2.6875 0.9375 3.5875
2.875 0.9375 3.65
2.875 1 3.5875
2.8125 1 3.65
2.875 0.9375 3.5875
2.8125 0.9375 3.65
2.8125 1 3.5875
2.8125 0.9375 3.5875
3 0.9375 3.65
3 1 3.5875
2.9375 1 3.65
3 0.9375 3.5875
2.9375 0.9375 3.65
2.9375 1 3.5875
2.9375 0.9375 3.5875
3.125 0.9375 3.65
3.125 1 3.5875
3.0625 1 3.65
3.125 0.9375 3.5875
3.0625 0.9375 3.65
3.0625 1 3.5875
3.0625 0.9375 3.5875
3.25 0.9375 3.65
3.25 1 3.5875
3.1875 1 3.65
3.25 0.9375 3.5875
3.1875 0.9375 3.65
3.1875 1 3.5875
3.1875 0.9375 3.5875
3.375 0.9375 3.65
3.375 1 3.5875
3.3125 1 3.65
3.375 0.9375 3.5875
3.3125 0.9375 3.65
3.3125 1 3.5875
3.3125 0.9375 3.5875
3.5 0.9375 3.65
3.5 1 3.5875
3.4375 1 3.65
3.5 0.9375 3.5875
3.4375 0.9375 3.65
3.4375 1 3.5875
3.4375 0.9375 3.5875
3.625 0.9375 3.65
3.625 1 3.5875
3.5625 1 3.65
3.625 0.9375 3.5875
3.5625 0.9375 3.65
3.5625 1 3.5875
3.5625 0.9375 3.5875
3.75 0.9375 3.65
3.75 1 3.5875
3.6875 1 3.65
3.75 0.9375 3.5875
3.6875 0.9375 3.65
3.6875 1 3.5875
3.6875 0.9375 3.5875
3.875 0.9375 3.65
3.875 1 3.5875
3.8125 1 3.65
3.875 0.9375 3.5875
3.8125 0.9375 3.65
3.8125 1 3.5875
3.8125 0.9375 3.5875
4 0.9375 3.65
4 1 3.5875
3.9375 1 3.65
4 0.9375 3.5875
3.9375 0.9375 3.65
3.9375 1 3.5875
3.9375 0.9375 3.5875
0.125 0 3.7125
0.0625 0 3.775
0 0 3.7125
0.125 0.0625 3.775
0 0.0625 3.775
0.125 0.125 3.7125
0.0625 0.125 3.775
0 0.125 3.7125
0.0625 0 3.7125
0.125 0.0625 3.7125
0.0625 0.0625 3.775
0 0.0625 3.7125
0.0625 0.125 3.7125
0.0625 0.0625 3.7125
0.25 0 3.7125
0.1875 0 3.775
0.25 0.0625 3.775
0.25 0.125 3.7125
0.1875 0.125 3.775
0.1875 0 3.7125
0.25 0.0625 3.7125
0.1875 0.0625 3.775
0.1875 0.125 3.7125
0.1875 0.0625 3.7125
0.375 0 3.7125
0.3125 0 3.775
0.375 0.0625 3.775
0.375 0.125 3.7125
0.3125 0.125 3.775
0.3125 0 3.7125
0.375 0.0625 3.7125
0.3125 0.0625 3.775
0.3125 0.125 3.7125
0.3125 0.0625 3.7125
0.5 0 3.7125
0.4375 0 3.775
0.5 0.0625 3.775
0.5 0.125 3.7125
0.4375 0.125 3.775
0.4375 0 3.7125
0.5 0.0625 3.7125
0.4375 0.0625 3.775
0.4375 0.125 3.7125
0.4375 0.0625 3.7125
0.625 0 3.7125
0.5625 0 3.775
0.625 0.0625 3.775
0.625 0.125 3.7125
0.5625 0.125 3.775
0.5625 0 3.7125
0.625 0.0625 3.7125
0.5625 0.0625 3.775
0.5625 0.125 3.7125
0.5625 0.0625 3.7125
0.75 0 3.7125
0.6875 0 3.775
0.75 0.0625 3.775
0.75 0.125 3.7125
0.6875 0.125 3.775
0.6875 0 3.7125
0.75 0.0625 3.7125
0.6875 0.0625 3.775
0.6875 0.125 3.7125
0.6875 0.0625 3.7125
0.875 0 3.7125
0.8125 0 3.775
0.875 0.0625 3.775
0.875 0.125 3.7125
0.8125 0.125 3.775
0.8125 0 3.7125
0.875 0.0625 3.7125
0.8125 0.0625 3.775
0.8125 0.125 3.7125
0.8125 0.0625 3.7125
1 0 3.7125
0.9375 0 3.775
1 0.0625 3.775
1 0.125 3.7125
0.9375 0.125 3.775
0.9375 0 3.7125
1 0.0625 3.7125
0.9375 0.0625 3.775
0.9375 0.125 3.7125
0.9375 0.0625 3.7125
1.125 0 3.7125
1.0625 0 3.775
1.125 0.0625 3.775
1.125 0.125 3.7125
1.0625 0.125 3.775
1.0625 0 3.7125
1.125 0.0625 3.7125
1.0625 0.0625 3.775
1.0625 0.125 3.7125
1.0625 0.0625 3.7125
1.25 0 3.7125
1.1875 0 3.775
1.25 0.0625 3.775
1.25 0.125 3.7125
1.1875 0.125 3.775
1.1875 0 3.7125
1.25 0.0625 3.7125
1.1875 0.0625 3.775
1.1875 0.125 3.7125
1.1875 0.0625 3.7125
1.375 0 3.7125
1.3125 0 3.775
1.375 0.0625 3.775
1.375 0.125 3.7125
1.3125 0.125 3.775
1.3125 0 3.7125
1.375 0.0625 3.7125
1.3125 0.0625 3.775
1.3125 0.125 3.7125
1.3125 0.0625 3.7125
1.5 0 3.7125
1.4375 0 3.775
1.5 0.0625 3.775
1.5 0.125 3.7125
1.4375 0.125 3.775
1.4375 0 3.7125
1.5 0.0625 3.7125
1.4375 0.0625 3.775
1.4375 0.125 3.7125
1.4375 0.0625 3.7125
1.625 0 3.7125
1.5625 0 3.775
1.625 0.0625 3.775
1.625 0.125 3.7125
1.5625 0.125 3.775
1.5625 0 3.7125
1.625 0.0625 3.7125
1.5625 0.0625 3.775
1.5625 0.125 3.7125
1.5625 0.0625 3.7125
1.75 0 3.7125
1.6875 0 3.775
1.75 0.0625 3.775
1.75 0.125 3.7125
1.6875 0.125 3.775
1.6875 0 3.7125
1.75 0.0625 3.7125
1.6875 0.0625 3.775
1.6875 0.125 3.7125
1.6875 0.0625 3.7125
1.875 0 3.7125
1.8125 0 3.775
1.875 0.0625 3.775
1.875 0.125 3.7125
1.8125 0.125 3.775
1.8125 0 3.7125
1.875 0.0625 3.7125
1.8125 0.0625 3.775
1.8125 0.125 3.7125
1.8125 0.0625 3.7125
2 0 3.7125
1.9375 0 3.775
2 0.0625 3.775
2 0.125 3.7125
1.9375 0.125 3.775
1.9375 0 3.7125
2 0.0625 3.7125
1.9375 0.0625 3.775
1.9375 0.125 3.7125
1.9375 0.0625 3.7125
2.125 0 3.7125
2.0625 0 3.775
2.125 0.0625 3.775
2.125 0.125 3.7125
2.0625 0.125 3.775
2.0625 0 3.7125
2.125 0.0625 3.7125
2.0625 0.0625 3.775
2.0625 0.125 3.7125
2.0625 0.0625 3.7125
2.25 0 3.7125
2.1875 0 3.775
2.25 0.0625 3.775
2.25 0.125 3.7125
2.1875 0.125 3.775
2.1875 0 3.7125
2.25 0.0625 3.7125
2.1875 0.0625 3.775
2.1875 0.125 3.7125
2.1875 0.0625 3.7125
2.375 0 3.7125
2.3125 0 3.775
2.375 0.0625 3.775
2.375 0.125 3.7125
2.3125 0.125 3.775
2.3125 0 3.7125
2.375 0.0625 3.7125
2.3125 0.0625 3.775
2.3125 0.125 3.7125
2.3125 0.0625 3.7125
2.5 0 3.7125
2.4375 0 3.775
2.5 0.0625 3.775
2.5 0.125 3.7125
2.4375 0.125 3.775
2.4375 0 3.7125
2.5 0.0625 3.7125
2.4375 0.0625 3.775
2.4375 0.125 3.7125
2.4375 0.0625 3.7125
2.625 0 3.7125
2.5625 0 3.775
2.625 0.0625 3.775
2.625 0.125 3.7125
2.5625 0.125 3.775
2.5625 0 3.7125
2.625 0.0625 3.7125
2.5625 0.0625 3.775
2.5625 0.125 3.7125
2.5625 0.0625 3.7125
2.75 0 3.7125
2.6875 0 3.775
2.75 0.0625 3.775
2.75 0.125 3.7125
2.6875 0.125 3.775
2.6875 0 3.7125
2.75 0.0625 3.7125
2.6875 0.0625 3.775
2.6875 0.125 3.7125
2.6875 0.0625 3.7125
2.875 0 3.7125
2.8125 0 3.775
2.875 0.0625 3.775
2.875 0.125 3.7125
2.8125 0.125 3.775
2.8125 0 3.7125
2.875 0.0625 3.7125
2.8125 0.0625 3.775
2.8125 0.125 3.7125
2.8125 0.0625 3.7125
3 0 3.7125
2.9375 0 3.775
3 0.0625 3.775
3 0.125 3.7125
2.9375 0.125 3.775
2.9375 0 3.7125
3 0.0625 3.7125
2.9375 0.0625 3.775
2.9375 0.125 3.7125
2.9375 0.0625 3.7125
3.125 0 3.7125
3.0625 0 3.775
3.125 0.0625 3.775
3.125 0.125 3.7125
3.0625 0.125 3.775
3.0625 0 3.7125
3.125 0.0625 3.7125
3.0625 0.0625 3.775
3.0625 0.125 3.7125
3.0625 0.0625 3.7125
3.25 0 3.7125
3.1875 0 3.775
3.25 0.0625 3.775
3.25 0.125 3.7125
3.1875 0.125 3.775
3.1875 0 3.7125
3.25 0.0625 3.7125
3.1875 0.0625 3.775
3.1875 0.125 3.7125
3.1875 0.0625 3.7125
3.375 0 3.7125
3.3125 0 3.775
3.375 0.0625 3.775
3.375 0.125 3.7125
3.3125 0.125 3.775
3.3125 0 3.7125
3.375 0.0625 3.7125
3.3125 0.0625 3.775
3.3125 0.125 3.7125
3.3125 0.0625 3.7125
3.5 0 3.7125
3.4375 0 3.775
3.5 0.0625 3.775
3.5 0.125 3.7125
3.4375 0.125 3.775
3.4375 0 3.7125
3.5 0.0625 3.7125
3.4375 0.0625 3.775
3.4375 0.125 3.7125
3.4375 0.0625 3.7125
3.625 0 3.7125
3.5625 0 3.775
3.625 0.0625 3.775
3.625 0.125 3.7125
3.5625 0.125 3.775
3.5625 0 3.7125
3.625 0.0625 3.7125
3.5625 0.0625 3.775
3.5625 0.125 3.7125
3.5625 0.0625 3.7125
3.75 0 3.7125
3.6875 0 3.775
3.75 0.0625 3.775
3.75 0.125 3.7125
3.6875 0.125 3.775
3.6875 0 3.7125
3.75 0.0625 3.7125
3.6875 0.0625 3.775
3.6875 0.125 3.7125
3.6875 0.0625 3.7125
3.875 0 3.7125
3.8125 0 3.775
3.875 0.0625 3.775
3.875 0.125 3.7125
3.8125 0.125 3.775
3.8125 0 3.7125
3.875 0.0625 3.7125
3.8125 0.0625 3.775
3.8125 0.125 3.7125
3.8125 0.0625 3.7125
4 0 3.7125
3.9375 0 3.775
4 0.0625 3.775
4 0.125 3.7125
3.9375 0.125 3.775
3.9375 0 3.7125
4 0.0625 3.7125
3.9375 0.0625 3.775
3.9375 0.125 3.7125
3.9375 0.0625 3.7125
0.125 0.1875 3.775
0 0.1875 3.775
0.125 0.25 3.7125
0.0625 0.25 3.775
0 0.25 3.7125
0.125 0.1875 3.7125
0.0625 0.1875 3.775
0 0.1875 3.7125
0.0625 0.25 3.7125
0.0625 0.1875 3.7125
0.25 0.1875 3.775
0.25 0.25 3.7125
0.1875 0.25 3.775
0.25 0.1875 3.7125
0.1875 0.1875 3.775
0.1875 0.25 3.7125
0.1875 0.1875 3.7125
0.375 0.1875 3.775
0.375 0.25 3.7125
0.3125 0.25 3.775
0.375 0.1875 3.7125
0.3125 0.1875 3.775
0.3125 0.25 3.7125
0.3125 0.1875 3.7125
0.5 0.1875 3.775
0.5 0.25 3.7125
0.4375 0.25 3.775
0.5 0.1875 3.7125
0.4375 0.1875 3.775
0.4375 0.25 3.7125
0.4375 0.1875 3.7125
0.625 0.1875 3.775
0.625 0.25 3.7125
0.5625 0.25 3.775
0.625 0.1875 3.7125
0.5625 0.1875 3.775
0.5625 0.25 3.7125
0.5625 0.1875 3.7125
0.75 0.1875 3.775
0.75 0.25 3.7125
0.6875 0.25 3.775
0.75 0.1875 3.7125
0.6875 0.1875 3.775
0.6875 0.25 3.7125
0.6875 0.1875 3.7125
0.875 0.1875 3.775
0.875 0.25 3.7125
0.8125 0.25 3.775
0.875 0.1875 3.7125
0.8125 0.1875 3.775
0.8125 0.25 3.7125
0.8125 0.1875 3.7125
1 0.1875 3.775
1 0.25 3.7125
0.9375 0.25 3.775
1 0.1875 3.7125
0.9375 0.1875 3.775
0.9375 0.25 3.7125
0.9375 0.1875 3.7125
1.125 0.1875 3.775
1.125 0.25 3.7125
1.0625 0.25 3.775
1.125 0.1875 3.7125
1.0625 0.1875 3.775
1.0625 0.25 3.7125
1.0625 0.1875 3.7125
1.25 0.1875 3.775
1.25 0.25 3.7125
1.1875 0.25 3.775
1.25 0.1875 3.7125
1.1875 0.1875 3.775
1.1875 0.25 3.7125
1.1875 0.1875 3.7125
1.375 0.1875 3.775
1.375 0.25 3.7125
1.3125 0.25 3.775
1.375 0.1875 3.7125
1.3125 0.1875 3.775
1.3125 0.25 3.7125
1.3125 0.1875 3.7125
1.5 0.1875 3.775
1.5 0.25 3.7125
1.4375 0.25 3.775
1.5 0.1875 3.7125
1.4375 0.1875 3.775
1.4375 0.25 3.7125
1.4375 0.1875 3.7125
1.625 0.1875 3.775
1.625 0.25 3.7125
1.5625 0.25 3.775
1.625 0.1875 3.7125
1.5625 0.1875 3.775
1.5625 0.25 3.7125
1.5625 0.1875 3.7125
1.75 0.1875 3.775
1.75 0.25 3.7125
1.6875 0.25 3.775
1.75 0.1875 3.7125
1.6875 0.1875 3.775
1.6875 0.25 3.7125
1.6875 0.1875 3.7125
1.875 0.1875 3.775
1.875 0.25 3.7125
1.8125 0.25 3.775
1.875 0.1875 3.7125
1.8125 0.1875 3.775
1.8125 0.25 3.7125
1.8125 0.1875 3.7125
2 0.1875 3.775
2 0.25 3.7125
1.9375 0.25 3.775
2 0.1875 3.7125
1.9375 0.1875 3.775
1.9375 0.25 3.7125
1.9375 0.1875 3.7125
2.125 0.1875 3.775
2.125 0.25 3.7125
2.0625 0.25 3.775
2.125 0.1875 3.7125
2.0625 0.1875 3.775
2.0625 0.25 3.7125
2.0625 0.1875 3.7125
2.25 0.1875 3.775
2.25 0.25 3.7125
2.1875 0.25 3.775
2.25 0.1875 3.7125
2.1875 0.1875 3.775
2.1875 0.25 3.7125
2.1875 0.1875 3.7125
2.375 0.1875 3.775
2.375 0.25 3.7125
2.3125 0.25 3.775
2.375 0.1875 3.7125
2.3125 0.1875 3.775
2.3125 0.25 3.7125
2.3125 0.1875 3.7125
2.5 0.1875 3.775
2.5 0.25 3.7125
2.4375 0.25 3.775
2.5 0.1875 3.7125
2.4375 0.1875 3.775
2.4375 0.25 3.7125
2.4375 0.1875 3.7125
2.625 0.1875 3.775
2.625 0.25 3.7125
2.5625 0.25 3.775
2.625 0.1875 3.7125
2.5625 0.1875 3.775
2.5625 0.25 3.7125
2.5625 0.1875 3.7125
2.75 0.1875 3.775
2.75 0.25 3.7125
2.6875 0.25 3.775
2.75 0.1875 3.7125
2.6875 0.1875 3.775
2.6875 0.25 3.7125
2.6875 0.1875 3.7125
2.875 0.1875 3.775
2.875 0.25 3.7125
2.8125 0.25 3.775
2.875 0.1875 3.7125
2.8125 0.1875 3.775
2.8125 0.25 3.7125
2.8125 0.1875 3.7125
3 0.1875 3.775
3 0.25 3.7125
2.9375 0.25 3.775
3 0.1875 3.7125
2.9375 0.1875 3.775
2.9375 0.25 3.7125
2.9375 0.1875 3.7125
3.125 0.1875 3.775
3.125 0.25 3.7125
3.0625 0.25 3.775
3.125 0.1875 3.7125
3.0625 0.1875 3.775
3.0625 0.25 3.7125
3.0625 0.1875 3.7125
3.25 0.1875 3.775
3.25 0.25 3.7125
3.1875 0.25 3.775
3.25 0.1875 3.7125
3.1875 0.1875 3.775
3.1875 0.25 3.7125
3.1875 0.1875 3.7125
3.375 0.1875 3.775
3.375 0.25 3.7125
3.3125 0.25 3.775
3.375 0.1875 3.7125
3.3125 0.1875 3.775
3.3125 0.25 3.7125
3.3125 0.1875 3.7125
3.5 0.1875 3.775
3.5 0.25 3.7125
3.4375 0.25 3.775
3.5 0.1875 3.7125
3.4375 0.1875 3.775
3.4375 0.25 3.7125
3.4375 0.1875 3.7125
3.625 0.1875 3.775
3.625 0.25 3.7125
3.5625 0.25 3.775
3.625 0.1875 3.7125
3.5625 0.1875 3.775
3.5625 0.25 3.7125
3.5625 0.1875 3.7125
3.75 0.1875 3.775
3.75 0.25 3.7125
3.6875 0.25 3.775
3.75 0.1875 3.7125
3.6875 0.1875 3.775
3.6875 0.25 3.7125
3.6875 0.1875 3.7125
3.875 0.1875 3.775
3.875 0.25 3.7125
3.8125 0.25 3.775
3.875 0.1875 3.7125
3.8125 0.1875 3.775
3.8125 0.25 3.7125
3.8125 0.1875 3.7125
4 0.1875 3.775
4 0.25 3.7125
3.9375 0.25 3.775
4 0.1875 3.7125
3.9375 0.1875 3.775
3.9375 0.25 3.7125
3.9375 0.1875 3.7125
0.125 0.3125 3.775
0 0.3125 3.775
0.125 0.375 3.7125
0.0625 0.375 3.775
0 0.375 3.7125
0.125 0.3125 3.7125
0.0625 0.3125 3.775
0 0.3125 3.7125
0.0625 0.375 3.7125
0.0625 0.3125 3.7125
0.25 0.3125 3.775
0.25 0.375 3.7125
0.1875 0.375 3.775
0.25 0.3125 3.7125
0.1875 0.3125 3.775
0.1875 0.375 3.7125
0.1875 0.3125 3.7125
0.375 0.3125 3.775
0.375 0.375 3.7125
0.3125 0.375 3.775
0.375 0.3125 3.7125
0.3125 0.3125 3.775
0.3125 0.375 3.7125
0.3125 0.3125 3.7125
0.5 0.3125 3.775
0.5 0.375 3.7125
0.4375 0.375 3.775
0.5 0.3125 3.7125
0.4375 0.3125 3.775
0.4375 0.375 3.7125
0.4375 0.3125 3.7125
0.625 0.3125 3.775
0.625 0.375 3.7125
0.5625 0.375 3.775
0.625 0.3125 3.7125
0.5625 0.3125 3.775
0.5625 0.375 3.7125
0.5625 0.3125 3.7125
0.75 0.3125 3.775
0.75 0.375 3.7125
0.6875 0.375 3.775
0.75 0.3125 3.7125
0.6875 0.3125 3.775
0.6875 0.375 3.7125
0.6875 0.3125 3.7125
0.875 0.3125 3.775
0.875 0.375 3.7125
0.8125 0.375 3.775
0.875 0.3125 3.7125
0.8125 0.3125 3.775
0.8125 0.375 3.7125
0.8125 0.3125 3.7125
1 0.3125 3.775
1 0.375 3.7125
0.9375 0.375 3.775
1 0.3125 3.7125
0.9375 0.3125 3.775
0.9375 0.375 3.7125
0.9375 0.3125 3.7125
1.125 0.3125 3.775
1.125 0.375 3.7125
1.0625 0.375 3.775
1.125 0.3125 3.7125
1.0625 0.3125 3.775
1.0625 0.375 3.7125
1.0625 0.3125 3.7125
1.25 0.3125 3.775
1.25 0.375 3.7125
1.1875 0.375 3.775
1.25 0.3125 3.7125
1.1875 0.3125 3.775
1.1875 0.375 3.7125
1.1875 0.3125 3.7125
1.375 0.3125 3.775
1.375 0.375 3.7125
1.3125 0.375 3.775
1.375 0.3125 3.7125
1.3125 0.3125 3.775
1.3125 0.375 3.7125
1.3125 0.3125 3.7125
1.5 0.3125 3.775
1.5 0.375 3.7125
1.4375 0.375 3.775
1.5 0.3125 3.7125
1.4375 0.3125 3.775
1.4375 0.375 3.7125
1.4375 0.3125 3.7125
1.625 0.3125 3.775
1.625 0.375 3.7125
1.5625 0.375 3.775
1.625 0.3125 3.7125
1.5625 0.3125 3.775
1.5625 0.375 3.7125
1.5625 0.3125 3.7125
1.75 0.3125 3.775
1.75 0.375 3.7125
1.6875 0.375 3.775
1.75 0.3125 3.7125
1.6875 0.3125 3.775
1.6875 0.375 3.7125
1.6875 0.3125 3.7125
1.875 0.3125 3.775
1.875 0.375 3.7125
1.8125 0.375 3.775
1.875 0.3125 3.7125
1.8125 0.3125 3.775
1.8125 0.375 3.7125
1.8125 0.3125 3.7125
2 0.3125 3.775
2 0.375 3.7125
1.9375 0.375 3.775
2 0.3125 3.7125
1.9375 0.3125 3.775
1.9375 0.375 3.7125
1.9375 0.3125 3.7125
2.125 0.3125 3.775
2.125 0.375 3.7125
2.0625 0.375 3.775
2.125 0.3125 3.7125
2.0625 0.3125 3.775
2.0625 0.375 3.7125
2.0625 0.3125 3.7125
2.25 0.3125 3.775
2.25 0.375 3.7125
2.1875 0.375 3.775
2.25 0.3125 3.7125
2.1875 0.3125 3.775
2.1875 0.375 3.7125
2.1875 0.3125 3.7125
2.375 0.3125 3.775
2.375 0.375 3.7125
2.3125 0.375 3.775
2.375 0.3125 3.7125
2.3125 0.3125 3.775
2.3125 0.375 3.7125
2.3125 0.3125 3.7125
2.5 0.3125 3.775
2.5 0.375 3.7125
2.4375 0.375 3.775
2.5 0.3125 3.7125
2.4375 0.3125 3.775
2.4375 0.375 3.7125
2.4375 0.3125 3.7125
2.625 0.3125 3.775
2.625 0.375 3.7125
2.5625 0.375 3.775
2.625 0.3125 3.7125
2.5625 0.3125 3.775
2.5625 0.375 3.7125
2.5625 0.3125 3.7125
2.75 0.3125 3.775
2.75 0.375 3.7125
2.6875 0.375 3.775
2.75 0.3125 3.7125
2.6875 0.3125 3.775
2.6875 0.375 3.7125
2.6875 0.3125 3.7125
2.875 0.3125 3.775
2.875 0.375 3.7125
2.8125 0.375 3.775
2.875 0.3125 3.7125
2.8125 0.3125 3.775
2.8125 0.375 3.7125
2.8125 0.3125 3.7125
3 0.3125 3.775
3 0.375 3.7125
2.9375 0.375 3.775
3 0.3125 3.7125
2.9375 0.3125 3.775
2.9375 0.375 3.7125
2.9375 0.3125 3.7125
3.125 0.3125 3.775
3.125 0.375 3.7125
3.0625 0.375 3.775
3.125 0.3125 3.7125
3.0625 0.3125 3.775
3.0625 0.375 3.7125
3.0625 0.3125 3.7125
3.25 0.3125 3.775
3.25 0.375 3.7125
3.1875 0.375 3.775
3.25 0.3125 3.7125
3.1875 0.3125 3.775
3.1875 0.375 3.7125
3.1875 0.3125 3.7125
3.375 0.3125 3.775
3.375 0.375 3.7125
3.3125 0.375 3.775
3.375 0.3125 3.7125
3.3125 0.3125 3.775
3.3125 0.375 3.7125
3.3125 0.3125 3.7125
3.5 0.3125 3.775
3.5 0.375 3.7125
3.4375 0.375 3.775
3.5 0.3125 3.7125
3.4375 0.3125 3.775
3.4375 0.375 3.7125
3.4375 0.3125 3.7125
3.625 0.3125 3.775
3.625 0.375 3.7125
3.5625 0.375 3.775
3.625 0.3125 3.7125
3.5625 0.3125 3.775
3.5625 0.375 3.7125
3.5625 0.3125 3.7125
3.75 0.3125 3.775
3.75 0.375 3.7125
3.6875 0.375 3.775
3.75 0.3125 3.7125
3.6875 0.3125 3.775
3.6875 0.375 3.7125
3.6875 0.3125 3.7125
3.875 0.3125 3.775
3.875 0.375 3.7125
3.8125 0.375 3.775
3.875 0.3125 3.7125
3.8125 0.3125 3.775
3.8125 0.375 3.7125
3.8125 0.3125 3.7125
4 0.3125 3.775
4 0.375 3.7125
3.9375 0.375 3.775
4 0.3125 3.7125
3.9375 0.3125 3.775
3.9375 0.375 3.7125
3.9375 0.3125 3.7125
0.125 0.4375 3.775
0 0.4375 3.775
0.125 0.5 3.7125
0.0625 0.5 3.775
0 0.5 3.7125
0.125 0.4375 3.7125
0.0625 0.4375 3.775
0 0.4375 3.7125
0.0625 0.5 3.7125
0.0625 0.4375 3.7125
0.25 0.4375 3.775
0.25 0.5 3.7125
0.1875 0.5 3.775
0.25 0.4375 3.7125
0.1875 0.4375 3.775
0.1875 0.5 3.7125
0.1875 0.4375 3.7125
0.375 0.4375 3.775
0.375 0.5 3.7125
0.3125 0.5 3.775
0.375 0.4375 3.7125
0.3125 0.4375 3.775
0.3125 0.5 3.7125
0.3125 0.4375 3.7125
0.5 0.4375 3.775
0.5 0.5 3.7125
0.4375 0.5 3.775
0.5 0.4375 3.7125
0.4375 0.4375 3.775
0.4375 0.5 3.7125
0.4375 0.4375 3.7125
0.625 0.4375 3.775
0.625 0.5 3.7125
0.5625 0.5 3.775
0.625 0.4375 3.7125
0.5625 0.4375 3.775
0.5625 0.5 3.7125
0.5625 0.4375 3.7125
0.75 0.4375 3.775
0.75 0.5 3.7125
0.6875 0.5 3.775
0.75 0.4375 3.7125
0.6875 0.4375 3.775
0.6875 0.5 3.7125
0.6875 0.4375 3.7125
0.875 0.4375 3.775
0.875 0.5 3.7125
0.8125 0.5 3.775
0.875 0.4375 3.7125
0.8125 0.4375 3.775
0.8125 0.5 3.7125
0.8125 0.4375 3.7125
1 0.4375 3.775
1 0.5 3.7125
0.9375 0.5 3.775
1 0.4375 3.7125
0.9375 0.4375 3.775
0.9375 0.5 3.7125
0.9375 0.4375 3.7125
1.125 0.4375 3.775
1.125 0.5 3.7125
1.0625 0.5 3.775
1.125 0.4375 3.7125
1.0625 0.4375 3.775
1.0625 0.5 3.7125
1.0625 0.4375 3.7125
1.25 0.4375 3.775
1.25 0.5 3.7125
1.1875 0.5 3.775
1.25 0.4375 3.7125
1.1875 0.4375 3.775
1.1875 0.5 3.7125
1.1875 0.4375 3.7125
1.375 0.4375 3.775
1.375 0.5 3.7125
1.3125 0.5 3.775
1.375 0.4375 3.7125
1.3125 0.4375 3.775
1.3125 0.5 3.7125
1.3125 0.4375 3.7125
1.5 0.4375 3.775
1.5 0.5 3.7125
1.4375 0.5 3.775
1.5 0.4375 3.7125
1.4375 0.4375 3.775
1.4375 0.5 3.7125
1.4375 0.4375 3.7125
1.625 0.4375 3.775
1.625 0.5 3.7125
1.5625 0.5 3.775
1.625 0.4375 3.7125
1.5625 0.4375 3.775
1.5625 0.5 3.7125
1.5625 0.4375 3.7125
1.75 0.4375 3.775
1.75 0.5 3.7125
1.6875 0.5 3.775
1.75 0.4375 3.7125
1.6875 0.4375 3.775
1.6875 0.5 3.7125
1.6875 0.4375 3.7125
1.875 0.4375 3.775
1.875 0.5 3.7125
1.8125 0.5 3.775
1.875 0.4375 3.7125
1.8125 0.4375 3.775
1.8125 0.5 3.7125
1.8125 0.4375 3.7125
2 0.4375 3.775
2 0.5 3.7125
1.9375 0.5 3.775
2 0.4375 3.7125
1.9375 0.4375 3.775
1.9375 0.5 3.7125
1.9375 0.4375 3.7125
2.125 0.4375 3.775
2.125 0.5 3.7125
2.0625 0.5 3.775
2.125 0.4375 3.7125
2.0625 0.4375 3.775
2.0625 0.5 3.7125
2.0625 0.4375 3.7125
2.25 0.4375 3.775
2.25 0.5 3.7125
2.1875 0.5 3.775
2.25 0.4375 3.7125
2.1875 0.4375 3.775
2.1875 0.5 3.7125
2.1875 0.4375 3.7125
2.375 0.4375 3.775
2.375 0.5 3.7125
2.3125 0.5 3.775
2.375 0.4375 3.7125
2.3125 0.4375 3.775
2.3125 0.5 3.7125
2.3125 0.4375 3.7125
2.5 0.4375 3.775
2.5 0.5 3.7125
2.4375 0.5 3.775
2.5 0.4375 3.7125
2.4375 0.4375 3.775
2.4375 0.5 3.7125
2.4375 0.4375 3.7125
2.625 0.4375 3.775
2.625 0.5 3.7125
2.5625 0.5 3.775
2.625 0.4375 3.7125
2.5625 0.4375 3.775
2.5625 0.5 3.7125
2.5625 0.4375 3.7125
2.75 0.4375 3.775
2.75 0.5 3.7125
2.6875 0.5 3.775
2.75 0.4375 3.7125
2.6875 0.4375 3.775
2.6875 0.5 3.7125
2.6875 0.4375 3.7125
2.875 0.4375 3.775
2.875 0.5 3.7125
2.8125 0.5 3.775
2.875 0.4375 3.7125
2.8125 0.4375 3.775
2.8125 0.5 3.7125
2.8125 0.4375 3.7125
3 0.4375 3.775
3 0.5 3.7125
2.9375 0.5 3.775
3 0.4375 3.7125
2.9375 0.4375 3.775
2.9375 0.5 3.7125
2.9375 0.4375 3.7125
3.125 0.4375 3.775
3.125 0.5 3.7125
3.0625 0.5 3.775
3.125 0.4375 3.7125
3.0625 0.4375 3.775
3.0625 0.5 3.7125
3.0625 0.4375 3.7125
3.25 0.4375 3.775
3.25 0.5 3.7125
3.1875 0.5 3.775
3.25 0.4375 3.7125
3.1875 0.4375 3.775
3.1875 0.5 3.7125
3.1875 0.4375 3.7125
3.375 0.4375 3.775
3.375 0.5 3.7125
3.3125 0.5 3.775
3.375 0.4375 3.7125
3.3125 0.4375 3.775
3.3125 0.5 3.7125
3.3125 0.4375 3.7125
3.5 0.4375 3.775
3.5 0.5 3.7125
3.4375 0.5 3.775
3.5 0.4375 3.7125
3.4375 0.4375 3.775
3.4375 0.5 3.7125
3.4375 0.4375 3.7125
3.625 0.4375 3.775
3.625 0.5 3.7125
3.5625 0.5 3.775
3.625 0.4375 3.7125
3.5625 0.4375 3.775
3.5625 0.5 3.7125
3.5625 0.4375 3.7125
3.75 0.4375 3.775
3.75 0.5 3.7125
3.6875 0.5 3.775
3.75 0.4375 3.7125
3.6875 0.4375 3.775
3.6875 0.5 3.7125
3.6875 0.4375 3.7125
3.875 0.4375 3.775
3.875 0.5 3.7125
3.8125 0.5 3.775
3.875 0.4375 3.7125
3.8125 0.4375 3.775
3.8125 0.5 3.7125
3.8125 0.4375 3.7125
4 0.4375 3.775
4 0.5 3.7125
3.9375 0.5 3.775
4 0.4375 3.7125
3.9375 0.4375 3.775
3.9375 0.5 3.7125
3.9375 0.4375 3.7125
0.125 0.5625 3.775
0 0.5625 3.775
0.125 0.625 3.7125
0.0625 0.625 3.775
0 0.625 3.7125
0.125 0.5625 3.7125
0.0625 0.5625 3.775
0 0.5625 3.7125
0.0625 0.625 3.7125
0.0625 0.5625 3.7125
0.25 0.5625 3.775
0.25 0.625 3.7125
0.1875 0.625 3.775
0.25 0.5625 3.7125
0.1875 0.5625 3.775
0.1875 0.625 3.7125
0.1875 0.5625 3.7125
0.375 0.5625 3.775
0.375 0.625 3.7125
0.3125 0.625 3.775
0.375 0.5625 3.7125
0.3125 0.5625 3.775
0.3125 0.625 3.7125
0.3125 0.5625 3.7125
0.5 0.5625 3.775
0.5 0.625 3.7125
0.4375 0.625 3.775
0.5 0.5625 3.7125
0.4375 0.5625 3.775
0.4375 0.625 3.7125
0.4375 0.5625 3.7125
0.625 0.5625 3.775
0.625 0.625 3.7125
0.5625 0.625 3.775
0.625 0.5625 3.7125
0.5625 0.5625 3.775
0.5625 0.625 3.7125
0.5625 0.5625 3.7125
0.75 0.5625 3.775
0.75 0.625 3.7125
0.6875 0.625 3.775
0.75 0.5625 3.7125
0.6875 0.5625 3.775
0.6875 0.625 3.7125
0.6875 0.5625 3.7125
0.875 0.5625 3.775
0.875 0.625 3.7125
0.8125 0.625 3.775
0.875 0.5625 3.7125
0.8125 0.5625 3.775
0.8125 0.625 3.7125
0.8125 0.5625 3.7125
1 0.5625 3.775
1 0.625 3.7125
0.9375 0.625 3.775
1 0.5625 3.7125
0.9375 0.5625 3.775
0.9375 0.625 3.7125
0.9375 0.5625 3.7125
1.125 0.5625 3.775
1.125 0.625 3.7125
1.0625 0.625 3.775
1.125 0.5625 3.7125
1.0625 0.5625 3.775
1.0625 0.625 3.7125
1.0625 0.5625 3.7125
1.25 0.5625 3.775
1.25 0.625 3.7125
1.1875 0.625 3.775
1.25 0.5625 3.7125
1.1875 0.5625 3.775
1.1875 0.625 3.7125
1.1875 0.5625 3.7125
1.375 0.5625 3.775
1.375 0.625 3.7125
1.3125 0.625 3.775
1.375 0.5625 3.7125
1.3125 0.5625 3.775
1.3125 0.625 3.7125
1.3125 0.5625 3.7125
1.5 0.5625 3.775
1.5 0.625 3.7125
1.4375 0.625 3.775
1.5 0.5625 3.7125
1.4375 0.5625 3.775
1.4375 0.625 3.7125
1.4375 0.5625 3.7125
1.625 0.5625 3.775
1.625 0.625 3.7125
1.5625 0.625 3.775
1.625 0.5625 3.7125
1.5625 0.5625 3.775
1.5625 0.625 3.7125
1.5625 0.5625 3.7125
1.75 0.5625 3.775
1.75 0.625 3.7125
1.6875 0.625 3.775
1.75 0.5625 3.7125
1.6875 0.5625 3.775
1.6875 0.625 3.7125
1.6875 0.5625 3.7125
1.875 0.5625 3.775
1.875 0.625 3.7125
1.8125 0.625 3.775
1.875 0.5625 3.7125
1.8125 0.5625 3.775
1.8125 0.625 3.7125
1.8125 0.5625 3.7125
2 0.5625 3.775
2 0.625 3.7125
1.9375 0.625 3.775
2 0.5625 3.7125
1.9375 0.5625 3.775
1.9375 0.625 3.7125
1.9375 0.5625 3.7125
2.125 0.5625 3.775
2.125 0.625 3.7125
2.0625 0.625 3.775
2.125 0.5625 3.7125
2.0625 0.5625 3.775
2.0625 0.625 3.7125
2.0625 0.5625 3.7125
2.25 0.5625 3.775
2.25 0.625 3.7125
2.1875 0.625 3.775
2.25 0.5625 3.7125
2.1875 0.5625 3.775
2.1875 0.625 3.7125
2.1875 0.5625 3.7125
2.375 0.5625 3.775
2.375 0.625 3.7125
2.3125 0.625 3.775
2.375 0.5625 3.7125
2.3125 0.5625 3.775
2.3125 0.625 3.7125
2.3125 0.5625 3.7125
2.5 0.5625 3.775
2.5 0.625 3.7125
2.4375 0.625 3.775
2.5 0.5625 3.7125
2.4375 0.5625 3.775
2.4375 0.625 3.7125
2.4375 0.5625 3.7125
2.625 0.5625 3.775
2.625 0.625 3.7125
2.5625 0.625 3.775
2.625 0.5625 3.7125
2.5625 0.5625 3.775
2.5625 0.625 3.7125
2.5625 0.5625 3.7125
2.75 0.5625 3.775
2.75 0.625 3.7125
2.6875 0.625 3.775
2.75 0.5625 3.7125
2.6875 0.5625 3.775
2.6875 0.625 3.7125
2.6875 0.5625 3.7125
2.875 0.5625 3.775
2.875 0.625 3.7125
2.8125 0.625 3.775
2.875 0.5625 3.7125
2.8125 0.5625 3.775
2.8125 0.625 3.7125
2.8125 0.5625 3.7125
3 0.5625 3.775
3 0.625 3.7125
2.9375 0.625 3.775
3 0.5625 3.7125
2.9375 0.5625 3.775
2.9375 0.625 3.7125
2.9375 0.5625 3.7125
3.125 0.5625 3.775
3.125 0.625 3.7125
3.0625 0.625 3.775
3.125 0.5625 3.7125
3.0625 0.5625 3.775
3.0625 0.625 3.7125
3.0625 0.5625 3.7125
3.25 0.5625 3.775
3.25 0.625 3.7125
3.1875 0.625 3.775
3.25 0.5625 3.7125
3.1875 0.5625 3.775
3.1875 0.625 3.7125
3.1875 0.5625 3.7125
3.375 0.5625 3.775
3.375 0.625 3.7125
3.3125 0.625 3.775
3.375 0.5625 3.7125
3.3125 0.5625 3.775
3.3125 0.625 3.7125
3.3125 0.5625 3.7125
3.5 0.5625 3.775
3.5 0.625 3.7125
3.4375 0.625 3.775
3.5 0.5625 3.7125
3.4375 0.5625 3.775
3.4375 0.625 3.7125
3.4375 0.5625 3.7125
3.625 0.5625 3.775
3.625 0.625 3.7125
3.5625 0.625 3.775
3.625 0.5625 3.7125
3.5625 0.5625 3.775
3.5625 0.625 3.7125
3.5625 0.5625 3.7125
3.75 0.5625 3.775
3.75 0.625 3.7125
3.6875 0.625 3.775
3.75 0.5625 3.7125
3.6875 0.5625 3.775
3.6875 0.625 3.7125
3.6875 0.5625 3.7125
3.875 0.5625 3.775
3.875 0.625 3.7125
3.8125 0.625 3.775
3.875 0.5625 3.7125
3.8125 0.5625 3.775
3.8125 0.625 3.7125
3.8125 0.5625 3.7125
4 0.5625 3.775
4 0.625 3.7125
3.9375 0.625 3.775
4 0.5625 3.7125
3.9375 0.5625 3.775
3.9375 0.625 3.7125
3.9375 0.5625 3.7125
0.125 0.6875 3.775
0 0.6875 3.775
0.125 0.75 3.7125
0.0625 0.75 3.775
0 0.75 3.7125
0.125 0.6875 3.7125
0.0625 0.6875 3.775
0 0.6875 3.7125
0.0625 0.75 3.7125
0.0625 0.6875 3.7125
0.25 0.6875 3.775
0.25 0.75 3.7125
0.1875 0.75 3.775
0.25 0.6875 3.7125
0.1875 0.6875 3.775
0.1875 0.75 3.7125
0.1875 0.6875 3.7125
0.375 0.6875 3.775
0.375 0.75 3.7125
0.3125 0.75 3.775
0.375 0.6875 3.7125
0.3125 0.6875 3.775
0.3125 0.75 3.7125
0.3125 0.6875 3.7125
0.5 0.6875 3.775
0.5 0.75 3.7125
0.4375 0.75 3.775
0.5 0.6875 3.7125
0.4375 0.6875 3.775
0.4375 0.75 3.7125
0.4375 0.6875 3.7125
0.625 0.6875 3.775
0.625 0.75 3.7125
0.5625 0.75 3.775
0.625 0.6875 3.7125
0.5625 0.6875 3.775
0.5625 0.75 3.7125
0.5625 0.6875 3.7125
0.75 0.6875 3.775
0.75 0.75 3.7125
0.6875 0.75 3.775
0.75 0.6875 3.7125
0.6875 0.6875 3.775
0.6875 0.75 3.7125
0.6875 0.6875 3.7125
0.875 0.6875 3.775
0.875 0.75 3.7125
0.8125 0.75 3.775
0.875 0.6875 3.7125
0.8125 0.6875 3.775
0.8125 0.75 3.7125
0.8125 0.6875 3.7125
1 0.6875 3.775
1 0.75 3.7125
0.9375 0.75 3.775
1 0.6875 3.7125
0.9375 0.6875 3.775
0.9375 0.75 3.7125
0.9375 0.6875 3.7125
1.125 0.6875 3.775
1.125 0.75 3.7125
1.0625 0.75 3.775
1.125 0.6875 3.7125
1.0625 0.6875 3.775
1.0625 0.75 3.7125
1.0625 0.6875 3.7125
1.25 0.6875 3.775
1.25 0.75 3.7125
1.1875 0.75 3.775
1.25 0.6875 3.7125
1.1875 0.6875 3.775
1.1875 0.75 3.7125
1.1875 0.6875 3.7125
1.375 0.6875 3.775
1.375 0.75 3.7125
1.3125 0.75 3.775
1.375 0.6875 3.7125
1.3125 0.6875 3.775
1.3125 0.75 3.7125
1.3125 0.6875 3.7125
1.5 0.6875 3.775
1.5 0.75 3.7125
1.4375 0.75 3.775
1.5 0.6875 3.7125
1.4375 0.6875 3.775
1.4375 0.75 3.7125
1.4375 0.6875 3.7125
1.625 0.6875 3.775
1.625 0.75 3.7125
1.5625 0.75 3.775
1.625 0.6875 3.7125
1.5625 0.6875 3.775
1.5625 0.75 3.7125
1.5625 0.6875 3.7125
1.75 0.6875 3.775
1.75 0.75 3.7125
1.6875 0.75 3.775
1.75 0.6875 3.7125
1.6875 0.6875 3.775
1.6875 0.75 3.7125
1.6875 0.6875 3.7125
1.875 0.6875 3.775
1.875 0.75 3.7125
1.8125 0.75 3.775
1.875 0.6875 3.7125
1.8125 0.6875 3.775
1.8125 0.75 3.7125
1.8125 0.6875 3.7125
2 0.6875 3.775
2 0.75 3.7125
1.9375 0.75 3.775
2 0.6875 3.7125
1.9375 0.6875 3.775
1.9375 0.75 3.7125
1.9375 0.6875 3.7125
2.125 0.6875 3.775
2.125 0.75 3.7125
2.0625 0.75 3.775
2.125 0.6875 3.7125
2.0625 0.6875 3.775
2.0625 0.75 3.7125
2.0625 0.6875 3.7125
2.25 0.6875 3.775
2.25 0.75 3.7125
2.1875 0.75 3.775
2.25 0.6875 3.7125
2.1875 0.6875 3.775
2.1875 0.75 3.7125
2.1875 0.6875 3.7125
2.375 0.6875 3.775
2.375 0.75 3.7125
2.3125 0.75 3.775
2.375 0.6875 3.7125
2.3125 0.6875 3.775
2.3125 0.75 3.7125
2.3125 0.6875 3.7125
2.5 0.6875 3.775
2.5 0.75 3.7125
2.4375 0.75 3.775
2.5 0.6875 3.7125
2.4375 0.6875 3.775
2.4375 0.75 3.7125
2.4375 0.6875 3.7125
2.625 0.6875 3.775
2.625 0.75 3.7125
2.5625 0.75 3.775
2.625 0.6875 3.7125
2.5625 0.6875 3.775
2.5625 0.75 3.7125
2.5625 0.6875 3.7125
2.75 0.6875 3.775
2.75 0.75 3.7125
2.6875 0.75 3.775
2.75 0.6875 3.7125
2.6875 0.6875 3.775
2.6875 0.75 3.7125
2.6875 0.6875 3.7125
2.875 0.6875 3.775
2.875 0.75 3.7125
2.8125 0.75 3.775
2.875 0.6875 3.7125
2.8125 0.6875 3.775
2.8125 0.75 3.7125
2.8125 0.6875 3.7125
3 0.6875 3.775
3 0.75 3.7125
2.9375 0.75 3.775
3 0.6875 3.7125
2.9375 0.6875 3.775
2.9375 0.75 3.7125
2.9375 0.6875 3.7125
3.125 0.6875 3.775
3.125 0.75 3.7125
3.0625 0.75 3.775
3.125 0.6875 3.7125
3.0625 0.6875 3.775
3.0625 0.75 3.7125
3.0625 0.6875 3.7125
3.25 0.6875 3.775
3.25 0.75 3.7125
3.1875 0.75 3.775
3.25 0.6875 3.7125
3.1875 0.6875 3.775
3.1875 0.75 3.7125
3.1875 0.6875 3.7125
3.375 0.6875 3.775
3.375 0.75 3.7125
3.3125 0.75 3.775
3.375 0.6875 3.7125
3.3125 0.6875 3.775
3.3125 0.75 3.7125
3.3125 0.6875 3.7125
3.5 0.6875 3.775
3.5 0.75 3.7125
3.4375 0.75 3.775
3.5 0.6875 3.7125
3.4375 0.6875 3.775
3.4375 0.75 3.7125
3.4375 0.6875 3.7125
3.625 0.6875 3.775
3.625 0.75 3.7125
3.5625 0.75 3.775
3.625 0.6875 3.7125
3.5625 0.6875 3.775
3.5625 0.75 3.7125
3.5625 0.6875 3.7125
3.75 0.6875 3.775
3.75 0.75 3.7125
3.6875 0.75 3.775
3.75 0.6875 3.7125
3.6875 0.6875 3.775
3.6875 0.75 3.7125
3.6875 0.6875 3.7125
3.875 0.6875 3.775
3.875 0.75 3.7125
3.8125 0.75 3.775
3.875 0.6875 3.7125
3.8125 0.6875 3.775
3.8125 0.75 3.7125
3.8125 0.6875 3.7125
4 0.6875 3.775
4 0.75 3.7125
3.9375 0.75 3.775
4 0.6875 3.7125
3.9375 0.6875 3.775
3.9375 0.75 3.7125
3.9375 0.6875 3.7125
0.125 0.8125 3.775
0 0.8125 3.775
0.125 0.875 3.7125
0.0625 0.875 3.775
0 0.875 3.7125
0.125 0.8125 3.7125
0.0625 0.8125 3.775
0 0.8125 3.7125
0.0625 0.875 3.7125
0.0625 0.8125 3.7125
0.25 0.8125 3.775
0.25 0.875 3.7125
0.1875 0.875 3.775
0.25 0.8125 3.7125
0.1875 0.8125 3.775
0.1875 0.875 3.7125
0.1875 0.8125 3.7125
0.375 0.8125 3.775
0.375 0.875 3.7125
0.3125 0.875 3.775
0.375 0.8125 3.7125
0.3125 0.8125 3.775
0.3125 0.875 3.7125
0.3125 0.8125 3.7125
0.5 0.8125 3.775
0.5 0.875 3.7125
0.4375 0.875 3.775
0.5 0.8125 3.7125
0.4375 0.8125 3.775
0.4375 0.875 3.7125
0.4375 0.8125 3.7125
0.625 0.8125 3.775
0.625 0.875 3.7125
0.5625 0.875 3.775
0.625 0.8125 3.7125
0.5625 0.8125 3.775
0.5625 0.875 3.7125
0.5625 0.8125 3.7125
0.75 0.8125 3.775
0.75 0.875 3.7125
0.6875 0.875 3.775
0.75 0.8125 3.7125
0.6875 0.8125 3.775
0.6875 0.875 3.7125
0.6875 0.8125 3.7125
0.875 0.8125 3.775
0.875 0.875 3.7125
0.8125 0.875 3.775
0.875 0.8125 3.7125
0.8125 0.8125 3.775
0.8125 0.875 3.7125
0.8125 0.8125 3.7125
1 0.8125 3.775
1 0.875 3.7125
0.9375 0.875 3.775
1 0.8125 3.7125
0.9375 0.8125 3.775
0.9375 0.875 3.7125
0.9375 0.8125 3.7125
1.125 0.8125 3.775
1.125 0.875 3.7125
1.0625 0.875 3.775
1.125 0.8125 3.7125
1.0625 0.8125 3.775
1.0625 0.875 3.7125
1.0625 0.8125 3.7125
1.25 0.8125 3.775
1.25 0.875 3.7125
1.1875 0.875 3.775
1.25 0.8125 3.7125
1.1875 0.8125 3.775
1.1875 0.875 3.7125
1.1875 0.8125 3.7125
1.375 0.8125 3.775
1.375 0.875 3.7125
1.3125 0.875 3.775
1.375 0.8125 3.7125
1.3125 0.8125 3.775
1.3125 0.875 3.7125
1.3125 0.8125 3.7125
1.5 0.8125 3.775
1.5 0.875 3.7125
1.4375 0.875 3.775
1.5 0.8125 3.7125
1.4375 0.8125 3.775
1.4375 0.875 3.7125
1.4375 0.8125 3.7125
1.625 0.8125 3.775
1.625 0.875 3.7125
1.5625 0.875 3.775
1.625 0.8125 3.7125
1.5625 0.8125 3.775
1.5625 0.875 3.7125
1.5625 0.8125 3.7125
1.75 0.8125 3.775
1.75 0.875 3.7125
1.6875 0.875 3.775
1.75 0.8125 3.7125
1.6875 0.8125 3.775
1.6875 0.875 3.7125
1.6875 0.8125 3.7125
1.875 0.8125 3.775
1.875 0.875 3.7125
1.8125 0.875 3.775
1.875 0.8125 3.7125
1.8125 0.8125 3.775
1.8125 0.875 3.7125
1.8125 0.8125 3.7125
2 0.8125 3.775
2 0.875 3.7125
1.9375 0.875 3.775
2 0.8125 3.7125
1.9375 0.8125 3.775
1.9375 0.875 3.7125
1.9375 0.8125 3.7125
2.125 0.8125 3.775
2.125 0.875 3.7125
2.0625 0.875 3.775
2.125 0.8125 3.7125
2.0625 0.8125 3.775
2.0625 0.875 3.7125
2.0625 0.8125 3.7125
2.25 0.8125 3.775
2.25 0.875 3.7125
2.1875 0.875 3.775
2.25 0.8125 3.7125
2.1875 0.8125 3.775
2.1875 0.875 3.7125
2.1875 0.8125 3.7125
2.375 0.8125 3.775
2.375 0.875 3.7125
2.3125 0.875 3.775
2.375 0.8125 3.7125
2.3125 0.8125 3.775
2.3125 0.875 3.7125
2.3125 0.8125 3.7125
2.5 0.8125 3.775
2.5 0.875 3.7125
2.4375 0.875 3.775
2.5 0.8125 3.7125
2.4375 0.8125 3.775
2.4375 0.875 3.7125
2.4375 0.8125 3.7125
2.625 0.8125 3.775
2.625 0.875 3.7125
2.5625 0.875 3.775
2.625 0.8125 3.7125
2.5625 0.8125 3.775
2.5625 0.875 3.7125
2.5625 0.8125 3.7125
2.75 0.8125 3.775
2.75 0.875 3.7125
2.6875 0.875 3.775
2.75 0.8125 3.7125
2.6875 0.8125 3.775
2.6875 0.875 3.7125
2.6875 0.8125 3.7125
2.875 0.8125 3.775
2.875 0.875 3.7125
2.8125 0.875 3.775
2.875 0.8125 3.7125
2.8125 0.8125 3.775
2.8125 0.875 3.7125
2.8125 0.8125 3.7125
3 0.8125 3.775
3 0.875 3.7125
2.9375 0.875 3.775
3 0.8125 3.7125
2.9375 0.8125 3.775
2.9375 0.875 3.7125
2.9375 0.8125 3.7125
3.125 0.8125 3.775
3.125 0.875 3.7125
3.0625 0.875 3.775
3.125 0.8125 3.7125
3.0625 0.8125 3.775
3.0625 0.875 3.7125
3.0625 0.8125 3.7125
3.25 0.8125 3.775
3.25 0.875 3.7125
3.1875 0.875 3.775
3.25 0.8125 3.7125
3.1875 0.8125 3.775
3.1875 0.875 3.7125
3.1875 0.8125 3.7125
3.375 0.8125 3.775
3.375 0.875 3.7125
3.3125 0.875 3.775
3.375 0.8125 3.7125
3.3125 0.8125 3.775
3.3125 0.875 3.7125
3.3125 0.8125 3.7125
3.5 0.8125 3.775
3.5 0.875 3.7125
3.4375 0.875 3.775
3.5 0.8125 3.7125
3.4375 0.8125 3.775
3.4375 0.875 3.7125
3.4375 0.8125 3.7125
3.625 0.8125 3.775
3.625 0.875 3.7125
3.5625 0.875 3.775
3.625 0.8125 3.7125
3.5625 0.8125 3.775
3.5625 0.875 3.7125
3.5625 0.8125 3.7125
3.75 0.8125 3.775
3.75 0.875 3.7125
3.6875 0.875 3.775
3.75 0.8125 3.7125
3.6875 0.8125 3.775
3.6875 0.875 3.7125
3.6875 0.8125 3.7125
3.875 0.8125 3.775
3.875 0.875 3.7125
3.8125 0.875 3.775
3.875 0.8125 3.7125
3.8125 0.8125 3.775
3.8125 0.875 3.7125
3.8125 0.8125 3.7125
4 0.8125 3.775
4 0.875 3.7125
3.9375 0.875 3.775
4 0.8125 3.7125
3.9375 0.8125 3.775
3.9375 0.875 3.7125
3.9375 0.8125 3.7125
0.125 0.9375 3.775
0 0.9375 3.775
0.125 1 3.7125
0.0625 1 3.775
0 1 3.7125
0.125 0.9375 3.7125
0.0625 0.9375 3.775
0 0.9375 3.7125
0.0625 1 3.7125
0.0625 0.9375 3.7125
0.25 0.9375 3.775
0.25 1 3.7125
0.1875 1 3.775
0.25 0.9375 3.7125
0.1875 0.9375 3.775
0.1875 1 3.7125
0.1875 0.9375 3.7125
0.375 0.9375 3.775
0.375 1 3.7125
0.3125 1 3.775
0.375 0.9375 3.7125
0.3125 0.9375 3.775
0.3125 1 3.7125
0.3125 0.9375 3.7125
0.5 0.9375 3.775
0.5 1 3.7125
0.4375 1 3.775
0.5 0.9375 3.7125
0.4375 0.9375 3.775
0.4375 1 3.7125
0.4375 0.9375 3.7125
0.625 0.9375 3.775
0.625 1 3.7125
0.5625 1 3.775
0.625 0.9375 3.7125
0.5625 0.9375 3.775
0.5625 1 3.7125
0.5625 0.9375 3.7125
0.75 0.9375 3.775
0.75 1 3.7125
0.6875 1 3.775
0.75 0.9375 3.7125
0.6875 0.9375 3.775
0.6875 1 3.7125
0.6875 0.9375 3.7125
0.875 0.9375 3.775
0.875 1 3.7125
0.8125 1 3.775
0.875 0.9375 3.7125
0.8125 0.9375 3.775
0.8125 1 3.7125
0.8125 0.9375 3.7125
1 0.9375 3.775
1 1 3.7125
0.9375 1 3.775
1 0.9375 3.7125
0.9375 0.9375 3.775
0.9375 1 3.7125
0.9375 0.9375 3.7125
1.125 0.9375 3.775
1.125 1 3.7125
1.0625 1 3.775
1.125 0.9375 3.7125
1.0625 0.9375 3.775
1.0625 1 3.7125
1.0625 0.9375 3.7125
1.25 0.9375 3.775
1.25 1 3.7125
1.1875 1 3.775
1.25 0.9375 3.7125
1.1875 0.9375 3.775
1.1875 1 3.7125
1.1875 0.9375 3.7125
1.375 0.9375 3.775
1.375 1 3.7125
1.3125 1 3.775
1.375 0.9375 3.7125
1.3125 0.9375 3.775
1.3125 1 3.7125
1.3125 0.9375 3.7125
1.5 0.9375 3.775
1.5 1 3.7125
1.4375 1 3.775
1.5 0.9375 3.7125
1.4375 0.9375 3.775
1.4375 1 3.7125
1.4375 0.9375 3.7125
1.625 0.9375 3.775
1.625 1 3.7125
1.5625 1 3.775
1.625 0.9375 3.7125
1.5625 0.9375 3.775
1.5625 1 3.7125
1.5625 0.9375 3.7125
1.75 0.9375 3.775
1.75 1 3.7125
1.6875 1 3.775
1.75 0.9375 3.7125
1.6875 0.9375 3.775
1.6875 1 3.7125
1.6875 0.9375 3.7125
1.875 0.9375 3.775
1.875 1 3.7125
1.8125 1 3.775
1.875 0.9375 3.7125
1.8125 0.9375 3.775
1.8125 1 3.7125
1.8125 0.9375 3.7125
2 0.9375 3.775
2 1 3.7125
1.9375 1 3.775
2 0.9375 3.7125
1.9375 0.9375 3.775
1.9375 1 3.7125
1.9375 0.9375 3.7125
2.125 0.9375 3.775
2.125 1 3.7125
2.0625 1 3.775
2.125 0.9375 3.7125
2.0625 0.9375 3.775
2.0625 1 3.7125
2.0625 0.9375 3.7125
2.25 0.9375 3.775
2.25 1 3.7125
2.1875 1 3.775
2.25 0.9375 3.7125
2.1875 0.9375 3.775
2.1875 1 3.7125
2.1875 0.9375 3.7125
2.375 0.9375 3.775
2.375 1 3.7125
2.3125 1 3.775
2.375 0.9375 3.7125
2.3125 0.9375 3.775
2.3125 1 3.7125
2.3125 0.9375 3.7125
2.5 0.9375 3.775
2.5 1 3.7125
2.4375 1 3.775
2.5 0.9375 3.7125
2.4375 0.9375 3.775
2.4375 1 3.7125
2.4375 0.9375 3.7125
2.625 0.9375 3.775
2.625 1 3.7125
2.5625 1 3.775
2.625 0.9375 3.7125
2.5625 0.9375 3.775
2.5625 1 3.7125
2.5625 0.9375 3.7125
2.75 0.9375 3.775
2.75 1 3.7125
2.6875 1 3.775
2.75 0.9375 3.7125
2.6875 0.9375 3.775
2.6875 1 3.7125
2.6875 0.9375 3.7125
2.875 0.9375 3.775
2.875 1 3.7125
2.8125 1 3.775
2.875 0.9375 3.7125
2.8125 0.9375 3.775
2.8125 1 3.7125
2.8125 0.9375 3.7125
3 0.9375 3.775
3 1 3.7125
2.9375 1 3.775
3 0.9375 3.7125
2.9375 0.9375 3.775
2.9375 1 3.7125
2.9375 0.9375 3.7125
3.125 0.9375 3.775
3.125 1 3.7125
3.0625 1 3.775
3.125 0.9375 3.7125
3.0625 0.9375 3.775
3.0625 1 3.7125
3.0625 0.9375 3.7125
3.25 0.9375 3.775
3.25 1 3.7125
3.1875 1 3.775
3.25 0.9375 3.7125
3.1875 0.9375 3.775
3.1875 1 3.7125
3.1875 0.9375 3.7125
3.375 0.9375 3.775
3.375 1 3.7125
3.3125 1 3.775
3.375 0.9375 3.7125
3.3125 0.9375 3.775
3.3125 1 3.7125
3.3125 0.9375 3.7125
3.5 0.9375 3.775
3.5 1 3.7125
3.4375 1 3.775
3.5 0.9375 3.7125
3.4375 0.9375 3.775
3.4375 1 3.7125
3.4375 0.9375 3.7125
3.625 0.9375 3.775
3.625 1 3.7125
3.5625 1 3.775
3.625 0.9375 3.7125
3.5625 0.9375 3.775
3.5625 1 3.7125
3.5625 0.9375 3.7125
3.75 0.9375 3.775
3.75 1 3.7125
3.6875 1 3.775
3.75 0.9375 3.7125
3.6875 0.9375 3.775
3.6875 1 3.7125
3.6875 0.9375 3.7125
3.875 0.9375 3.775
3.875 1 3.7125
3.8125 1 3.775
3.875 0.9375 3.7125
3.8125 0.9375 3.775
3.8125 1 3.7125
3.8125 0.9375 3.7125
4 0.9375 3.775
4 1 3.7125
3.9375 1 3.775
4 0.9375 3.7125
3.9375 0.9375 3.775
3.9375 1 3.7125
3.9375 0.9375 3.7125
0.125 0 3.8375
0.0625 0 3.9
0 0 3.8375
0.125 0.0625 3.9
0 0.0625 3.9
0.125 0.125 3.8375
0.0625 0.125 3.9
0 0.125 3.8375
0.0625 0 3.8375
0.125 0.0625 3.8375
0.0625 0.0625 3.9
0 0.0625 3.8375
0.0625 0.125 3.8375
0.0625 0.0625 3.8375
0.25 0 3.8375
0.1875 0 3.9
0.25 0.0625 3.9
0.25 0.125 3.8375
0.1875 0.125 3.9
0.1875 0 3.8375
0.25 0.0625 3.8375
0.1875 0.0625 3.9
0.1875 0.125 3.8375
0.1875 0.0625 3.8375
0.375 0 3.8375
0.3125 0 3.9
0.375 0.0625 3.9
0.375 0.125 3.8375
0.3125 0.125 3.9
0.3125 0 3.8375
0.375 0.0625 3.8375
0.3125 0.0625 3.9
0.3125 0.125 3.8375
0.3125 0.0625 3.8375
0.5 0 3.8375
0.4375 0 3.9
0.5 0.0625 3.9
0.5 0.125 3.8375
0.4375 0.125 3.9
0.4375 0 3.8375
0.5 0.0625 3.8375
0.4375 0.0625 3.9
0.4375 0.125 3.8375
0.4375 0.0625 3.8375
0.625 0 3.8375
0.5625 0 3.9
0.625 0.0625 3.9
0.625 0.125 3.8375
0.5625 0.125 3.9
0.5625 0 3.8375
0.625 0.0625 3.8375
0.5625 0.0625 3.9
0.5625 0.125 3.8375
0.5625 0.0625 3.8375
0.75 0 3.8375
0.6875 0 3.9
0.75 0.0625 3.9
0.75 0.125 3.8375
0.6875 0.125 3.9
0.6875 0 3.8375
0.75 0.0625 3.8375
0.6875 0.0625 3.9
0.6875 0.125 3.8375
0.6875 0.0625 3.8375
0.875 0 3.8375
0.8125 0 3.9
0.875 0.0625 3.9
0.875 0.125 3.8375
0.8125 0.125 3.9
0.8125 0 3.8375
0.875 0.0625 3.8375
0.8125 0.0625 3.9
0.8125 0.125 3.8375
0.8125 0.0625 3.8375
1 0 3.8375
0.9375 0 3.9
1 0.0625 3.9
1 0.125 3.8375
0.9375 0.125 3.9
0.9375 0 3.8375
1 0.0625 3.8375
0.9375 0.0625 3.9
0.9375 0.125 3.8375
0.9375 0.0625 3.8375
1.125 0 3.8375
1.0625 0 3.9
1.125 0.0625 3.9
1.125 0.125 3.8375
1.0625 0.125 3.9
1.0625 0 3.8375
1.125 0.0625 3.8375
1.0625 0.0625 3.9
1.0625 0.125 3.8375
1.0625 0.0625 3.8375
1.25 0 3.8375
1.1875 0 3.9
1.25 0.0625 3.9
1.25 0.125 3.8375
1.1875 0.125 3.9
1.1875 0 3.8375
1.25 0.0625 3.8375
1.1875 0.0625 3.9
1.1875 0.125 3.8375
1.1875 0.0625 3.8375
1.375 0 3.8375
1.3125 0 3.9
1.375 0.0625 3.9
1.375 0.125 3.8375
1.3125 0.125 3.9
1.3125 0 3.8375
1.375 0.0625 3.8375
1.3125 0.0625 3.9
1.3125 0.125 3.8375
1.3125 0.0625 3.8375
1.5 0 3.8375
1.4375 0 3.9
1.5 0.0625 3.9
1.5 0.125 3.8375
1.4375 0.125 3.9
1.4375 0 3.8375
1.5 0.0625 3.8375
1.4375 0.0625 3.9
1.4375 0.125 3.8375
1.4375 0.0625 3.8375
1.625 0 3.8375
1.5625 0 3.9
1.625 0.0625 3.9
1.625 0.125 3.8375
1.5625 0.125 3.9
1.5625 0 3.8375
1.625 0.0625 3.8375
1.5625 0.0625 3.9
1.5625 0.125 3.8375
1.5625 0.0625 3.8375
1.75 0 3.8375
1.6875 0 3.9
1.75 0.0625 3.9
1.75 0.125 3.8375
1.6875 0.125 3.9
1.6875 0 3.8375
1.75 0.0625 3.8375
1.6875 0.0625 3.9
1.6875 0.125 3.8375
1.6875 0.0625 3.8375
1.875 0 3.8375
1.8125 0 3.9
1.875 0.0625 3.9
1.875 0.125 3.8375
1.8125 0.125 3.9
1.8125 0 3.8375
1.875 0.0625 3.8375
1.8125 0.0625 3.9
1.8125 0.125 3.8375
1.8125 0.0625 3.8375
2 0 3.8375
1.9375 0 3.9
2 0.0625 3.9
2 0.125 3.8375
1.9375 0.125 3.9
1.9375 0 3.8375
2 0.0625 3.8375
1.9375 0.0625 3.9
1.9375 0.125 3.8375
1.9375 0.0625 3.8375
2.125 0 3.8375
2.0625 0 3.9
2.125 0.0625 3.9
2.125 0.125 3.8375
2.0625 0.125 3.9
2.0625 0 3.8375
2.125 0.0625 3.8375
2.0625 0.0625 3.9
2.0625 0.125 3.8375
2.0625 0.0625 3.8375
2.25 0 3.8375
2.1875 0 3.9
2.25 0.0625 3.9
2.25 0.125 3.8375
2.1875 0.125 3.9
2.1875 0 3.8375
2.25 0.0625 3.8375
2.1875 0.0625 3.9
2.1875 0.125 3.8375
2.1875 0.0625 3.8375
2.375 0 3.8375
2.3125 0 3.9
2.375 0.0625 3.9
2.375 0.125 3.8375
2.3125 0.125 3.9
2.3125 0 3.8375
2.375 0.0625 3.8375
2.3125 0.0625 3.9
2.3125 0.125 3.8375
2.3125 0.0625 3.8375
2.5 0 3.8375
2.4375 0 3.9
2.5 0.0625 3.9
2.5 0.125 3.8375
2.4375 0.125 3.9
2.4375 0 3.8375
2.5 0.0625 3.8375
2.4375 0.0625 3.9
2.4375 0.125 3.8375
2.4375 0.0625 3.8375
2.625 0 3.8375
2.5625 0 3.9
2.625 0.0625 3.9
2.625 0.125 3.8375
2.5625 0.125 3.9
2.5625 0 3.8375
2.625 0.0625 3.8375
2.5625 0.0625 3.9
2.5625 0.125 3.8375
2.5625 0.0625 3.8375
2.75 0 3.8375
2.6875 0 3.9
2.75 0.0625 3.9
2.75 0.125 3.8375
2.6875 0.125 3.9
2.6875 0 3.8375
2.75 0.0625 3.8375
2.6875 0.0625 3.9
2.6875 0.125 3.8375
2.6875 0.0625 3.8375
2.875 0 3.8375
2.8125 0 3.9
2.875 0.0625 3.9
2.875 0.125 3.8375
2.8125 0.125 3.9
2.8125 0 3.8375
2.875 0.0625 3.8375
2.8125 0.0625 3.9
2.8125 0.125 3.8375
2.8125 0.0625 3.8375
3 0 3.8375
2.9375 0 3.9
3 0.0625 3.9
3 0.125 3.8375
2.9375 0.125 3.9
2.9375 0 3.8375
3 0.0625 3.8375
2.9375 0.0625 3.9
2.9375 0.125 3.8375
2.9375 0.0625 3.8375
3.125 0 3.8375
3.0625 0 3.9
3.125 0.0625 3.9
3.125 0.125 3.8375
3.0625 0.125 3.9
3.0625 0 3.8375
3.125 0.0625 3.8375
3.0625 0.0625 3.9
3.0625 0.125 3.8375
3.0625 0.0625 3.8375
3.25 0 3.8375
3.1875 0 3.9
3.25 0.0625 3.9
3.25 0.125 3.8375
3.1875 0.125 3.9
3.1875 0 3.8375
3.25 0.0625 3.8375
3.1875 0.0625 3.9
3.1875 0.125 3.8375
3.1875 0.0625 3.8375
3.375 0 3.8375
3.3125 0 3.9
3.375 0.0625 3.9
3.375 0.125 3.8375
3.3125 0.125 3.9
3.3125 0 3.8375
3.375 0.0625 3.8375
3.3125 0.0625 3.9
3.3125 0.125 3.8375
3.3125 0.0625 3.8375
3.5 0 3.8375
3.4375 0 3.9
3.5 0.0625 3.9
3.5 0.125 3.8375
3.4375 0.125 3.9
3.4375 0 3.8375
3.5 0.0625 3.8375
3.4375 0.0625 3.9
3.4375 0.125 3.8375
3.4375 0.0625 3.8375
3.625 0 3.8375
3.5625 0 3.9
3.625 0.0625 3.9
3.625 0.125 3.8375
3.5625 0.125 3.9
3.5625 0 3.8375
3.625 0.0625 3.8375
3.5625 0.0625 3.9
3.5625 0.125 3.8375
3.5625 0.0625 3.8375
3.75 0 3.8375
3.6875 0 3.9
3.75 0.0625 3.9
3.75 0.125 3.8375
3.6875 0.125 3.9
3.6875 0 3.8375
3.75 0.0625 3.8375
3.6875 0.0625 3.9
3.6875 0.125 3.8375
3.6875 0.0625 3.8375
3.875 0 3.8375
3.8125 0 3.9
3.875 0.0625 3.9
3.875 0.125 3.8375
3.8125 0.125 3.9
3.8125 0 3.8375
3.875 0.0625 3.8375
3.8125 0.0625 3.9
3.8125 0.125 3.8375
3.8125 0.0625 3.8375
4 0 3.8375
3.9375 0 3.9
4 0.0625 3.9
4 0.125 3.8375
3.9375 0.125 3.9
3.9375 0 3.8375
4 0.0625 3.8375
3.9375 0.0625 3.9
3.9375 0.125 3.8375
3.9375 0.0625 3.8375
0.125 0.1875 3.9
0 0.1875 3.9
0.125 0.25 3.8375
0.0625 0.25 3.9
0 0.25 3.8375
0.125 0.1875 3.8375
0.0625 0.1875 3.9
0 0.1875 3.8375
0.0625 0.25 3.8375
0.0625 0.1875 3.8375
0.25 0.1875 3.9
0.25 0.25 3.8375
0.1875 0.25 3.9
0.25 0.1875 3.8375
0.1875 0.1875 3.9
0.1875 0.25 3.8375
0.1875 0.1875 3.8375
0.375 0.1875 3.9
0.375 0.25 3.8375
0.3125 0.25 3.9
0.375 0.1875 3.8375
0.3125 0.1875 3.9
0.3125 0.25 3.8375
0.3125 0.1875 3.8375
0.5 0.1875 3.9
0.5 0.25 3.8375
0.4375 0.25 3.9
0.5 0.1875 3.8375
0.4375 0.1875 3.9
0.4375 0.25 3.8375
0.4375 0.1875 3.8375
0.625 0.1875 3.9
0.625 0.25 3.8375
0.5625 0.25 3.9
0.625 0.1875 3.8375
0.5625 0.1875 3.9
0.5625 0.25 3.8375
0.5625 0.1875 3.8375
0.75 0.1875 3.9
0.75 0.25 3.8375
0.6875 0.25 3.9
0.75 0.1875 3.8375
0.6875 0.1875 3.9
0.6875 0.25 3.8375
0.6875 0.1875 3.8375
0.875 0.1875 3.9
0.875 0.25 3.8375
0.8125 0.25 3.9
0.875 0.1875 3.8375
0.8125 0.1875 3.9
0.8125 0.25 3.8375
0.8125 0.1875 3.8375
1 0.1875 3.9
1 0.25 3.8375
0.9375 0.25 3.9
1 0.1875 3.8375
0.9375 0.1875 3.9
0.9375 0.25 3.8375
0.9375 0.1875 3.8375
1.125 0.1875 3.9
1.125 0.25 3.8375
1.0625 0.25 3.9
1.125 0.1875 3.8375
1.0625 0.1875 3.9
1.0625 0.25 3.8375
1.0625 0.1875 3.8375
1.25 0.1875 3.9
1.25 0.25 3.8375
1.1875 0.25 3.9
1.25 0.1875 3.8375
1.1875 0.1875 3.9
1.1875 0.25 3.8375
1.1875 0.1875 3.8375
1.375 0.1875 3.9
1.375 0.25 3.8375
1.3125 0.25 3.9
1.375 0.1875 3.8375
1.3125 0.1875 3.9
1.3125 0.25 3.8375
1.3125 0.1875 3.8375
1.5 0.1875 3.9
1.5 0.25 3.8375
1.4375 0.25 3.9
1.5 0.1875 3.8375
1.4375 0.1875 3.9
1.4375 0.25 3.8375
1.4375 0.1875 3.8375
1.625 0.1875 3.9
1.625 0.25 3.8375
1.5625 0.25 3.9
1.625 0.1875 3.8375
1.5625 0.1875 3.9
1.5625 0.25 3.8375
1.5625 0.1875 3.8375
1.75 0.1875 3.9
1.75 0.25 3.8375
1.6875 0.25 3.9
1.75 0.1875 3.8375
1.6875 0.1875 3.9
1.6875 0.25 3.8375
1.6875 0.1875 3.8375
1.875 0.1875 3.9
1.875 0.25 3.8375
1.8125 0.25 3.9
1.875 0.1875 3.8375
1.8125 0.1875 3.9
1.8125 0.25 3.8375
1.8125 0.1875 3.8375
2 0.1875 3.9
2 0.25 3.8375
1.9375 0.25 3.9
2 0.1875 3.8375
1.9375 0.1875 3.9
1.9375 0.25 3.8375
1.9375 0.1875 3.8375
2.125 0.1875 3.9
2.125 0.25 3.8375
2.0625 0.25 3.9
2.125 0.1875 3.8375
2.0625 0.1875 3.9
2.0625 0.25 3.8375
2.0625 0.1875 3.8375
2.25 0.1875 3.9
2.25 0.25 3.8375
2.1875 0.25 3.9
2.25 0.1875 3.8375
2.1875 0.1875 3.9
2.1875 0.25 3.8375
2.1875 0.1875 3.8375
2.375 0.1875 3.9
2.375 0.25 3.8375
2.3125 0.25 3.9
2.375 0.1875 3.8375
2.3125 0.1875 3.9
2.3125 0.25 3.8375
2.3125 0.1875 3.8375
2.5 0.1875 3.9
2.5 0.25 3.8375
2.4375 0.25 3.9
2.5 0.1875 3.8375
2.4375 0.1875 3.9
2.4375 0.25 3.8375
2.4375 0.1875 3.8375
2.625 0.1875 3.9
2.625 0.25 3.8375
2.5625 0.25 3.9
2.625 0.1875 3.8375
2.5625 0.1875 3.9
2.5625 0.25 3.8375
2.5625 0.1875 3.8375
2.75 0.1875 3.9
2.75 0.25 3.8375
2.6875 0.25 3.9
2.75 0.1875 3.8375
2.6875 0.1875 3.9
2.6875 0.25 3.8375
2.6875 0.1875 3.8375
2.875 0.1875 3.9
2.875 0.25 3.8375
2.8125 0.25 3.9
2.875 0.1875 3.8375
2.8125 0.1875 3.9
2.8125 0.25 3.8375
2.8125 0.1875 3.8375
3 0.1875 3.9
3 0.25 3.8375
2.9375 0.25 3.9
3 0.1875 3.8375
2.9375 0.1875 3.9
2.9375 0.25 3.8375
2.9375 0.1875 3.8375
3.125 0.1875 3.9
3.125 0.25 3.8375
3.0625 0.25 3.9
3.125 0.1875 3.8375
3.0625 0.1875 3.9
3.0625 0.25 3.8375
3.0625 0.1875 3.8375
3.25 0.1875 3.9
3.25 0.25 3.8375
3.1875 0.25 3.9
3.25 0.1875 3.8375
3.1875 0.1875 3.9
3.1875 0.25 3.8375
3.1875 0.1875 3.8375
3.375 0.1875 3.9
3.375 0.25 3.8375
3.3125 0.25 3.9
3.375 0.1875 3.8375
3.3125 0.1875 3.9
3.3125 0.25 3.8375
3.3125 0.1875 3.8375
3.5 0.1875 3.9
3.5 0.25 3.8375
3.4375 0.25 3.9
3.5 0.1875 3.8375
3.4375 0.1875 3.9
3.4375 0.25 3.8375
3.4375 0.1875 3.8375
3.625 0.1875 3.9
3.625 0.25 3.8375
3.5625 0.25 3.9
3.625 0.1875 3.8375
3.5625 0.1875 3.9
3.5625 0.25 3.8375
3.5625 0.1875 3.8375
3.75 0.1875 3.9
3.75 0.25 3.8375
3.6875 0.25 3.9
3.75 0.1875 3.8375
3.6875 0.1875 3.9
3.6875 0.25 3.8375
3.6875 0.1875 3.8375
3.875 0.1875 3.9
3.875 0.25 3.8375
3.8125 0.25 3.9
3.875 0.1875 3.8375
3.8125 0.1875 3.9
3.8125 0.25 3.8375
3.8125 0.1875 3.8375
4 0.1875 3.9
4 0.25 3.8375
3.9375 0.25 3.9
4 0.1875 3.8375
3.9375 0.1875 3.9
3.9375 0.25 3.8375
3.9375 0.1875 3.8375
0.125 0.3125 3.9
0 0.3125 3.9
0.125 0.375 3.8375
0.0625 0.375 3.9
0 0.375 3.8375
0.125 0.3125 3.8375
0.0625 0.3125 3.9
0 0.3125 3.8375
0.0625 0.375 3.8375
0.0625 0.3125 3.8375
0.25 0.3125 3.9
0.25 0.375 3.8375
0.1875 0.375 3.9
0.25 0.3125 3.8375
0.1875 0.3125 3.9
0.1875 0.375 3.8375
0.1875 0.3125 3.8375
0.375 0.3125 3.9
0.375 0.375 3.8375
0.3125 0.375 3.9
0.375 0.3125 3.8375
0.3125 0.3125 3.9
0.3125 0.375 3.8375
0.3125 0.3125 3.8375
0.5 0.3125 3.9
0.5 0.375 3.8375
0.4375 0.375 3.9
0.5 0.3125 3.8375
0.4375 0.3125 3.9
0.4375 0.375 3.8375
0.4375 0.3125 3.8375
0.625 0.3125 3.9
0.625 0.375 3.8375
0.5625 0.375 3.9
0.625 0.3125 3.8375
0.5625 0.3125 3.9
0.5625 0.375 3.8375
0.5625 0.3125 3.8375
0.75 0.3125 3.9
0.75 0.375 3.8375
0.6875 0.375 3.9
0.75 0.3125 3.8375
0.6875 0.3125 3.9
0.6875 0.375 3.8375
0.6875 0.3125 3.8375
0.875 0.3125 3.9
0.875 0.375 3.8375
0.8125 0.375 3.9
0.875 0.3125 3.8375
0.8125 0.3125 3.9
0.8125 0.375 3.8375
0.8125 0.3125 3.8375
1 0.3125 3.9
1 0.375 3.8375
0.9375 0.375 3.9
1 0.3125 3.8375
0.9375 0.3125 3.9
0.9375 0.375 3.8375
0.9375 0.3125 3.8375
1.125 0.3125 3.9
1.125 0.375 3.8375
1.0625 0.375 3.9
1.125 0.3125 3.8375
1.0625 0.3125 3.9
1.0625 0.375 3.8375
1.0625 0.3125 3.8375
1.25 0.3125 3.9
1.25 0.375 3.8375
1.1875 0.375 3.9
1.25 0.3125 3.8375
1.1875 0.3125 3.9
1.1875 0.375 3.8375
1.1875 0.3125 3.8375
1.375 0.3125 3.9
1.375 0.375 3.8375
1.3125 0.375 3.9
1.375 0.3125 3.8375
1.3125 0.3125 3.9
1.3125 0.375 3.8375
1.3125 0.3125 3.8375
1.5 0.3125 3.9
1.5 0.375 3.8375
1.4375 0.375 3.9
1.5 0.3125 3.8375
1.4375 0.3125 3.9
1.4375 0.375 3.8375
1.4375 0.3125 3.8375
1.625 0.3125 3.9
1.625 0.375 3.8375
1.5625 0.375 3.9
1.625 0.3125 3.8375
1.5625 0.3125 3.9
1.5625 0.375 3.8375
1.5625 0.3125 3.8375
1.75 0.3125 3.9
1.75 0.375 3.8375
1.6875 0.375 3.9
1.75 0.3125 3.8375
1.6875 0.3125 3.9
1.6875 0.375 3.8375
1.6875 0.3125 3.8375
1.875 0.3125 3.9
1.875 0.375 3.8375
1.8125 0.375 3.9
1.875 0.3125 3.8375
1.8125 0.3125 3.9
1.8125 0.375 3.8375
1.8125 0.3125 3.8375
2 0.3125 3.9
2 0.375 3.8375
1.9375 0.375 3.9
2 0.3125 3.8375
1.9375 0.3125 3.9
1.9375 0.375 3.8375
1.9375 0.3125 3.8375
2.125 0.3125 3.9
2.125 0.375 3.8375
2.0625 0.375 3.9
2.125 0.3125 3.8375
2.0625 0.3125 3.9
2.0625 0.375 3.8375
2.0625 0.3125 3.8375
2.25 0.3125 3.9
2.25 0.375 3.8375
2.1875 0.375 3.9
2.25 0.3125 3.8375
2.1875 0.3125 3.9
2.1875 0.375 3.8375
2.1875 0.3125 3.8375
2.375 0.3125 3.9
2.375 0.375 3.8375
2.3125 0.375 3.9
2.375 0.3125 3.8375
2.3125 0.3125 3.9
2.3125 0.375 3.8375
2.3125 0.3125 3.8375
2.5 0.3125 3.9
2.5 0.375 3.8375
2.4375 0.375 3.9
2.5 0.3125 3.8375
2.4375 0.3125 3.9
2.4375 0.375 3.8375
2.4375 0.3125 3.8375
2.625 0.3125 3.9
2.625 0.375 3.8375
2.5625 0.375 3.9
2.625 0.3125 3.8375
2.5625 0.3125 3.9
2.5625 0.375 3.8375
2.5625 0.3125 3.8375
2.75 0.3125 3.9
2.75 0.375 3.8375
2.6875 0.375 3.9
2.75 0.3125 3.8375
2.6875 0.3125 3.9
2.6875 0.375 3.8375
2.6875 0.3125 3.8375
2.875 0.3125 3.9
2.875 0.375 3.8375
2.8125 0.375 3.9
2.875 0.3125 3.8375
2.8125 0.3125 3.9
2.8125 0.375 3.8375
2.8125 0.3125 3.8375
3 0.3125 3.9
3 0.375 3.8375
2.9375 0.375 3.9
3 0.3125 3.8375
2.9375 0.3125 3.9
2.9375 0.375 3.8375
2.9375 0.3125 3.8375
3.125 0.3125 3.9
3.125 0.375 3.8375
3.0625 0.375 3.9
3.125 0.3125 3.8375
3.0625 0.3125 3.9
3.0625 0.375 3.8375
3.0625 0.3125 3.8375
3.25 0.3125 3.9
3.25 0.375 3.8375
3.1875 0.375 3.9
3.25 0.3125 3.8375
3.1875 0.3125 3.9
3.1875 0.375 3.8375
3.1875 0.3125 3.8375
3.375 0.3125 3.9
3.375 0.375 3.8375
3.3125 0.375 3.9
3.375 0.3125 3.8375
3.3125 0.3125 3.9
3.3125 0.375 3.8375
3.3125 0.3125 3.8375
3.5 0.3125 3.9
3.5 0.375 3.8375
3.4375 0.375 3.9
3.5 0.3125 3.8375
3.4375 0.3125 3.9
3.4375 0.375 3.8375
3.4375 0.3125 3.8375
3.625 0.3125 3.9
3.625 0.375 3.8375
3.5625 0.375 3.9
3.625 0.3125 3.8375
3.5625 0.3125 3.9
3.5625 0.375 3.8375
3.5625 0.3125 3.8375
3.75 0.3125 3.9
3.75 0.375 3.8375
3.6875 0.375 3.9
3.75 0.3125 3.8375
3.6875 0.3125 3.9
3.6875 0.375 3.8375
3.6875 0.3125 3.8375
3.875 0.3125 3.9
3.875 0.375 3.8375
3.8125 0.375 3.9
3.875 0.3125 3.8375
3.8125 0.3125 3.9
3.8125 0.375 3.8375
3.8125 0.3125 3.8375
4 0.3125 3.9
4 0.375 3.8375
3.9375 0.375 3.9
4 0.3125 3.8375
3.9375 0.3125 3.9
3.9375 0.375 3.8375
3.9375 0.3125 3.8375
0.125 0.4375 3.9
0 0.4375 3.9
0.125 0.5 3.8375
0.0625 0.5 3.9
0 0.5 3.8375
0.125 0.4375 3.8375
0.0625 0.4375 3.9
0 0.4375 3.8375
0.0625 0.5 3.8375
0.0625 0.4375 3.8375
0.25 0.4375 3.9
0.25 0.5 3.8375
0.1875 0.5 3.9
0.25 0.4375 3.8375
0.1875 0.4375 3.9
0.1875 0.5 3.8375
0.1875 0.4375 3.8375
0.375 0.4375 3.9
0.375 0.5 3.8375
0.3125 0.5 3.9
0.375 0.4375 3.8375
0.3125 0.4375 3.9
0.3125 0.5 3.8375
0.3125 0.4375 3.8375
0.5 0.4375 3.9
0.5 0.5 3.8375
0.4375 0.5 3.9
0.5 0.4375 3.8375
0.4375 0.4375 3.9
0.4375 0.5 3.8375
0.4375 0.4375 3.8375
0.625 0.4375 3.9
0.625 0.5 3.8375
0.5625 0.5 3.9
0.625 0.4375 3.8375
0.5625 0.4375 3.9
0.5625 0.5 3.8375
0.5625 0.4375 3.8375
0.75 0.4375 3.9
0.75 0.5 3.8375
0.6875 0.5 3.9
0.75 0.4375 3.8375
0.6875 0.4375 3.9
0.6875 0.5 3.8375
0.6875 0.4375 3.8375
0.875 0.4375 3.9
0.875 0.5 3.8375
0.8125 0.5 3.9
0.875 0.4375 3.8375
0.8125 0.4375 3.9
0.8125 0.5 3.8375
0.8125 0.4375 3.8375
1 0.4375 3.9
1 0.5 3.8375
0.9375 0.5 3.9
1 0.4375 3.8375
0.9375 0.4375 3.9
0.9375 0.5 3.8375
0.9375 0.4375 3.8375
1.125 0.4375 3.9
1.125 0.5 3.8375
1.0625 0.5 3.9
1.125 0.4375 3.8375
1.0625 0.4375 3.9
1.0625 0.5 3.8375
1.0625 0.4375 3.8375
1.25 0.4375 3.9
1.25 0.5 3.8375
1.1875 0.5 3.9
1.25 0.4375 3.8375
1.1875 0.4375 3.9
1.1875 0.5 3.8375
1.1875 0.4375 3.8375
1.375 0.4375 3.9
1.375 0.5 3.8375
1.3125 0.5 3.9
1.375 0.4375 3.8375
1.3125 0.4375 3.9
1.3125 0.5 3.8375
1.3125 0.4375 3.8375
1.5 0.4375 3.9
1.5 0.5 3.8375
1.4375 0.5 3.9
1.5 0.4375 3.8375
1.4375 0.4375 3.9
1.4375 0.5 3.8375
1.4375 0.4375 3.8375
1.625 0.4375 3.9
1.625 0.5 3.8375
1.5625 0.5 3.9
1.625 0.4375 3.8375
1.5625 0.4375 3.9
1.5625 0.5 3.8375
1.5625 0.4375 3.8375
1.75 0.4375 3.9
1.75 0.5 3.8375
1.6875 0.5 3.9
1.75 0.4375 3.8375
1.6875 0.4375 3.9
1.6875 0.5 3.8375
1.6875 0.4375 3.8375
1.875 0.4375 3.9
1.875 0.5 3.8375
1.8125 0.5 3.9
1.875 0.4375 3.8375
1.8125 0.4375 3.9
1.8125 0.5 3.8375
1.8125 0.4375 3.8375
2 0.4375 3.9
2 0.5 3.8375
1.9375 0.5 3.9
2 0.4375 3.8375
1.9375 0.4375 3.9
1.9375 0.5 3.8375
1.9375 0.4375 3.8375
2.125 0.4375 3.9
2.125 0.5 3.8375
2.0625 0.5 3.9
2.125 0.4375 3.8375
2.0625 0.4375 3.9
2.0625 0.5 3.8375
2.0625 0.4375 3.8375
2.25 0.4375 3.9
2.25 0.5 3.8375
2.1875 0.5 3.9
2.25 0.4375 3.8375
2.1875 0.4375 3.9
2.1875 0.5 3.8375
2.1875 0.4375 3.8375
2.375 0.4375 3.9
2.375 0.5 3.8375
2.3125 0.5 3.9
2.375 0.4375 3.8375
2.3125 0.4375 3.9
2.3125 0.5 3.8375
2.3125 0.4375 3.8375
2.5 0.4375 3.9
2.5 0.5 3.8375
2.4375 0.5 3.9
2.5 0.4375 3.8375
2.4375 0.4375 3.9
2.4375 0.5 3.8375
2.4375 0.4375 3.8375
2.625 0.4375 3.9
2.625 0.5 3.8375
2.5625 0.5 3.9
2.625 0.4375 3.8375
2.5625 0.4375 3.9
2.5625 0.5 3.8375
2.5625 0.4375 3.8375
2.75 0.4375 3.9
2.75 0.5 3.8375
2.6875 0.5 3.9
2.75 0.4375 3.8375
2.6875 0.4375 3.9
2.6875 0.5 3.8375
2.6875 0.4375 3.8375
2.875 0.4375 3.9
2.875 0.5 3.8375
2.8125 0.5 3.9
2.875 0.4375 3.8375
2.8125 0.4375 3.9
2.8125 0.5 3.8375
2.8125 0.4375 3.8375
3 0.4375 3.9
3 0.5 3.8375
2.9375 0.5 3.9
3 0.4375 3.8375
2.9375 0.4375 3.9
2.9375 0.5 3.8375
2.9375 0.4375 3.8375
3.125 0.4375 3.9
3.125 0.5 3.8375
3.0625 0.5 3.9
3.125 0.4375 3.8375
3.0625 0.4375 3.9
3.0625 0.5 3.8375
3.0625 0.4375 3.8375
3.25 0.4375 3.9
3.25 0.5 3.8375
3.1875 0.5 3.9
3.25 0.4375 3.8375
3.1875 0.4375 3.9
3.1875 0.5 3.8375
3.1875 0.4375 3.8375
3.375 0.4375 3.9
3.375 0.5 3.8375
3.3125 0.5 3.9
3.375 0.4375 3.8375
3.3125 0.4375 3.9
3.3125 0.5 3.8375
3.3125 0.4375 3.8375
3.5 0.4375 3.9
3.5 0.5 3.8375
3.4375 0.5 3.9
3.5 0.4375 3.8375
3.4375 0.4375 3.9
3.4375 0.5 3.8375
3.4375 0.4375 3.8375
3.625 0.4375 3.9
3.625 0.5 3.8375
3.5625 0.5 3.9
3.625 0.4375 3.8375
3.5625 0.4375 3.9
3.5625 0.5 3.8375
3.5625 0.4375 3.8375
3.75 0.4375 3.9
3.75 0.5 3.8375
3.6875 0.5 3.9
3.75 0.4375 3.8375
3.6875 0.4375 3.9
3.6875 0.5 3.8375
3.6875 0.4375 3.8375
3.875 0.4375 3.9
3.875 0.5 3.8375
3.8125 0.5 3.9
3.875 0.4375 3.8375
3.8125 0.4375 3.9
3.8125 0.5 3.8375
3.8125 0.4375 3.8375
4 0.4375 3.9
4 0.5 3.8375
3.9375 0.5 3.9
4 0.4375 3.8375
3.9375 0.4375 3.9
3.9375 0.5 3.8375
3.9375 0.4375 3.8375
0.125 0.5625 3.9
0 0.5625 3.9
0.125 0.625 3.8375
0.0625 0.625 3.9
0 0.625 3.8375
0.125 0.5625 3.8375
0.0625 0.5625 3.9
0 0.5625 3.8375
0.0625 0.625 3.8375
0.0625 0.5625 3.8375
0.25 0.5625 3.9
0.25 0.625 3.8375
0.1875 0.625 3.9
0.25 0.5625 3.8375
0.1875 0.5625 3.9
0.1875 0.625 3.8375
0.1875 0.5625 3.8375
0.375 0.5625 3.9
0.375 0.625 3.8375
0.3125 0.625 3.9
0.375 0.5625 3.8375
0.3125 0.5625 3.9
0.3125 0.625 3.8375
0.3125 0.5625 3.8375
0.5 0.5625 3.9
0.5 0.625 3.8375
0.4375 0.625 3.9
0.5 0.5625 3.8375
0.4375 0.5625 3.9
0.4375 0.625 3.8375
0.4375 0.5625 3.8375
0.625 0.5625 3.9
0.625 0.625 3.8375
0.5625 0.625 3.9
0.625 0.5625 3.8375
0.5625 0.5625 3.9
0.5625 0.625 3.8375
0.5625 0.5625 3.8375
0.75 0.5625 3.9
0.75 0.625 3.8375
0.6875 0.625 3.9
0.75 0.5625 3.8375
0.6875 0.5625 3.9
0.6875 0.625 3.8375
0.6875 0.5625 3.8375
0.875 0.5625 3.9
0.875 0.625 3.8375
0.8125 0.625 3.9
0.875 0.5625 3.8375
0.8125 0.5625 3.9
0.8125 0.625 3.8375
0.8125 0.5625 3.8375
1 0.5625 3.9
1 0.625 3.8375
0.9375 0.625 3.9
1 0.5625 3.8375
0.9375 0.5625 3.9
0.9375 0.625 3.8375
0.9375 0.5625 3.8375
1.125 0.5625 3.9
1.125 0.625 3.8375
1.0625 0.625 3.9
1.125 0.5625 3.8375
1.0625 0.5625 3.9
1.0625 0.625 3.8375
1.0625 0.5625 3.8375
1.25 0.5625 3.9
1.25 0.625 3.8375
1.1875 0.625 3.9
1.25 0.5625 3.8375
1.1875 0.5625 3.9
1.1875 0.625 3.8375
1.1875 0.5625 3.8375
1.375 0.5625 3.9
1.375 0.625 3.8375
1.3125 0.625 3.9
1.375 0.5625 3.8375
1.3125 0.5625 3.9
1.3125 0.625 3.8375
1.3125 0.5625 3.8375
1.5 0.5625 3.9
1.5 0.625 3.8375
1.4375 0.625 3.9
1.5 0.5625 3.8375
1.4375 0.5625 3.9
1.4375 0.625 3.8375
1.4375 0.5625 3.8375
1.625 0.5625 3.9
1.625 0.625 3.8375
1.5625 0.625 3.9
1.625 0.5625 3.8375
1.5625 0.5625 3.9
1.5625 0.625 3.8375
1.5625 0.5625 3.8375
1.75 0.5625 3.9
1.75 0.625 3.8375
1.6875 0.625 3.9
1.75 0.5625 3.8375
1.6875 0.5625 3.9
1.6875 0.625 3.8375
1.6875 0.5625 3.8375
1.875 0.5625 3.9
1.875 0.625 3.8375
1.8125 0.625 3.9
1.875 0.5625 3.8375
1.8125 0.5625 3.9
1.8125 0.625 3.8375
1.8125 0.5625 3.8375
2 0.5625 3.9
2 0.625 3.8375
1.9375 0.625 3.9
2 0.5625 3.8375
1.9375 0.5625 3.9
1.9375 0.625 3.8375
1.9375 0.5625 3.8375
2.125 0.5625 3.9
2.125 0.625 3.8375
2.0625 0.625 3.9
2.125 0.5625 3.8375
2.0625 0.5625 3.9
2.0625 0.625 3.8375
2.0625 0.5625 3.8375
2.25 0.5625 3.9
2.25 0.625 3.8375
2.1875 0.625 3.9
2.25 0.5625 3.8375
2.1875 0.5625 3.9
2.1875 0.625 3.8375
2.1875 0.5625 3.8375
2.375 0.5625 3.9
2.375 0.625 3.8375
2.3125 0.625 3.9
2.375 0.5625 3.8375
2.3125 0.5625 3.9
2.3125 0.625 3.8375
2.3125 0.5625 3.8375
2.5 0.5625 3.9
2.5 0.625 3.8375
2.4375 0.625 3.9
2.5 0.5625 3.8375
2.4375 0.5625 3.9
2.4375 0.625 3.8375
2.4375 0.5625 3.8375
2.625 0.5625 3.9
2.625 0.625 3.8375
2.5625 0.625 3.9
2.625 0.5625 3.8375
2.5625 0.5625 3.9
2.5625 0.625 3.8375
2.5625 0.5625 3.8375
2.75 0.5625 3.9
2.75 0.625 3.8375
2.6875 0.625 3.9
2.75 0.5625 3.8375
2.6875 0.5625 3.9
2.6875 0.625 3.8375
2.6875 0.5625 3.8375
2.875 0.5625 3.9
2.875 0.625 3.8375
2.8125 0.625 3.9
2.875 0.5625 3.8375
2.8125 0.5625 3.9
2.8125 0.625 3.8375
2.8125 0.5625 3.8375
3 0.5625 3.9
3 0.625 3.8375
2.9375 0.625 3.9
3 0.5625 3.8375
2.9375 0.5625 3.9
2.9375 0.625 3.8375
2.9375 0.5625 3.8375
3.125 0.5625 3.9
3.125 0.625 3.8375
3.0625 0.625 3.9
3.125 0.5625 3.8375
3.0625 0.5625 3.9
3.0625 0.625 3.8375
3.0625 0.5625 3.8375
3.25 0.5625 3.9
3.25 0.625 3.8375
3.1875 0.625 3.9
3.25 0.5625 3.8375
3.1875 0.5625 3.9
3.1875 0.625 3.8375
3.1875 0.5625 3.8375
3.375 0.5625 3.9
3.375 0.625 3.8375
3.3125 0.625 3.9
3.375 0.5625 3.8375
3.3125 0.5625 3.9
3.3125 0.625 3.8375
3.3125 0.5625 3.8375
3.5 0.5625 3.9
3.5 0.625 3.8375
3.4375 0.625 3.9
3.5 0.5625 3.8375
3.4375 0.5625 3.9
3.4375 0.625 3.8375
3.4375 0.5625 3.8375
3.625 0.5625 3.9
3.625 0.625 3.8375
3.5625 0.625 3.9
3.625 0.5625 3.8375
3.5625 0.5625 3.9
3.5625 0.625 3.8375
3.5625 0.5625 3.8375
3.75 0.5625 3.9
3.75 0.625 3.8375
3.6875 0.625 3.9
3.75 0.5625 3.8375
3.6875 0.5625 3.9
3.6875 0.625 3.8375
3.6875 0.5625 3.8375
3.875 0.5625 3.9
3.875 0.625 3.8375
3.8125 0.625 3.9
3.875 0.5625 3.8375
3.8125 0.5625 3.9
3.8125 0.625 3.8375
3.8125 0.5625 3.8375
4 0.5625 3.9
4 0.625 3.8375
3.9375 0.625 3.9
4 0.5625 3.8375
3.9375 0.5625 3.9
3.9375 0.625 3.8375
3.9375 0.5625 3.8375
0.125 0.6875 3.9
0 0.6875 3.9
0.125 0.75 3.8375
0.0625 0.75 3.9
0 0.75 3.8375
0.125 0.6875 3.8375
0.0625 0.6875 3.9
0 0.6875 3.8375
0.0625 0.75 3.8375
0.0625 0.6875 3.8375
0.25 0.6875 3.9
0.25 0.75 3.8375
0.1875 0.75 3.9
0.25 0.6875 3.8375
0.1875 0.6875 3.9
0.1875 0.75 3.8375
0.1875 0.6875 3.8375
0.375 0.6875 3.9
0.375 0.75 3.8375
0.3125 0.75 3.9
0.375 0.6875 3.8375
0.3125 0.6875 3.9
0.3125 0.75 3.8375
0.3125 0.6875 3.8375
0.5 0.6875 3.9
0.5 0.75 3.8375
0.4375 0.75 3.9
0.5 0.6875 3.8375
0.4375 0.6875 3.9
0.4375 0.75 3.8375
0.4375 0.6875 3.8375
0.625 0.6875 3.9
0.625 0.75 3.8375
0.5625 0.75 3.9
0.625 0.6875 3.8375
0.5625 0.6875 3.9
0.5625 0.75 3.8375
0.5625 0.6875 3.8375
0.75 0.6875 3.9
0.75 0.75 3.8375
0.6875 0.75 3.9
0.75 0.6875 3.8375
0.6875 0.6875 3.9
0.6875 0.75 3.8375
0.6875 0.6875 3.8375
0.875 0.6875 3.9
0.875 0.75 3.8375
0.8125 0.75 3.9
0.875 0.6875 3.8375
0.8125 0.6875 3.9
0.8125 0.75 3.8375
0.8125 0.6875 3.8375
1 0.6875 3.9
1 0.75 3.8375
0.9375 0.75 3.9
1 0.6875 3.8375
0.9375 0.6875 3.9
0.9375 0.75 3.8375
0.9375 0.6875 3.8375
1.125 0.6875 3.9
1.125 0.75 3.8375
1.0625 0.75 3.9
1.125 0.6875 3.8375
1.0625 0.6875 3.9
1.0625 0.75 3.8375
1.0625 0.6875 3.8375
1.25 0.6875 3.9
1.25 0.75 3.8375
1.1875 0.75 3.9
1.25 0.6875 3.8375
1.1875 0.6875 3.9
1.1875 0.75 3.8375
1.1875 0.6875 3.8375
1.375 0.6875 3.9
1.375 0.75 3.8375
1.3125 0.75 3.9
1.375 0.6875 3.8375
1.3125 0.6875 3.9
1.3125 0.75 3.8375
1.3125 0.6875 3.8375
1.5 0.6875 3.9
1.5 0.75 3.8375
1.4375 0.75 3.9
1.5 0.6875 3.8375
1.4375 0.6875 3.9
1.4375 0.75 3.8375
1.4375 0.6875 3.8375
1.625 0.6875 3.9
1.625 0.75 3.8375
1.5625 0.75 3.9
1.625 0.6875 3.8375
1.5625 0.6875 3.9
1.5625 0.75 3.8375
1.5625 0.6875 3.8375
1.75 0.6875 3.9
1.75 0.75 3.8375
1.6875 0.75 3.9
1.75 0.6875 3.8375
1.6875 0.6875 3.9
1.6875 0.75 3.8375
1.6875 0.6875 3.8375
1.875 0.6875 3.9
1.875 0.75 3.8375
1.8125 0.75 3.9
1.875 0.6875 3.8375
1.8125 0.6875 3.9
1.8125 0.75 3.8375
1.8125 0.6875 3.8375
2 0.6875 3.9
2 0.75 3.8375
1.9375 0.75 3.9
2 0.6875 3.8375
1.9375 0.6875 3.9
1.9375 0.75 3.8375
1.9375 0.6875 3.8375
2.125 0.6875 3.9
2.125 0.75 3.8375
2.0625 0.75 3.9
2.125 0.6875 3.8375
2.0625 0.6875 3.9
2.0625 0.75 3.8375
2.0625 0.6875 3.8375
2.25 0.6875 3.9
2.25 0.75 3.8375
2.1875 0.75 3.9
2.25 0.6875 3.8375
2.1875 0.6875 3.9
2.1875 0.75 3.8375
2.1875 0.6875 3.8375
2.375 0.6875 3.9
2.375 0.75 3.8375
2.3125 0.75 3.9
2.375 0.6875 3.8375
2.3125 0.6875 3.9
2.3125 0.75 3.8375
2.3125 0.6875 3.8375
2.5 0.6875 3.9
2.5 0.75 3.8375
2.4375 0.75 3.9
2.5 0.6875 3.8375
2.4375 0.6875 3.9
2.4375 0.75 3.8375
2.4375 0.6875 3.8375
2.625 0.6875 3.9
2.625 0.75 3.8375
2.5625 0.75 3.9
2.625 0.6875 3.8375
2.5625 0.6875 3.9
2.5625 0.75 3.8375
2.5625 0.6875 3.8375
2.75 0.6875 3.9
2.75 0.75 3.8375
2.6875 0.75 3.9
2.75 0.6875 3.8375
2.6875 0.6875 3.9
2.6875 0.75 3.8375
2.6875 0.6875 3.8375
2.875 0.6875 3.9
2.875 0.75 3.8375
2.8125 0.75 3.9
2.875 0.6875 3.8375
2.8125 0.6875 3.9
2.8125 0.75 3.8375
2.8125 0.6875 3.8375
3 0.6875 3.9
3 0.75 3.8375
2.9375 0.75 3.9
3 0.6875 3.8375
2.9375 0.6875 3.9
2.9375 0.75 3.8375
2.9375 0.6875 3.8375
3.125 0.6875 3.9
3.125 0.75 3.8375
3.0625 0.75 3.9
3.125 0.6875 3.8375
3.0625 0.6875 3.9
3.0625 0.75 3.8375
3.0625 0.6875 3.8375
3.25 0.6875 3.9
3.25 0.75 3.8375
3.1875 0.75 3.9
3.25 0.6875 3.8375
3.1875 0.6875 3.9
3.1875 0.75 3.8375
3.1875 0.6875 3.8375
3.375 0.6875 3.9
3.375 0.75 3.8375
3.3125 0.75 3.9
3.375 0.6875 3.8375
3.3125 0.6875 3.9
3.3125 0.75 3.8375
3.3125 0.6875 3.8375
3.5 0.6875 3.9
3.5 0.75 3.8375
3.4375 0.75 3.9
3.5 0.6875 3.8375
3.4375 0.6875 3.9
3.4375 0.75 3.8375
3.4375 0.6875 3.8375
3.625 0.6875 3.9
3.625 0.75 3.8375
3.5625 0.75 3.9
3.625 0.6875 3.8375
3.5625 0.6875 3.9
3.5625 0.75 3.8375
3.5625 0.6875 3.8375
3.75 0.6875 3.9
3.75 0.75 3.8375
3.6875 0.75 3.9
3.75 0.6875 3.8375
3.6875 0.6875 3.9
3.6875 0.75 3.8375
3.6875 0.6875 3.8375
3.875 0.6875 3.9
3.875 0.75 3.8375
3.8125 0.75 3.9
3.875 0.6875 3.8375
3.8125 0.6875 3.9
3.8125 0.75 3.8375
3.8125 0.6875 3.8375
4 0.6875 3.9
4 0.75 3.8375
3.9375 0.75 3.9
4 0.6875 3.8375
3.9375 0.6875 3.9
3.9375 0.75 3.8375
3.9375 0.6875 3.8375
0.125 0.8125 3.9
0 0.8125 3.9
0.125 0.875 3.8375
0.0625 0.875 3.9
0 0.875 3.8375
0.125 0.8125 3.8375
0.0625 0.8125 3.9
0 0.8125 3.8375
0.0625 0.875 3.8375
0.0625 0.8125 3.8375
0.25 0.8125 3.9
0.25 0.875 3.8375
0.1875 0.875 3.9
0.25 0.8125 3.8375
0.1875 0.8125 3.9
0.1875 0.875 3.8375
0.1875 0.8125 3.8375
0.375 0.8125 3.9
0.375 0.875 3.8375
0.3125 0.875 3.9
0.375 0.8125 3.8375
0.3125 0.8125 3.9
0.3125 0.875 3.8375
0.3125 0.8125 3.8375
0.5 0.8125 3.9
0.5 0.875 3.8375
0.4375 0.875 3.9
0.5 0.8125 3.8375
0.4375 0.8125 3.9
0.4375 0.875 3.8375
0.4375 0.8125 3.8375
0.625 0.8125 3.9
0.625 0.875 3.8375
0.5625 0.875 3.9
0.625 0.8125 3.8375
0.5625 0.8125 3.9
0.5625 0.875 3.8375
0.5625 0.8125 3.8375
0.75 0.8125 3.9
0.75 0.875 3.8375
0.6875 0.875 3.9
0.75 0.8125 3.8375
0.6875 0.8125 3.9
0.6875 0.875 3.8375
0.6875 0.8125 3.8375
0.875 0.8125 3.9
0.875 0.875 3.8375
0.8125 0.875 3.9
0.875 0.8125 3.8375
0.8125 0.8125 3.9
0.8125 0.875 3.8375
0.8125 0.8125 3.8375
1 0.8125 3.9
1 0.875 3.8375
0.9375 0.875 3.9
1 0.8125 3.8375
0.9375 0.8125 3.9
0.9375 0.875 3.8375
0.9375 0.8125 3.8375
1.125 0.8125 3.9
1.125 0.875 3.8375
1.0625 0.875 3.9
1.125 0.8125 3.8375
1.0625 0.8125 3.9
1.0625 0.875 3.8375
1.0625 0.8125 3.8375
1.25 0.8125 3.9
1.25 0.875 3.8375
1.1875 0.875 3.9
1.25 0.8125 3.8375
1.1875 0.8125 3.9
1.1875 0.875 3.8375
1.1875 0.8125 3.8375
1.375 0.8125 3.9
1.375 0.875 3.8375
1.3125 0.875 3.9
1.375 0.8125 3.8375
1.3125 0.8125 3.9
1.3125 0.875 3.8375
1.3125 0.8125 3.8375
1.5 0.8125 3.9
1.5 0.875 3.8375
1.4375 0.875 3.9
1.5 0.8125 3.8375
1.4375 0.8125 3.9
1.4375 0.875 3.8375
1.4375 0.8125 3.8375
1.625 0.8125 3.9
1.625 0.875 3.8375
1.5625 0.875 3.9
1.625 0.8125 3.8375
1.5625 0.8125 3.9
1.5625 0.875 3.8375
1.5625 0.8125 3.8375
1.75 0.8125 3.9
1.75 0.875 3.8375
1.6875 0.875 3.9
1.75 0.8125 3.8375
1.6875 0.8125 3.9
1.6875 0.875 3.8375
1.6875 0.8125 3.8375
1.875 0.8125 3.9
1.875 0.875 3.8375
1.8125 0.875 3.9
1.875 0.8125 3.8375
1.8125 0.8125 3.9
1.8125 0.875 3.8375
1.8125 0.8125 3.8375
2 0.8125 3.9
2 0.875 3.8375
1.9375 0.875 3.9
2 0.8125 3.8375
1.9375 0.8125 3.9
1.9375 0.875 3.8375
1.9375 0.8125 3.8375
2.125 0.8125 3.9
2.125 0.875 3.8375
2.0625 0.875 3.9
2.125 0.8125 3.8375
2.0625 0.8125 3.9
2.0625 0.875 3.8375
2.0625 0.8125 3.8375
2.25 0.8125 3.9
2.25 0.875 3.8375
2.1875 0.875 3.9
2.25 0.8125 3.8375
2.1875 0.8125 3.9
2.1875 0.875 3.8375
2.1875 0.8125 3.8375
2.375 0.8125 3.9
2.375 0.875 3.8375
2.3125 0.875 3.9
2.375 0.8125 3.8375
2.3125 0.8125 3.9
2.3125 0.875 3.8375
2.3125 0.8125 3.8375
2.5 0.8125 3.9
2.5 0.875 3.8375
2.4375 0.875 3.9
2.5 0.8125 3.8375
2.4375 0.8125 3.9
2.4375 0.875 3.8375
2.4375 0.8125 3.8375
2.625 0.8125 3.9
2.625 0.875 3.8375
2.5625 0.875 3.9
2.625 0.8125 3.8375
2.5625 0.8125 3.9
2.5625 0.875 3.8375
2.5625 0.8125 3.8375
2.75 0.8125 3.9
2.75 0.875 3.8375
2.6875 0.875 3.9
2.75 0.8125 3.8375
2.6875 0.8125 3.9
2.6875 0.875 3.8375
2.6875 0.8125 3.8375
2.875 0.8125 3.9
2.875 0.875 3.8375
2.8125 0.875 3.9
2.875 0.8125 3.8375
2.8125 0.8125 3.9
2.8125 0.875 3.8375
2.8125 0.8125 3.8375
3 0.8125 3.9
3 0.875 3.8375
2.9375 0.875 3.9
3 0.8125 3.8375
2.9375 0.8125 3.9
2.9375 0.875 3.8375
2.9375 0.8125 3.8375
3.125 0.8125 3.9
3.125 0.875 3.8375
3.0625 0.875 3.9
3.125 0.8125 3.8375
3.0625 0.8125 3.9
3.0625 0.875 3.8375
3.0625 0.8125 3.8375
3.25 0.8125 3.9
3.25 0.875 3.8375
3.1875 0.875 3.9
3.25 0.8125 3.8375
3.1875 0.8125 3.9
3.1875 0.875 3.8375
3.1875 0.8125 3.8375
3.375 0.8125 3.9
3.375 0.875 3.8375
3.3125 0.875 3.9
3.375 0.8125 3.8375
3.3125 0.8125 3.9
3.3125 0.875 3.8375
3.3125 0.8125 3.8375
3.5 0.8125 3.9
3.5 0.875 3.8375
3.4375 0.875 3.9
3.5 0.8125 3.8375
3.4375 0.8125 3.9
3.4375 0.875 3.8375
3.4375 0.8125 3.8375
3.625 0.8125 3.9
3.625 0.875 3.8375
3.5625 0.875 3.9
3.625 0.8125 3.8375
3.5625 0.8125 3.9
3.5625 0.875 3.8375
3.5625 0.8125 3.8375
3.75 0.8125 3.9
3.75 0.875 3.8375
3.6875 0.875 3.9
3.75 0.8125 3.8375
3.6875 0.8125 3.9
3.6875 0.875 3.8375
3.6875 0.8125 3.8375
3.875 0.8125 3.9
3.875 0.875 3.8375
3.8125 0.875 3.9
3.875 0.8125 3.8375
3.8125 0.8125 3.9
3.8125 0.875 3.8375
3.8125 0.8125 3.8375
4 0.8125 3.9
4 0.875 3.8375
3.9375 0.875 3.9
4 0.8125 3.8375
3.9375 0.8125 3.9
3.9375 0.875 3.8375
3.9375 0.8125 3.8375
0.125 0.9375 3.9
0 0.9375 3.9
0.125 1 3.8375
0.0625 1 3.9
0 1 3.8375
0.125 0.9375 3.8375
0.0625 0.9375 3.9
0 0.9375 3.8375
0.0625 1 3.8375
0.0625 0.9375 3.8375
0.25 0.9375 3.9
0.25 1 3.8375
0.1875 1 3.9
0.25 0.9375 3.8375
0.1875 0.9375 3.9
0.1875 1 3.8375
0.1875 0.9375 3.8375
0.375 0.9375 3.9
0.375 1 3.8375
0.3125 1 3.9
0.375 0.9375 3.8375
0.3125 0.9375 3.9
0.3125 1 3.8375
0.3125 0.9375 3.8375
0.5 0.9375 3.9
0.5 1 3.8375
0.4375 1 3.9
0.5 0.9375 3.8375
0.4375 0.9375 3.9
0.4375 1 3.8375
0.4375 0.9375 3.8375
0.625 0.9375 3.9
0.625 1 3.8375
0.5625 1 3.9
0.625 0.9375 3.8375
0.5625 0.9375 3.9
0.5625 1 3.8375
0.5625 0.9375 3.8375
0.75 0.9375 3.9
0.75 1 3.8375
0.6875 1 3.9
0.75 0.9375 3.8375
0.6875 0.9375 3.9
0.6875 1 3.8375
0.6875 0.9375 3.8375
0.875 0.9375 3.9
0.875 1 3.8375
0.8125 1 3.9
0.875 0.9375 3.8375
0.8125 0.9375 3.9
0.8125 1 3.8375
0.8125 0.9375 3.8375
1 0.9375 3.9
1 1 3.8375
0.9375 1 3.9
1 0.9375 3.8375
0.9375 0.9375 3.9
0.9375 1 3.8375
0.9375 0.9375 3.8375
1.125 0.9375 3.9
1.125 1 3.8375
1.0625 1 3.9
1.125 0.9375 3.8375
1.0625 0.9375 3.9
1.0625 1 3.8375
1.0625 0.9375 3.8375
1.25 0.9375 3.9
1.25 1 3.8375
1.1875 1 3.9
1.25 0.9375 3.8375
1.1875 0.9375 3.9
1.1875 1 3.8375
1.1875 0.9375 3.8375
1.375 0.9375 3.9
1.375 1 3.8375
1.3125 1 3.9
1.375 0.9375 3.8375
1.3125 0.9375 3.9
1.3125 1 3.8375
1.3125 0.9375 3.8375
1.5 0.9375 3.9
1.5 1 3.8375
1.4375 1 3.9
1.5 0.9375 3.8375
1.4375 0.9375 3.9
1.4375 1 3.8375
1.4375 0.9375 3.8375
1.625 0.9375 3.9
1.625 1 3.8375
1.5625 1 3.9
1.625 0.9375 3.8375
1.5625 0.9375 3.9
1.5625 1 3.8375
1.5625 0.9375 3.8375
1.75 0.9375 3.9
1.75 1 3.8375
1.6875 1 3.9
1.75 0.9375 3.8375
1.6875 0.9375 3.9
1.6875 1 3.8375
1.6875 0.9375 3.8375
1.875 0.9375 3.9
1.875 1 3.8375
1.8125 1 3.9
1.875 0.9375 3.8375
1.8125 0.9375 3.9
1.8125 1 3.8375
1.8125 0.9375 3.8375
2 0.9375 3.9
2 1 3.8375
1.9375 1 3.9
2 0.9375 3.8375
1.9375 0.9375 3.9
1.9375 1 3.8375
1.9375 0.9375 3.8375
2.125 0.9375 3.9
2.125 1 3.8375
2.0625 1 3.9
2.125 0.9375 3.8375
2.0625 0.9375 3.9
2.0625 1 3.8375
2.0625 0.9375 3.8375
2.25 0.9375 3.9
2.25 1 3.8375
2.1875 1 3.9
2.25 0.9375 3.8375
2.1875 0.9375 3.9
2.1875 1 3.8375
2.1875 0.9375 3.8375
2.375 0.9375 3.9
2.375 1 3.8375
2.3125 1 3.9
2.375 0.9375 3.8375
2.3125 0.9375 3.9
2.3125 1 3.8375
2.3125 0.9375 3.8375
2.5 0.9375 3.9
2.5 1 3.8375
2.4375 1 3.9
2.5 0.9375 3.8375
2.4375 0.9375 3.9
2.4375 1 3.8375
2.4375 0.9375 3.8375
2.625 0.9375 3.9
2.625 1 3.8375
2.5625 1 3.9
2.625 0.9375 3.8375
2.5625 0.9375 3.9
2.5625 1 3.8375
2.5625 0.9375 3.8375
2.75 0.9375 3.9
2.75 1 3.8375
2.6875 1 3.9
2.75 0.9375 3.8375
2.6875 0.9375 3.9
2.6875 1 3.8375
2.6875 0.9375 3.8375
2.875 0.9375 3.9
2.875 1 3.8375
2.8125 1 3.9
2.875 0.9375 3.8375
2.8125 0.9375 3.9
2.8125 1 3.8375
2.8125 0.9375 3.8375
3 0.9375 3.9
3 1 3.8375
2.9375 1 3.9
3 0.9375 3.8375
2.9375 0.9375 3.9
2.9375 1 3.8375
2.9375 0.9375 3.8375
3.125 0.9375 3.9
3.125 1 3.8375
3.0625 1 3.9
3.125 0.9375 3.8375
3.0625 0.9375 3.9
3.0625 1 3.8375
3.0625 0.9375 3.8375
3.25 0.9375 3.9
3.25 1 3.8375
3.1875 1 3.9
3.25 0.9375 3.8375
3.1875 0.9375 3.9
3.1875 1 3.8375
3.1875 0.9375 3.8375
3.375 0.9375 3.9
3.375 1 3.8375
3.3125 1 3.9
3.375 0.9375 3.8375
3.3125 0.9375 3.9
3.3125 1 3.8375
3.3125 0.9375 3.8375
3.5 0.9375 3.9
3.5 1 3.8375
3.4375 1 3.9
3.5 0.9375 3.8375
3.4375 0.9375 3.9
3.4375 1 3.8375
3.4375 0.9375 3.8375
3.625 0.9375 3.9
3.625 1 3.8375
3.5625 1 3.9
3.625 0.9375 3.8375
3.5625 0.9375 3.9
3.5625 1 3.8375
3.5625 0.9375 3.8375
3.75 0.9375 3.9
3.75 1 3.8375
3.6875 1 3.9
3.75 0.9375 3.8375
3.6875 0.9375 3.9
3.6875 1 3.8375
3.6875 0.9375 3.8375
3.875 0.9375 3.9
3.875 1 3.8375
3.8125 1 3.9
3.875 0.9375 3.8375
3.8125 0.9375 3.9
3.8125 1 3.8375
3.8125 0.9375 3.8375
4 0.9375 3.9
4 1 3.8375
3.9375 1 3.9
4 0.9375 3.8375
3.9375 0.9375 3.9
3.9375 1 3.8375
3.9375 0.9375 3.8375
0.125 0 3.9625
0.0625 0 4.025
0 0 3.9625
0.125 0.0625 4.025
0 0.0625 4.025
0.125 0.125 3.9625
0.0625 0.125 4.025
0 0.125 3.9625
0.0625 0 3.9625
0.125 0.0625 3.9625
0.0625 0.0625 4.025
0 0.0625 3.9625
0.0625 0.125 3.9625
0.0625 0.0625 3.9625
0.25 0 3.9625
0.1875 0 4.025
0.25 0.0625 4.025
0.25 0.125 3.9625
0.1875 0.125 4.025
0.1875 0 3.9625
0.25 0.0625 3.9625
0.1875 0.0625 4.025
0.1875 0.125 3.9625
0.1875 0.0625 3.9625
0.375 0 3.9625
0.3125 0 4.025
0.375 0.0625 4.025
0.375 0.125 3.9625
0.3125 0.125 4.025
0.3125 0 3.9625
0.375 0.0625 3.9625
0.3125 0.0625 4.025
0.3125 0.125 3.9625
0.3125 0.0625 3.9625
0.5 0 3.9625
0.4375 0 4.025
0.5 0.0625 4.025
0.5 0.125 3.9625
0.4375 0.125 4.025
0.4375 0 3.9625
0.5 0.0625 3.9625
0.4375 0.0625 4.025
0.4375 0.125 3.9625
0.4375 0.0625 3.9625
0.625 0 3.9625
0.5625 0 4.025
0.625 0.0625 4.025
0.625 0.125 3.9625
0.5625 0.125 4.025
0.5625 0 3.9625
0.625 0.0625 3.9625
0.5625 0.0625 4.025
0.5625 0.125 3.9625
0.5625 0.0625 3.9625
0.75 0 3.9625
0.6875 0 4.025
0.75 0.0625 4.025
0.75 0.125 3.9625
0.6875 0.125 4.025
0.6875 0 3.9625
0.75 0.0625 3.9625
0.6875 0.0625 4.025
0.6875 0.125 3.9625
0.6875 0.0625 3.9625
0.875 0 3.9625
0.8125 0 4.025
0.875 0.0625 4.025
0.875 0.125 3.9625
0.8125 0.125 4.025
0.8125 0 3.9625
0.875 0.0625 3.9625
0.8125 0.0625 4.025
0.8125 0.125 3.9625
0.8125 0.0625 3.9625
1 0 3.9625
0.9375 0 4.025
1 0.0625 4.025
1 0.125 3.9625
0.9375 0.125 4.025
0.9375 0 3.9625
1 0.0625 3.9625
0.9375 0.0625 4.025
0.9375 0.125 3.9625
0.9375 0.0625 3.9625
1.125 0 3.9625
1.0625 0 4.025
1.125 0.0625 4.025
1.125 0.125 3.9625
1.0625 0.125 4.025
1.0625 0 3.9625
1.125 0.0625 3.9625
1.0625 0.0625 4.025
1.0625 0.125 3.9625
1.0625 0.0625 3.9625
1.25 0 3.9625
1.1875 0 4.025
1.25 0.0625 4.025
1.25 0.125 3.9625
1.1875 0.125 4.025
1.1875 0 3.9625
1.25 0.0625 3.9625
1.1875 0.0625 4.025
1.1875 0.125 3.9625
1.1875 0.0625 3.9625
1.375 0 3.9625
1.3125 0 4.025
1.375 0.0625 4.025
1.375 0.125 3.9625
1.3125 0.125 4.025
1.3125 0 3.9625
1.375 0.0625 3.9625
1.3125 0.0625 4.025
1.3125 0.125 3.9625
1.3125 0.0625 3.9625
1.5 0 3.9625
1.4375 0 4.025
1.5 0.0625 4.025
1.5 0.125 3.9625
1.4375 0.125 4.025
1.4375 0 3.9625
1.5 0.0625 3.9625
1.4375 0.0625 4.025
1.4375 0.125 3.9625
1.4375 0.0625 3.9625
1.625 0 3.9625
1.5625 0 4.025
1.625 0.0625 4.025
1.625 0.125 3.9625
1.5625 0.125 4.025
1.5625 0 3.9625
1.625 0.0625 3.9625
1.5625 0.0625 4.025
1.5625 0.125 3.9625
1.5625 0.0625 3.9625
1.75 0 3.9625
1.6875 0 4.025
1.75 0.0625 4.025
1.75 0.125 3.9625
1.6875 0.125 4.025
1.6875 0 3.9625
1.75 0.0625 3.9625
1.6875 0.0625 4.025
1.6875 0.125 3.9625
1.6875 0.0625 3.9625
1.875 0 3.9625
1.8125 0 4.025
1.875 0.0625 4.025
1.875 0.125 3.9625
1.8125 0.125 4.025
1.8125 0 3.9625
1.875 0.0625 3.9625
1.8125 0.0625 4.025
1.8125 0.125 3.9625
1.8125 0.0625 3.9625
2 0 3.9625
1.9375 0 4.025
2 0.0625 4.025
2 0.125 3.9625
1.9375 0.125 4.025
1.9375 0 3.9625
2 0.0625 3.9625
1.9375 0.0625 4.025
1.9375 0.125 3.9625
1.9375 0.0625 3.9625
2.125 0 3.9625
2.0625 0 4.025
2.125 0.0625 4.025
2.125 0.125 3.9625
2.0625 0.125 4.025
2.0625 0 3.9625
2.125 0.0625 3.9625
2.0625 0.0625 4.025
2.0625 0.125 3.9625
2.0625 0.0625 3.9625
2.25 0 3.9625
2.1875 0 4.025
2.25 0.0625 4.025
2.25 0.125 3.9625
2.1875 0.125 4.025
2.1875 0 3.9625
2.25 0.0625 3.9625
2.1875 0.0625 4.025
2.1875 0.125 3.9625
2.1875 0.0625 3.9625
2.375 0 3.9625
2.3125 0 4.025
2.375 0.0625 4.025
2.375 0.125 3.9625
2.3125 0.125 4.025
2.3125 0 3.9625
2.375 0.0625 3.9625
2.3125 0.0625 4.025
2.3125 0.125 3.9625
2.3125 0.0625 3.9625
2.5 0 3.9625
2.4375 0 4.025
2.5 0.0625 4.025
2.5 0.125 3.9625
2.4375 0.125 4.025
2.4375 0 3.9625
2.5 0.0625 3.9625
2.4375 0.0625 4.025
2.4375 0.125 3.9625
2.4375 0.0625 3.9625
2.625 0 3.9625
2.5625 0 4.025
2.625 0.0625 4.025
2.625 0.125 3.9625
2.5625 0.125 4.025
2.5625 0 3.9625
2.625 0.0625 3.9625
2.5625 0.0625 4.025
2.5625 0.125 3.9625
2.5625 0.0625 3.9625
2.75 0 3.9625
2.6875 0 4.025
2.75 0.0625 4.025
2.75 0.125 3.9625
2.6875 0.125 4.025
2.6875 0 3.9625
2.75 0.0625 3.9625
2.6875 0.0625 4.025
2.6875 0.125 3.9625
2.6875 0.0625 3.9625
2.875 0 3.9625
2.8125 0 4.025
2.875 0.0625 4.025
2.875 0.125 3.9625
2.8125 0.125 4.025
2.8125 0 3.9625
2.875 0.0625 3.9625
2.8125 0.0625 4.025
2.8125 0.125 3.9625
2.8125 0.0625 3.9625
3 0 3.9625
2.9375 0 4.025
3 0.0625 4.025
3 0.125 3.9625
2.9375 0.125 4.025
2.9375 0 3.9625
3 0.0625 3.9625
2.9375 0.0625 4.025
2.9375 0.125 3.9625
2.9375 0.0625 3.9625
3.125 0 3.9625
3.0625 0 4.025
3.125 0.0625 4.025
3.125 0.125 3.9625
3.0625 0.125 4.025
3.0625 0 3.9625
3.125 0.0625 3.9625
3.0625 0.0625 4.025
3.0625 0.125 3.9625
3.0625 0.0625 3.9625
3.25 0 3.9625
3.1875 0 4.025
3.25 0.0625 4.025
3.25 0.125 3.9625
3.1875 0.125 4.025
3.1875 0 3.9625
3.25 0.0625 3.9625
3.1875 0.0625 4.025
3.1875 0.125 3.9625
3.1875 0.0625 3.9625
3.375 0 3.9625
3.3125 0 4.025
3.375 0.0625 4.025
3.375 0.125 3.9625
3.3125 0.125 4.025
3.3125 0 3.9625
3.375 0.0625 3.9625
3.3125 0.0625 4.025
3.3125 0.125 3.9625
3.3125 0.0625 3.9625
3.5 0 3.9625
3.4375 0 4.025
3.5 0.0625 4.025
3.5 0.125 3.9625
3.4375 0.125 4.025
3.4375 0 3.9625
3.5 0.0625 3.9625
3.4375 0.0625 4.025
3.4375 0.125 3.9625
3.4375 0.0625 3.9625
3.625 0 3.9625
3.5625 0 4.025
3.625 0.0625 4.025
3.625 0.125 3.9625
3.5625 0.125 4.025
3.5625 0 3.9625
3.625 0.0625 3.9625
3.5625 0.0625 4.025
3.5625 0.125 3.9625
3.5625 0.0625 3.9625
3.75 0 3.9625
3.6875 0 4.025
3.75 0.0625 4.025
3.75 0.125 3.9625
3.6875 0.125 4.025
3.6875 0 3.9625
3.75 0.0625 3.9625
3.6875 0.0625 4.025
3.6875 0.125 3.9625
3.6875 0.0625 3.9625
3.875 0 3.9625
3.8125 0 4.025
3.875 0.0625 4.025
3.875 0.125 3.9625
3.8125 0.125 4.025
3.8125 0 3.9625
3.875 0.0625 3.9625
3.8125 0.0625 4.025
3.8125 0.125 3.9625
3.8125 0.0625 3.9625
4 0 3.9625
3.9375 0 4.025
4 0.0625 4.025
4 0.125 3.9625
3.9375 0.125 4.025
3.9375 0 3.9625
4 0.0625 3.9625
3.9375 0.0625 4.025
3.9375 0.125 3.9625
3.9375 0.0625 3.9625
0.125 0.1875 4.025
0 0.1875 4.025
0.125 0.25 3.9625
0.0625 0.25 4.025
0 0.25 3.9625
0.125 0.1875 3.9625
0.0625 0.1875 4.025
0 0.1875 3.9625
0.0625 0.25 3.9625
0.0625 0.1875 3.9625
0.25 0.1875 4.025
0.25 0.25 3.9625
0.1875 0.25 4.025
0.25 0.1875 3.9625
0.1875 0.1875 4.025
0.1875 0.25 3.9625
0.1875 0.1875 3.9625
0.375 0.1875 4.025
0.375 0.25 3.9625
0.3125 0.25 4.025
0.375 0.1875 3.9625
0.3125 0.1875 4.025
0.3125 0.25 3.9625
0.3125 0.1875 3.9625
0.5 0.1875 4.025
0.5 0.25 3.9625
0.4375 0.25 4.025
0.5 0.1875 3.9625
0.4375 0.1875 4.025
0.4375 0.25 3.9625
0.4375 0.1875 3.9625
0.625 0.1875 4.025
0.625 0.25 3.9625
0.5625 0.25 4.025
0.625 0.1875 3.9625
0.5625 0.1875 4.025
0.5625 0.25 3.9625
0.5625 0.1875 3.9625
0.75 0.1875 4.025
0.75 0.25 3.9625
0.6875 0.25 4.025
0.75 0.1875 3.9625
0.6875 0.1875 4.025
0.6875 0.25 3.9625
0.6875 0.1875 3.9625
0.875 0.1875 4.025
0.875 0.25 3.9625
0.8125 0.25 4.025
0.875 0.1875 3.9625
0.8125 0.1875 4.025
0.8125 0.25 3.9625
0.8125 0.1875 3.9625
1 0.1875 4.025
1 0.25 3.9625
0.9375 0.25 4.025
1 0.1875 3.9625
0.9375 0.1875 4.025
0.9375 0.25 3.9625
0.9375 0.1875 3.9625
1.125 0.1875 4.025
1.125 0.25 3.9625
1.0625 0.25 4.025
1.125 0.1875 3.9625
1.0625 0.1875 4.025
1.0625 0.25 3.9625
1.0625 0.1875 3.9625
1.25 0.1875 4.025
1.25 0.25 3.9625
1.1875 0.25 4.025
1.25 0.1875 3.9625
1.1875 0.1875 4.025
1.1875 0.25 3.9625
1.1875 0.1875 3.9625
1.375 0.1875 4.025
1.375 0.25 3.9625
1.3125 0.25 4.025
1.375 0.1875 3.9625
1.3125 0.1875 4.025
1.3125 0.25 3.9625
1.3125 0.1875 3.9625
1.5 0.1875 4.025
1.5 0.25 3.9625
1.4375 0.25 4.025
1.5 0.1875 3.9625
1.4375 0.1875 4.025
1.4375 0.25 3.9625
1.4375 0.1875 3.9625
1.625 0.1875 4.025
1.625 0.25 3.9625
1.5625 0.25 4.025
1.625 0.1875 3.9625
1.5625 0.1875 4.025
1.5625 0.25 3.9625
1.5625 0.1875 3.9625
1.75 0.1875 4.025
1.75 0.25 3.9625
1.6875 0.25 4.025
1.75 0.1875 3.9625
1.6875 0.1875 4.025
1.6875 0.25 3.9625
1.6875 0.1875 3.9625
1.875 0.1875 4.025
1.875 0.25 3.9625
1.8125 0.25 4.025
1.875 0.1875 3.9625
1.8125 0.1875 4.025
1.8125 0.25 3.9625
1.8125 0.1875 3.9625
2 0.1875 4.025
2 0.25 3.9625
1.9375 0.25 4.025
2 0.1875 3.9625
1.9375 0.1875 4.025
1.9375 0.25 3.9625
1.9375 0.1875 3.9625
2.125 0.1875 4.025
2.125 0.25 3.9625
2.0625 0.25 4.025
2.125 0.1875 3.9625
2.0625 0.1875 4.025
2.0625 0.25 3.9625
2.0625 0.1875 3.9625
2.25 0.1875 4.025
2.25 0.25 3.9625
2.1875 0.25 4.025
2.25 0.1875 3.9625
2.1875 0.1875 4.025
2.1875 0.25 3.9625
2.1875 0.1875 3.9625
2.375 0.1875 4.025
2.375 0.25 3.9625
2.3125 0.25 4.025
2.375 0.1875 3.9625
2.3125 0.1875 4.025
2.3125 0.25 3.9625
2.3125 0.1875 3.9625
2.5 0.1875 4.025
2.5 0.25 3.9625
2.4375 0.25 4.025
2.5 0.1875 3.9625
2.4375 0.1875 4.025
2.4375 0.25 3.9625
2.4375 0.1875 3.9625
2.625 0.1875 4.025
2.625 0.25 3.9625
2.5625 0.25 4.025
2.625 0.1875 3.9625
2.5625 0.1875 4.025
2.5625 0.25 3.9625
2.5625 0.1875 3.9625
2.75 0.1875 4.025
2.75 0.25 3.9625
2.6875 0.25 4.025
2.75 0.1875 3.9625
2.6875 0.1875 4.025
2.6875 0.25 3.9625
2.6875 0.1875 3.9625
2.875 0.1875 4.025
2.875 0.25 3.9625
2.8125 0.25 4.025
2.875 0.1875 3.9625
2.8125 0.1875 4.025
2.8125 0.25 3.9625
2.8125 0.1875 3.9625
3 0.1875 4.025
3 0.25 3.9625
2.9375 0.25 4.025
3 0.1875 3.9625
2.9375 0.1875 4.025
2.9375 0.25 3.9625
2.9375 0.1875 3.9625
3.125 0.1875 4.025
3.125 0.25 3.9625
3.0625 0.25 4.025
3.125 0.1875 3.9625
3.0625 0.1875 4.025
3.0625 0.25 3.9625
3.0625 0.1875 3.9625
3.25 0.1875 4.025
3.25 0.25 3.9625
3.1875 0.25 4.025
3.25 0.1875 3.9625
3.1875 0.1875 4.025
3.1875 0.25 3.9625
3.1875 0.1875 3.9625
3.375 0.1875 4.025
3.375 0.25 3.9625
3.3125 0.25 4.025
3.375 0.1875 3.9625
3.3125 0.1875 4.025
3.3125 0.25 3.9625
3.3125 0.1875 3.9625
3.5 0.1875 4.025
3.5 0.25 3.9625
3.4375 0.25 4.025
3.5 0.1875 3.9625
3.4375 0.1875 4.025
3.4375 0.25 3.9625
3.4375 0.1875 3.9625
3.625 0.1875 4.025
3.625 0.25 3.9625
3.5625 0.25 4.025
3.625 0.1875 3.9625
3.5625 0.1875 4.025
3.5625 0.25 3.9625
3.5625 0.1875 3.9625
3.75 0.1875 4.025
3.75 0.25 3.9625
3.6875 0.25 4.025
3.75 0.1875 3.9625
3.6875 0.1875 4.025
3.6875 0.25 3.9625
3.6875 0.1875 3.9625
3.875 0.1875 4.025
3.875 0.25 3.9625
3.8125 0.25 4.025
3.875 0.1875 3.9625
3.8125 0.1875 4.025
3.8125 0.25 3.9625
3.8125 0.1875 3.9625
4 0.1875 4.025
4 0.25 3.9625
3.9375 0.25 4.025
4 0.1875 3.9625
3.9375 0.1875 4.025
3.9375 0.25 3.9625
3.9375 0.1875 3.9625
0.125 0.3125 4.025
0 0.3125 4.025
0.125 0.375 3.9625
0.0625 0.375 4.025
0 0.375 3.9625
0.125 0.3125 3.9625
0.0625 0.3125 4.025
0 0.3125 3.9625
0.0625 0.375 3.9625
0.0625 0.3125 3.9625
0.25 0.3125 4.025
0.25 0.375 3.9625
0.1875 0.375 4.025
0.25 0.3125 3.9625
0.1875 0.3125 4.025
0.1875 0.375 3.9625
0.1875 0.3125 3.9625
0.375 0.3125 4.025
0.375 0.375 3.9625
0.3125 0.375 4.025
0.375 0.3125 3.9625
0.3125 0.3125 4.025
0.3125 0.375 3.9625
0.3125 0.3125 3.9625
0.5 0.3125 4.025
0.5 0.375 3.9625
0.4375 0.375 4.025
0.5 0.3125 3.9625
0.4375 0.3125 4.025
0.4375 0.375 3.9625
0.4375 0.3125 3.9625
0.625 0.3125 4.025
0.625 0.375 3.9625
0.5625 0.375 4.025
0.625 0.3125 3.9625
0.5625 0.3125 4.025
0.5625 0.375 3.9625
0.5625 0.3125 3.9625
0.75 0.3125 4.025
0.75 0.375 3.9625
0.6875 0.375 4.025
0.75 0.3125 3.9625
0.6875 0.3125 4.025
0.6875 0.375 3.9625
0.6875 0.3125 3.9625
0.875 0.3125 4.025
0.875 0.375 3.9625
0.8125 0.375 4.025
0.875 0.3125 3.9625
0.8125 0.3125 4.025
0.8125 0.375 3.9625
0.8125 0.3125 3.9625
1 0.3125 4.025
1 0.375 3.9625
0.9375 0.375 4.025
1 0.3125 3.9625
0.9375 0.3125 4.025
0.9375 0.375 3.9625
0.9375 0.3125 3.9625
1.125 0.3125 4.025
1.125 0.375 3.9625
1.0625 0.375 4.025
1.125 0.3125 3.9625
1.0625 0.3125 4.025
1.0625 0.375 3.9625
1.0625 0.3125 3.9625
1.25 0.3125 4.025
1.25 0.375 3.9625
1.1875 0.375 4.025
1.25 0.3125 3.9625
1.1875 0.3125 4.025
1.1875 0.375 3.9625
1.1875 0.3125 3.9625
1.375 0.3125 4.025
1.375 0.375 3.9625
1.3125 0.375 4.025
1.375 0.3125 3.9625
1.3125 0.3125 4.025
1.3125 0.375 3.9625
1.3125 0.3125 3.9625
1.5 0.3125 4.025
1.5 0.375 3.9625
1.4375 0.375 4.025
1.5 0.3125 3.9625
1.4375 0.3125 4.025
1.4375 0.375 3.9625
1.4375 0.3125 3.9625
1.625 0.3125 4.025
1.625 0.375 3.9625
1.5625 0.375 4.025
1.625 0.3125 3.9625
1.5625 0.3125 4.025
1.5625 0.375 3.9625
1.5625 0.3125 3.9625
1.75 0.3125 4.025
1.75 0.375 3.9625
1.6875 0.375 4.025
1.75 0.3125 3.9625
1.6875 0.3125 4.025
1.6875 0.375 3.9625
1.6875 0.3125 3.9625
1.875 0.3125 4.025
1.875 0.375 3.9625
1.8125 0.375 4.025
1.875 0.3125 3.9625
1.8125 0.3125 4.025
1.8125 0.375 3.9625
1.8125 0.3125 3.9625
2 0.3125 4.025
2 0.375 3.9625
1.9375 0.375 4.025
2 0.3125 3.9625
1.9375 0.3125 4.025
1.9375 0.375 3.9625
1.9375 0.3125 3.9625
2.125 0.3125 4.025
2.125 0.375 3.9625
2.0625 0.375 4.025
2.125 0.3125 3.9625
2.0625 0.3125 4.025
2.0625 0.375 3.9625
2.0625 0.3125 3.9625
2.25 0.3125 4.025
2.25 0.375 3.9625
2.1875 0.375 4.025
2.25 0.3125 3.9625
2.1875 0.3125 4.025
2.1875 0.375 3.9625
2.1875 0.3125 3.9625
2.375 0.3125 4.025
2.375 0.375 3.9625
2.3125 0.375 4.025
2.375 0.3125 3.9625
2.3125 0.3125 4.025
2.3125 0.375 3.9625
2.3125 0.3125 3.9625
2.5 0.3125 4.025
2.5 0.375 3.9625
2.4375 0.375 4.025
2.5 0.3125 3.9625
2.4375 0.3125 4.025
2.4375 0.375 3.9625
2.4375 0.3125 3.9625
2.625 0.3125 4.025
2.625 0.375 3.9625
2.5625 0.375 4.025
2.625 0.3125 3.9625
2.5625 0.3125 4.025
2.5625 0.375 3.9625
2.5625 0.3125 3.9625
2.75 0.3125 4.025
2.75 0.375 3.9625
2.6875 0.375 4.025
2.75 0.3125 3.9625
2.6875 0.3125 4.025
2.6875 0.375 3.9625
2.6875 0.3125 3.9625
2.875 0.3125 4.025
2.875 0.375 3.9625
2.8125 0.375 4.025
2.875 0.3125 3.9625
2.8125 0.3125 4.025
2.8125 0.375 3.9625
2.8125 0.3125 3.9625
3 0.3125 4.025
3 0.375 3.9625
2.9375 0.375 4.025
3 0.3125 3.9625
2.9375 0.3125 4.025
2.9375 0.375 3.9625
2.9375 0.3125 3.9625
3.125 0.3125 4.025
3.125 0.375 3.9625
3.0625 0.375 4.025
3.125 0.3125 3.9625
3.0625 0.3125 4.025
3.0625 0.375 3.9625
3.0625 0.3125 3.9625
3.25 0.3125 4.025
3.25 0.375 3.9625
3.1875 0.375 4.025
3.25 0.3125 3.9625
3.1875 0.3125 4.025
3.1875 0.375 3.9625
3.1875 0.3125 3.9625
3.375 0.3125 4.025
3.375 0.375 3.9625
3.3125 0.375 4.025
3.375 0.3125 3.9625
3.3125 0.3125 4.025
3.3125 0.375 3.9625
3.3125 0.3125 3.9625
3.5 0.3125 4.025
3.5 0.375 3.9625
3.4375 0.375 4.025
3.5 0.3125 3.9625
3.4375 0.3125 4.025
3.4375 0.375 3.9625
3.4375 0.3125 3.9625
3.625 0.3125 4.025
3.625 0.375 3.9625
3.5625 0.375 4.025
3.625 0.3125 3.9625
3.5625 0.3125 4.025
3.5625 0.375 3.9625
3.5625 0.3125 3.9625
3.75 0.3125 4.025
3.75 0.375 3.9625
3.6875 0.375 4.025
3.75 0.3125 3.9625
3.6875 0.3125 4.025
3.6875 0.375 3.9625
3.6875 0.3125 3.9625
3.875 0.3125 4.025
3.875 0.375 3.9625
3.8125 0.375 4.025
3.875 0.3125 3.9625
3.8125 0.3125 4.025
3.8125 0.375 3.9625
3.8125 0.3125 3.9625
4 0.3125 4.025
4 0.375 3.9625
3.9375 0.375 4.025
4 0.3125 3.9625
3.9375 0.3125 4.025
3.9375 0.375 3.9625
3.9375 0.3125 3.9625
0.125 0.4375 4.025
0 0.4375 4.025
0.125 0.5 3.9625
0.0625 0.5 4.025
0 0.5 3.9625
0.125 0.4375 3.9625
0.0625 0.4375 4.025
0 0.4375 3.9625
0.0625 0.5 3.9625
0.0625 0.4375 3.9625
0.25 0.4375 4.025
0.25 0.5 3.9625
0.1875 0.5 4.025
0.25 0.4375 3.9625
0.1875 0.4375 4.025
0.1875 0.5 3.9625
0.1875 0.4375 3.9625
0.375 0.4375 4.025
0.375 0.5 3.9625
0.3125 0.5 4.025
0.375 0.4375 3.9625
0.3125 0.4375 4.025
0.3125 0.5 3.9625
0.3125 0.4375 3.9625
0.5 0.4375 4.025
0.5 0.5 3.9625
0.4375 0.5 4.025
0.5 0.4375 3.9625
0.4375 0.4375 4.025
0.4375 0.5 3.9625
0.4375 0.4375 3.9625
0.625 0.4375 4.025
0.625 0.5 3.9625
0.5625 0.5 4.025
0.625 0.4375 3.9625
0.5625 0.4375 4.025
0.5625 0.5 3.9625
0.5625 0.4375 3.9625
0.75 0.4375 4.025
0.75 0.5 3.9625
0.6875 0.5 4.025
0.75 0.4375 3.9625
0.6875 0.4375 4.025
0.6875 0.5 3.9625
0.6875 0.4375 3.9625
0.875 0.4375 4.025
0.875 0.5 3.9625
0.8125 0.5 4.025
0.875 0.4375 3.9625
0.8125 0.4375 4.025
0.8125 0.5 3.9625
0.8125 0.4375 3.9625
1 0.4375 4.025
1 0.5 3.9625
0.9375 0.5 4.025
1 0.4375 3.9625
0.9375 0.4375 4.025
0.9375 0.5 3.9625
0.9375 0.4375 3.9625
1.125 0.4375 4.025
1.125 0.5 3.9625
1.0625 0.5 4.025
1.125 0.4375 3.9625
1.0625 0.4375 4.025
1.0625 0.5 3.9625
1.0625 0.4375 3.9625
1.25 0.4375 4.025
1.25 0.5 3.9625
1.1875 0.5 4.025
1.25 0.4375 3.9625
1.1875 0.4375 4.025
1.1875 0.5 3.9625
1.1875 0.4375 3.9625
1.375 0.4375 4.025
1.375 0.5 3.9625
1.3125 0.5 4.025
1.375 0.4375 3.9625
1.3125 0.4375 4.025
1.3125 0.5 3.9625
1.3125 0.4375 3.9625
1.5 0.4375 4.025
1.5 0.5 3.9625
1.4375 0.5 4.025
1.5 0.4375 3.9625
1.4375 0.4375 4.025
1.4375 0.5 3.9625
1.4375 0.4375 3.9625
1.625 0.4375 4.025
1.625 0.5 3.9625
1.5625 0.5 4.025
1.625 0.4375 3.9625
1.5625 0.4375 4.025
1.5625 0.5 3.9625
1.5625 0.4375 3.9625
1.75 0.4375 4.025
1.75 0.5 3.9625
1.6875 0.5 4.025
1.75 0.4375 3.9625
1.6875 0.4375 4.025
1.6875 0.5 3.9625
1.6875 0.4375 3.9625
1.875 0.4375 4.025
1.875 0.5 3.9625
1.8125 0.5 4.025
1.875 0.4375 3.9625
1.8125 0.4375 4.025
1.8125 0.5 3.9625
1.8125 0.4375 3.9625
2 0.4375 4.025
2 0.5 3.9625
1.9375 0.5 4.025
2 0.4375 3.9625
1.9375 0.4375 4.025
1.9375 0.5 3.9625
1.9375 0.4375 3.9625
2.125 0.4375 4.025
2.125 0.5 3.9625
2.0625 0.5 4.025
2.125 0.4375 3.9625
2.0625 0.4375 4.025
2.0625 0.5 3.9625
2.0625 0.4375 3.9625
2.25 0.4375 4.025
2.25 0.5 3.9625
2.1875 0.5 4.025
2.25 0.4375 3.9625
2.1875 0.4375 4.025
2.1875 0.5 3.9625
2.1875 0.4375 3.9625
2.375 0.4375 4.025
2.375 0.5 3.9625
2.3125 0.5 4.025
2.375 0.4375 3.9625
2.3125 0.4375 4.025
2.3125 0.5 3.9625
2.3125 0.4375 3.9625
2.5 0.4375 4.025
2.5 0.5 3.9625
2.4375 0.5 4.025
2.5 0.4375 3.9625
2.4375 0.4375 4.025
2.4375 0.5 3.9625
2.4375 0.4375 3.9625
2.625 0.4375 4.025
2.625 0.5 3.9625
2.5625 0.5 4.025
2.625 0.4375 3.9625
2.5625 0.4375 4.025
2.5625 0.5 3.9625
2.5625 0.4375 3.9625
2.75 0.4375 4.025
2.75 0.5 3.9625
2.6875 0.5 4.025
2.75 0.4375 3.9625
2.6875 0.4375 4.025
2.6875 0.5 3.9625
2.6875 0.4375 3.9625
2.875 0.4375 4.025
2.875 0.5 3.9625
2.8125 0.5 4.025
2.875 0.4375 3.9625
2.8125 0.4375 4.025
2.8125 0.5 3.9625
2.8125 0.4375 3.9625
3 0.4375 4.025
3 0.5 3.9625
2.9375 0.5 4.025
3 0.4375 3.9625
2.9375 0.4375 4.025
2.9375 0.5 3.9625
2.9375 0.4375 3.9625
3.125 0.4375 4.025
3.125 0.5 3.9625
3.0625 0.5 4.025
3.125 0.4375 3.9625
3.0625 0.4375 4.025
3.0625 0.5 3.9625
3.0625 0.4375 3.9625
3.25 0.4375 4.025
3.25 0.5 3.9625
3.1875 0.5 4.025
3.25 0.4375 3.9625
3.1875 0.4375 4.025
3.1875 0.5 3.9625
3.1875 0.4375 3.9625
3.375 0.4375 4.025
3.375 0.5 3.9625
3.3125 0.5 4.025
3.375 0.4375 3.9625
3.3125 0.4375 4.025
3.3125 0.5 3.9625
3.3125 0.4375 3.9625
3.5 0.4375 4.025
3.5 0.5 3.9625
3.4375 0.5 4.025
3.5 0.4375 3.9625
3.4375 0.4375 4.025
3.4375 0.5 3.9625
3.4375 0.4375 3.9625
3.625 0.4375 4.025
3.625 0.5 3.9625
3.5625 0.5 4.025
3.625 0.4375 3.9625
3.5625 0.4375 4.025
3.5625 0.5 3.9625
3.5625 0.4375 3.9625
3.75 0.4375 4.025
3.75 0.5 3.9625
3.6875 0.5 4.025
3.75 0.4375 3.9625
3.6875 0.4375 4.025
3.6875 0.5 3.9625
3.6875 0.4375 3.9625
3.875 0.4375 4.025
3.875 0.5 3.9625
3.8125 0.5 4.025
3.875 0.4375 3.9625
3.8125 0.4375 4.025
3.8125 0.5 3.9625
3.8125 0.4375 3.9625
4 0.4375 4.025
4 0.5 3.9625
3.9375 0.5 4.025
4 0.4375 3.9625
3.9375 0.4375 4.025
3.9375 0.5 3.9625
3.9375 0.4375 3.9625
0.125 0.5625 4.025
0 0.5625 4.025
0.125 0.625 3.9625
0.0625 0.625 4.025
0 0.625 3.9625
0.125 0.5625 3.9625
0.0625 0.5625 4.025
0 0.5625 3.9625
0.0625 0.625 3.9625
0.0625 0.5625 3.9625
0.25 0.5625 4.025
0.25 0.625 3.9625
0.1875 0.625 4.025
0.25 0.5625 3.9625
0.1875 0.5625 4.025
0.1875 0.625 3.9625
0.1875 0.5625 3.9625
0.375 0.5625 4.025
0.375 0.625 3.9625
0.3125 0.625 4.025
0.375 0.5625 3.9625
0.3125 0.5625 4.025
0.3125 0.625 3.9625
0.3125 0.5625 3.9625
0.5 0.5625 4.025
0.5 0.625 3.9625
0.4375 0.625 4.025
0.5 0.5625 3.9625
0.4375 0.5625 4.025
0.4375 0.625 3.9625
0.4375 0.5625 3.9625
0.625 0.5625 4.025
0.625 0.625 3.9625
0.5625 0.625 4.025
0.625 0.5625 3.9625
0.5625 0.5625 4.025
0.5625 0.625 3.9625
0.5625 0.5625 3.9625
0.75 0.5625 4.025
0.75 0.625 3.9625
0.6875 0.625 4.025
0.75 0.5625 3.9625
0.6875 0.5625 4.025
0.6875 0.625 3.9625
0.6875 0.5625 3.9625
0.875 0.5625 4.025
0.875 0.625 3.9625
0.8125 0.625 4.025
0.875 0.5625 3.9625
0.8125 0.5625 4.025
0.8125 0.625 3.9625
0.8125 0.5625 3.9625
1 0.5625 4.025
1 0.625 3.9625
0.9375 0.625 4.025
1 0.5625 3.9625
0.9375 0.5625 4.025
0.9375 0.625 3.9625
0.9375 0.5625 3.9625
1.125 0.5625 4.025
1.125 0.625 3.9625
1.0625 0.625 4.025
1.125 0.5625 3.9625
1.0625 0.5625 4.025
1.0625 0.625 3.9625
1.0625 0.5625 3.9625
1.25 0.5625 4.025
1.25 0.625 3.9625
1.1875 0.625 4.025
1.25 0.5625 3.9625
1.1875 0.5625 4.025
1.1875 0.625 3.9625
1.1875 0.5625 3.9625
1.375 0.5625 4.025
1.375 0.625 3.9625
1.3125 0.625 4.025
1.375 0.5625 3.9625
1.3125 0.5625 4.025
1.3125 0.625 3.9625
1.3125 0.5625 3.9625
1.5 0.5625 4.025
1.5 0.625 3.9625
1.4375 0.625 4.025
1.5 0.5625 3.9625
1.4375 0.5625 4.025
1.4375 0.625 3.9625
1.4375 0.5625 3.9625
1.625 0.5625 4.025
1.625 0.625 3.9625
1.5625 0.625 4.025
1.625 0.5625 3.9625
1.5625 0.5625 4.025
1.5625 0.625 3.9625
1.5625 0.5625 3.9625
1.75 0.5625 4.025
1.75 0.625 3.9625
1.6875 0.625 4.025
1.75 0.5625 3.9625
1.6875 0.5625 4.025
1.6875 0.625 3.9625
1.6875 0.5625 3.9625
1.875 0.5625 4.025
1.875 0.625 3.9625
1.8125 0.625 4.025
1.875 0.5625 3.9625
1.8125 0.5625 4.025
1.8125 0.625 3.9625
1.8125 0.5625 3.9625
2 0.5625 4.025
2 0.625 3.9625
1.9375 0.625 4.025
2 0.5625 3.9625
1.9375 0.5625 4.025
1.9375 0.625 3.9625
1.9375 0.5625 3.9625
2.125 0.5625 4.025
2.125 0.625 3.9625
2.0625 0.625 4.025
2.125 0.5625 3.9625
2.0625 0.5625 4.025
2.0625 0.625 3.9625
2.0625 0.5625 3.9625
2.25 0.5625 4.025
2.25 0.625 3.9625
2.1875 0.625 4.025
2.25 0.5625 3.9625
2.1875 0.5625 4.025
2.1875 0.625 3.9625
2.1875 0.5625 3.9625
2.375 0.5625 4.025
2.375 0.625 3.9625
2.3125 0.625 4.025
2.375 0.5625 3.9625
2.3125 0.5625 4.025
2.3125 0.625 3.9625
2.3125 0.5625 3.9625
2.5 0.5625 4.025
2.5 0.625 3.9625
2.4375 0.625 4.025
2.5 0.5625 3.9625
2.4375 0.5625 4.025
2.4375 0.625 3.9625
2.4375 0.5625 3.9625
2.625 0.5625 4.025
2.625 0.625 3.9625
2.5625 0.625 4.025
2.625 0.5625 3.9625
2.5625 0.5625 4.025
2.5625 0.625 3.9625
2.5625 0.5625 3.9625
2.75 0.5625 4.025
2.75 0.625 3.9625
2.6875 0.625 4.025
2.75 0.5625 3.9625
2.6875 0.5625 4.025
2.6875 0.625 3.9625
2.6875 0.5625 3.9625
2.875 0.5625 4.025
2.875 0.625 3.9625
2.8125 0.625 4.025
2.875 0.5625 3.9625
2.8125 0.5625 4.025
2.8125 0.625 3.9625
2.8125 0.5625 3.9625
3 0.5625 4.025
3 0.625 3.9625
2.9375 0.625 4.025
3 0.5625 3.9625
2.9375 0.5625 4.025
2.9375 0.625 3.9625
2.9375 0.5625 3.9625
3.125 0.5625 4.025
3.125 0.625 3.9625
3.0625 0.625 4.025
3.125 0.5625 3.9625
3.0625 0.5625 4.025
3.0625 0.625 3.9625
3.0625 0.5625 3.9625
3.25 0.5625 4.025
3.25 0.625 3.9625
3.1875 0.625 4.025
3.25 0.5625 3.9625
3.1875 0.5625 4.025
3.1875 0.625 3.9625
3.1875 0.5625 3.9625
3.375 0.5625 4.025
3.375 0.625 3.9625
3.3125 0.625 4.025
3.375 0.5625 3.9625
3.3125 0.5625 4.025
3.3125 0.625 3.9625
3.3125 0.5625 3.9625
3.5 0.5625 4.025
3.5 0.625 3.9625
3.4375 0.625 4.025
3.5 0.5625 3.9625
3.4375 0.5625 4.025
3.4375 0.625 3.9625
3.4375 0.5625 3.9625
3.625 0.5625 4.025
3.625 0.625 3.9625
3.5625 0.625 4.025
3.625 0.5625 3.9625
3.5625 0.5625 4.025
3.5625 0.625 3.9625
3.5625 0.5625 3.9625
3.75 0.5625 4.025
3.75 0.625 3.9625
3.6875 0.625 4.025
3.75 0.5625 3.9625
3.6875 0.5625 4.025
3.6875 0.625 3.9625
3.6875 0.5625 3.9625
3.875 0.5625 4.025
3.875 0.625 3.9625
3.8125 0.625 4.025
3.875 0.5625 3.9625
3.8125 0.5625 4.025
3.8125 0.625 3.9625
3.8125 0.5625 3.9625
4 0.5625 4.025
4 0.625 3.9625
3.9375 0.625 4.025
4 0.5625 3.9625
3.9375 0.5625 4.025
3.9375 0.625 3.9625
3.9375 0.5625 3.9625
0.125 0.6875 4.025
0 0.6875 4.025
0.125 0.75 3.9625
0.0625 0.75 4.025
0 0.75 3.9625
0.125 0.6875 3.9625
0.0625 0.6875 4.025
0 0.6875 3.9625
0.0625 0.75 3.9625
0.0625 0.6875 3.9625
0.25 0.6875 4.025
0.25 0.75 3.9625
0.1875 0.75 4.025
0.25 0.6875 3.9625
0.1875 0.6875 4.025
0.1875 0.75 3.9625
0.1875 0.6875 3.9625
0.375 0.6875 4.025
0.375 0.75 3.9625
0.3125 0.75 4.025
0.375 0.6875 3.9625
0.3125 0.6875 4.025
0.3125 0.75 3.9625
0.3125 0.6875 3.9625
0.5 0.6875 4.025
0.5 0.75 3.9625
0.4375 0.75 4.025
0.5 0.6875 3.9625
0.4375 0.6875 4.025
0.4375 0.75 3.9625
0.4375 0.6875 3.9625
0.625 0.6875 4.025
0.625 0.75 3.9625
0.5625 0.75 4.025
0.625 0.6875 3.9625
0.5625 0.6875 4.025
0.5625 0.75 3.9625
0.5625 0.6875 3.9625
0.75 0.6875 4.025
0.75 0.75 3.9625
0.6875 0.75 4.025
0.75 0.6875 3.9625
0.6875 0.6875 4.025
0.6875 0.75 3.9625
0.6875 0.6875 3.9625
0.875 0.6875 4.025
0.875 0.75 3.9625
0.8125 0.75 4.025
0.875 0.6875 3.9625
0.8125 0.6875 4.025
0.8125 0.75 3.9625
0.8125 0.6875 3.9625
1 0.6875 4.025
1 0.75 3.9625
0.9375 0.75 4.025
1 0.6875 3.9625
0.9375 0.6875 4.025
0.9375 0.75 3.9625
0.9375 0.6875 3.9625
1.125 0.6875 4.025
1.125 0.75 3.9625
1.0625 0.75 4.025
1.125 0.6875 3.9625
1.0625 0.6875 4.025
1.0625 0.75 3.9625
1.0625 0.6875 3.9625
1.25 0.6875 4.025
1.25 0.75 3.9625
1.1875 0.75 4.025
1.25 0.6875 3.9625
1.1875 0.6875 4.025
1.1875 0.75 3.9625
1.1875 0.6875 3.9625
1.375 0.6875 4.025
1.375 0.75 3.9625
1.3125 0.75 4.025
1.375 0.6875 3.9625
1.3125 0.6875 4.025
1.3125 0.75 3.9625
1.3125 0.6875 3.9625
1.5 0.6875 4.025
1.5 0.75 3.9625
1.4375 0.75 4.025
1.5 0.6875 3.9625
1.4375 0.6875 4.025
1.4375 0.75 3.9625
1.4375 0.6875 3.9625
1.625 0.6875 4.025
1.625 0.75 3.9625
1.5625 0.75 4.025
1.625 0.6875 3.9625
1.5625 0.6875 4.025
1.5625 0.75 3.9625
1.5625 0.6875 3.9625
1.75 0.6875 4.025
1.75 0.75 3.9625
1.6875 0.75 4.025
1.75 0.6875 3.9625
1.6875 0.6875 4.025
1.6875 0.75 3.9625
1.6875 0.6875 3.9625
1.875 0.6875 4.025
1.875 0.75 3.9625
1.8125 0.75 4.025
1.875 0.6875 3.9625
1.8125 0.6875 4.025
1.8125 0.75 3.9625
1.8125 0.6875 3.9625
2 0.6875 4.025
2 0.75 3.9625
1.9375 0.75 4.025
2 0.6875 3.9625
1.9375 0.6875 4.025
1.9375 0.75 3.9625
1.9375 0.6875 3.9625
2.125 0.6875 4.025
2.125 0.75 3.9625
2.0625 0.75 4.025
2.125 0.6875 3.9625
2.0625 0.6875 4.025
2.0625 0.75 3.9625
2.0625 0.6875 3.9625
2.25 0.6875 4.025
2.25 0.75 3.9625
2.1875 0.75 4.025
2.25 0.6875 3.9625
2.1875 0.6875 4.025
2.1875 0.75 3.9625
2.1875 0.6875 3.9625
2.375 0.6875 4.025
2.375 0.75 3.9625
2.3125 0.75 4.025
2.375 0.6875 3.9625
2.3125 0.6875 4.025
2.3125 0.75 3.9625
2.3125 0.6875 3.9625
2.5 0.6875 4.025
2.5 0.75 3.9625
2.4375 0.75 4.025
2.5 0.6875 3.9625
2.4375 0.6875 4.025
2.4375 0.75 3.9625
2.4375 0.6875 3.9625
2.625 0.6875 4.025
2.625 0.75 3.9625
2.5625 0.75 4.025
2.625 0.6875 3.9625
2.5625 0.6875 4.025
2.5625 0.75 3.9625
2.5625 0.6875 3.9625
2.75 0.6875 4.025
2.75 0.75 3.9625
2.6875 0.75 4.025
2.75 0.6875 3.9625
2.6875 0.6875 4.025
2.6875 0.75 3.9625
2.6875 0.6875 3.9625
2.875 0.6875 4.025
2.875 0.75 3.9625
2.8125 0.75 4.025
2.875 0.6875 3.9625
2.8125 0.6875 4.025
2.8125 0.75 3.9625
2.8125 0.6875 3.9625
3 0.6875 4.025
3 0.75 3.9625
2.9375 0.75 4.025
3 0.6875 3.9625
2.9375 0.6875 4.025
2.9375 0.75 3.9625
2.9375 0.6875 3.9625
3.125 0.6875 4.025
3.125 0.75 3.9625
3.0625 0.75 4.025
3.125 0.6875 3.9625
3.0625 0.6875 4.025
3.0625 0.75 3.9625
3.0625 0.6875 3.9625
3.25 0.6875 4.025
3.25 0.75 3.9625
3.1875 0.75 4.025
3.25 0.6875 3.9625
3.1875 0.6875 4.025
3.1875 0.75 3.9625
3.1875 0.6875 3.9625
3.375 0.6875 4.025
3.375 0.75 3.9625
3.3125 0.75 4.025
3.375 0.6875 3.9625
3.3125 0.6875 4.025
3.3125 0.75 3.9625
3.3125 0.6875 3.9625
3.5 0.6875 4.025
3.5 0.75 3.9625
3.4375 0.75 4.025
3.5 0.6875 3.9625
3.4375 0.6875 4.025
3.4375 0.75 3.9625
3.4375 0.6875 3.9625
3.625 0.6875 4.025
3.625 0.75 3.9625
3.5625 0.75 4.025
3.625 0.6875 3.9625
3.5625 0.6875 4.025
3.5625 0.75 3.9625
3.5625 0.6875 3.9625
3.75 0.6875 4.025
3.75 0.75 3.9625
3.6875 0.75 4.025
3.75 0.6875 3.9625
3.6875 0.6875 4.025
3.6875 0.75 3.9625
3.6875 0.6875 3.9625
3.875 0.6875 4.025
3.875 0.75 3.9625
3.8125 0.75 4.025
3.875 0.6875 3.9625
3.8125 0.6875 4.025
3.8125 0.75 3.9625
3.8125 0.6875 3.9625
4 0.6875 4.025
4 0.75 3.9625
3.9375 0.75 4.025
4 0.6875 3.9625
3.9375 0.6875 4.025
3.9375 0.75 3.9625
3.9375 0.6875 3.9625
0.125 0.8125 4.025
0 0.8125 4.025
0.125 0.875 3.9625
0.0625 0.875 4.025
0 0.875 3.9625
0.125 0.8125 3.9625
0.0625 0.8125 4.025
0 0.8125 3.9625
0.0625 0.875 3.9625
0.0625 0.8125 3.9625
0.25 0.8125 4.025
0.25 0.875 3.9625
0.1875 0.875 4.025
0.25 0.8125 3.9625
0.1875 0.8125 4.025
0.1875 0.875 3.9625
0.1875 0.8125 3.9625
0.375 0.8125 4.025
0.375 0.875 3.9625
0.3125 0.875 4.025
0.375 0.8125 3.9625
0.3125 0.8125 4.025
0.3125 0.875 3.9625
0.3125 0.8125 3.9625
0.5 0.8125 4.025
0.5 0.875 3.9625
0.4375 0.875 4.025
0.5 0.8125 3.9625
0.4375 0.8125 4.025
0.4375 0.875 3.9625
0.4375 0.8125 3.9625
0.625 0.8125 4.025
0.625 0.875 3.9625
0.5625 0.875 4.025
0.625 0.8125 3.9625
0.5625 0.8125 4.025
0.5625 0.875 3.9625
0.5625 0.8125 3.9625
0.75 0.8125 4.025
0.75 0.875 3.9625
0.6875 0.875 4.025
0.75 0.8125 3.9625
0.6875 0.8125 4.025
0.6875 0.875 3.9625
0.6875 0.8125 3.9625
0.875 0.8125 4.025
0.875 0.875 3.9625
0.8125 0.875 4.025
0.875 0.8125 3.9625
0.8125 0.8125 4.025
0.8125 0.875 3.9625
0.8125 0.8125 3.9625
1 0.8125 4.025
1 0.875 3.9625
0.9375 0.875 4.025
1 0.8125 3.9625
0.9375 0.8125 4.025
0.9375 0.875 3.9625
0.9375 0.8125 3.9625
1.125 0.8125 4.025
1.125 0.875 3.9625
1.0625 0.875 4.025
1.125 0.8125 3.9625
1.0625 0.8125 4.025
1.0625 0.875 3.9625
1.0625 0.8125 3.9625
1.25 0.8125 4.025
1.25 0.875 3.9625
1.1875 0.875 4.025
1.25 0.8125 3.9625
1.1875 0.8125 4.025
1.1875 0.875 3.9625
1.1875 0.8125 3.9625
1.375 0.8125 4.025
1.375 0.875 3.9625
1.3125 0.875 4.025
1.375 0.8125 3.9625
1.3125 0.8125 4.025
1.3125 0.875 3.9625
1.3125 0.8125 3.9625
1.5 0.8125 4.025
1.5 0.875 3.9625
1.4375 0.875 4.025
1.5 0.8125 3.9625
1.4375 0.8125 4.025
1.4375 0.875 3.9625
1.4375 0.8125 3.9625
1.625 0.8125 4.025
1.625 0.875 3.9625
1.5625 0.875 4.025
1.625 0.8125 3.9625
1.5625 0.8125 4.025
1.5625 0.875 3.9625
1.5625 0.8125 3.9625
1.75 0.8125 4.025
1.75 0.875 3.9625
1.6875 0.875 4.025
1.75 0.8125 3.9625
1.6875 0.8125 4.025
1.6875 0.875 3.9625
1.6875 0.8125 3.9625
1.875 0.8125 4.025
1.875 0.875 3.9625
1.8125 0.875 4.025
1.875 0.8125 3.9625
1.8125 0.8125 4.025
1.8125 0.875 3.9625
1.8125 0.8125 3.9625
2 0.8125 4.025
2 0.875 3.9625
1.9375 0.875 4.025
2 0.8125 3.9625
1.9375 0.8125 4.025
1.9375 0.875 3.9625
1.9375 0.8125 3.9625
2.125 0.8125 4.025
2.125 0.875 3.9625
2.0625 0.875 4.025
2.125 0.8125 3.9625
2.0625 0.8125 4.025
2.0625 0.875 3.9625
2.0625 0.8125 3.9625
2.25 0.8125 4.025
2.25 0.875 3.9625
2.1875 0.875 4.025
2.25 0.8125 3.9625
2.1875 0.8125 4.025
2.1875 0.875 3.9625
2.1875 0.8125 3.9625
2.375 0.8125 4.025
2.375 0.875 3.9625
2.3125 0.875 4.025
2.375 0.8125 3.9625
2.3125 0.8125 4.025
2.3125 0.875 3.9625
2.3125 0.8125 3.9625
2.5 0.8125 4.025
2.5 0.875 3.9625
2.4375 0.875 4.025
2.5 0.8125 3.9625
2.4375 0.8125 4.025
2.4375 0.875 3.9625
2.4375 0.8125 3.9625
2.625 0.8125 4.025
2.625 0.875 3.9625
2.5625 0.875 4.025
2.625 0.8125 3.9625
2.5625 0.8125 4.025
2.5625 0.875 3.9625
2.5625 0.8125 3.9625
2.75 0.8125 4.025
2.75 0.875 3.9625
2.6875 0.875 4.025
2.75 0.8125 3.9625
2.6875 0.8125 4.025
2.6875 0.875 3.9625
2.6875 0.8125 3.9625
2.875 0.8125 4.025
2.875 0.875 3.9625
2.8125 0.875 4.025
2.875 0.8125 3.9625
2.8125 0.8125 4.025
2.8125 0.875 3.9625
2.8125 0.8125 3.9625
3 0.8125 4.025
3 0.875 3.9625
2.9375 0.875 4.025
3 0.8125 3.9625
2.9375 0.8125 4.025
2.9375 0.875 3.9625
2.9375 0.8125 3.9625
3.125 0.8125 4.025
3.125 0.875 3.9625
3.0625 0.875 4.025
3.125 0.8125 3.9625
3.0625 0.8125 4.025
3.0625 0.875 3.9625
3.0625 0.8125 3.9625
3.25 0.8125 4.025
3.25 0.875 3.9625
3.1875 0.875 4.025
3.25 0.8125 3.9625
3.1875 0.8125 4.025
3.1875 0.875 3.9625
3.1875 0.8125 3.9625
3.375 0.8125 4.025
3.375 0.875 3.9625
3.3125 0.875 4.025
3.375 0.8125 3.9625
3.3125 0.8125 4.025
3.3125 0.875 3.9625
3.3125 0.8125 3.9625
3.5 0.8125 4.025
3.5 0.875 3.9625
3.4375 0.875 4.025
3.5 0.8125 3.9625
3.4375 0.8125 4.025
3.4375 0.875 3.9625
3.4375 0.8125 3.9625
3.625 0.8125 4.025
3.625 0.875 3.9625
3.5625 0.875 4.025
3.625 0.8125 3.9625
3.5625 0.8125 4.025
3.5625 0.875 3.9625
3.5625 0.8125 3.9625
3.75 0.8125 4.025
3.75 0.875 3.9625
3.6875 0.875 4.025
3.75 0.8125 3.9625
3.6875 0.8125 4.025
3.6875 0.875 3.9625
3.6875 0.8125 3.9625
3.875 0.8125 4.025
3.875 0.875 3.9625
3.8125 0.875 4.025
3.875 0.8125 3.9625
3.8125 0.8125 4.025
3.8125 0.875 3.9625
3.8125 0.8125 3.9625
4 0.8125 4.025
4 0.875 3.9625
3.9375 0.875 4.025
4 0.8125 3.9625
3.9375 0.8125 4.025
3.9375 0.875 3.9625
3.9375 0.8125 3.9625
0.125 0.9375 4.025
0 0.9375 4.025
0.125 1 3.9625
0.0625 1 4.025
0 1 3.9625
0.125 0.9375 3.9625
0.0625 0.9375 4.025
0 0.9375 3.9625
0.0625 1 3.9625
0.0625 0.9375 3.9625
0.25 0.9375 4.025
0.25 1 3.9625
0.1875 1 4.025
0.25 0.9375 3.9625
0.1875 0.9375 4.025
0.1875 1 3.9625
0.1875 0.9375 3.9625
0.375 0.9375 4.025
0.375 1 3.9625
0.3125 1 4.025
0.375 0.9375 3.9625
0.3125 0.9375 4.025
0.3125 1 3.9625
0.3125 0.9375 3.9625
0.5 0.9375 4.025
0.5 1 3.9625
0.4375 1 4.025
0.5 0.9375 3.9625
0.4375 0.9375 4.025
0.4375 1 3.9625
0.4375 0.9375 3.9625
0.625 0.9375 4.025
0.625 1 3.9625
0.5625 1 4.025
0.625 0.9375 3.9625
0.5625 0.9375 4.025
0.5625 1 3.9625
0.5625 0.9375 3.9625
0.75 0.9375 4.025
0.75 1 3.9625
0.6875 1 4.025
0.75 0.9375 3.9625
0.6875 0.9375 4.025
0.6875 1 3.9625
0.6875 0.9375 3.9625
0.875 0.9375 4.025
0.875 1 3.9625
0.8125 1 4.025
0.875 0.9375 3.9625
0.8125 0.9375 4.025
0.8125 1 3.9625
0.8125 0.9375 3.9625
1 0.9375 4.025
1 1 3.9625
0.9375 1 4.025
1 0.9375 3.9625
0.9375 0.9375 4.025
0.9375 1 3.9625
0.9375 0.9375 3.9625
1.125 0.9375 4.025
1.125 1 3.9625
1.0625 1 4.025
1.125 0.9375 3.9625
1.0625 0.9375 4.025
1.0625 1 3.9625
1.0625 0.9375 3.9625
1.25 0.9375 4.025
1.25 1 3.9625
1.1875 1 4.025
1.25 0.9375 3.9625
1.1875 0.9375 4.025
1.1875 1 3.9625
1.1875 0.9375 3.9625
1.375 0.9375 4.025
1.375 1 3.9625
1.3125 1 4.025
1.375 0.9375 3.9625
1.3125 0.9375 4.025
1.3125 1 3.9625
1.3125 0.9375 3.9625
1.5 0.9375 4.025
1.5 1 3.9625
1.4375 1 4.025
1.5 0.9375 3.9625
1.4375 0.9375 4.025
1.4375 1 3.9625
1.4375 0.9375 3.9625
1.625 0.9375 4.025
1.625 1 3.9625
1.5625 1 4.025
1.625 0.9375 3.9625
1.5625 0.9375 4.025
1.5625 1 3.9625
1.5625 0.9375 3.9625
1.75 0.9375 4.025
1.75 1 3.9625
1.6875 1 4.025
1.75 0.9375 3.9625
1.6875 0.9375 4.025
1.6875 1 3.9625
1.6875 0.9375 3.9625
1.875 0.9375 4.025
1.875 1 3.9625
1.8125 1 4.025
1.875 0.9375 3.9625
1.8125 0.9375 4.025
1.8125 1 3.9625
1.8125 0.9375 3.9625
2 0.9375 4.025
2 1 3.9625
1.9375 1 4.025
2 0.9375 3.9625
1.9375 0.9375 4.025
1.9375 1 3.9625
1.9375 0.9375 3.9625
2.125 0.9375 4.025
2.125 1 3.9625
2.0625 1 4.025
2.125 0.9375 3.9625
2.0625 0.9375 4.025
2.0625 1 3.9625
2.0625 0.9375 3.9625
2.25 0.9375 4.025
2.25 1 3.9625
2.1875 1 4.025
2.25 0.9375 3.9625
2.1875 0.9375 4.025
2.1875 1 3.9625
2.1875 0.9375 3.9625
2.375 0.9375 4.025
2.375 1 3.9625
2.3125 1 4.025
2.375 0.9375 3.9625
2.3125 0.9375 4.025
2.3125 1 3.9625
2.3125 0.9375 3.9625
2.5 0.9375 4.025
2.5 1 3.9625
2.4375 1 4.025
2.5 0.9375 3.9625
2.4375 0.9375 4.025
2.4375 1 3.9625
2.4375 0.9375 3.9625
2.625 0.9375 4.025
2.625 1 3.9625
2.5625 1 4.025
2.625 0.9375 3.9625
2.5625 0.9375 4.025
2.5625 1 3.9625
2.5625 0.9375 3.9625
2.75 0.9375 4.025
2.75 1 3.9625
2.6875 1 4.025
2.75 0.9375 3.9625
2.6875 0.9375 4.025
2.6875 1 3.9625
2.6875 0.9375 3.9625
2.875 0.9375 4.025
2.875 1 3.9625
2.8125 1 4.025
2.875 0.9375 3.9625
2.8125 0.9375 4.025
2.8125 1 3.9625
2.8125 0.9375 3.9625
3 0.9375 4.025
3 1 3.9625
2.9375 1 4.025
3 0.9375 3.9625
2.9375 0.9375 4.025
2.9375 1 3.9625
2.9375 0.9375 3.9625
3.125 0.9375 4.025
3.125 1 3.9625
3.0625 1 4.025
3.125 0.9375 3.9625
3.0625 0.9375 4.025
3.0625 1 3.9625
3.0625 0.9375 3.9625
3.25 0.9375 4.025
3.25 1 3.9625
3.1875 1 4.025
3.25 0.9375 3.9625
3.1875 0.9375 4.025
3.1875 1 3.9625
3.1875 0.9375 3.9625
3.375 0.9375 4.025
3.375 1 3.9625
3.3125 1 4.025
3.375 0.9375 3.9625
3.3125 0.9375 4.025
3.3125 1 3.9625
3.3125 0.9375 3.9625
3.5 0.9375 4.025
3.5 1 3.9625
3.4375 1 4.025
3.5 0.9375 3.9625
3.4375 0.9375 4.025
3.4375 1 3.9625
3.4375 0.9375 3.9625
3.625 0.9375 4.025
3.625 1 3.9625
3.5625 1 4.025
3.625 0.9375 3.9625
3.5625 0.9375 4.025
3.5625 1 3.9625
3.5625 0.9375 3.9625
3.75 0.9375 4.025
3.75 1 3.9625
3.6875 1 4.025
3.75 0.9375 3.9625
3.6875 0.9375 4.025
3.6875 1 3.9625
3.6875 0.9375 3.9625
3.875 0.9375 4.025
3.875 1 3.9625
3.8125 1 4.025
3.875 0.9375 3.9625
3.8125 0.9375 4.025
3.8125 1 3.9625
3.8125 0.9375 3.9625
4 0.9375 4.025
4 1 3.9625
3.9375 1 4.025
4 0.9375 3.9625
3.9375 0.9375 4.025
3.9375 1 3.9625
3.9375 0.9375 3.9625
0.125 0 4.0875
0.0625 0 4.15
0 0 4.0875
0.125 0.0625 4.15
0 0.0625 4.15
0.125 0.125 4.0875
0.0625 0.125 4.15
0 0.125 4.0875
0.0625 0 4.0875
0.125 0.0625 4.0875
0.0625 0.0625 4.15
0 0.0625 4.0875
0.0625 0.125 4.0875
0.0625 0.0625 4.0875
0.25 0 4.0875
0.1875 0 4.15
0.25 0.0625 4.15
0.25 0.125 4.0875
0.1875 0.125 4.15
0.1875 0 4.0875
0.25 0.0625 4.0875
0.1875 0.0625 4.15
0.1875 0.125 4.0875
0.1875 0.0625 4.0875
0.375 0 4.0875
0.3125 0 4.15
0.375 0.0625 4.15
0.375 0.125 4.0875
0.3125 0.125 4.15
0.3125 0 4.0875
0.375 0.0625 4.0875
0.3125 0.0625 4.15
0.3125 0.125 4.0875
0.3125 0.0625 4.0875
0.5 0 4.0875
0.4375 0 4.15
0.5 0.0625 4.15
0.5 0.125 4.0875
0.4375 0.125 4.15
0.4375 0 4.0875
0.5 0.0625 4.0875
0.4375 0.0625 4.15
0.4375 0.125 4.0875
0.4375 0.0625 4.0875
0.625 0 4.0875
0.5625 0 4.15
0.625 0.0625 4.15
0.625 0.125 4.0875
0.5625 0.125 4.15
0.5625 0 4.0875
0.625 0.0625 4.0875
0.5625 0.0625 4.15
0.5625 0.125 4.0875
0.5625 0.0625 4.0875
0.75 0 4.0875
0.6875 0 4.15
0.75 0.0625 4.15
0.75 0.125 4.0875
0.6875 0.125 4.15
0.6875 0 4.0875
0.75 0.0625 4.0875
0.6875 0.0625 4.15
0.6875 0.125 4.0875
0.6875 0.0625 4.0875
0.875 0 4.0875
0.8125 0 4.15
0.875 0.0625 4.15
0.875 0.125 4.0875
0.8125 0.125 4.15
0.8125 0 4.0875
0.875 0.0625 4.0875
0.8125 0.0625 4.15
0.8125 0.125 4.0875
0.8125 0.0625 4.0875
1 0 4.0875
0.9375 0 4.15
1 0.0625 4.15
1 0.125 4.0875
0.9375 0.125 4.15
0.9375 0 4.0875
1 0.0625 4.0875
0.9375 0.0625 4.15
0.9375 0.125 4.0875
0.9375 0.0625 4.0875
1.125 0 4.0875
1.0625 0 4.15
1.125 0.0625 4.15
1.125 0.125 4.0875
1.0625 0.125 4.15
1.0625 0 4.0875
1.125 0.0625 4.0875
1.0625 0.0625 4.15
1.0625 0.125 4.0875
1.0625 0.0625 4.0875
1.25 0 4.0875
1.1875 0 4.15
1.25 0.0625 4.15
1.25 0.125 4.0875
1.1875 0.125 4.15
1.1875 0 4.0875
1.25 0.0625 4.0875
1.1875 0.0625 4.15
1.1875 0.125 4.0875
1.1875 0.0625 4.0875
1.375 0 4.0875
1.3125 0 4.15
1.375 0.0625 4.15
1.375 0.125 4.0875
1.3125 0.125 4.15
1.3125 0 4.0875
1.375 0.0625 4.0875
1.3125 0.0625 4.15
1.3125 0.125 4.0875
1.3125 0.0625 4.0875
1.5 0 4.0875
1.4375 0 4.15
1.5 0.0625 4.15
1.5 0.125 4.0875
1.4375 0.125 4.15
1.4375 0 4.0875
1.5 0.0625 4.0875
1.4375 0.0625 4.15
1.4375 0.125 4.0875
1.4375 0.0625 4.0875
1.625 0 4.0875
1.5625 0 4.15
1.625 0.0625 4.15
1.625 0.125 4.0875
1.5625 0.125 4.15
1.5625 0 4.0875
1.625 0.0625 4.0875
1.5625 0.0625 4.15
1.5625 0.125 4.0875
1.5625 0.0625 4.0875
1.75 0 4.0875
1.6875 0 4.15
1.75 0.0625 4.15
1.75 0.125 4.0875
1.6875 0.125 4.15
1.6875 0 4.0875
1.75 0.0625 4.0875
1.6875 0.0625 4.15
1.6875 0.125 4.0875
1.6875 0.0625 4.0875
1.875 0 4.0875
1.8125 0 4.15
1.875 0.0625 4.15
1.875 0.125 4.0875
1.8125 0.125 4.15
1.8125 0 4.0875
1.875 0.0625 4.0875
1.8125 0.0625 4.15
1.8125 0.125 4.0875
1.8125 0.0625 4.0875
2 0 4.0875
1.9375 0 4.15
2 0.0625 4.15
2 0.125 4.0875
1.9375 0.125 4.15
1.9375 0 4.0875
2 0.0625 4.0875
1.9375 0.0625 4.15
1.9375 0.125 4.0875
1.9375 0.0625 4.0875
2.125 0 4.0875
2.0625 0 4.15
2.125 0.0625 4.15
2.125 0.125 4.0875
2.0625 0.125 4.15
2.0625 0 4.0875
2.125 0.0625 4.0875
2.0625 0.0625 4.15
2.0625 0.125 4.0875
2.0625 0.0625 4.0875
2.25 0 4.0875
2.1875 0 4.15
2.25 0.0625 4.15
2.25 0.125 4.0875
2.1875 0.125 4.15
2.1875 0 4.0875
2.25 0.0625 4.0875
2.1875 0.0625 4.15
2.1875 0.125 4.0875
2.1875 0.0625 4.0875
2.375 0 4.0875
2.3125 0 4.15
2.375 0.0625 4.15
2.375 0.125 4.0875
2.3125 0.125 4.15
2.3125 0 4.0875
2.375 0.0625 4.0875
2.3125 0.0625 4.15
2.3125 0.125 4.0875
2.3125 0.0625 4.0875
2.5 0 4.0875
2.4375 0 4.15
2.5 0.0625 4.15
2.5 0.125 4.0875
2.4375 0.125 4.15
2.4375 0 4.0875
2.5 0.0625 4.0875
2.4375 0.0625 4.15
2.4375 0.125 4.0875
2.4375 0.0625 4.0875
2.625 0 4.0875
2.5625 0 4.15
2.625 0.0625 4.15
2.625 0.125 4.0875
2.5625 0.125 4.15
2.5625 0 4.0875
2.625 0.0625 4.0875
2.5625 0.0625 4.15
2.5625 0.125 4.0875
2.5625 0.0625 4.0875
2.75 0 4.0875
2.6875 0 4.15
2.75 0.0625 4.15
2.75 0.125 4.0875
2.6875 0.125 4.15
2.6875 0 4.0875
2.75 0.0625 4.0875
2.6875 0.0625 4.15
2.6875 0.125 4.0875
2.6875 0.0625 4.0875
2.875 0 4.0875
2.8125 0 4.15
2.875 0.0625 4.15
2.875 0.125 4.0875
2.8125 0.125 4.15
2.8125 0 4.0875
2.875 0.0625 4.0875
2.8125 0.0625 4.15
2.8125 0.125 4.0875
2.8125 0.0625 4.0875
3 0 4.0875
2.9375 0 4.15
3 0.0625 4.15
3 0.125 4.0875
2.9375 0.125 4.15
2.9375 0 4.0875
3 0.0625 4.0875
2.9375 0.0625 4.15
2.9375 0.125 4.0875
2.9375 0.0625 4.0875
3.125 0 4.0875
3.0625 0 4.15
3.125 0.0625 4.15
3.125 0.125 4.0875
3.0625 0.125 4.15
3.0625 0 4.0875
3.125 0.0625 4.0875
3.0625 0.0625 4.15
3.0625 0.125 4.0875
3.0625 0.0625 4.0875
3.25 0 4.0875
3.1875 0 4.15
3.25 0.0625 4.15
3.25 0.125 4.0875
3.1875 0.125 4.15
3.1875 0 4.0875
3.25 0.0625 4.0875
3.1875 0.0625 4.15
3.1875 0.125 4.0875
3.1875 0.0625 4.0875
3.375 0 4.0875
3.3125 0 4.15
3.375 0.0625 4.15
3.375 0.125 4.0875
3.3125 0.125 4.15
3.3125 0 4.0875
3.375 0.0625 4.0875
3.3125 0.0625 4.15
3.3125 0.125 4.0875
3.3125 0.0625 4.0875
3.5 0 4.0875
3.4375 0 4.15
3.5 0.0625 4.15
3.5 0.125 4.0875
3.4375 0.125 4.15
3.4375 0 4.0875
3.5 0.0625 4.0875
3.4375 0.0625 4.15
3.4375 0.125 4.0875
3.4375 0.0625 4.0875
3.625 0 4.0875
3.5625 0 4.15
3.625 0.0625 4.15
3.625 0.125 4.0875
3.5625 0.125 4.15
3.5625 0 4.0875
3.625 0.0625 4.0875
3.5625 0.0625 4.15
3.5625 0.125 4.0875
3.5625 0.0625 4.0875
3.75 0 4.0875
3.6875 0 4.15
3.75 0.0625 4.15
3.75 0.125 4.0875
3.6875 0.125 4.15
3.6875 0 4.0875
3.75 0.0625 4.0875
3.6875 0.0625 4.15
3.6875 0.125 4.0875
3.6875 0.0625 4.0875
3.875 0 4.0875
3.8125 0 4.15
3.875 0.0625 4.15
3.875 0.125 4.0875
3.8125 0.125 4.15
3.8125 0 4.0875
3.875 0.0625 4.0875
3.8125 0.0625 4.15
3.8125 0.125 4.0875
3.8125 0.0625 4.0875
4 0 4.0875
3.9375 0 4.15
4 0.0625 4.15
4 0.125 4.0875
3.9375 0.125 4.15
3.9375 0 4.0875
4 0.0625 4.0875
3.9375 0.0625 4.15
3.9375 0.125 4.0875
3.9375 0.0625 4.0875
0.125 0.1875 4.15
0 0.1875 4.15
0.125 0.25 4.0875
0.0625 0.25 4.15
0 0.25 4.0875
0.125 0.1875 4.0875
0.0625 0.1875 4.15
0 0.1875 4.0875
0.0625 0.25 4.0875
0.0625 0.1875 4.0875
0.25 0.1875 4.15
0.25 0.25 4.0875
0.1875 0.25 4.15
0.25 0.1875 4.0875
0.1875 0.1875 4.15
0.1875 0.25 4.0875
0.1875 0.1875 4.0875
0.375 0.1875 4.15
0.375 0.25 4.0875
0.3125 0.25 4.15
0.375 0.1875 4.0875
0.3125 0.1875 4.15
0.3125 0.25 4.0875
0.3125 0.1875 4.0875
0.5 0.1875 4.15
0.5 0.25 4.0875
0.4375 0.25 4.15
0.5 0.1875 4.0875
0.4375 0.1875 4.15
0.4375 0.25 4.0875
0.4375 0.1875 4.0875
0.625 0.1875 4.15
0.625 0.25 4.0875
0.5625 0.25 4.15
0.625 0.1875 4.0875
0.5625 0.1875 4.15
0.5625 0.25 4.0875
0.5625 0.1875 4.0875
0.75 0.1875 4.15
0.75 0.25 4.0875
0.6875 0.25 4.15
0.75 0.1875 4.0875
0.6875 0.1875 4.15
0.6875 0.25 4.0875
0.6875 0.1875 4.0875
0.875 0.1875 4.15
0.875 0.25 4.0875
0.8125 0.25 4.15
0.875 0.1875 4.0875
0.8125 0.1875 4.15
0.8125 0.25 4.0875
0.8125 0.1875 4.0875
1 0.1875 4.15
1 0.25 4.0875
0.9375 0.25 4.15
1 0.1875 4.0875
0.9375 0.1875 4.15
0.9375 0.25 4.0875
0.9375 0.1875 4.0875
1.125 0.1875 4.15
1.125 0.25 4.0875
1.0625 0.25 4.15
1.125 0.1875 4.0875
1.0625 0.1875 4.15
1.0625 0.25 4.0875
1.0625 0.1875 4.0875
1.25 0.1875 4.15
1.25 0.25 4.0875
1.1875 0.25 4.15
1.25 0.1875 4.0875
1.1875 0.1875 4.15
1.1875 0.25 4.0875
1.1875 0.1875 4.0875
1.375 0.1875 4.15
1.375 0.25 4.0875
1.3125 0.25 4.15
1.375 0.1875 4.0875
1.3125 0.1875 4.15
1.3125 0.25 4.0875
1.3125 0.1875 4.0875
1.5 0.1875 4.15
1.5 0.25 4.0875
1.4375 0.25 4.15
1.5 0.1875 4.0875
1.4375 0.1875 4.15
1.4375 0.25 4.0875
1.4375 0.1875 4.0875
1.625 0.1875 4.15
1.625 0.25 4.0875
1.5625 0.25 4.15
1.625 0.1875 4.0875
1.5625 0.1875 4.15
1.5625 0.25 4.0875
1.5625 0.1875 4.0875
1.75 0.1875 4.15
1.75 0.25 4.0875
1.6875 0.25 4.15
1.75 0.1875 4.0875
1.6875 0.1875 4.15
1.6875 0.25 4.0875
1.6875 0.1875 4.0875
1.875 0.1875 4.15
1.875 0.25 4.0875
1.8125 0.25 4.15
1.875 0.1875 4.0875
1.8125 0.1875 4.15
1.8125 0.25 4.0875
1.8125 0.1875 4.0875
2 0.1875 4.15
2 0.25 4.0875
1.9375 0.25 4.15
2 0.1875 4.0875
1.9375 0.1875 4.15
1.9375 0.25 4.0875
1.9375 0.1875 4.0875
2.125 0.1875 4.15
2.125 0.25 4.0875
2.0625 0.25 4.15
2.125 0.1875 4.0875
2.0625 0.1875 4.15
2.0625 0.25 4.0875
2.0625 0.1875 4.0875
2.25 0.1875 4.15
2.25 0.25 4.0875
2.1875 0.25 4.15
2.25 0.1875 4.0875
2.1875 0.1875 4.15
2.1875 0.25 4.0875
2.1875 0.1875 4.0875
2.375 0.1875 4.15
2.375 0.25 4.0875
2.3125 0.25 4.15
2.375 0.1875 4.0875
2.3125 0.1875 4.15
2.3125 0.25 4.0875
2.3125 0.1875 4.0875
2.5 0.1875 4.15
2.5 0.25 4.0875
2.4375 0.25 4.15
2.5 0.1875 4.0875
2.4375 0.1875 4.15
2.4375 0.25 4.0875
2.4375 0.1875 4.0875
2.625 0.1875 4.15
2.625 0.25 4.0875
2.5625 0.25 4.15
2.625 0.1875 4.0875
2.5625 0.1875 4.15
2.5625 0.25 4.0875
2.5625 0.1875 4.0875
2.75 0.1875 4.15
2.75 0.25 4.0875
2.6875 0.25 4.15
2.75 0.1875 4.0875
2.6875 0.1875 4.15
2.6875 0.25 4.0875
2.6875 0.1875 4.0875
2.875 0.1875 4.15
2.875 0.25 4.0875
2.8125 0.25 4.15
2.875 0.1875 4.0875
2.8125 0.1875 4.15
2.8125 0.25 4.0875
2.8125 0.1875 4.0875
3 0.1875 4.15
3 0.25 4.0875
2.9375 0.25 4.15
3 0.1875 4.0875
2.9375 0.1875 4.15
2.9375 0.25 4.0875
2.9375 0.1875 4.0875
3.125 0.1875 4.15
3.125 0.25 4.0875
3.0625 0.25 4.15
3.125 0.1875 4.0875
3.0625 0.1875 4.15
3.0625 0.25 4.0875
3.0625 0.1875 4.0875
3.25 0.1875 4.15
3.25 0.25 4.0875
3.1875 0.25 4.15
3.25 0.1875 4.0875
3.1875 0.1875 4.15
3.1875 0.25 4.0875
3.1875 0.1875 4.0875
3.375 0.1875 4.15
3.375 0.25 4.0875
3.3125 0.25 4.15
3.375 0.1875 4.0875
3.3125 0.1875 4.15
3.3125 0.25 4.0875
3.3125 0.1875 4.0875
3.5 0.1875 4.15
3.5 0.25 4.0875
3.4375 0.25 4.15
3.5 0.1875 4.0875
3.4375 0.1875 4.15
3.4375 0.25 4.0875
3.4375 0.1875 4.0875
3.625 0.1875 4.15
3.625 0.25 4.0875
3.5625 0.25 4.15
3.625 0.1875 4.0875
3.5625 0.1875 4.15
3.5625 0.25 4.0875
3.5625 0.1875 4.0875
3.75 0.1875 4.15
3.75 0.25 4.0875
3.6875 0.25 4.15
3.75 0.1875 4.0875
3.6875 0.1875 4.15
3.6875 0.25 4.0875
3.6875 0.1875 4.0875
3.875 0.1875 4.15
3.875 0.25 4.0875
3.8125 0.25 4.15
3.875 0.1875 4.0875
3.8125 0.1875 4.15
3.8125 0.25 4.0875
3.8125 0.1875 4.0875
4 0.1875 4.15
4 0.25 4.0875
3.9375 0.25 4.15
4 0.1875 4.0875
3.9375 0.1875 4.15
3.9375 0.25 4.0875
3.9375 0.1875 4.0875
0.125 0.3125 4.15
0 0.3125 4.15
0.125 0.375 4.0875
0.0625 0.375 4.15
0 0.375 4.0875
0.125 0.3125 4.0875
0.0625 0.3125 4.15
0 0.3125 4.0875
0.0625 0.375 4.0875
0.0625 0.3125 4.0875
0.25 0.3125 4.15
0.25 0.375 4.0875
0.1875 0.375 4.15
0.25 0.3125 4.0875
0.1875 0.3125 4.15
0.1875 0.375 4.0875
0.1875 0.3125 4.0875
0.375 0.3125 4.15
0.375 0.375 4.0875
0.3125 0.375 4.15
0.375 0.3125 4.0875
0.3125 0.3125 4.15
0.3125 0.375 4.0875
0.3125 0.3125 4.0875
0.5 0.3125 4.15
0.5 0.375 4.0875
0.4375 0.375 4.15
0.5 0.3125 4.0875
0.4375 0.3125 4.15
0.4375 0.375 4.0875
0.4375 0.3125 4.0875
0.625 0.3125 4.15
0.625 0.375 4.0875
0.5625 0.375 4.15
0.625 0.3125 4.0875
0.5625 0.3125 4.15
0.5625 0.375 4.0875
0.5625 0.3125 4.0875
0.75 0.3125 4.15
0.75 0.375 4.0875
0.6875 0.375 4.15
0.75 0.3125 4.0875
0.6875 0.3125 4.15
0.6875 0.375 4.0875
0.6875 0.3125 4.0875
0.875 0.3125 4.15
0.875 0.375 4.0875
0.8125 0.375 4.15
0.875 0.3125 4.0875
0.8125 0.3125 4.15
0.8125 0.375 4.0875
0.8125 0.3125 4.0875
1 0.3125 4.15
1 0.375 4.0875
0.9375 0.375 4.15
1 0.3125 4.0875
0.9375 0.3125 4.15
0.9375 0.375 4.0875
0.9375 0.3125 4.0875
1.125 0.3125 4.15
1.125 0.375 4.0875
1.0625 0.375 4.15
1.125 0.3125 4.0875
1.0625 0.3125 4.15
1.0625 0.375 4.0875
1.0625 0.3125 4.0875
1.25 0.3125 4.15
1.25 0.375 4.0875
1.1875 0.375 4.15
1.25 0.3125 4.0875
1.1875 0.3125 4.15
1.1875 0.375 4.0875
1.1875 0.3125 4.0875
1.375 0.3125 4.15
1.375 0.375 4.0875
1.3125 0.375 4.15
1.375 0.3125 4.0875
1.3125 0.3125 4.15
1.3125 0.375 4.0875
1.3125 0.3125 4.0875
1.5 0.3125 4.15
1.5 0.375 4.0875
1.4375 0.375 4.15
1.5 0.3125 4.0875
1.4375 0.3125 4.15
1.4375 0.375 4.0875
1.4375 0.3125 4.0875
1.625 0.3125 4.15
1.625 0.375 4.0875
1.5625 0.375 4.15
1.625 0.3125 4.0875
1.5625 0.3125 4.15
1.5625 0.375 4.0875
1.5625 0.3125 4.0875
1.75 0.3125 4.15
1.75 0.375 4.0875
1.6875 0.375 4.15
1.75 0.3125 4.0875
1.6875 0.3125 4.15
1.6875 0.375 4.0875
1.6875 0.3125 4.0875
1.875 0.3125 4.15
1.875 0.375 4.0875
1.8125 0.375 4.15
1.875 0.3125 4.0875
1.8125 0.3125 4.15
1.8125 0.375 4.0875
1.8125 0.3125 4.0875
2 0.3125 4.15
2 0.375 4.0875
1.9375 0.375 4.15
2 0.3125 4.0875
1.9375 0.3125 4.15
1.9375 0.375 4.0875
1.9375 0.3125 4.0875
2.125 0.3125 4.15
2.125 0.375 4.0875
2.0625 0.375 4.15
2.125 0.3125 4.0875
2.0625 0.3125 4.15
2.0625 0.375 4.0875
2.0625 0.3125 4.0875
2.25 0.3125 4.15
2.25 0.375 4.0875
2.1875 0.375 4.15
2.25 0.3125 4.0875
2.1875 0.3125 4.15
2.1875 0.375 4.0875
2.1875 0.3125 4.0875
2.375 0.3125 4.15
2.375 0.375 4.0875
2.3125 0.375 4.15
2.375 0.3125 4.0875
2.3125 0.3125 4.15
2.3125 0.375 4.0875
2.3125 0.3125 4.0875
2.5 0.3125 4.15
2.5 0.375 4.0875
2.4375 0.375 4.15
2.5 0.3125 4.0875
2.4375 0.3125 4.15
2.4375 0.375 4.0875
2.4375 0.3125 4.0875
2.625 0.3125 4.15
2.625 0.375 4.0875
2.5625 0.375 4.15
2.625 0.3125 4.0875
2.5625 0.3125 4.15
2.5625 0.375 4.0875
2.5625 0.3125 4.0875
2.75 0.3125 4.15
2.75 0.375 4.0875
2.6875 0.375 4.15
2.75 0.3125 4.0875
2.6875 0.3125 4.15
2.6875 0.375 4.0875
2.6875 0.3125 4.0875
2.875 0.3125 4.15
2.875 0.375 4.0875
2.8125 0.375 4.15
2.875 0.3125 4.0875
2.8125 0.3125 4.15
2.8125 0.375 4.0875
2.8125 0.3125 4.0875
3 0.3125 4.15
3 0.375 4.0875
2.9375 0.375 4.15
3 0.3125 4.0875
2.9375 0.3125 4.15
2.9375 0.375 4.0875
2.9375 0.3125 4.0875
3.125 0.3125 4.15
3.125 0.375 4.0875
3.0625 0.375 4.15
3.125 0.3125 4.0875
3.0625 0.3125 4.15
3.0625 0.375 4.0875
3.0625 0.3125 4.0875
3.25 0.3125 4.15
3.25 0.375 4.0875
3.1875 0.375 4.15
3.25 0.3125 4.0875
3.1875 0.3125 4.15
3.1875 0.375 4.0875
3.1875 0.3125 4.0875
3.375 0.3125 4.15
3.375 0.375 4.0875
3.3125 0.375 4.15
3.375 0.3125 4.0875
3.3125 0.3125 4.15
3.3125 0.375 4.0875
3.3125 0.3125 4.0875
3.5 0.3125 4.15
3.5 0.375 4.0875
3.4375 0.375 4.15
3.5 0.3125 4.0875
3.4375 0.3125 4.15
3.4375 0.375 4.0875
3.4375 0.3125 4.0875
3.625 0.3125 4.15
3.625 0.375 4.0875
3.5625 0.375 4.15
3.625 0.3125 4.0875
3.5625 0.3125 4.15
3.5625 0.375 4.0875
3.5625 0.3125 4.0875
3.75 0.3125 4.15
3.75 0.375 4.0875
3.6875 0.375 4.15
3.75 0.3125 4.0875
3.6875 0.3125 4.15
3.6875 0.375 4.0875
3.6875 0.3125 4.0875
3.875 0.3125 4.15
3.875 0.375 4.0875
3.8125 0.375 4.15
3.875 0.3125 4.0875
3.8125 0.3125 4.15
3.8125 0.375 4.0875
3.8125 0.3125 4.0875
4 0.3125 4.15
4 0.375 4.0875
3.9375 0.375 4.15
4 0.3125 4.0875
3.9375 0.3125 4.15
3.9375 0.375 4.0875
3.9375 0.3125 4.0875
0.125 0.4375 4.15
0 0.4375 4.15
0.125 0.5 4.0875
0.0625 0.5 4.15
0 0.5 4.0875
0.125 0.4375 4.0875
0.0625 0.4375 4.15
0 0.4375 4.0875
0.0625 0.5 4.0875
0.0625 0.4375 4.0875
0.25 0.4375 4.15
0.25 0.5 4.0875
0.1875 0.5 4.15
0.25 0.4375 4.0875
0.1875 0.4375 4.15
0.1875 0.5 4.0875
0.1875 0.4375 4.0875
0.375 0.4375 4.15
0.375 0.5 4.0875
0.3125 0.5 4.15
0.375 0.4375 4.0875
0.3125 0.4375 4.15
0.3125 0.5 4.0875
0.3125 0.4375 4.0875
0.5 0.4375 4.15
0.5 0.5 4.0875
0.4375 0.5 4.15
0.5 0.4375 4.0875
0.4375 0.4375 4.15
0.4375 0.5 4.0875
0.4375 0.4375 4.0875
0.625 0.4375 4.15
0.625 0.5 4.0875
0.5625 0.5 4.15
0.625 0.4375 4.0875
0.5625 0.4375 4.15
0.5625 0.5 4.0875
0.5625 0.4375 4.0875
0.75 0.4375 4.15
0.75 0.5 4.0875
0.6875 0.5 4.15
0.75 0.4375 4.0875
0.6875 0.4375 4.15
0.6875 0.5 4.0875
0.6875 0.4375 4.0875
0.875 0.4375 4.15
0.875 0.5 4.0875
0.8125 0.5 4.15
0.875 0.4375 4.0875
0.8125 0.4375 4.15
0.8125 0.5 4.0875
0.8125 0.4375 4.0875
1 0.4375 4.15
1 0.5 4.0875
0.9375 0.5 4.15
1 0.4375 4.0875
0.9375 0.4375 4.15
0.9375 0.5 4.0875
0.9375 0.4375 4.0875
1.125 0.4375 4.15
1.125 0.5 4.0875
1.0625 0.5 4.15
1.125 0.4375 4.0875
1.0625 0.4375 4.15
1.0625 0.5 4.0875
1.0625 0.4375 4.0875
1.25 0.4375 4.15
1.25 0.5 4.0875
1.1875 0.5 4.15
1.25 0.4375 4.0875
1.1875 0.4375 4.15
1.1875 0.5 4.0875
1.1875 0.4375 4.0875
1.375 0.4375 4.15
1.375 0.5 4.0875
1.3125 0.5 4.15
1.375 0.4375 4.0875
1.3125 0.4375 4.15
1.3125 0.5 4.0875
1.3125 0.4375 4.0875
1.5 0.4375 4.15
1.5 0.5 4.0875
1.4375 0.5 4.15
1.5 0.4375 4.0875
1.4375 0.4375 4.15
1.4375 0.5 4.0875
1.4375 0.4375 4.0875
1.625 0.4375 4.15
1.625 0.5 4.0875
1.5625 0.5 4.15
1.625 0.4375 4.0875
1.5625 0.4375 4.15
1.5625 0.5 4.0875
1.5625 0.4375 4.0875
1.75 0.4375 4.15
1.75 0.5 4.0875
1.6875 0.5 4.15
1.75 0.4375 4.0875
1.6875 0.4375 4.15
1.6875 0.5 4.0875
1.6875 0.4375 4.0875
1.875 0.4375 4.15
1.875 0.5 4.0875
1.8125 0.5 4.15
1.875 0.4375 4.0875
1.8125 0.4375 4.15
1.8125 0.5 4.0875
1.8125 0.4375 4.0875
2 0.4375 4.15
2 0.5 4.0875
1.9375 0.5 4.15
2 0.4375 4.0875
1.9375 0.4375 4.15
1.9375 0.5 4.0875
1.9375 0.4375 4.0875
2.125 0.4375 4.15
2.125 0.5 4.0875
2.0625 0.5 4.15
2.125 0.4375 4.0875
2.0625 0.4375 4.15
2.0625 0.5 4.0875
2.0625 0.4375 4.0875
2.25 0.4375 4.15
2.25 0.5 4.0875
2.1875 0.5 4.15
2.25 0.4375 4.0875
2.1875 0.4375 4.15
2.1875 0.5 4.0875
2.1875 0.4375 4.0875
2.375 0.4375 4.15
2.375 0.5 4.0875
2.3125 0.5 4.15
2.375 0.4375 4.0875
2.3125 0.4375 4.15
2.3125 0.5 4.0875
2.3125 0.4375 4.0875
2.5 0.4375 4.15
2.5 0.5 4.0875
2.4375 0.5 4.15
2.5 0.4375 4.0875
2.4375 0.4375 4.15
2.4375 0.5 4.0875
2.4375 0.4375 4.0875
2.625 0.4375 4.15
2.625 0.5 4.0875
2.5625 0.5 4.15
2.625 0.4375 4.0875
2.5625 0.4375 4.15
2.5625 0.5 4.0875
2.5625 0.4375 4.0875
2.75 0.4375 4.15
2.75 0.5 4.0875
2.6875 0.5 4.15
2.75 0.4375 4.0875
2.6875 0.4375 4.15
2.6875 0.5 4.0875
2.6875 0.4375 4.0875
2.875 0.4375 4.15
2.875 0.5 4.0875
2.8125 0.5 4.15
2.875 0.4375 4.0875
2.8125 0.4375 4.15
2.8125 0.5 4.0875
2.8125 0.4375 4.0875
3 0.4375 4.15
3 0.5 4.0875
2.9375 0.5 4.15
3 0.4375 4.0875
2.9375 0.4375 4.15
2.9375 0.5 4.0875
2.9375 0.4375 4.0875
3.125 0.4375 4.15
3.125 0.5 4.0875
3.0625 0.5 4.15
3.125 0.4375 4.0875
3.0625 0.4375 4.15
3.0625 0.5 4.0875
3.0625 0.4375 4.0875
3.25 0.4375 4.15
3.25 0.5 4.0875
3.1875 0.5 4.15
3.25 0.4375 4.0875
3.1875 0.4375 4.15
3.1875 0.5 4.0875
3.1875 0.4375 4.0875
3.375 0.4375 4.15
3.375 0.5 4.0875
3.3125 0.5 4.15
3.375 0.4375 4.0875
3.3125 0.4375 4.15
3.3125 0.5 4.0875
3.3125 0.4375 4.0875
3.5 0.4375 4.15
3.5 0.5 4.0875
3.4375 0.5 4.15
3.5 0.4375 4.0875
3.4375 0.4375 4.15
3.4375 0.5 4.0875
3.4375 0.4375 4.0875
3.625 0.4375 4.15
3.625 0.5 4.0875
3.5625 0.5 4.15
3.625 0.4375 4.0875
3.5625 0.4375 4.15
3.5625 0.5 4.0875
3.5625 0.4375 4.0875
3.75 0.4375 4.15
3.75 0.5 4.0875
3.6875 0.5 4.15
3.75 0.4375 4.0875
3.6875 0.4375 4.15
3.6875 0.5 4.0875
3.6875 0.4375 4.0875
3.875 0.4375 4.15
3.875 0.5 4.0875
3.8125 0.5 4.15
3.875 0.4375 4.0875
3.8125 0.4375 4.15
3.8125 0.5 4.0875
3.8125 0.4375 4.0875
4 0.4375 4.15
4 0.5 4.0875
3.9375 0.5 4.15
4 0.4375 4.0875
3.9375 0.4375 4.15
3.9375 0.5 4.0875
3.9375 0.4375 4.0875
0.125 0.5625 4.15
0 0.5625 4.15
0.125 0.625 4.0875
0.0625 0.625 4.15
0 0.625 4.0875
0.125 0.5625 4.0875
0.0625 0.5625 4.15
0 0.5625 4.0875
0.0625 0.625 4.0875
0.0625 0.5625 4.0875
0.25 0.5625 4.15
0.25 0.625 4.0875
0.1875 0.625 4.15
0.25 0.5625 4.0875
0.1875 0.5625 4.15
0.1875 0.625 4.0875
0.1875 0.5625 4.0875
0.375 0.5625 4.15
0.375 0.625 4.0875
0.3125 0.625 4.15
0.375 0.5625 4.0875
0.3125 0.5625 4.15
0.3125 0.625 4.0875
0.3125 0.5625 4.0875
0.5 0.5625 4.15
0.5 0.625 4.0875
0.4375 0.625 4.15
0.5 0.5625 4.0875
0.4375 0.5625 4.15
0.4375 0.625 4.0875
0.4375 0.5625 4.0875
0.625 0.5625 4.15
0.625 0.625 4.0875
0.5625 0.625 4.15
0.625 0.5625 4.0875
0.5625 0.5625 4.15
0.5625 0.625 4.0875
0.5625 0.5625 4.0875
0.75 0.5625 4.15
0.75 0.625 4.0875
0.6875 0.625 4.15
0.75 0.5625 4.0875
0.6875 0.5625 4.15
0.6875 0.625 4.0875
0.6875 0.5625 4.0875
0.875 0.5625 4.15
0.875 0.625 4.0875
0.8125 0.625 4.15
0.875 0.5625 4.0875
0.8125 0.5625 4.15
0.8125 0.625 4.0875
0.8125 0.5625 4.0875
1 0.5625 4.15
1 0.625 4.0875
0.9375 0.625 4.15
1 0.5625 4.0875
0.9375 0.5625 4.15
0.9375 0.625 4.0875
0.9375 0.5625 4.0875
1.125 0.5625 4.15
1.125 0.625 4.0875
1.0625 0.625 4.15
1.125 0.5625 4.0875
1.0625 0.5625 4.15
1.0625 0.625 4.0875
1.0625 0.5625 4.0875
1.25 0.5625 4.15
1.25 0.625 4.0875
1.1875 0.625 4.15
1.25 0.5625 4.0875
1.1875 0.5625 4.15
1.1875 0.625 4.0875
1.1875 0.5625 4.0875
1.375 0.5625 4.15
1.375 0.625 4.0875
1.3125 0.625 4.15
1.375 0.5625 4.0875
1.3125 0.5625 4.15
1.3125 0.625 4.0875
1.3125 0.5625 4.0875
1.5 0.5625 4.15
1.5 0.625 4.0875
1.4375 0.625 4.15
1.5 0.5625 4.0875
1.4375 0.5625 4.15
1.4375 0.625 4.0875
1.4375 0.5625 4.0875
1.625 0.5625 4.15
1.625 0.625 4.0875
1.5625 0.625 4.15
1.625 0.5625 4.0875
1.5625 0.5625 4.15
1.5625 0.625 4.0875
1.5625 0.5625 4.0875
1.75 0.5625 4.15
1.75 0.625 4.0875
1.6875 0.625 4.15
1.75 0.5625 4.0875
1.6875 0.5625 4.15
1.6875 0.625 4.0875
1.6875 0.5625 4.0875
1.875 0.5625 4.15
1.875 0.625 4.0875
1.8125 0.625 4.15
1.875 0.5625 4.0875
1.8125 0.5625 4.15
1.8125 0.625 4.0875
1.8125 0.5625 4.0875
2 0.5625 4.15
2 0.625 4.0875
1.9375 0.625 4.15
2 0.5625 4.0875
1.9375 0.5625 4.15
1.9375 0.625 4.0875
1.9375 0.5625 4.0875
2.125 0.5625 4.15
2.125 0.625 4.0875
2.0625 0.625 4.15
2.125 0.5625 4.0875
2.0625 0.5625 4.15
2.0625 0.625 4.0875
2.0625 0.5625 4.0875
2.25 0.5625 4.15
2.25 0.625 4.0875
2.1875 0.625 4.15
2.25 0.5625 4.0875
2.1875 0.5625 4.15
2.1875 0.625 4.0875
2.1875 0.5625 4.0875
2.375 0.5625 4.15
2.375 0.625 4.0875
2.3125 0.625 4.15
2.375 0.5625 4.0875
2.3125 0.5625 4.15
2.3125 0.625 4.0875
2.3125 0.5625 4.0875
2.5 0.5625 4.15
2.5 0.625 4.0875
2.4375 0.625 4.15
2.5 0.5625 4.0875
2.4375 0.5625 4.15
2.4375 0.625 4.0875
2.4375 0.5625 4.0875
2.625 0.5625 4.15
2.625 0.625 4.0875
2.5625 0.625 4.15
2.625 0.5625 4.0875
2.5625 0.5625 4.15
2.5625 0.625 4.0875
2.5625 0.5625 4.0875
2.75 0.5625 4.15
2.75 0.625 4.0875
2.6875 0.625 4.15
2.75 0.5625 4.0875
2.6875 0.5625 4.15
2.6875 0.625 4.0875
2.6875 0.5625 4.0875
2.875 0.5625 4.15
2.875 0.625 4.0875
2.8125 0.625 4.15
2.875 0.5625 4.0875
2.8125 0.5625 4.15
2.8125 0.625 4.0875
2.8125 0.5625 4.0875
3 0.5625 4.15
3 0.625 4.0875
2.9375 0.625 4.15
3 0.5625 4.0875
2.9375 0.5625 4.15
2.9375 0.625 4.0875
2.9375 0.5625 4.0875
3.125 0.5625 4.15
3.125 0.625 4.0875
3.0625 0.625 4.15
3.125 0.5625 4.0875
3.0625 0.5625 4.15
3.0625 0.625 4.0875
3.0625 0.5625 4.0875
3.25 0.5625 4.15
3.25 0.625 4.0875
3.1875 0.625 4.15
3.25 0.5625 4.0875
3.1875 0.5625 4.15
3.1875 0.625 4.0875
3.1875 0.5625 4.0875
3.375 0.5625 4.15
3.375 0.625 4.0875
3.3125 0.625 4.15
3.375 0.5625 4.0875
3.3125 0.5625 4.15
3.3125 0.625 4.0875
3.3125 0.5625 4.0875
3.5 0.5625 4.15
3.5 0.625 4.0875
3.4375 0.625 4.15
3.5 0.5625 4.0875
3.4375 0.5625 4.15
3.4375 0.625 4.0875
3.4375 0.5625 4.0875
3.625 0.5625 4.15
3.625 0.625 4.0875
3.5625 0.625 4.15
3.625 0.5625 4.0875
3.5625 0.5625 4.15
3.5625 0.625 4.0875
3.5625 0.5625 4.0875
3.75 0.5625 4.15
3.75 0.625 4.0875
3.6875 0.625 4.15
3.75 0.5625 4.0875
3.6875 0.5625 4.15
3.6875 0.625 4.0875
3.6875 0.5625 4.0875
3.875 0.5625 4.15
3.875 0.625 4.0875
3.8125 0.625 4.15
3.875 0.5625 4.0875
3.8125 0.5625 4.15
3.8125 0.625 4.0875
3.8125 0.5625 4.0875
4 0.5625 4.15
4 0.625 4.0875
3.9375 0.625 4.15
4 0.5625 4.0875
3.9375 0.5625 4.15
3.9375 0.625 4.0875
3.9375 0.5625 4.0875
0.125 0.6875 4.15
0 0.6875 4.15
0.125 0.75 4.0875
0.0625 0.75 4.15
0 0.75 4.0875
0.125 0.6875 4.0875
0.0625 0.6875 4.15
0 0.6875 4.0875
0.0625 0.75 4.0875
0.0625 0.6875 4.0875
0.25 0.6875 4.15
0.25 0.75 4.0875
0.1875 0.75 4.15
0.25 0.6875 4.0875
0.1875 0.6875 4.15
0.1875 0.75 4.0875
0.1875 0.6875 4.0875
0.375 0.6875 4.15
0.375 0.75 4.0875
0.3125 0.75 4.15
0.375 0.6875 4.0875
0.3125 0.6875 4.15
0.3125 0.75 4.0875
0.3125 0.6875 4.0875
0.5 0.6875 4.15
0.5 0.75 4.0875
0.4375 0.75 4.15
0.5 0.6875 4.0875
0.4375 0.6875 4.15
0.4375 0.75 4.0875
0.4375 0.6875 4.0875
0.625 0.6875 4.15
0.625 0.75 4.0875
0.5625 0.75 4.15
0.625 0.6875 4.0875
0.5625 0.6875 4.15
0.5625 0.75 4.0875
0.5625 0.6875 4.0875
0.75 0.6875 4.15
0.75 0.75 4.0875
0.6875 0.75 4.15
0.75 0.6875 4.0875
0.6875 0.6875 4.15
0.6875 0.75 4.0875
0.6875 0.6875 4.0875
0.875 0.6875 4.15
0.875 0.75 4.0875
0.8125 0.75 4.15
0.875 0.6875 4.0875
0.8125 0.6875 4.15
0.8125 0.75 4.0875
0.8125 0.6875 4.0875
1 0.6875 4.15
1 0.75 4.0875
0.9375 0.75 4.15
1 0.6875 4.0875
0.9375 0.6875 4.15
0.9375 0.75 4.0875
0.9375 0.6875 4.0875
1.125 0.6875 4.15
1.125 0.75 4.0875
1.0625 0.75 4.15
1.125 0.6875 4.0875
1.0625 0.6875 4.15
1.0625 0.75 4.0875
1.0625 0.6875 4.0875
1.25 0.6875 4.15
1.25 0.75 4.0875
1.1875 0.75 4.15
1.25 0.6875 4.0875
1.1875 0.6875 4.15
1.1875 0.75 4.0875
1.1875 0.6875 4.0875
1.375 0.6875 4.15
1.375 0.75 4.0875
1.3125 0.75 4.15
1.375 0.6875 4.0875
1.3125 0.6875 4.15
1.3125 0.75 4.0875
1.3125 0.6875 4.0875
1.5 0.6875 4.15
1.5 0.75 4.0875
1.4375 0.75 4.15
1.5 0.6875 4.0875
1.4375 0.6875 4.15
1.4375 0.75 4.0875
1.4375 0.6875 4.0875
1.625 0.6875 4.15
1.625 0.75 4.0875
1.5625 0.75 4.15
1.625 0.6875 4.0875
1.5625 0.6875 4.15
1.5625 0.75 4.0875
1.5625 0.6875 4.0875
1.75 0.6875 4.15
1.75 0.75 4.0875
1.6875 0.75 4.15
1.75 0.6875 4.0875
1.6875 0.6875 4.15
1.6875 0.75 4.0875
1.6875 0.6875 4.0875
1.875 0.6875 4.15
1.875 0.75 4.0875
1.8125 0.75 4.15
1.875 0.6875 4.0875
1.8125 0.6875 4.15
1.8125 0.75 4.0875
1.8125 0.6875 4.0875
2 0.6875 4.15
2 0.75 4.0875
1.9375 0.75 4.15
2 0.6875 4.0875
1.9375 0.6875 4.15
1.9375 0.75 4.0875
1.9375 0.6875 4.0875
2.125 0.6875 4.15
2.125 0.75 4.0875
2.0625 0.75 4.15
2.125 0.6875 4.0875
2.0625 0.6875 4.15
2.0625 0.75 4.0875
2.0625 0.6875 4.0875
2.25 0.6875 4.15
2.25 0.75 4.0875
2.1875 0.75 4.15
2.25 0.6875 4.0875
2.1875 0.6875 4.15
2.1875 0.75 4.0875
2.1875 0.6875 4.0875
2.375 0.6875 4.15
2.375 0.75 4.0875
2.3125 0.75 4.15
2.375 0.6875 4.0875
2.3125 0.6875 4.15
2.3125 0.75 4.0875
2.3125 0.6875 4.0875
2.5 0.6875 4.15
2.5 0.75 4.0875
2.4375 0.75 4.15
2.5 0.6875 4.0875
2.4375 0.6875 4.15
2.4375 0.75 4.0875
2.4375 0.6875 4.0875
2.625 0.6875 4.15
2.625 0.75 4.0875
2.5625 0.75 4.15
2.625 0.6875 4.0875
2.5625 0.6875 4.15
2.5625 0.75 4.0875
2.5625 0.6875 4.0875
2.75 0.6875 4.15
2.75 0.75 4.0875
2.6875 0.75 4.15
2.75 0.6875 4.0875
2.6875 0.6875 4.15
2.6875 0.75 4.0875
2.6875 0.6875 4.0875
2.875 0.6875 4.15
2.875 0.75 4.0875
2.8125 0.75 4.15
2.875 0.6875 4.0875
2.8125 0.6875 4.15
2.8125 0.75 4.0875
2.8125 0.6875 4.0875
3 0.6875 4.15
3 0.75 4.0875
2.9375 0.75 4.15
3 0.6875 4.0875
2.9375 0.6875 4.15
2.9375 0.75 4.0875
2.9375 0.6875 4.0875
3.125 0.6875 4.15
3.125 0.75 4.0875
3.0625 0.75 4.15
3.125 0.6875 4.0875
3.0625 0.6875 4.15
3.0625 0.75 4.0875
3.0625 0.6875 4.0875
3.25 0.6875 4.15
3.25 0.75 4.0875
3.1875 0.75 4.15
3.25 0.6875 4.0875
3.1875 0.6875 4.15
3.1875 0.75 4.0875
3.1875 0.6875 4.0875
3.375 0.6875 4.15
3.375 0.75 4.0875
3.3125 0.75 4.15
3.375 0.6875 4.0875
3.3125 0.6875 4.15
3.3125 0.75 4.0875
3.3125 0.6875 4.0875
3.5 0.6875 4.15
3.5 0.75 4.0875
3.4375 0.75 4.15
3.5 0.6875 4.0875
3.4375 0.6875 4.15
3.4375 0.75 4.0875
3.4375 0.6875 4.0875
3.625 0.6875 4.15
3.625 0.75 4.0875
3.5625 0.75 4.15
3.625 0.6875 4.0875
3.5625 0.6875 4.15
3.5625 0.75 4.0875
3.5625 0.6875 4.0875
3.75 0.6875 4.15
3.75 0.75 4.0875
3.6875 0.75 4.15
3.75 0.6875 4.0875
3.6875 0.6875 4.15
3.6875 0.75 4.0875
3.6875 0.6875 4.0875
3.875 0.6875 4.15
3.875 0.75 4.0875
3.8125 0.75 4.15
3.875 0.6875 4.0875
3.8125 0.6875 4.15
3.8125 0.75 4.0875
3.8125 0.6875 4.0875
4 0.6875 4.15
4 0.75 4.0875
3.9375 0.75 4.15
4 0.6875 4.0875
3.9375 0.6875 4.15
3.9375 0.75 4.0875
3.9375 0.6875 4.0875
0.125 0.8125 4.15
0 0.8125 4.15
0.125 0.875 4.0875
0.0625 0.875 4.15
0 0.875 4.0875
0.125 0.8125 4.0875
0.0625 0.8125 4.15
0 0.8125 4.0875
0.0625 0.875 4.0875
0.0625 0.8125 4.0875
0.25 0.8125 4.15
0.25 0.875 4.0875
0.1875 0.875 4.15
0.25 0.8125 4.0875
0.1875 0.8125 4.15
0.1875 0.875 4.0875
0.1875 0.8125 4.0875
0.375 0.8125 4.15
0.375 0.875 4.0875
0.3125 0.875 4.15
0.375 0.8125 4.0875
0.3125 0.8125 4.15
0.3125 0.875 4.0875
0.3125 0.8125 4.0875
0.5 0.8125 4.15
0.5 0.875 4.0875
0.4375 0.875 4.15
0.5 0.8125 4.0875
0.4375 0.8125 4.15
0.4375 0.875 4.0875
0.4375 0.8125 4.0875
0.625 0.8125 4.15
0.625 0.875 4.0875
0.5625 0.875 4.15
0.625 0.8125 4.0875
0.5625 0.8125 4.15
0.5625 0.875 4.0875
0.5625 0.8125 4.0875
0.75 0.8125 4.15
0.75 0.875 4.0875
0.6875 0.875 4.15
0.75 0.8125 4.0875
0.6875 0.8125 4.15
0.6875 0.875 4.0875
0.6875 0.8125 4.0875
0.875 0.8125 4.15
0.875 0.875 4.0875
0.8125 0.875 4.15
0.875 0.8125 4.0875
0.8125 0.8125 4.15
0.8125 0.875 4.0875
0.8125 0.8125 4.0875
1 0.8125 4.15
1 0.875 4.0875
0.9375 0.875 4.15
1 0.8125 4.0875
0.9375 0.8125 4.15
0.9375 0.875 4.0875
0.9375 0.8125 4.0875
1.125 0.8125 4.15
1.125 0.875 4.0875
1.0625 0.875 4.15
1.125 0.8125 4.0875
1.0625 0.8125 4.15
1.0625 0.875 4.0875
1.0625 0.8125 4.0875
1.25 0.8125 4.15
1.25 0.875 4.0875
1.1875 0.875 4.15
1.25 0.8125 4.0875
1.1875 0.8125 4.15
1.1875 0.875 4.0875
1.1875 0.8125 4.0875
1.375 0.8125 4.15
1.375 0.875 4.0875
1.3125 0.875 4.15
1.375 0.8125 4.0875
1.3125 0.8125 4.15
1.3125 0.875 4.0875
1.3125 0.8125 4.0875
1.5 0.8125 4.15
1.5 0.875 4.0875
1.4375 0.875 4.15
1.5 0.8125 4.0875
1.4375 0.8125 4.15
1.4375 0.875 4.0875
1.4375 0.8125 4.0875
1.625 0.8125 4.15
1.625 0.875 4.0875
1.5625 0.875 4.15
1.625 0.8125 4.0875
1.5625 0.8125 4.15
1.5625 0.875 4.0875
1.5625 0.8125 4.0875
1.75 0.8125 4.15
1.75 0.875 4.0875
1.6875 0.875 4.15
1.75 0.8125 4.0875
1.6875 0.8125 4.15
1.6875 0.875 4.0875
1.6875 0.8125 4.0875
1.875 0.8125 4.15
1.875 0.875 4.0875
1.8125 0.875 4.15
1.875 0.8125 4.0875
1.8125 0.8125 4.15
1.8125 0.875 4.0875
1.8125 0.8125 4.0875
2 0.8125 4.15
2 0.875 4.0875
1.9375 0.875 4.15
2 0.8125 4.0875
1.9375 0.8125 4.15
1.9375 0.875 4.0875
1.9375 0.8125 4.0875
2.125 0.8125 4.15
2.125 0.875 4.0875
2.0625 0.875 4.15
2.125 0.8125 4.0875
2.0625 0.8125 4.15
2.0625 0.875 4.0875
2.0625 0.8125 4.0875
2.25 0.8125 4.15
2.25 0.875 4.0875
2.1875 0.875 4.15
2.25 0.8125 4.0875
2.1875 0.8125 4.15
2.1875 0.875 4.0875
2.1875 0.8125 4.0875
2.375 0.8125 4.15
2.375 0.875 4.0875
2.3125 0.875 4.15
2.375 0.8125 4.0875
2.3125 0.8125 4.15
2.3125 0.875 4.0875
2.3125 0.8125 4.0875
2.5 0.8125 4.15
2.5 0.875 4.0875
2.4375 0.875 4.15
2.5 0.8125 4.0875
2.4375 0.8125 4.15
2.4375 0.875 4.0875
2.4375 0.8125 4.0875
2.625 0.8125 4.15
2.625 0.875 4.0875
2.5625 0.875 4.15
2.625 0.8125 4.0875
2.5625 0.8125 4.15
2.5625 0.875 4.0875
2.5625 0.8125 4.0875
2.75 0.8125 4.15
2.75 0.875 4.0875
2.6875 0.875 4.15
2.75 0.8125 4.0875
2.6875 0.8125 4.15
2.6875 0.875 4.0875
2.6875 0.8125 4.0875
2.875 0.8125 4.15
2.875 0.875 4.0875
2.8125 0.875 4.15
2.875 0.8125 4.0875
2.8125 0.8125 4.15
2.8125 0.875 4.0875
2.8125 0.8125 4.0875
3 0.8125 4.15
3 0.875 4.0875
2.9375 0.875 4.15
3 0.8125 4.0875
2.9375 0.8125 4.15
2.9375 0.875 4.0875
2.9375 0.8125 4.0875
3.125 0.8125 4.15
3.125 0.875 4.0875
3.0625 0.875 4.15
3.125 0.8125 4.0875
3.0625 0.8125 4.15
3.0625 0.875 4.0875
3.0625 0.8125 4.0875
3.25 0.8125 4.15
3.25 0.875 4.0875
3.1875 0.875 4.15
3.25 0.8125 4.0875
3.1875 0.8125 4.15
3.1875 0.875 4.0875
3.1875 0.8125 4.0875
3.375 0.8125 4.15
3.375 0.875 4.0875
3.3125 0.875 4.15
3.375 0.8125 4.0875
3.3125 0.8125 4.15
3.3125 0.875 4.0875
3.3125 0.8125 4.0875
3.5 0.8125 4.15
3.5 0.875 4.0875
3.4375 0.875 4.15
3.5 0.8125 4.0875
3.4375 0.8125 4.15
3.4375 0.875 4.0875
3.4375 0.8125 4.0875
3.625 0.8125 4.15
3.625 0.875 4.0875
3.5625 0.875 4.15
3.625 0.8125 4.0875
3.5625 0.8125 4.15
3.5625 0.875 4.0875
3.5625 0.8125 4.0875
3.75 0.8125 4.15
3.75 0.875 4.0875
3.6875 0.875 4.15
3.75 0.8125 4.0875
3.6875 0.8125 4.15
3.6875 0.875 4.0875
3.6875 0.8125 4.0875
3.875 0.8125 4.15
3.875 0.875 4.0875
3.8125 0.875 4.15
3.875 0.8125 4.0875
3.8125 0.8125 4.15
3.8125 0.875 4.0875
3.8125 0.8125 4.0875
4 0.8125 4.15
4 0.875 4.0875
3.9375 0.875 4.15
4 0.8125 4.0875
3.9375 0.8125 4.15
3.9375 0.875 4.0875
3.9375 0.8125 4.0875
0.125 0.9375 4.15
0 0.9375 4.15
0.125 1 4.0875
0.0625 1 4.15
0 1 4.0875
0.125 0.9375 4.0875
0.0625 0.9375 4.15
0 0.9375 4.0875
0.0625 1 4.0875
0.0625 0.9375 4.0875
0.25 0.9375 4.15
0.25 1 4.0875
0.1875 1 4.15
0.25 0.9375 4.0875
0.1875 0.9375 4.15
0.1875 1 4.0875
0.1875 0.9375 4.0875
0.375 0.9375 4.15
0.375 1 4.0875
0.3125 1 4.15
0.375 0.9375 4.0875
0.3125 0.9375 4.15
0.3125 1 4.0875
0.3125 0.9375 4.0875
0.5 0.9375 4.15
0.5 1 4.0875
0.4375 1 4.15
0.5 0.9375 4.0875
0.4375 0.9375 4.15
0.4375 1 4.0875
0.4375 0.9375 4.0875
0.625 0.9375 4.15
0.625 1 4.0875
0.5625 1 4.15
0.625 0.9375 4.0875
0.5625 0.9375 4.15
0.5625 1 4.0875
0.5625 0.9375 4.0875
0.75 0.9375 4.15
0.75 1 4.0875
0.6875 1 4.15
0.75 0.9375 4.0875
0.6875 0.9375 4.15
0.6875 1 4.0875
0.6875 0.9375 4.0875
0.875 0.9375 4.15
0.875 1 4.0875
0.8125 1 4.15
0.875 0.9375 4.0875
0.8125 0.9375 4.15
0.8125 1 4.0875
0.8125 0.9375 4.0875
1 0.9375 4.15
1 1 4.0875
0.9375 1 4.15
1 0.9375 4.0875
0.9375 0.9375 4.15
0.9375 1 4.0875
0.9375 0.9375 4.0875
1.125 0.9375 4.15
1.125 1 4.0875
1.0625 1 4.15
1.125 0.9375 4.0875
1.0625 0.9375 4.15
1.0625 1 4.0875
1.0625 0.9375 4.0875
1.25 0.9375 4.15
1.25 1 4.0875
1.1875 1 4.15
1.25 0.9375 4.0875
1.1875 0.9375 4.15
1.1875 1 4.0875
1.1875 0.9375 4.0875
1.375 0.9375 4.15
1.375 1 4.0875
1.3125 1 4.15
1.375 0.9375 4.0875
1.3125 0.9375 4.15
1.3125 1 4.0875
1.3125 0.9375 4.0875
1.5 0.9375 4.15
1.5 1 4.0875
1.4375 1 4.15
1.5 0.9375 4.0875
1.4375 0.9375 4.15
1.4375 1 4.0875
1.4375 0.9375 4.0875
1.625 0.9375 4.15
1.625 1 4.0875
1.5625 1 4.15
1.625 0.9375 4.0875
1.5625 0.9375 4.15
1.5625 1 4.0875
1.5625 0.9375 4.0875
1.75 0.9375 4.15
1.75 1 4.0875
1.6875 1 4.15
1.75 0.9375 4.0875
1.6875 0.9375 4.15
1.6875 1 4.0875
1.6875 0.9375 4.0875
1.875 0.9375 4.15
1.875 1 4.0875
1.8125 1 4.15
1.875 0.9375 4.0875
1.8125 0.9375 4.15
1.8125 1 4.0875
1.8125 0.9375 4.0875
2 0.9375 4.15
2 1 4.0875
1.9375 1 4.15
2 0.9375 4.0875
1.9375 0.9375 4.15
1.9375 1 4.0875
1.9375 0.9375 4.0875
2.125 0.9375 4.15
2.125 1 4.0875
2.0625 1 4.15
2.125 0.9375 4.0875
2.0625 0.9375 4.15
2.0625 1 4.0875
2.0625 0.9375 4.0875
2.25 0.9375 4.15
2.25 1 4.0875
2.1875 1 4.15
2.25 0.9375 4.0875
2.1875 0.9375 4.15
2.1875 1 4.0875
2.1875 0.9375 4.0875
2.375 0.9375 4.15
2.375 1 4.0875
2.3125 1 4.15
2.375 0.9375 4.0875
2.3125 0.9375 4.15
2.3125 1 4.0875
2.3125 0.9375 4.0875
2.5 0.9375 4.15
2.5 1 4.0875
2.4375 1 4.15
2.5 0.9375 4.0875
2.4375 0.9375 4.15
2.4375 1 4.0875
2.4375 0.9375 4.0875
2.625 0.9375 4.15
2.625 1 4.0875
2.5625 1 4.15
2.625 0.9375 4.0875
2.5625 0.9375 4.15
2.5625 1 4.0875
2.5625 0.9375 4.0875
2.75 0.9375 4.15
2.75 1 4.0875
2.6875 1 4.15
2.75 0.9375 4.0875
2.6875 0.9375 4.15
2.6875 1 4.0875
2.6875 0.9375 4.0875
2.875 0.9375 4.15
2.875 1 4.0875
2.8125 1 4.15
2.875 0.9375 4.0875
2.8125 0.9375 4.15
2.8125 1 4.0875
2.8125 0.9375 4.0875
3 0.9375 4.15
3 1 4.0875
2.9375 1 4.15
3 0.9375 4.0875
2.9375 0.9375 4.15
2.9375 1 4.0875
2.9375 0.9375 4.0875
3.125 0.9375 4.15
3.125 1 4.0875
3.0625 1 4.15
3.125 0.9375 4.0875
3.0625 0.9375 4.15
3.0625 1 4.0875
3.0625 0.9375 4.0875
3.25 0.9375 4.15
3.25 1 4.0875
3.1875 1 4.15
3.25 0.9375 4.0875
3.1875 0.9375 4.15
3.1875 1 4.0875
3.1875 0.9375 4.0875
3.375 0.9375 4.15
3.375 1 4.0875
3.3125 1 4.15
3.375 0.9375 4.0875
3.3125 0.9375 4.15
3.3125 1 4.0875
3.3125 0.9375 4.0875
3.5 0.9375 4.15
3.5 1 4.0875
3.4375 1 4.15
3.5 0.9375 4.0875
3.4375 0.9375 4.15
3.4375 1 4.0875
3.4375 0.9375 4.0875
3.625 0.9375 4.15
3.625 1 4.0875
3.5625 1 4.15
3.625 0.9375 4.0875
3.5625 0.9375 4.15
3.5625 1 4.0875
3.5625 0.9375 4.0875
3.75 0.9375 4.15
3.75 1 4.0875
3.6875 1 4.15
3.75 0.9375 4.0875
3.6875 0.9375 4.15
3.6875 1 4.0875
3.6875 0.9375 4.0875
3.875 0.9375 4.15
3.875 1 4.0875
3.8125 1 4.15
3.875 0.9375 4.0875
3.8125 0.9375 4.15
3.8125 1 4.0875
3.8125 0.9375 4.0875
4 0.9375 4.15
4 1 4.0875
3.9375 1 4.15
4 0.9375 4.0875
3.9375 0.9375 4.15
3.9375 1 4.0875
3.9375 0.9375 4.0875
0.125 0 4.2125
0.0625 0 4.275
0 0 4.2125
0.125 0.0625 4.275
0 0.0625 4.275
0.125 0.125 4.2125
0.0625 0.125 4.275
0 0.125 4.2125
0.0625 0 4.2125
0.125 0.0625 4.2125
0.0625 0.0625 4.275
0 0.0625 4.2125
0.0625 0.125 4.2125
0.0625 0.0625 4.2125
0.25 0 4.2125
0.1875 0 4.275
0.25 0.0625 4.275
0.25 0.125 4.2125
0.1875 0.125 4.275
0.1875 0 4.2125
0.25 0.0625 4.2125
0.1875 0.0625 4.275
0.1875 0.125 4.2125
0.1875 0.0625 4.2125
0.375 0 4.2125
0.3125 0 4.275
0.375 0.0625 4.275
0.375 0.125 4.2125
0.3125 0.125 4.275
0.3125 0 4.2125
0.375 0.0625 4.2125
0.3125 0.0625 4.275
0.3125 0.125 4.2125
0.3125 0.0625 4.2125
0.5 0 4.2125
0.4375 0 4.275
0.5 0.0625 4.275
0.5 0.125 4.2125
0.4375 0.125 4.275
0.4375 0 4.2125
0.5 0.0625 4.2125
0.4375 0.0625 4.275
0.4375 0.125 4.2125
0.4375 0.0625 4.2125
0.625 0 4.2125
0.5625 0 4.275
0.625 0.0625 4.275
0.625 0.125 4.2125
0.5625 0.125 4.275
0.5625 0 4.2125
0.625 0.0625 4.2125
0.5625 0.0625 4.275
0.5625 0.125 4.2125
0.5625 0.0625 4.2125
0.75 0 4.2125
0.6875 0 4.275
0.75 0.0625 4.275
0.75 0.125 4.2125
0.6875 0.125 4.275
0.6875 0 4.2125
0.75 0.0625 4.2125
0.6875 0.0625 4.275
0.6875 0.125 4.2125
0.6875 0.0625 4.2125
0.875 0 4.2125
0.8125 0 4.275
0.875 0.0625 4.275
0.875 0.125 4.2125
0.8125 0.125 4.275
0.8125 0 4.2125
0.875 0.0625 4.2125
0.8125 0.0625 4.275
0.8125 0.125 4.2125
0.8125 0.0625 4.2125
1 0 4.2125
0.9375 0 4.275
1 0.0625 4.275
1 0.125 4.2125
0.9375 0.125 4.275
0.9375 0 4.2125
1 0.0625 4.2125
0.9375 0.0625 4.275
0.9375 0.125 4.2125
0.9375 0.0625 4.2125
1.125 0 4.2125
1.0625 0 4.275
1.125 0.0625 4.275
1.125 0.125 4.2125
1.0625 0.125 4.275
1.0625 0 4.2125
1.125 0.0625 4.2125
1.0625 0.0625 4.275
1.0625 0.125 4.2125
1.0625 0.0625 4.2125
1.25 0 4.2125
1.1875 0 4.275
1.25 0.0625 4.275
1.25 0.125 4.2125
1.1875 0.125 4.275
1.1875 0 4.2125
1.25 0.0625 4.2125
1.1875 0.0625 4.275
1.1875 0.125 4.2125
1.1875 0.0625 4.2125
1.375 0 4.2125
1.3125 0 4.275
1.375 0.0625 4.275
1.375 0.125 4.2125
1.3125 0.125 4.275
1.3125 0 4.2125
1.375 0.0625 4.2125
1.3125 0.0625 4.275
1.3125 0.125 4.2125
1.3125 0.0625 4.2125
1.5 0 4.2125
1.4375 0 4.275
1.5 0.0625 4.275
1.5 0.125 4.2125
1.4375 0.125 4.275
1.4375 0 4.2125
1.5 0.0625 4.2125
1.4375 0.0625 4.275
1.4375 0.125 4.2125
1.4375 0.0625 4.2125
1.625 0 4.2125
1.5625 0 4.275
1.625 0.0625 4.275
1.625 0.125 4.2125
1.5625 0.125 4.275
1.5625 0 4.2125
1.625 0.0625 4.2125
1.5625 0.0625 4.275
1.5625 0.125 4.2125
1.5625 0.0625 4.2125
1.75 0 4.2125
1.6875 0 4.275
1.75 0.0625 4.275
1.75 0.125 4.2125
1.6875 0.125 4.275
1.6875 0 4.2125
1.75 0.0625 4.2125
1.6875 0.0625 4.275
1.6875 0.125 4.2125
1.6875 0.0625 4.2125
1.875 0 4.2125
1.8125 0 4.275
1.875 0.0625 4.275
1.875 0.125 4.2125
1.8125 0.125 4.275
1.8125 0 4.2125
1.875 0.0625 4.2125
1.8125 0.0625 4.275
1.8125 0.125 4.2125
1.8125 0.0625 4.2125
2 0 4.2125
1.9375 0 4.275
2 0.0625 4.275
2 0.125 4.2125
1.9375 0.125 4.275
1.9375 0 4.2125
2 0.0625 4.2125
1.9375 0.0625 4.275
1.9375 0.125 4.2125
1.9375 0.0625 4.2125
2.125 0 4.2125
2.0625 0 4.275
2.125 0.0625 4.275
2.125 0.125 4.2125
2.0625 0.125 4.275
2.0625 0 4.2125
2.125 0.0625 4.2125
2.0625 0.0625 4.275
2.0625 0.125 4.2125
2.0625 0.0625 4.2125
2.25 0 4.2125
2.1875 0 4.275
2.25 0.0625 4.275
2.25 0.125 4.2125
2.1875 0.125 4.275
2.1875 0 4.2125
2.25 0.0625 4.2125
2.1875 0.0625 4.275
2.1875 0.125 4.2125
2.1875 0.0625 4.2125
2.375 0 4.2125
2.3125 0 4.275
2.375 0.0625 4.275
2.375 0.125 4.2125
2.3125 0.125 4.275
2.3125 0 4.2125
2.375 0.0625 4.2125
2.3125 0.0625 4.275
2.3125 0.125 4.2125
2.3125 0.0625 4.2125
2.5 0 4.2125
2.4375 0 4.275
2.5 0.0625 4.275
2.5 0.125 4.2125
2.4375 0.125 4.275
2.4375 0 4.2125
2.5 0.0625 4.2125
2.4375 0.0625 4.275
2.4375 0.125 4.2125
2.4375 0.0625 4.2125
2.625 0 4.2125
2.5625 0 4.275
2.625 0.0625 4.275
2.625 0.125 4.2125
2.5625 0.125 4.275
2.5625 0 4.2125
2.625 0.0625 4.2125
2.5625 0.0625 4.275
2.5625 0.125 4.2125
2.5625 0.0625 4.2125
2.75 0 4.2125
2.6875 0 4.275
2.75 0.0625 4.275
2.75 0.125 4.2125
2.6875 0.125 4.275
2.6875 0 4.2125
2.75 0.0625 4.2125
2.6875 0.0625 4.275
2.6875 0.125 4.2125
2.6875 0.0625 4.2125
2.875 0 4.2125
2.8125 0 4.275
2.875 0.0625 4.275
2.875 0.125 4.2125
2.8125 0.125 4.275
2.8125 0 4.2125
2.875 0.0625 4.2125
2.8125 0.0625 4.275
2.8125 0.125 4.2125
2.8125 0.0625 4.2125
3 0 4.2125
2.9375 0 4.275
3 0.0625 4.275
3 0.125 4.2125
2.9375 0.125 4.275
2.9375 0 4.2125
3 0.0625 4.2125
2.9375 0.0625 4.275
2.9375 0.125 4.2125
2.9375 0.0625 4.2125
3.125 0 4.2125
3.0625 0 4.275
3.125 0.0625 4.275
3.125 0.125 4.2125
3.0625 0.125 4.275
3.0625 0 4.2125
3.125 0.0625 4.2125
3.0625 0.0625 4.275
3.0625 0.125 4.2125
3.0625 0.0625 4.2125
3.25 0 4.2125
3.1875 0 4.275
3.25 0.0625 4.275
3.25 0.125 4.2125
3.1875 0.125 4.275
3.1875 0 4.2125
3.25 0.0625 4.2125
3.1875 0.0625 4.275
3.1875 0.125 4.2125
3.1875 0.0625 4.2125
3.375 0 4.2125
3.3125 0 4.275
3.375 0.0625 4.275
3.375 0.125 4.2125
3.3125 0.125 4.275
3.3125 0 4.2125
3.375 0.0625 4.2125
3.3125 0.0625 4.275
3.3125 0.125 4.2125
3.3125 0.0625 4.2125
3.5 0 4.2125
3.4375 0 4.275
3.5 0.0625 4.275
3.5 0.125 4.2125
3.4375 0.125 4.275
3.4375 0 4.2125
3.5 0.0625 4.2125
3.4375 0.0625 4.275
3.4375 0.125 4.2125
3.4375 0.0625 4.2125
3.625 0 4.2125
3.5625 0 4.275
3.625 0.0625 4.275
3.625 0.125 4.2125
3.5625 0.125 4.275
3.5625 0 4.2125
3.625 0.0625 4.2125
3.5625 0.0625 4.275
3.5625 0.125 4.2125
3.5625 0.0625 4.2125
3.75 0 4.2125
3.6875 0 4.275
3.75 0.0625 4.275
3.75 0.125 4.2125
3.6875 0.125 4.275
3.6875 0 4.2125
3.75 0.0625 4.2125
3.6875 0.0625 4.275
3.6875 0.125 4.2125
3.6875 0.0625 4.2125
3.875 0 4.2125
3.8125 0 4.275
3.875 0.0625 4.275
3.875 0.125 4.2125
3.8125 0.125 4.275
3.8125 0 4.2125
3.875 0.0625 4.2125
3.8125 0.0625 4.275
3.8125 0.125 4.2125
3.8125 0.0625 4.2125
4 0 4.2125
3.9375 0 4.275
4 0.0625 4.275
4 0.125 4.2125
3.9375 0.125 4.275
3.9375 0 4.2125
4 0.0625 4.2125
3.9375 0.0625 4.275
3.9375 0.125 4.2125
3.9375 0.0625 4.2125
0.125 0.1875 4.275
0 0.1875 4.275
0.125 0.25 4.2125
0.0625 0.25 4.275
0 0.25 4.2125
0.125 0.1875 4.2125
0.0625 0.1875 4.275
0 0.1875 4.2125
0.0625 0.25 4.2125
0.0625 0.1875 4.2125
0.25 0.1875 4.275
0.25 0.25 4.2125
0.1875 0.25 4.275
0.25 0.1875 4.2125
0.1875 0.1875 4.275
0.1875 0.25 4.2125
0.1875 0.1875 4.2125
0.375 0.1875 4.275
0.375 0.25 4.2125
0.3125 0.25 4.275
0.375 0.1875 4.2125
0.3125 0.1875 4.275
0.3125 0.25 4.2125
0.3125 0.1875 4.2125
0.5 0.1875 4.275
0.5 0.25 4.2125
0.4375 0.25 4.275
0.5 0.1875 4.2125
0.4375 0.1875 4.275
0.4375 0.25 4.2125
0.4375 0.1875 4.2125
0.625 0.1875 4.275
0.625 0.25 4.2125
0.5625 0.25 4.275
0.625 0.1875 4.2125
0.5625 0.1875 4.275
0.5625 0.25 4.2125
0.5625 0.1875 4.2125
0.75 0.1875 4.275
0.75 0.25 4.2125
0.6875 0.25 4.275
0.75 0.1875 4.2125
0.6875 0.1875 4.275
0.6875 0.25 4.2125
0.6875 0.1875 4.2125
0.875 0.1875 4.275
0.875 0.25 4.2125
0.8125 0.25 4.275
0.875 0.1875 4.2125
0.8125 0.1875 4.275
0.8125 0.25 4.2125
0.8125 0.1875 4.2125
1 0.1875 4.275
1 0.25 4.2125
0.9375 0.25 4.275
1 0.1875 4.2125
0.9375 0.1875 4.275
0.9375 0.25 4.2125
0.9375 0.1875 4.2125
1.125 0.1875 4.275
1.125 0.25 4.2125
1.0625 0.25 4.275
1.125 0.1875 4.2125
1.0625 0.1875 4.275
1.0625 0.25 4.2125
1.0625 0.1875 4.2125
1.25 0.1875 4.275
1.25 0.25 4.2125
1.1875 0.25 4.275
1.25 0.1875 4.2125
1.1875 0.1875 4.275
1.1875 0.25 4.2125
1.1875 0.1875 4.2125
1.375 0.1875 4.275
1.375 0.25 4.2125
1.3125 0.25 4.275
1.375 0.1875 4.2125
1.3125 0.1875 4.275
1.3125 0.25 4.2125
1.3125 0.1875 4.2125
1.5 0.1875 4.275
1.5 0.25 4.2125
1.4375 0.25 4.275
1.5 0.1875 4.2125
1.4375 0.1875 4.275
1.4375 0.25 4.2125
1.4375 0.1875 4.2125
1.625 0.1875 4.275
1.625 0.25 4.2125
1.5625 0.25 4.275
1.625 0.1875 4.2125
1.5625 0.1875 4.275
1.5625 0.25 4.2125
1.5625 0.1875 4.2125
1.75 0.1875 4.275
1.75 0.25 4.2125
1.6875 0.25 4.275
1.75 0.1875 4.2125
1.6875 0.1875 4.275
1.6875 0.25 4.2125
1.6875 0.1875 4.2125
1.875 0.1875 4.275
1.875 0.25 4.2125
1.8125 0.25 4.275
1.875 0.1875 4.2125
1.8125 0.1875 4.275
1.8125 0.25 4.2125
1.8125 0.1875 4.2125
2 0.1875 4.275
2 0.25 4.2125
1.9375 0.25 4.275
2 0.1875 4.2125
1.9375 0.1875 4.275
1.9375 0.25 4.2125
1.9375 0.1875 4.2125
2.125 0.1875 4.275
2.125 0.25 4.2125
2.0625 0.25 4.275
2.125 0.1875 4.2125
2.0625 0.1875 4.275
2.0625 0.25 4.2125
2.0625 0.1875 4.2125
2.25 0.1875 4.275
2.25 0.25 4.2125
2.1875 0.25 4.275
2.25 0.1875 4.2125
2.1875 0.1875 4.275
2.1875 0.25 4.2125
2.1875 0.1875 4.2125
2.375 0.1875 4.275
2.375 0.25 4.2125
2.3125 0.25 4.275
2.375 0.1875 4.2125
2.3125 0.1875 4.275
2.3125 0.25 4.2125
2.3125 0.1875 4.2125
2.5 0.1875 4.275
2.5 0.25 4.2125
2.4375 0.25 4.275
2.5 0.1875 4.2125
2.4375 0.1875 4.275
2.4375 0.25 4.2125
2.4375 0.1875 4.2125
2.625 0.1875 4.275
2.625 0.25 4.2125
2.5625 0.25 4.275
2.625 0.1875 4.2125
2.5625 0.1875 4.275
2.5625 0.25 4.2125
2.5625 0.1875 4.2125
2.75 0.1875 4.275
2.75 0.25 4.2125
2.6875 0.25 4.275
2.75 0.1875 4.2125
2.6875 0.1875 4.275
2.6875 0.25 4.2125
2.6875 0.1875 4.2125
2.875 0.1875 4.275
2.875 0.25 4.2125
2.8125 0.25 4.275
2.875 0.1875 4.2125
2.8125 0.1875 4.275
2.8125 0.25 4.2125
2.8125 0.1875 4.2125
3 0.1875 4.275
3 0.25 4.2125
2.9375 0.25 4.275
3 0.1875 4.2125
2.9375 0.1875 4.275
2.9375 0.25 4.2125
2.9375 0.1875 4.2125
3.125 0.1875 4.275
3.125 0.25 4.2125
3.0625 0.25 4.275
3.125 0.1875 4.2125
3.0625 0.1875 4.275
3.0625 0.25 4.2125
3.0625 0.1875 4.2125
3.25 0.1875 4.275
3.25 0.25 4.2125
3.1875 0.25 4.275
3.25 0.1875 4.2125
3.1875 0.1875 4.275
3.1875 0.25 4.2125
3.1875 0.1875 4.2125
3.375 0.1875 4.275
3.375 0.25 4.2125
3.3125 0.25 4.275
3.375 0.1875 4.2125
3.3125 0.1875 4.275
3.3125 0.25 4.2125
3.3125 0.1875 4.2125
3.5 0.1875 4.275
3.5 0.25 4.2125
3.4375 0.25 4.275
3.5 0.1875 4.2125
3.4375 0.1875 4.275
3.4375 0.25 4.2125
3.4375 0.1875 4.2125
3.625 0.1875 4.275
3.625 0.25 4.2125
3.5625 0.25 4.275
3.625 0.1875 4.2125
3.5625 0.1875 4.275
3.5625 0.25 4.2125
3.5625 0.1875 4.2125
3.75 0.1875 4.275
3.75 0.25 4.2125
3.6875 0.25 4.275
3.75 0.1875 4.2125
3.6875 0.1875 4.275
3.6875 0.25 4.2125
3.6875 0.1875 4.2125
3.875 0.1875 4.275
3.875 0.25 4.2125
3.8125 0.25 4.275
3.875 0.1875 4.2125
3.8125 0.1875 4.275
3.8125 0.25 4.2125
3.8125 0.1875 4.2125
4 0.1875 4.275
4 0.25 4.2125
3.9375 0.25 4.275
4 0.1875 4.2125
3.9375 0.1875 4.275
3.9375 0.25 4.2125
3.9375 0.1875 4.2125
0.125 0.3125 4.275
0 0.3125 4.275
0.125 0.375 4.2125
0.0625 0.375 4.275
0 0.375 4.2125
0.125 0.3125 4.2125
0.0625 0.3125 4.275
0 0.3125 4.2125
0.0625 0.375 4.2125
0.0625 0.3125 4.2125
0.25 0.3125 4.275
0.25 0.375 4.2125
0.1875 0.375 4.275
0.25 0.3125 4.2125
0.1875 0.3125 4.275
0.1875 0.375 4.2125
0.1875 0.3125 4.2125
0.375 0.3125 4.275
0.375 0.375 4.2125
0.3125 0.375 4.275
0.375 0.3125 4.2125
0.3125 0.3125 4.275
0.3125 0.375 4.2125
0.3125 0.3125 4.2125
0.5 0.3125 4.275
0.5 0.375 4.2125
0.4375 0.375 4.275
0.5 0.3125 4.2125
0.4375 0.3125 4.275
0.4375 0.375 4.2125
0.4375 0.3125 4.2125
0.625 0.3125 4.275
0.625 0.375 4.2125
0.5625 0.375 4.275
0.625 0.3125 4.2125
0.5625 0.3125 4.275
0.5625 0.375 4.2125
0.5625 0.3125 4.2125
0.75 0.3125 4.275
0.75 0.375 4.2125
0.6875 0.375 4.275
0.75 0.3125 4.2125
0.6875 0.3125 4.275
0.6875 0.375 4.2125
0.6875 0.3125 4.2125
0.875 0.3125 4.275
0.875 0.375 4.2125
0.8125 0.375 4.275
0.875 0.3125 4.2125
0.8125 0.3125 4.275
0.8125 0.375 4.2125
0.8125 0.3125 4.2125
1 0.3125 4.275
1 0.375 4.2125
0.9375 0.375 4.275
1 0.3125 4.2125
0.9375 0.3125 4.275
0.9375 0.375 4.2125
0.9375 0.3125 4.2125
1.125 0.3125 4.275
1.125 0.375 4.2125
1.0625 0.375 4.275
1.125 0.3125 4.2125
1.0625 0.3125 4.275
1.0625 0.375 4.2125
1.0625 0.3125 4.2125
1.25 0.3125 4.275
1.25 0.375 4.2125
1.1875 0.375 4.275
1.25 0.3125 4.2125
1.1875 0.3125 4.275
1.1875 0.375 4.2125
1.1875 0.3125 4.2125
1.375 0.3125 4.275
1.375 0.375 4.2125
1.3125 0.375 4.275
1.375 0.3125 4.2125
1.3125 0.3125 4.275
1.3125 0.375 4.2125
1.3125 0.3125 4.2125
1.5 0.3125 4.275
1.5 0.375 4.2125
1.4375 0.375 4.275
1.5 0.3125 4.2125
1.4375 0.3125 4.275
1.4375 0.375 4.2125
1.4375 0.3125 4.2125
1.625 0.3125 4.275
1.625 0.375 4.2125
1.5625 0.375 4.275
1.625 0.3125 4.2125
1.5625 0.3125 4.275
1.5625 0.375 4.2125
1.5625 0.3125 4.2125
1.75 0.3125 4.275
1.75 0.375 4.2125
1.6875 0.375 4.275
1.75 0.3125 4.2125
1.6875 0.3125 4.275
1.6875 0.375 4.2125
1.6875 0.3125 4.2125
1.875 0.3125 4.275
1.875 0.375 4.2125
1.8125 0.375 4.275
1.875 0.3125 4.2125
1.8125 0.3125 4.275
1.8125 0.375 4.2125
1.8125 0.3125 4.2125
2 0.3125 4.275
2 0.375 4.2125
1.9375 0.375 4.275
2 0.3125 4.2125
1.9375 0.3125 4.275
1.9375 0.375 4.2125
1.9375 0.3125 4.2125
2.125 0.3125 4.275
2.125 0.375 4.2125
2.0625 0.375 4.275
2.125 0.3125 4.2125
2.0625 0.3125 4.275
2.0625 0.375 4.2125
2.0625 0.3125 4.2125
2.25 0.3125 4.275
2.25 0.375 4.2125
2.1875 0.375 4.275
2.25 0.3125 4.2125
2.1875 0.3125 4.275
2.1875 0.375 4.2125
2.1875 0.3125 4.2125
2.375 0.3125 4.275
2.375 0.375 4.2125
2.3125 0.375 4.275
2.375 0.3125 4.2125
2.3125 0.3125 4.275
2.3125 0.375 4.2125
2.3125 0.3125 4.2125
2.5 0.3125 4.275
2.5 0.375 4.2125
2.4375 0.375 4.275
2.5 0.3125 4.2125
2.4375 0.3125 4.275
2.4375 0.375 4.2125
2.4375 0.3125 4.2125
2.625 0.3125 4.275
2.625 0.375 4.2125
2.5625 0.375 4.275
2.625 0.3125 4.2125
2.5625 0.3125 4.275
2.5625 0.375 4.2125
2.5625 0.3125 4.2125
2.75 0.3125 4.275
2.75 0.375 4.2125
2.6875 0.375 4.275
2.75 0.3125 4.2125
2.6875 0.3125 4.275
2.6875 0.375 4.2125
2.6875 0.3125 4.2125
2.875 0.3125 4.275
2.875 0.375 4.2125
2.8125 0.375 4.275
2.875 0.3125 4.2125
2.8125 0.3125 4.275
2.8125 0.375 4.2125
2.8125 0.3125 4.2125
3 0.3125 4.275
3 0.375 4.2125
2.9375 0.375 4.275
3 0.3125 4.2125
2.9375 0.3125 4.275
2.9375 0.375 4.2125
2.9375 0.3125 4.2125
3.125 0.3125 4.275
3.125 0.375 4.2125
3.0625 0.375 4.275
3.125 0.3125 4.2125
3.0625 0.3125 4.275
3.0625 0.375 4.2125
3.0625 0.3125 4.2125
3.25 0.3125 4.275
3.25 0.375 4.2125
3.1875 0.375 4.275
3.25 0.3125 4.2125
3.1875 0.3125 4.275
3.1875 0.375 4.2125
3.1875 0.3125 4.2125
3.375 0.3125 4.275
3.375 0.375 4.2125
3.3125 0.375 4.275
3.375 0.3125 4.2125
3.3125 0.3125 4.275
3.3125 0.375 4.2125
3.3125 0.3125 4.2125
3.5 0.3125 4.275
3.5 0.375 4.2125
3.4375 0.375 4.275
3.5 0.3125 4.2125
3.4375 0.3125 4.275
3.4375 0.375 4.2125
3.4375 0.3125 4.2125
3.625 0.3125 4.275
3.625 0.375 4.2125
3.5625 0.375 4.275
3.625 0.3125 4.2125
3.5625 0.3125 4.275
3.5625 0.375 4.2125
3.5625 0.3125 4.2125
3.75 0.3125 4.275
3.75 0.375 4.2125
3.6875 0.375 4.275
3.75 0.3125 4.2125
3.6875 0.3125 4.275
3.6875 0.375 4.2125
3.6875 0.3125 4.2125
3.875 0.3125 4.275
3.875 0.375 4.2125
3.8125 0.375 4.275
3.875 0.3125 4.2125
3.8125 0.3125 4.275
3.8125 0.375 4.2125
3.8125 0.3125 4.2125
4 0.3125 4.275
4 0.375 4.2125
3.9375 0.375 4.275
4 0.3125 4.2125
3.9375 0.3125 4.275
3.9375 0.375 4.2125
3.9375 0.3125 4.2125
0.125 0.4375 4.275
0 0.4375 4.275
0.125 0.5 4.2125
0.0625 0.5 4.275
0 0.5 4.2125
0.125 0.4375 4.2125
0.0625 0.4375 4.275
0 0.4375 4.2125
0.0625 0.5 4.2125
0.0625 0.4375 4.2125
0.25 0.4375 4.275
0.25 0.5 4.2125
0.1875 0.5 4.275
0.25 0.4375 4.2125
0.1875 0.4375 4.275
0.1875 0.5 4.2125
0.1875 0.4375 4.2125
0.375 0.4375 4.275
0.375 0.5 4.2125
0.3125 0.5 4.275
0.375 0.4375 4.2125
0.3125 0.4375 4.275
0.3125 0.5 4.2125
0.3125 0.4375 4.2125
0.5 0.4375 4.275
0.5 0.5 4.2125
0.4375 0.5 4.275
0.5 0.4375 4.2125
0.4375 0.4375 4.275
0.4375 0.5 4.2125
0.4375 0.4375 4.2125
0.625 0.4375 4.275
0.625 0.5 4.2125
0.5625 0.5 4.275
0.625 0.4375 4.2125
0.5625 0.4375 4.275
0.5625 0.5 4.2125
0.5625 0.4375 4.2125
0.75 0.4375 4.275
0.75 0.5 4.2125
0.6875 0.5 4.275
0.75 0.4375 4.2125
0.6875 0.4375 4.275
0.6875 0.5 4.2125
0.6875 0.4375 4.2125
0.875 0.4375 4.275
0.875 0.5 4.2125
0.8125 0.5 4.275
0.875 0.4375 4.2125
0.8125 0.4375 4.275
0.8125 0.5 4.2125
0.8125 0.4375 4.2125
1 0.4375 4.275
1 0.5 4.2125
0.9375 0.5 4.275
1 0.4375 4.2125
0.9375 0.4375 4.275
0.9375 0.5 4.2125
0.9375 0.4375 4.2125
1.125 0.4375 4.275
1.125 0.5 4.2125
1.0625 0.5 4.275
1.125 0.4375 4.2125
1.0625 0.4375 4.275
1.0625 0.5 4.2125
1.0625 0.4375 4.2125
1.25 0.4375 4.275
1.25 0.5 4.2125
1.1875 0.5 4.275
1.25 0.4375 4.2125
1.1875 0.4375 4.275
1.1875 0.5 4.2125
1.1875 0.4375 4.2125
1.375 0.4375 4.275
1.375 0.5 4.2125
1.3125 0.5 4.275
1.375 0.4375 4.2125
1.3125 0.4375 4.275
1.3125 0.5 4.2125
1.3125 0.4375 4.2125
1.5 0.4375 4.275
1.5 0.5 4.2125
1.4375 0.5 4.275
1.5 0.4375 4.2125
1.4375 0.4375 4.275
1.4375 0.5 4.2125
1.4375 0.4375 4.2125
1.625 0.4375 4.275
1.625 0.5 4.2125
1.5625 0.5 4.275
1.625 0.4375 4.2125
1.5625 0.4375 4.275
1.5625 0.5 4.2125
1.5625 0.4375 4.2125
1.75 0.4375 4.275
1.75 0.5 4.2125
1.6875 0.5 4.275
1.75 0.4375 4.2125
1.6875 0.4375 4.275
1.6875 0.5 4.2125
1.6875 0.4375 4.2125
1.875 0.4375 4.275
1.875 0.5 4.2125
1.8125 0.5 4.275
1.875 0.4375 4.2125
1.8125 0.4375 4.275
1.8125 0.5 4.2125
1.8125 0.4375 4.2125
2 0.4375 4.275
2 0.5 4.2125
1.9375 0.5 4.275
2 0.4375 4.2125
1.9375 0.4375 4.275
1.9375 0.5 4.2125
1.9375 0.4375 4.2125
2.125 0.4375 4.275
2.125 0.5 4.2125
2.0625 0.5 4.275
2.125 0.4375 4.2125
2.0625 0.4375 4.275
2.0625 0.5 4.2125
2.0625 0.4375 4.2125
2.25 0.4375 4.275
2.25 0.5 4.2125
2.1875 0.5 4.275
2.25 0.4375 4.2125
2.1875 0.4375 4.275
2.1875 0.5 4.2125
2.1875 0.4375 4.2125
2.375 0.4375 4.275
2.375 0.5 4.2125
2.3125 0.5 4.275
2.375 0.4375 4.2125
2.3125 0.4375 4.275
2.3125 0.5 4.2125
2.3125 0.4375 4.2125
2.5 0.4375 4.275
2.5 0.5 4.2125
2.4375 0.5 4.275
2.5 0.4375 4.2125
2.4375 0.4375 4.275
2.4375 0.5 4.2125
2.4375 0.4375 4.2125
2.625 0.4375 4.275
2.625 0.5 4.2125
2.5625 0.5 4.275
2.625 0.4375 4.2125
2.5625 0.4375 4.275
2.5625 0.5 4.2125
2.5625 0.4375 4.2125
2.75 0.4375 4.275
2.75 0.5 4.2125
2.6875 0.5 4.275
2.75 0.4375 4.2125
2.6875 0.4375 4.275
2.6875 0.5 4.2125
2.6875 0.4375 4.2125
2.875 0.4375 4.275
2.875 0.5 4.2125
2.8125 0.5 4.275
2.875 0.4375 4.2125
2.8125 0.4375 4.275
2.8125 0.5 4.2125
2.8125 0.4375 4.2125
3 0.4375 4.275
3 0.5 4.2125
2.9375 0.5 4.275
3 0.4375 4.2125
2.9375 0.4375 4.275
2.9375 0.5 4.2125
2.9375 0.4375 4.2125
3.125 0.4375 4.275
3.125 0.5 4.2125
3.0625 0.5 4.275
3.125 0.4375 4.2125
3.0625 0.4375 4.275
3.0625 0.5 4.2125
3.0625 0.4375 4.2125
3.25 0.4375 4.275
3.25 0.5 4.2125
3.1875 0.5 4.275
3.25 0.4375 4.2125
3.1875 0.4375 4.275
3.1875 0.5 4.2125
3.1875 0.4375 4.2125
3.375 0.4375 4.275
3.375 0.5 4.2125
3.3125 0.5 4.275
3.375 0.4375 4.2125
3.3125 0.4375 4.275
3.3125 0.5 4.2125
3.3125 0.4375 4.2125
3.5 0.4375 4.275
3.5 0.5 4.2125
3.4375 0.5 4.275
3.5 0.4375 4.2125
3.4375 0.4375 4.275
3.4375 0.5 4.2125
3.4375 0.4375 4.2125
3.625 0.4375 4.275
3.625 0.5 4.2125
3.5625 0.5 4.275
3.625 0.4375 4.2125
3.5625 0.4375 4.275
3.5625 0.5 4.2125
3.5625 0.4375 4.2125
3.75 0.4375 4.275
3.75 0.5 4.2125
3.6875 0.5 4.275
3.75 0.4375 4.2125
3.6875 0.4375 4.275
3.6875 0.5 4.2125
3.6875 0.4375 4.2125
3.875 0.4375 4.275
3.875 0.5 4.2125
3.8125 0.5 4.275
3.875 0.4375 4.2125
3.8125 0.4375 4.275
3.8125 0.5 4.2125
3.8125 0.4375 4.2125
4 0.4375 4.275
4 0.5 4.2125
3.9375 0.5 4.275
4 0.4375 4.2125
3.9375 0.4375 4.275
3.9375 0.5 4.2125
3.9375 0.4375 4.2125
0.125 0.5625 4.275
0 0.5625 4.275
0.125 0.625 4.2125
0.0625 0.625 4.275
0 0.625 4.2125
0.125 0.5625 4.2125
0.0625 0.5625 4.275
0 0.5625 4.2125
0.0625 0.625 4.2125
0.0625 0.5625 4.2125
0.25 0.5625 4.275
0.25 0.625 4.2125
0.1875 0.625 4.275
0.25 0.5625 4.2125
0.1875 0.5625 4.275
0.1875 0.625 4.2125
0.1875 0.5625 4.2125
0.375 0.5625 4.275
0.375 0.625 4.2125
0.3125 0.625 4.275
0.375 0.5625 4.2125
0.3125 0.5625 4.275
0.3125 0.625 4.2125
0.3125 0.5625 4.2125
0.5 0.5625 4.275
0.5 0.625 4.2125
0.4375 0.625 4.275
0.5 0.5625 4.2125
0.4375 0.5625 4.275
0.4375 0.625 4.2125
0.4375 0.5625 4.2125
0.625 0.5625 4.275
0.625 0.625 4.2125
0.5625 0.625 4.275
0.625 0.5625 4.2125
0.5625 0.5625 4.275
0.5625 0.625 4.2125
0.5625 0.5625 4.2125
0.75 0.5625 4.275
0.75 0.625 4.2125
0.6875 0.625 4.275
0.75 0.5625 4.2125
0.6875 0.5625 4.275
0.6875 0.625 4.2125
0.6875 0.5625 4.2125
0.875 0.5625 4.275
0.875 0.625 4.2125
0.8125 0.625 4.275
0.875 0.5625 4.2125
0.8125 0.5625 4.275
0.8125 0.625 4.2125
0.8125 0.5625 4.2125
1 0.5625 4.275
1 0.625 4.2125
0.9375 0.625 4.275
1 0.5625 4.2125
0.9375 0.5625 4.275
0.9375 0.625 4.2125
0.9375 0.5625 4.2125
1.125 0.5625 4.275
1.125 0.625 4.2125
1.0625 0.625 4.275
1.125 0.5625 4.2125
1.0625 0.5625 4.275
1.0625 0.625 4.2125
1.0625 0.5625 4.2125
1.25 0.5625 4.275
1.25 0.625 4.2125
1.1875 0.625 4.275
1.25 0.5625 4.2125
1.1875 0.5625 4.275
1.1875 0.625 4.2125
1.1875 0.5625 4.2125
1.375 0.5625 4.275
1.375 0.625 4.2125
1.3125 0.625 4.275
1.375 0.5625 4.2125
1.3125 0.5625 4.275
1.3125 0.625 4.2125
1.3125 0.5625 4.2125
1.5 0.5625 4.275
1.5 0.625 4.2125
1.4375 0.625 4.275
1.5 0.5625 4.2125
1.4375 0.5625 4.275
1.4375 0.625 4.2125
1.4375 0.5625 4.2125
1.625 0.5625 4.275
1.625 0.625 4.2125
1.5625 0.625 4.275
1.625 0.5625 4.2125
1.5625 0.5625 4.275
1.5625 0.625 4.2125
1.5625 0.5625 4.2125
1.75 0.5625 4.275
1.75 0.625 4.2125
1.6875 0.625 4.275
1.75 0.5625 4.2125
1.6875 0.5625 4.275
1.6875 0.625 4.2125
1.6875 0.5625 4.2125
1.875 0.5625 4.275
1.875 0.625 4.2125
1.8125 0.625 4.275
1.875 0.5625 4.2125
1.8125 0.5625 4.275
1.8125 0.625 4.2125
1.8125 0.5625 4.2125
2 0.5625 4.275
2 0.625 4.2125
1.9375 0.625 4.275
2 0.5625 4.2125
1.9375 0.5625 4.275
1.9375 0.625 4.2125
1.9375 0.5625 4.2125
2.125 0.5625 4.275
2.125 0.625 4.2125
2.0625 0.625 4.275
2.125 0.5625 4.2125
2.0625 0.5625 4.275
2.0625 0.625 4.2125
2.0625 0.5625 4.2125
2.25 0.5625 4.275
2.25 0.625 4.2125
2.1875 0.625 4.275
2.25 0.5625 4.2125
2.1875 0.5625 4.275
2.1875 0.625 4.2125
2.1875 0.5625 4.2125
2.375 0.5625 4.275
2.375 0.625 4.2125
2.3125 0.625 4.275
2.375 0.5625 4.2125
2.3125 0.5625 4.275
2.3125 0.625 4.2125
2.3125 0.5625 4.2125
2.5 0.5625 4.275
2.5 0.625 4.2125
2.4375 0.625 4.275
2.5 0.5625 4.2125
2.4375 0.5625 4.275
2.4375 0.625 4.2125
2.4375 0.5625 4.2125
2.625 0.5625 4.275
2.625 0.625 4.2125
2.5625 0.625 4.275
2.625 0.5625 4.2125
2.5625 0.5625 4.275
2.5625 0.625 4.2125
2.5625 0.5625 4.2125
2.75 0.5625 4.275
2.75 0.625 4.2125
2.6875 0.625 4.275
2.75 0.5625 4.2125
2.6875 0.5625 4.275
2.6875 0.625 4.2125
2.6875 0.5625 4.2125
2.875 0.5625 4.275
2.875 0.625 4.2125
2.8125 0.625 4.275
2.875 0.5625 4.2125
2.8125 0.5625 4.275
2.8125 0.625 4.2125
2.8125 0.5625 4.2125
3 0.5625 4.275
3 0.625 4.2125
2.9375 0.625 4.275
3 0.5625 4.2125
2.9375 0.5625 4.275
2.9375 0.625 4.2125
2.9375 0.5625 4.2125
3.125 0.5625 4.275
3.125 0.625 4.2125
3.0625 0.625 4.275
3.125 0.5625 4.2125
3.0625 0.5625 4.275
3.0625 0.625 4.2125
3.0625 0.5625 4.2125
3.25 0.5625 4.275
3.25 0.625 4.2125
3.1875 0.625 4.275
3.25 0.5625 4.2125
3.1875 0.5625 4.275
3.1875 0.625 4.2125
3.1875 0.5625 4.2125
3.375 0.5625 4.275
3.375 0.625 4.2125
3.3125 0.625 4.275
3.375 0.5625 4.2125
3.3125 0.5625 4.275
3.3125 0.625 4.2125
3.3125 0.5625 4.2125
3.5 0.5625 4.275
3.5 0.625 4.2125
3.4375 0.625 4.275
3.5 0.5625 4.2125
3.4375 0.5625 4.275
3.4375 0.625 4.2125
3.4375 0.5625 4.2125
3.625 0.5625 4.275
3.625 0.625 4.2125
3.5625 0.625 4.275
3.625 0.5625 4.2125
3.5625 0.5625 4.275
3.5625 0.625 4.2125
3.5625 0.5625 4.2125
3.75 0.5625 4.275
3.75 0.625 4.2125
3.6875 0.625 4.275
3.75 0.5625 4.2125
3.6875 0.5625 4.275
3.6875 0.625 4.2125
3.6875 0.5625 4.2125
3.875 0.5625 4.275
3.875 0.625 4.2125
3.8125 0.625 4.275
3.875 0.5625 4.2125
3.8125 0.5625 4.275
3.8125 0.625 4.2125
3.8125 0.5625 4.2125
4 0.5625 4.275
4 0.625 4.2125
3.9375 0.625 4.275
4 0.5625 4.2125
3.9375 0.5625 4.275
3.9375 0.625 4.2125
3.9375 0.5625 4.2125
0.125 0.6875 4.275
0 0.6875 4.275
0.125 0.75 4.2125
0.0625 0.75 4.275
0 0.75 4.2125
0.125 0.6875 4.2125
0.0625 0.6875 4.275
0 0.6875 4.2125
0.0625 0.75 4.2125
0.0625 0.6875 4.2125
0.25 0.6875 4.275
0.25 0.75 4.2125
0.1875 0.75 4.275
0.25 0.6875 4.2125
0.1875 0.6875 4.275
0.1875 0.75 4.2125
0.1875 0.6875 4.2125
0.375 0.6875 4.275
0.375 0.75 4.2125
0.3125 0.75 4.275
0.375 0.6875 4.2125
0.3125 0.6875 4.275
0.3125 0.75 4.2125
0.3125 0.6875 4.2125
0.5 0.6875 4.275
0.5 0.75 4.2125
0.4375 0.75 4.275
0.5 0.6875 4.2125
0.4375 0.6875 4.275
0.4375 0.75 4.2125
0.4375 0.6875 4.2125
0.625 0.6875 4.275
0.625 0.75 4.2125
0.5625 0.75 4.275
0.625 0.6875 4.2125
0.5625 0.6875 4.275
0.5625 0.75 4.2125
0.5625 0.6875 4.2125
0.75 0.6875 4.275
0.75 0.75 4.2125
0.6875 0.75 4.275
0.75 0.6875 4.2125
0.6875 0.6875 4.275
0.6875 0.75 4.2125
0.6875 0.6875 4.2125
0.875 0.6875 4.275
0.875 0.75 4.2125
0.8125 0.75 4.275
0.875 0.6875 4.2125
0.8125 0.6875 4.275
0.8125 0.75 4.2125
0.8125 0.6875 4.2125
1 0.6875 4.275
1 0.75 4.2125
0.9375 0.75 4.275
1 0.6875 4.2125
0.9375 0.6875 4.275
0.9375 0.75 4.2125
0.9375 0.6875 4.2125
1.125 0.6875 4.275
1.125 0.75 4.2125
1.0625 0.75 4.275
1.125 0.6875 4.2125
1.0625 0.6875 4.275
1.0625 0.75 4.2125
1.0625 0.6875 4.2125
1.25 0.6875 4.275
1.25 0.75 4.2125
1.1875 0.75 4.275
1.25 0.6875 4.2125
1.1875 0.6875 4.275
1.1875 0.75 4.2125
1.1875 0.6875 4.2125
1.375 0.6875 4.275
1.375 0.75 4.2125
1.3125 0.75 4.275
1.375 0.6875 4.2125
1.3125 0.6875 4.275
1.3125 0.75 4.2125
1.3125 0.6875 4.2125
1.5 0.6875 4.275
1.5 0.75 4.2125
1.4375 0.75 4.275
1.5 0.6875 4.2125
1.4375 0.6875 4.275
1.4375 0.75 4.2125
1.4375 0.6875 4.2125
1.625 0.6875 4.275
1.625 0.75 4.2125
1.5625 0.75 4.275
1.625 0.6875 4.2125
1.5625 0.6875 4.275
1.5625 0.75 4.2125
1.5625 0.6875 4.2125
1.75 0.6875 4.275
1.75 0.75 4.2125
1.6875 0.75 4.275
1.75 0.6875 4.2125
1.6875 0.6875 4.275
1.6875 0.75 4.2125
1.6875 0.6875 4.2125
1.875 0.6875 4.275
1.875 0.75 4.2125
1.8125 0.75 4.275
1.875 0.6875 4.2125
1.8125 0.6875 4.275
1.8125 0.75 4.2125
1.8125 0.6875 4.2125
2 0.6875 4.275
2 0.75 4.2125
1.9375 0.75 4.275
2 0.6875 4.2125
1.9375 0.6875 4.275
1.9375 0.75 4.2125
1.9375 0.6875 4.2125
2.125 0.6875 4.275
2.125 0.75 4.2125
2.0625 0.75 4.275
2.125 0.6875 4.2125
2.0625 0.6875 4.275
2.0625 0.75 4.2125
2.0625 0.6875 4.2125
2.25 0.6875 4.275
2.25 0.75 4.2125
2.1875 0.75 4.275
2.25 0.6875 4.2125
2.1875 0.6875 4.275
2.1875 0.75 4.2125
2.1875 0.6875 4.2125
2.375 0.6875 4.275
2.375 0.75 4.2125
2.3125 0.75 4.275
2.375 0.6875 4.2125
2.3125 0.6875 4.275
2.3125 0.75 4.2125
2.3125 0.6875 4.2125
2.5 0.6875 4.275
2.5 0.75 4.2125
2.4375 0.75 4.275
2.5 0.6875 4.2125
2.4375 0.6875 4.275
2.4375 0.75 4.2125
2.4375 0.6875 4.2125
2.625 0.6875 4.275
2.625 0.75 4.2125
2.5625 0.75 4.275
2.625 0.6875 4.2125
2.5625 0.6875 4.275
2.5625 0.75 4.2125
2.5625 0.6875 4.2125
2.75 0.6875 4.275
2.75 0.75 4.2125
2.6875 0.75 4.275
2.75 0.6875 4.2125
2.6875 0.6875 4.275
2.6875 0.75 4.2125
2.6875 0.6875 4.2125
2.875 0.6875 4.275
2.875 0.75 4.2125
2.8125 0.75 4.275
2.875 0.6875 4.2125
2.8125 0.6875 4.275
2.8125 0.75 4.2125
2.8125 0.6875 4.2125
3 0.6875 4.275
3 0.75 4.2125
2.9375 0.75 4.275
3 0.6875 4.2125
2.9375 0.6875 4.275
2.9375 0.75 4.2125
2.9375 0.6875 4.2125
3.125 0.6875 4.275
3.125 0.75 4.2125
3.0625 0.75 4.275
3.125 0.6875 4.2125
3.0625 0.6875 4.275
3.0625 0.75 4.2125
3.0625 0.6875 4.2125
3.25 0.6875 4.275
3.25 0.75 4.2125
3.1875 0.75 4.275
3.25 0.6875 4.2125
3.1875 0.6875 4.275
3.1875 0.75 4.2125
3.1875 0.6875 4.2125
3.375 0.6875 4.275
3.375 0.75 4.2125
3.3125 0.75 4.275
3.375 0.6875 4.2125
3.3125 0.6875 4.275
3.3125 0.75 4.2125
3.3125 0.6875 4.2125
3.5 0.6875 4.275
3.5 0.75 4.2125
3.4375 0.75 4.275
3.5 0.6875 4.2125
3.4375 0.6875 4.275
3.4375 0.75 4.2125
3.4375 0.6875 4.2125
3.625 0.6875 4.275
3.625 0.75 4.2125
3.5625 0.75 4.275
3.625 0.6875 4.2125
3.5625 0.6875 4.275
3.5625 0.75 4.2125
3.5625 0.6875 4.2125
3.75 0.6875 4.275
3.75 0.75 4.2125
3.6875 0.75 4.275
3.75 0.6875 4.2125
3.6875 0.6875 4.275
3.6875 0.75 4.2125
3.6875 0.6875 4.2125
3.875 0.6875 4.275
3.875 0.75 4.2125
3.8125 0.75 4.275
3.875 0.6875 4.2125
3.8125 0.6875 4.275
3.8125 0.75 4.2125
3.8125 0.6875 4.2125
4 0.6875 4.275
4 0.75 4.2125
3.9375 0.75 4.275
4 0.6875 4.2125
3.9375 0.6875 4.275
3.9375 0.75 4.2125
3.9375 0.6875 4.2125
0.125 0.8125 4.275
0 0.8125 4.275
0.125 0.875 4.2125
0.0625 0.875 4.275
0 0.875 4.2125
0.125 0.8125 4.2125
0.0625 0.8125 4.275
0 0.8125 4.2125
0.0625 0.875 4.2125
0.0625 0.8125 4.2125
0.25 0.8125 4.275
0.25 0.875 4.2125
0.1875 0.875 4.275
0.25 0.8125 4.2125
0.1875 0.8125 4.275
0.1875 0.875 4.2125
0.1875 0.8125 4.2125
0.375 0.8125 4.275
0.375 0.875 4.2125
0.3125 0.875 4.275
0.375 0.8125 4.2125
0.3125 0.8125 4.275
0.3125 0.875 4.2125
0.3125 0.8125 4.2125
0.5 0.8125 4.275
0.5 0.875 4.2125
0.4375 0.875 4.275
0.5 0.8125 4.2125
0.4375 0.8125 4.275
0.4375 0.875 4.2125
0.4375 0.8125 4.2125
0.625 0.8125 4.275
0.625 0.875 4.2125
0.5625 0.875 4.275
0.625 0.8125 4.2125
0.5625 0.8125 4.275
0.5625 0.875 4.2125
0.5625 0.8125 4.2125
0.75 0.8125 4.275
0.75 0.875 4.2125
0.6875 0.875 4.275
0.75 0.8125 4.2125
0.6875 0.8125 4.275
0.6875 0.875 4.2125
0.6875 0.8125 4.2125
0.875 0.8125 4.275
0.875 0.875 4.2125
0.8125 0.875 4.275
0.875 0.8125 4.2125
0.8125 0.8125 4.275
0.8125 0.875 4.2125
0.8125 0.8125 4.2125
1 0.8125 4.275
1 0.875 4.2125
0.9375 0.875 4.275
1 0.8125 4.2125
0.9375 0.8125 4.275
0.9375 0.875 4.2125
0.9375 0.8125 4.2125
1.125 0.8125 4.275
1.125 0.875 4.2125
1.0625 0.875 4.275
1.125 0.8125 4.2125
1.0625 0.8125 4.275
1.0625 0.875 4.2125
1.0625 0.8125 4.2125
1.25 0.8125 4.275
1.25 0.875 4.2125
1.1875 0.875 4.275
1.25 0.8125 4.2125
1.1875 0.8125 4.275
1.1875 0.875 4.2125
1.1875 0.8125 4.2125
1.375 0.8125 4.275
1.375 0.875 4.2125
1.3125 0.875 4.275
1.375 0.8125 4.2125
1.3125 0.8125 4.275
1.3125 0.875 4.2125
1.3125 0.8125 4.2125
1.5 0.8125 4.275
1.5 0.875 4.2125
1.4375 0.875 4.275
1.5 0.8125 4.2125
1.4375 0.8125 4.275
1.4375 0.875 4.2125
1.4375 0.8125 4.2125
1.625 0.8125 4.275
1.625 0.875 4.2125
1.5625 0.875 4.275
1.625 0.8125 4.2125
1.5625 0.8125 4.275
1.5625 0.875 4.2125
1.5625 0.8125 4.2125
1.75 0.8125 4.275
1.75 0.875 4.2125
1.6875 0.875 4.275
1.75 0.8125 4.2125
1.6875 0.8125 4.275
1.6875 0.875 4.2125
1.6875 0.8125 4.2125
1.875 0.8125 4.275
1.875 0.875 4.2125
1.8125 0.875 4.275
1.875 0.8125 4.2125
1.8125 0.8125 4.275
1.8125 0.875 4.2125
1.8125 0.8125 4.2125
2 0.8125 4.275
2 0.875 4.2125
1.9375 0.875 4.275
2 0.8125 4.2125
1.9375 0.8125 4.275
1.9375 0.875 4.2125
1.9375 0.8125 4.2125
2.125 0.8125 4.275
2.125 0.875 4.2125
2.0625 0.875 4.275
2.125 0.8125 4.2125
2.0625 0.8125 4.275
2.0625 0.875 4.2125
2.0625 0.8125 4.2125
2.25 0.8125 4.275
2.25 0.875 4.2125
2.1875 0.875 4.275
2.25 0.8125 4.2125
2.1875 0.8125 4.275
2.1875 0.875 4.2125
2.1875 0.8125 4.2125
2.375 0.8125 4.275
2.375 0.875 4.2125
2.3125 0.875 4.275
2.375 0.8125 4.2125
2.3125 0.8125 4.275
2.3125 0.875 4.2125
2.3125 0.8125 4.2125
2.5 0.8125 4.275
2.5 0.875 4.2125
2.4375 0.875 4.275
2.5 0.8125 4.2125
2.4375 0.8125 4.275
2.4375 0.875 4.2125
2.4375 0.8125 4.2125
2.625 0.8125 4.275
2.625 0.875 4.2125
2.5625 0.875 4.275
2.625 0.8125 4.2125
2.5625 0.8125 4.275
2.5625 0.875 4.2125
2.5625 0.8125 4.2125
2.75 0.8125 4.275
2.75 0.875 4.2125
2.6875 0.875 4.275
2.75 0.8125 4.2125
2.6875 0.8125 4.275
2.6875 0.875 4.2125
2.6875 0.8125 4.2125
2.875 0.8125 4.275
2.875 0.875 4.2125
2.8125 0.875 4.275
2.875 0.8125 4.2125
2.8125 0.8125 4.275
2.8125 0.875 4.2125
2.8125 0.8125 4.2125
3 0.8125 4.275
3 0.875 4.2125
2.9375 0.875 4.275
3 0.8125 4.2125
2.9375 0.8125 4.275
2.9375 0.875 4.2125
2.9375 0.8125 4.2125
3.125 0.8125 4.275
3.125 0.875 4.2125
3.0625 0.875 4.275
3.125 0.8125 4.2125
3.0625 0.8125 4.275
3.0625 0.875 4.2125
3.0625 0.8125 4.2125
3.25 0.8125 4.275
3.25 0.875 4.2125
3.1875 0.875 4.275
3.25 0.8125 4.2125
3.1875 0.8125 4.275
3.1875 0.875 4.2125
3.1875 0.8125 4.2125
3.375 0.8125 4.275
3.375 0.875 4.2125
3.3125 0.875 4.275
3.375 0.8125 4.2125
3.3125 0.8125 4.275
3.3125 0.875 4.2125
3.3125 0.8125 4.2125
3.5 0.8125 4.275
3.5 0.875 4.2125
3.4375 0.875 4.275
3.5 0.8125 4.2125
3.4375 0.8125 4.275
3.4375 0.875 4.2125
3.4375 0.8125 4.2125
3.625 0.8125 4.275
3.625 0.875 4.2125
3.5625 0.875 4.275
3.625 0.8125 4.2125
3.5625 0.8125 4.275
3.5625 0.875 4.2125
3.5625 0.8125 4.2125
3.75 0.8125 4.275
3.75 0.875 4.2125
3.6875 0.875 4.275
3.75 0.8125 4.2125
3.6875 0.8125 4.275
3.6875 0.875 4.2125
3.6875 0.8125 4.2125
3.875 0.8125 4.275
3.875 0.875 4.2125
3.8125 0.875 4.275
3.875 0.8125 4.2125
3.8125 0.8125 4.275
3.8125 0.875 4.2125
3.8125 0.8125 4.2125
4 0.8125 4.275
4 0.875 4.2125
3.9375 0.875 4.275
4 0.8125 4.2125
3.9375 0.8125 4.275
3.9375 0.875 4.2125
3.9375 0.8125 4.2125
0.125 0.9375 4.275
0 0.9375 4.275
0.125 1 4.2125
0.0625 1 4.275
0 1 4.2125
0.125 0.9375 4.2125
0.0625 0.9375 4.275
0 0.9375 4.2125
0.0625 1 4.2125
0.0625 0.9375 4.2125
0.25 0.9375 4.275
0.25 1 4.2125
0.1875 1 4.275
0.25 0.9375 4.2125
0.1875 0.9375 4.275
0.1875 1 4.2125
0.1875 0.9375 4.2125
0.375 0.9375 4.275
0.375 1 4.2125
0.3125 1 4.275
0.375 0.9375 4.2125
0.3125 0.9375 4.275
0.3125 1 4.2125
0.3125 0.9375 4.2125
0.5 0.9375 4.275
0.5 1 4.2125
0.4375 1 4.275
0.5 0.9375 4.2125
0.4375 0.9375 4.275
0.4375 1 4.2125
0.4375 0.9375 4.2125
0.625 0.9375 4.275
0.625 1 4.2125
0.5625 1 4.275
0.625 0.9375 4.2125
0.5625 0.9375 4.275
0.5625 1 4.2125
0.5625 0.9375 4.2125
0.75 0.9375 4.275
0.75 1 4.2125
0.6875 1 4.275
0.75 0.9375 4.2125
0.6875 0.9375 4.275
0.6875 1 4.2125
0.6875 0.9375 4.2125
0.875 0.9375 4.275
0.875 1 4.2125
0.8125 1 4.275
0.875 0.9375 4.2125
0.8125 0.9375 4.275
0.8125 1 4.2125
0.8125 0.9375 4.2125
1 0.9375 4.275
1 1 4.2125
0.9375 1 4.275
1 0.9375 4.2125
0.9375 0.9375 4.275
0.9375 1 4.2125
0.9375 0.9375 4.2125
1.125 0.9375 4.275
1.125 1 4.2125
1.0625 1 4.275
1.125 0.9375 4.2125
1.0625 0.9375 4.275
1.0625 1 4.2125
1.0625 0.9375 4.2125
1.25 0.9375 4.275
1.25 1 4.2125
1.1875 1 4.275
1.25 0.9375 4.2125
1.1875 0.9375 4.275
1.1875 1 4.2125
1.1875 0.9375 4.2125
1.375 0.9375 4.275
1.375 1 4.2125
1.3125 1 4.275
1.375 0.9375 4.2125
1.3125 0.9375 4.275
1.3125 1 4.2125
1.3125 0.9375 4.2125
1.5 0.9375 4.275
1.5 1 4.2125
1.4375 1 4.275
1.5 0.9375 4.2125
1.4375 0.9375 4.275
1.4375 1 4.2125
1.4375 0.9375 4.2125
1.625 0.9375 4.275
1.625 1 4.2125
1.5625 1 4.275
1.625 0.9375 4.2125
1.5625 0.9375 4.275
1.5625 1 4.2125
1.5625 0.9375 4.2125
1.75 0.9375 4.275
1.75 1 4.2125
1.6875 1 4.275
1.75 0.9375 4.2125
1.6875 0.9375 4.275
1.6875 1 4.2125
1.6875 0.9375 4.2125
1.875 0.9375 4.275
1.875 1 4.2125
1.8125 1 4.275
1.875 0.9375 4.2125
1.8125 0.9375 4.275
1.8125 1 4.2125
1.8125 0.9375 4.2125
2 0.9375 4.275
2 1 4.2125
1.9375 1 4.275
2 0.9375 4.2125
1.9375 0.9375 4.275
1.9375 1 4.2125
1.9375 0.9375 4.2125
2.125 0.9375 4.275
2.125 1 4.2125
2.0625 1 4.275
2.125 0.9375 4.2125
2.0625 0.9375 4.275
2.0625 1 4.2125
2.0625 0.9375 4.2125
2.25 0.9375 4.275
2.25 1 4.2125
2.1875 1 4.275
2.25 0.9375 4.2125
2.1875 0.9375 4.275
2.1875 1 4.2125
2.1875 0.9375 4.2125
2.375 0.9375 4.275
2.375 1 4.2125
2.3125 1 4.275
2.375 0.9375 4.2125
2.3125 0.9375 4.275
2.3125 1 4.2125
2.3125 0.9375 4.2125
2.5 0.9375 4.275
2.5 1 4.2125
2.4375 1 4.275
2.5 0.9375 4.2125
2.4375 0.9375 4.275
2.4375 1 4.2125
2.4375 0.9375 4.2125
2.625 0.9375 4.275
2.625 1 4.2125
2.5625 1 4.275
2.625 0.9375 4.2125
2.5625 0.9375 4.275
2.5625 1 4.2125
2.5625 0.9375 4.2125
2.75 0.9375 4.275
2.75 1 4.2125
2.6875 1 4.275
2.75 0.9375 4.2125
2.6875 0.9375 4.275
2.6875 1 4.2125
2.6875 0.9375 4.2125
2.875 0.9375 4.275
2.875 1 4.2125
2.8125 1 4.275
2.875 0.9375 4.2125
2.8125 0.9375 4.275
2.8125 1 4.2125
2.8125 0.9375 4.2125
3 0.9375 4.275
3 1 4.2125
2.9375 1 4.275
3 0.9375 4.2125
2.9375 0.9375 4.275
2.9375 1 4.2125
2.9375 0.9375 4.2125
3.125 0.9375 4.275
3.125 1 4.2125
3.0625 1 4.275
3.125 0.9375 4.2125
3.0625 0.9375 4.275
3.0625 1 4.2125
3.0625 0.9375 4.2125
3.25 0.9375 4.275
3.25 1 4.2125
3.1875 1 4.275
3.25 0.9375 4.2125
3.1875 0.9375 4.275
3.1875 1 4.2125
3.1875 0.9375 4.2125
3.375 0.9375 4.275
3.375 1 4.2125
3.3125 1 4.275
3.375 0.9375 4.2125
3.3125 0.9375 4.275
3.3125 1 4.2125
3.3125 0.9375 4.2125
3.5 0.9375 4.275
3.5 1 4.2125
3.4375 1 4.275
3.5 0.9375 4.2125
3.4375 0.9375 4.275
3.4375 1 4.2125
3.4375 0.9375 4.2125
3.625 0.9375 4.275
3.625 1 4.2125
3.5625 1 4.275
3.625 0.9375 4.2125
3.5625 0.9375 4.275
3.5625 1 4.2125
3.5625 0.9375 4.2125
3.75 0.9375 4.275
3.75 1 4.2125
3.6875 1 4.275
3.75 0.9375 4.2125
3.6875 0.9375 4.275
3.6875 1 4.2125
3.6875 0.9375 4.2125
3.875 0.9375 4.275
3.875 1 4.2125
3.8125 1 4.275
3.875 0.9375 4.2125
3.8125 0.9375 4.275
3.8125 1 4.2125
3.8125 0.9375 4.2125
4 0.9375 4.275
4 1 4.2125
3.9375 1 4.275
4 0.9375 4.2125
3.9375 0.9375 4.275
3.9375 1 4.2125
3.9375 0.9375 4.2125
0.125 0 4.3375
0.0625 0 4.4
0 0 4.3375
0.125 0.0625 4.4
0 0.0625 4.4
0.125 0.125 4.3375
0.0625 0.125 4.4
0 0.125 4.3375
0.0625 0 4.3375
0.125 0.0625 4.3375
0.0625 0.0625 4.4
0 0.0625 4.3375
0.0625 0.125 4.3375
0.0625 0.0625 4.3375
0.25 0 4.3375
0.1875 0 4.4
0.25 0.0625 4.4
0.25 0.125 4.3375
0.1875 0.125 4.4
0.1875 0 4.3375
0.25 0.0625 4.3375
0.1875 0.0625 4.4
0.1875 0.125 4.3375
0.1875 0.0625 4.3375
0.375 0 4.3375
0.3125 0 4.4
0.375 0.0625 4.4
0.375 0.125 4.3375
0.3125 0.125 4.4
0.3125 0 4.3375
0.375 0.0625 4.3375
0.3125 0.0625 4.4
0.3125 0.125 4.3375
0.3125 0.0625 4.3375
0.5 0 4.3375
0.4375 0 4.4
0.5 0.0625 4.4
0.5 0.125 4.3375
0.4375 0.125 4.4
0.4375 0 4.3375
0.5 0.0625 4.3375
0.4375 0.0625 4.4
0.4375 0.125 4.3375
0.4375 0.0625 4.3375
0.625 0 4.3375
0.5625 0 4.4
0.625 0.0625 4.4
0.625 0.125 4.3375
0.5625 0.125 4.4
0.5625 0 4.3375
0.625 0.0625 4.3375
0.5625 0.0625 4.4
0.5625 0.125 4.3375
0.5625 0.0625 4.3375
0.75 0 4.3375
0.6875 0 4.4
0.75 0.0625 4.4
0.75 0.125 4.3375
0.6875 0.125 4.4
0.6875 0 4.3375
0.75 0.0625 4.3375
0.6875 0.0625 4.4
0.6875 0.125 4.3375
0.6875 0.0625 4.3375
0.875 0 4.3375
0.8125 0 4.4
0.875 0.0625 4.4
0.875 0.125 4.3375
0.8125 0.125 4.4
0.8125 0 4.3375
0.875 0.0625 4.3375
0.8125 0.0625 4.4
0.8125 0.125 4.3375
0.8125 0.0625 4.3375
1 0 4.3375
0.9375 0 4.4
1 0.0625 4.4
1 0.125 4.3375
0.9375 0.125 4.4
0.9375 0 4.3375
1 0.0625 4.3375
0.9375 0.0625 4.4
0.9375 0.125 4.3375
0.9375 0.0625 4.3375
1.125 0 4.3375
1.0625 0 4.4
1.125 0.0625 4.4
1.125 0.125 4.3375
1.0625 0.125 4.4
1.0625 0 4.3375
1.125 0.0625 4.3375
1.0625 0.0625 4.4
1.0625 0.125 4.3375
1.0625 0.0625 4.3375
1.25 0 4.3375
1.1875 0 4.4
1.25 0.0625 4.4
1.25 0.125 4.3375
1.1875 0.125 4.4
1.1875 0 4.3375
1.25 0.0625 4.3375
1.1875 0.0625 4.4
1.1875 0.125 4.3375
1.1875 0.0625 4.3375
1.375 0 4.3375
1.3125 0 4.4
1.375 0.0625 4.4
1.375 0.125 4.3375
1.3125 0.125 4.4
1.3125 0 4.3375
1.375 0.0625 4.3375
1.3125 0.0625 4.4
1.3125 0.125 4.3375
1.3125 0.0625 4.3375
1.5 0 4.3375
1.4375 0 4.4
1.5 0.0625 4.4
1.5 0.125 4.3375
1.4375 0.125 4.4
1.4375 0 4.3375
1.5 0.0625 4.3375
1.4375 0.0625 4.4
1.4375 0.125 4.3375
1.4375 0.0625 4.3375
1.625 0 4.3375
1.5625 0 4.4
1.625 0.0625 4.4
1.625 0.125 4.3375
1.5625 0.125 4.4
1.5625 0 4.3375
1.625 0.0625 4.3375
1.5625 0.0625 4.4
1.5625 0.125 4.3375
1.5625 0.0625 4.3375
1.75 0 4.3375
1.6875 0 4.4
1.75 0.0625 4.4
1.75 0.125 4.3375
1.6875 0.125 4.4
1.6875 0 4.3375
1.75 0.0625 4.3375
1.6875 0.0625 4.4
1.6875 0.125 4.3375
1.6875 0.0625 4.3375
1.875 0 4.3375
1.8125 0 4.4
1.875 0.0625 4.4
1.875 0.125 4.3375
1.8125 0.125 4.4
1.8125 0 4.3375
1.875 0.0625 4.3375
1.8125 0.0625 4.4
1.8125 0.125 4.3375
1.8125 0.0625 4.3375
2 0 4.3375
1.9375 0 4.4
2 0.0625 4.4
2 0.125 4.3375
1.9375 0.125 4.4
1.9375 0 4.3375
2 0.0625 4.3375
1.9375 0.0625 4.4
1.9375 0.125 4.3375
1.9375 0.0625 4.3375
2.125 0 4.3375
2.0625 0 4.4
2.125 0.0625 4.4
2.125 0.125 4.3375
2.0625 0.125 4.4
2.0625 0 4.3375
2.125 0.0625 4.3375
2.0625 0.0625 4.4
2.0625 0.125 4.3375
2.0625 0.0625 4.3375
2.25 0 4.3375
2.1875 0 4.4
2.25 0.0625 4.4
2.25 0.125 4.3375
2.1875 0.125 4.4
2.1875 0 4.3375
2.25 0.0625 4.3375
2.1875 0.0625 4.4
2.1875 0.125 4.3375
2.1875 0.0625 4.3375
2.375 0 4.3375
2.3125 0 4.4
2.375 0.0625 4.4
2.375 0.125 4.3375
2.3125 0.125 4.4
2.3125 0 4.3375
2.375 0.0625 4.3375
2.3125 0.0625 4.4
2.3125 0.125 4.3375
2.3125 0.0625 4.3375
2.5 0 4.3375
2.4375 0 4.4
2.5 0.0625 4.4
2.5 0.125 4.3375
2.4375 0.125 4.4
2.4375 0 4.3375
2.5 0.0625 4.3375
2.4375 0.0625 4.4
2.4375 0.125 4.3375
2.4375 0.0625 4.3375
2.625 0 4.3375
2.5625 0 4.4
2.625 0.0625 4.4
2.625 0.125 4.3375
2.5625 0.125 4.4
2.5625 0 4.3375
2.625 0.0625 4.3375
2.5625 0.0625 4.4
2.5625 0.125 4.3375
2.5625 0.0625 4.3375
2.75 0 4.3375
2.6875 0 4.4
2.75 0.0625 4.4
2.75 0.125 4.3375
2.6875 0.125 4.4
2.6875 0 4.3375
2.75 0.0625 4.3375
2.6875 0.0625 4.4
2.6875 0.125 4.3375
2.6875 0.0625 4.3375
2.875 0 4.3375
2.8125 0 4.4
2.875 0.0625 4.4
2.875 0.125 4.3375
2.8125 0.125 4.4
2.8125 0 4.3375
2.875 0.0625 4.3375
2.8125 0.0625 4.4
2.8125 0.125 4.3375
2.8125 0.0625 4.3375
3 0 4.3375
2.9375 0 4.4
3 0.0625 4.4
3 0.125 4.3375
2.9375 0.125 4.4
2.9375 0 4.3375
3 0.0625 4.3375
2.9375 0.0625 4.4
2.9375 0.125 4.3375
2.9375 0.0625 4.3375
3.125 0 4.3375
3.0625 0 4.4
3.125 0.0625 4.4
3.125 0.125 4.3375
3.0625 0.125 4.4
3.0625 0 4.3375
3.125 0.0625 4.3375
3.0625 0.0625 4.4
3.0625 0.125 4.3375
3.0625 0.0625 4.3375
3.25 0 4.3375
3.1875 0 4.4
3.25 0.0625 4.4
3.25 0.125 4.3375
3.1875 0.125 4.4
3.1875 0 4.3375
3.25 0.0625 4.3375
3.1875 0.0625 4.4
3.1875 0.125 4.3375
3.1875 0.0625 4.3375
3.375 0 4.3375
3.3125 0 4.4
3.375 0.0625 4.4
3.375 0.125 4.3375
3.3125 0.125 4.4
3.3125 0 4.3375
3.375 0.0625 4.3375
3.3125 0.0625 4.4
3.3125 0.125 4.3375
3.3125 0.0625 4.3375
3.5 0 4.3375
3.4375 0 4.4
3.5 0.0625 4.4
3.5 0.125 4.3375
3.4375 0.125 4.4
3.4375 0 4.3375
3.5 0.0625 4.3375
3.4375 0.0625 4.4
3.4375 0.125 4.3375
3.4375 0.0625 4.3375
3.625 0 4.3375
3.5625 0 4.4
3.625 0.0625 4.4
3.625 0.125 4.3375
3.5625 0.125 4.4
3.5625 0 4.3375
3.625 0.0625 4.3375
3.5625 0.0625 4.4
3.5625 0.125 4.3375
3.5625 0.0625 4.3375
3.75 0 4.3375
3.6875 0 4.4
3.75 0.0625 4.4
3.75 0.125 4.3375
3.6875 0.125 4.4
3.6875 0 4.3375
3.75 0.0625 4.3375
3.6875 0.0625 4.4
3.6875 0.125 4.3375
3.6875 0.0625 4.3375
3.875 0 4.3375
3.8125 0 4.4
3.875 0.0625 4.4
3.875 0.125 4.3375
3.8125 0.125 4.4
3.8125 0 4.3375
3.875 0.0625 4.3375
3.8125 0.0625 4.4
3.8125 0.125 4.3375
3.8125 0.0625 4.3375
4 0 4.3375
3.9375 0 4.4
4 0.0625 4.4
4 0.125 4.3375
3.9375 0.125 4.4
3.9375 0 4.3375
4 0.0625 4.3375
3.9375 0.0625 4.4
3.9375 0.125 4.3375
3.9375 0.0625 4.3375
0.125 0.1875 4.4
0 0.1875 4.4
0.125 0.25 4.3375
0.0625 0.25 4.4
0 0.25 4.3375
0.125 0.1875 4.3375
0.0625 0.1875 4.4
0 0.1875 4.3375
0.0625 0.25 4.3375
0.0625 0.1875 4.3375
0.25 0.1875 4.4
0.25 0.25 4.3375
0.1875 0.25 4.4
0.25 0.1875 4.3375
0.1875 0.1875 4.4
0.1875 0.25 4.3375
0.1875 0.1875 4.3375
0.375 0.1875 4.4
0.375 0.25 4.3375
0.3125 0.25 4.4
0.375 0.1875 4.3375
0.3125 0.1875 4.4
0.3125 0.25 4.3375
0.3125 0.1875 4.3375
0.5 0.1875 4.4
0.5 0.25 4.3375
0.4375 0.25 4.4
0.5 0.1875 4.3375
0.4375 0.1875 4.4
0.4375 0.25 4.3375
0.4375 0.1875 4.3375
0.625 0.1875 4.4
0.625 0.25 4.3375
0.5625 0.25 4.4
0.625 0.1875 4.3375
0.5625 0.1875 4.4
0.5625 0.25 4.3375
0.5625 0.1875 4.3375
0.75 0.1875 4.4
0.75 0.25 4.3375
0.6875 0.25 4.4
0.75 0.1875 4.3375
0.6875 0.1875 4.4
0.6875 0.25 4.3375
0.6875 0.1875 4.3375
0.875 0.1875 4.4
0.875 0.25 4.3375
0.8125 0.25 4.4
0.875 0.1875 4.3375
0.8125 0.1875 4.4
0.8125 0.25 4.3375
0.8125 0.1875 4.3375
1 0.1875 4.4
1 0.25 4.3375
0.9375 0.25 4.4
1 0.1875 4.3375
0.9375 0.1875 4.4
0.9375 0.25 4.3375
0.9375 0.1875 4.3375
1.125 0.1875 4.4
1.125 0.25 4.3375
1.0625 0.25 4.4
1.125 0.1875 4.3375
1.0625 0.1875 4.4
1.0625 0.25 4.3375
1.0625 0.1875 4.3375
1.25 0.1875 4.4
1.25 0.25 4.3375
1.1875 0.25 4.4
1.25 0.1875 4.3375
1.1875 0.1875 4.4
1.1875 0.25 4.3375
1.1875 0.1875 4.3375
1.375 0.1875 4.4
1.375 0.25 4.3375
1.3125 0.25 4.4
1.375 0.1875 4.3375
1.3125 0.1875 4.4
1.3125 0.25 4.3375
1.3125 0.1875 4.3375
1.5 0.1875 4.4
1.5 0.25 4.3375
1.4375 0.25 4.4
1.5 0.1875 4.3375
1.4375 0.1875 4.4
1.4375 0.25 4.3375
1.4375 0.1875 4.3375
1.625 0.1875 4.4
1.625 0.25 4.3375
1.5625 0.25 4.4
1.625 0.1875 4.3375
1.5625 0.1875 4.4
1.5625 0.25 4.3375
1.5625 0.1875 4.3375
1.75 0.1875 4.4
1.75 0.25 4.3375
1.6875 0.25 4.4
1.75 0.1875 4.3375
1.6875 0.1875 4.4
1.6875 0.25 4.3375
1.6875 0.1875 4.3375
1.875 0.1875 4.4
1.875 0.25 4.3375
1.8125 0.25 4.4
1.875 0.1875 4.3375
1.8125 0.1875 4.4
1.8125 0.25 4.3375
1.8125 0.1875 4.3375
2 0.1875 4.4
2 0.25 4.3375
1.9375 0.25 4.4
2 0.1875 4.3375
1.9375 0.1875 4.4
1.9375 0.25 4.3375
1.9375 0.1875 4.3375
2.125 0.1875 4.4
2.125 0.25 4.3375
2.0625 0.25 4.4
2.125 0.1875 4.3375
2.0625 0.1875 4.4
2.0625 0.25 4.3375
2.0625 0.1875 4.3375
2.25 0.1875 4.4
2.25 0.25 4.3375
2.1875 0.25 4.4
2.25 0.1875 4.3375
2.1875 0.1875 4.4
2.1875 0.25 4.3375
2.1875 0.1875 4.3375
2.375 0.1875 4.4
2.375 0.25 4.3375
2.3125 0.25 4.4
2.375 0.1875 4.3375
2.3125 0.1875 4.4
2.3125 0.25 4.3375
2.3125 0.1875 4.3375
2.5 0.1875 4.4
2.5 0.25 4.3375
2.4375 0.25 4.4
2.5 0.1875 4.3375
2.4375 0.1875 4.4
2.4375 0.25 4.3375
2.4375 0.1875 4.3375
2.625 0.1875 4.4
2.625 0.25 4.3375
2.5625 0.25 4.4
2.625 0.1875 4.3375
2.5625 0.1875 4.4
2.5625 0.25 4.3375
2.5625 0.1875 4.3375
2.75 0.1875 4.4
2.75 0.25 4.3375
2.6875 0.25 4.4
2.75 0.1875 4.3375
2.6875 0.1875 4.4
2.6875 0.25 4.3375
2.6875 0.1875 4.3375
2.875 0.1875 4.4
2.875 0.25 4.3375
2.8125 0.25 4.4
2.875 0.1875 4.3375
2.8125 0.1875 4.4
2.8125 0.25 4.3375
2.8125 0.1875 4.3375
3 0.1875 4.4
3 0.25 4.3375
2.9375 0.25 4.4
3 0.1875 4.3375
2.9375 0.1875 4.4
2.9375 0.25 4.3375
2.9375 0.1875 4.3375
3.125 0.1875 4.4
3.125 0.25 4.3375
3.0625 0.25 4.4
3.125 0.1875 4.3375
3.0625 0.1875 4.4
3.0625 0.25 4.3375
3.0625 0.1875 4.3375
3.25 0.1875 4.4
3.25 0.25 4.3375
3.1875 0.25 4.4
3.25 0.1875 4.3375
3.1875 0.1875 4.4
3.1875 0.25 4.3375
3.1875 0.1875 4.3375
3.375 0.1875 4.4
3.375 0.25 4.3375
3.3125 0.25 4.4
3.375 0.1875 4.3375
3.3125 0.1875 4.4
3.3125 0.25 4.3375
3.3125 0.1875 4.3375
3.5 0.1875 4.4
3.5 0.25 4.3375
3.4375 0.25 4.4
3.5 0.1875 4.3375
3.4375 0.1875 4.4
3.4375 0.25 4.3375
3.4375 0.1875 4.3375
3.625 0.1875 4.4
3.625 0.25 4.3375
3.5625 0.25 4.4
3.625 0.1875 4.3375
3.5625 0.1875 4.4
3.5625 0.25 4.3375
3.5625 0.1875 4.3375
3.75 0.1875 4.4
3.75 0.25 4.3375
3.6875 0.25 4.4
3.75 0.1875 4.3375
3.6875 0.1875 4.4
3.6875 0.25 4.3375
3.6875 0.1875 4.3375
3.875 0.1875 4.4
3.875 0.25 4.3375
3.8125 0.25 4.4
3.875 0.1875 4.3375
3.8125 0.1875 4.4
3.8125 0.25 4.3375
3.8125 0.1875 4.3375
4 0.1875 4.4
4 0.25 4.3375
3.9375 0.25 4.4
4 0.1875 4.3375
3.9375 0.1875 4.4
3.9375 0.25 4.3375
3.9375 0.1875 4.3375
0.125 0.3125 4.4
0 0.3125 4.4
0.125 0.375 4.3375
0.0625 0.375 4.4
0 0.375 4.3375
0.125 0.3125 4.3375
0.0625 0.3125 4.4
0 0.3125 4.3375
0.0625 0.375 4.3375
0.0625 0.3125 4.3375
0.25 0.3125 4.4
0.25 0.375 4.3375
0.1875 0.375 4.4
0.25 0.3125 4.3375
0.1875 0.3125 4.4
0.1875 0.375 4.3375
0.1875 0.3125 4.3375
0.375 0.3125 4.4
0.375 0.375 4.3375
0.3125 0.375 4.4
0.375 0.3125 4.3375
0.3125 0.3125 4.4
0.3125 0.375 4.3375
0.3125 0.3125 4.3375
0.5 0.3125 4.4
0.5 0.375 4.3375
0.4375 0.375 4.4
0.5 0.3125 4.3375
0.4375 0.3125 4.4
0.4375 0.375 4.3375
0.4375 0.3125 4.3375
0.625 0.3125 4.4
0.625 0.375 4.3375
0.5625 0.375 4.4
0.625 0.3125 4.3375
0.5625 0.3125 4.4
0.5625 0.375 4.3375
0.5625 0.3125 4.3375
0.75 0.3125 4.4
0.75 0.375 4.3375
0.6875 0.375 4.4
0.75 0.3125 4.3375
0.6875 0.3125 4.4
0.6875 0.375 4.3375
0.6875 0.3125 4.3375
0.875 0.3125 4.4
0.875 0.375 4.3375
0.8125 0.375 4.4
0.875 0.3125 4.3375
0.8125 0.3125 4.4
0.8125 0.375 4.3375
0.8125 0.3125 4.3375
1 0.3125 4.4
1 0.375 4.3375
0.9375 0.375 4.4
1 0.3125 4.3375
0.9375 0.3125 4.4
0.9375 0.375 4.3375
0.9375 0.3125 4.3375
1.125 0.3125 4.4
1.125 0.375 4.3375
1.0625 0.375 4.4
1.125 0.3125 4.3375
1.0625 0.3125 4.4
1.0625 0.375 4.3375
1.0625 0.3125 4.3375
1.25 0.3125 4.4
1.25 0.375 4.3375
1.1875 0.375 4.4
1.25 0.3125 4.3375
1.1875 0.3125 4.4
1.1875 0.375 4.3375
1.1875 0.3125 4.3375
1.375 0.3125 4.4
1.375 0.375 4.3375
1.3125 0.375 4.4
1.375 0.3125 4.3375
1.3125 0.3125 4.4
1.3125 0.375 4.3375
1.3125 0.3125 4.3375
1.5 0.3125 4.4
1.5 0.375 4.3375
1.4375 0.375 4.4
1.5 0.3125 4.3375
1.4375 0.3125 4.4
1.4375 0.375 4.3375
1.4375 0.3125 4.3375
1.625 0.3125 4.4
1.625 0.375 4.3375
1.5625 0.375 4.4
1.625 0.3125 4.3375
1.5625 0.3125 4.4
1.5625 0.375 4.3375
1.5625 0.3125 4.3375
1.75 0.3125 4.4
1.75 0.375 4.3375
1.6875 0.375 4.4
1.75 0.3125 4.3375
1.6875 0.3125 4.4
1.6875 0.375 4.3375
1.6875 0.3125 4.3375
1.875 0.3125 4.4
1.875 0.375 4.3375
1.8125 0.375 4.4
1.875 0.3125 4.3375
1.8125 0.3125 4.4
1.8125 0.375 4.3375
1.8125 0.3125 4.3375
2 0.3125 4.4
2 0.375 4.3375
1.9375 0.375 4.4
2 0.3125 4.3375
1.9375 0.3125 4.4
1.9375 0.375 4.3375
1.9375 0.3125 4.3375
2.125 0.3125 4.4
2.125 0.375 4.3375
2.0625 0.375 4.4
2.125 0.3125 4.3375
2.0625 0.3125 4.4
2.0625 0.375 4.3375
2.0625 0.3125 4.3375
2.25 0.3125 4.4
2.25 0.375 4.3375
2.1875 0.375 4.4
2.25 0.3125 4.3375
2.1875 0.3125 4.4
2.1875 0.375 4.3375
2.1875 0.3125 4.3375
2.375 0.3125 4.4
2.375 0.375 4.3375
2.3125 0.375 4.4
2.375 0.3125 4.3375
2.3125 0.3125 4.4
2.3125 0.375 4.3375
2.3125 0.3125 4.3375
2.5 0.3125 4.4
2.5 0.375 4.3375
2.4375 0.375 4.4
2.5 0.3125 4.3375
2.4375 0.3125 4.4
2.4375 0.375 4.3375
2.4375 0.3125 4.3375
2.625 0.3125 4.4
2.625 0.375 4.3375
2.5625 0.375 4.4
2.625 0.3125 4.3375
2.5625 0.3125 4.4
2.5625 0.375 4.3375
2.5625 0.3125 4.3375
2.75 0.3125 4.4
2.75 0.375 4.3375
2.6875 0.375 4.4
2.75 0.3125 4.3375
2.6875 0.3125 4.4
2.6875 0.375 4.3375
2.6875 0.3125 4.3375
2.875 0.3125 4.4
2.875 0.375 4.3375
2.8125 0.375 4.4
2.875 0.3125 4.3375
2.8125 0.3125 4.4
2.8125 0.375 4.3375
2.8125 0.3125 4.3375
3 0.3125 4.4
3 0.375 4.3375
2.9375 0.375 4.4
3 0.3125 4.3375
2.9375 0.3125 4.4
2.9375 0.375 4.3375
2.9375 0.3125 4.3375
3.125 0.3125 4.4
3.125 0.375 4.3375
3.0625 0.375 4.4
3.125 0.3125 4.3375
3.0625 0.3125 4.4
3.0625 0.375 4.3375
3.0625 0.3125 4.3375
3.25 0.3125 4.4
3.25 0.375 4.3375
3.1875 0.375 4.4
3.25 0.3125 4.3375
3.1875 0.3125 4.4
3.1875 0.375 4.3375
3.1875 0.3125 4.3375
3.375 0.3125 4.4
3.375 0.375 4.3375
3.3125 0.375 4.4
3.375 0.3125 4.3375
3.3125 0.3125 4.4
3.3125 0.375 4.3375
3.3125 0.3125 4.3375
3.5 0.3125 4.4
3.5 0.375 4.3375
3.4375 0.375 4.4
3.5 0.3125 4.3375
3.4375 0.3125 4.4
3.4375 0.375 4.3375
3.4375 0.3125 4.3375
3.625 0.3125 4.4
3.625 0.375 4.3375
3.5625 0.375 4.4
3.625 0.3125 4.3375
3.5625 0.3125 4.4
3.5625 0.375 4.3375
3.5625 0.3125 4.3375
3.75 0.3125 4.4
3.75 0.375 4.3375
3.6875 0.375 4.4
3.75 0.3125 4.3375
3.6875 0.3125 4.4
3.6875 0.375 4.3375
3.6875 0.3125 4.3375
3.875 0.3125 4.4
3.875 0.375 4.3375
3.8125 0.375 4.4
3.875 0.3125 4.3375
3.8125 0.3125 4.4
3.8125 0.375 4.3375
3.8125 0.3125 4.3375
4 0.3125 4.4
4 0.375 4.3375
3.9375 0.375 4.4
4 0.3125 4.3375
3.9375 0.3125 4.4
3.9375 0.375 4.3375
3.9375 0.3125 4.3375
0.125 0.4375 4.4
0 0.4375 4.4
0.125 0.5 4.3375
0.0625 0.5 4.4
0 0.5 4.3375
0.125 0.4375 4.3375
0.0625 0.4375 4.4
0 0.4375 4.3375
0.0625 0.5 4.3375
0.0625 0.4375 4.3375
0.25 0.4375 4.4
0.25 0.5 4.3375
0.1875 0.5 4.4
0.25 0.4375 4.3375
0.1875 0.4375 4.4
0.1875 0.5 4.3375
0.1875 0.4375 4.3375
0.375 0.4375 4.4
0.375 0.5 4.3375
0.3125 0.5 4.4
0.375 0.4375 4.3375
0.3125 0.4375 4.4
0.3125 0.5 4.3375
0.3125 0.4375 4.3375
0.5 0.4375 4.4
0.5 0.5 4.3375
0.4375 0.5 4.4
0.5 0.4375 4.3375
0.4375 0.4375 4.4
0.4375 0.5 4.3375
0.4375 0.4375 4.3375
0.625 0.4375 4.4
0.625 0.5 4.3375
0.5625 0.5 4.4
0.625 0.4375 4.3375
0.5625 0.4375 4.4
0.5625 0.5 4.3375
0.5625 0.4375 4.3375
0.75 0.4375 4.4
0.75 0.5 4.3375
0.6875 0.5 4.4
0.75 0.4375 4.3375
0.6875 0.4375 4.4
0.6875 0.5 4.3375
0.6875 0.4375 4.3375
0.875 0.4375 4.4
0.875 0.5 4.3375
0.8125 0.5 4.4
0.875 0.4375 4.3375
0.8125 0.4375 4.4
0.8125 0.5 4.3375
0.8125 0.4375 4.3375
1 0.4375 4.4
1 0.5 4.3375
0.9375 0.5 4.4
1 0.4375 4.3375
0.9375 0.4375 4.4
0.9375 0.5 4.3375
0.9375 0.4375 4.3375
1.125 0.4375 4.4
1.125 0.5 4.3375
1.0625 0.5 4.4
1.125 0.4375 4.3375
1.0625 0.4375 4.4
1.0625 0.5 4.3375
1.0625 0.4375 4.3375
1.25 0.4375 4.4
1.25 0.5 4.3375
1.1875 0.5 4.4
1.25 0.4375 4.3375
1.1875 0.4375 4.4
1.1875 0.5 4.3375
1.1875 0.4375 4.3375
1.375 0.4375 4.4
1.375 0.5 4.3375
1.3125 0.5 4.4
1.375 0.4375 4.3375
1.3125 0.4375 4.4
1.3125 0.5 4.3375
1.3125 0.4375 4.3375
1.5 0.4375 4.4
1.5 0.5 4.3375
1.4375 0.5 4.4
1.5 0.4375 4.3375
1.4375 0.4375 4.4
1.4375 0.5 4.3375
1.4375 0.4375 4.3375
1.625 0.4375 4.4
1.625 0.5 4.3375
1.5625 0.5 4.4
1.625 0.4375 4.3375
1.5625 0.4375 4.4
1.5625 0.5 4.3375
1.5625 0.4375 4.3375
1.75 0.4375 4.4
1.75 0.5 4.3375
1.6875 0.5 4.4
1.75 0.4375 4.3375
1.6875 0.4375 4.4
1.6875 0.5 4.3375
1.6875 0.4375 4.3375
1.875 0.4375 4.4
1.875 0.5 4.3375
1.8125 0.5 4.4
1.875 0.4375 4.3375
1.8125 0.4375 4.4
1.8125 0.5 4.3375
1.8125 0.4375 4.3375
2 0.4375 4.4
2 0.5 4.3375
1.9375 0.5 4.4
2 0.4375 4.3375
1.9375 0.4375 4.4
1.9375 0.5 4.3375
1.9375 0.4375 4.3375
2.125 0.4375 4.4
2.125 0.5 4.3375
2.0625 0.5 4.4
2.125 0.4375 4.3375
2.0625 0.4375 4.4
2.0625 0.5 4.3375
2.0625 0.4375 4.3375
2.25 0.4375 4.4
2.25 0.5 4.3375
2.1875 0.5 4.4
2.25 0.4375 4.3375
2.1875 0.4375 4.4
2.1875 0.5 4.3375
2.1875 0.4375 4.3375
2.375 0.4375 4.4
2.375 0.5 4.3375
2.3125 0.5 4.4
2.375 0.4375 4.3375
2.3125 0.4375 4.4
2.3125 0.5 4.3375
2.3125 0.4375 4.3375
2.5 0.4375 4.4
2.5 0.5 4.3375
2.4375 0.5 4.4
2.5 0.4375 4.3375
2.4375 0.4375 4.4
2.4375 0.5 4.3375
2.4375 0.4375 4.3375
2.625 0.4375 4.4
2.625 0.5 4.3375
2.5625 0.5 4.4
2.625 0.4375 4.3375
2.5625 0.4375 4.4
2.5625 0.5 4.3375
2.5625 0.4375 4.3375
2.75 0.4375 4.4
2.75 0.5 4.3375
2.6875 0.5 4.4
2.75 0.4375 4.3375
2.6875 0.4375 4.4
2.6875 0.5 4.3375
2.6875 0.4375 4.3375
2.875 0.4375 4.4
2.875 0.5 4.3375
2.8125 0.5 4.4
2.875 0.4375 4.3375
2.8125 0.4375 4.4
2.8125 0.5 4.3375
2.8125 0.4375 4.3375
3 0.4375 4.4
3 0.5 4.3375
2.9375 0.5 4.4
3 0.4375 4.3375
2.9375 0.4375 4.4
2.9375 0.5 4.3375
2.9375 0.4375 4.3375
3.125 0.4375 4.4
3.125 0.5 4.3375
3.0625 0.5 4.4
3.125 0.4375 4.3375
3.0625 0.4375 4.4
3.0625 0.5 4.3375
3.0625 0.4375 4.3375
3.25 0.4375 4.4
3.25 0.5 4.3375
3.1875 0.5 4.4
3.25 0.4375 4.3375
3.1875 0.4375 4.4
3.1875 0.5 4.3375
3.1875 0.4375 4.3375
3.375 0.4375 4.4
3.375 0.5 4.3375
3.3125 0.5 4.4
3.375 0.4375 4.3375
3.3125 0.4375 4.4
3.3125 0.5 4.3375
3.3125 0.4375 4.3375
3.5 0.4375 4.4
3.5 0.5 4.3375
3.4375 0.5 4.4
3.5 0.4375 4.3375
3.4375 0.4375 4.4
3.4375 0.5 4.3375
3.4375 0.4375 4.3375
3.625 0.4375 4.4
3.625 0.5 4.3375
3.5625 0.5 4.4
3.625 0.4375 4.3375
3.5625 0.4375 4.4
3.5625 0.5 4.3375
3.5625 0.4375 4.3375
3.75 0.4375 4.4
3.75 0.5 4.3375
3.6875 0.5 4.4
3.75 0.4375 4.3375
3.6875 0.4375 4.4
3.6875 0.5 4.3375
3.6875 0.4375 4.3375
3.875 0.4375 4.4
3.875 0.5 4.3375
3.8125 0.5 4.4
3.875 0.4375 4.3375
3.8125 0.4375 4.4
3.8125 0.5 4.3375
3.8125 0.4375 4.3375
4 0.4375 4.4
4 0.5 4.3375
3.9375 0.5 4.4
4 0.4375 4.3375
3.9375 0.4375 4.4
3.9375 0.5 4.3375
3.9375 0.4375 4.3375
0.125 0.5625 4.4
0 0.5625 4.4
0.125 0.625 4.3375
0.0625 0.625 4.4
0 0.625 4.3375
0.125 0.5625 4.3375
0.0625 0.5625 4.4
0 0.5625 4.3375
0.0625 0.625 4.3375
0.0625 0.5625 4.3375
0.25 0.5625 4.4
0.25 0.625 4.3375
0.1875 0.625 4.4
0.25 0.5625 4.3375
0.1875 0.5625 4.4
0.1875 0.625 4.3375
0.1875 0.5625 4.3375
0.375 0.5625 4.4
0.375 0.625 4.3375
0.3125 0.625 4.4
0.375 0.5625 4.3375
0.3125 0.5625 4.4
0.3125 0.625 4.3375
0.3125 0.5625 4.3375
0.5 0.5625 4.4
0.5 0.625 4.3375
0.4375 0.625 4.4
0.5 0.5625 4.3375
0.4375 0.5625 4.4
0.4375 0.625 4.3375
0.4375 0.5625 4.3375
0.625 0.5625 4.4
0.625 0.625 4.3375
0.5625 0.625 4.4
0.625 0.5625 4.3375
0.5625 0.5625 4.4
0.5625 0.625 4.3375
0.5625 0.5625 4.3375
0.75 0.5625 4.4
0.75 0.625 4.3375
0.6875 0.625 4.4
0.75 0.5625 4.3375
0.6875 0.5625 4.4
0.6875 0.625 4.3375
0.6875 0.5625 4.3375
0.875 0.5625 4.4
0.875 0.625 4.3375
0.8125 0.625 4.4
0.875 0.5625 4.3375
0.8125 0.5625 4.4
0.8125 0.625 4.3375
0.8125 0.5625 4.3375
1 0.5625 4.4
1 0.625 4.3375
0.9375 0.625 4.4
1 0.5625 4.3375
0.9375 0.5625 4.4
0.9375 0.625 4.3375
0.9375 0.5625 4.3375
1.125 0.5625 4.4
1.125 0.625 4.3375
1.0625 0.625 4.4
1.125 0.5625 4.3375
1.0625 0.5625 4.4
1.0625 0.625 4.3375
1.0625 0.5625 4.3375
1.25 0.5625 4.4
1.25 0.625 4.3375
1.1875 0.625 4.4
1.25 0.5625 4.3375
1.1875 0.5625 4.4
1.1875 0.625 4.3375
1.1875 0.5625 4.3375
1.375 0.5625 4.4
1.375 0.625 4.3375
1.3125 0.625 4.4
1.375 0.5625 4.3375
1.3125 0.5625 4.4
1.3125 0.625 4.3375
1.3125 0.5625 4.3375
1.5 0.5625 4.4
1.5 0.625 4.3375
1.4375 0.625 4.4
1.5 0.5625 4.3375
1.4375 0.5625 4.4
1.4375 0.625 4.3375
1.4375 0.5625 4.3375
1.625 0.5625 4.4
1.625 0.625 4.3375
1.5625 0.625 4.4
1.625 0.5625 4.3375
1.5625 0.5625 4.4
1.5625 0.625 4.3375
1.5625 0.5625 4.3375
1.75 0.5625 4.4
1.75 0.625 4.3375
1.6875 0.625 4.4
1.75 0.5625 4.3375
1.6875 0.5625 4.4
1.6875 0.625 4.3375
1.6875 0.5625 4.3375
1.875 0.5625 4.4
1.875 0.625 4.3375
1.8125 0.625 4.4
1.875 0.5625 4.3375
1.8125 0.5625 4.4
1.8125 0.625 4.3375
1.8125 0.5625 4.3375
2 0.5625 4.4
2 0.625 4.3375
1.9375 0.625 4.4
2 0.5625 4.3375
1.9375 0.5625 4.4
1.9375 0.625 4.3375
1.9375 0.5625 4.3375
2.125 0.5625 4.4
2.125 0.625 4.3375
2.0625 0.625 4.4
2.125 0.5625 4.3375
2.0625 0.5625 4.4
2.0625 0.625 4.3375
2.0625 0.5625 4.3375
2.25 0.5625 4.4
2.25 0.625 4.3375
2.1875 0.625 4.4
2.25 0.5625 4.3375
2.1875 0.5625 4.4
2.1875 0.625 4.3375
2.1875 0.5625 4.3375
2.375 0.5625 4.4
2.375 0.625 4.3375
2.3125 0.625 4.4
2.375 0.5625 4.3375
2.3125 0.5625 4.4
2.3125 0.625 4.3375
2.3125 0.5625 4.3375
2.5 0.5625 4.4
2.5 0.625 4.3375
2.4375 0.625 4.4
2.5 0.5625 4.3375
2.4375 0.5625 4.4
2.4375 0.625 4.3375
2.4375 0.5625 4.3375
2.625 0.5625 4.4
2.625 0.625 4.3375
2.5625 0.625 4.4
2.625 0.5625 4.3375
2.5625 0.5625 4.4
2.5625 0.625 4.3375
2.5625 0.5625 4.3375
2.75 0.5625 4.4
2.75 0.625 4.3375
2.6875 0.625 4.4
2.75 0.5625 4.3375
2.6875 0.5625 4.4
2.6875 0.625 4.3375
2.6875 0.5625 4.3375
2.875 0.5625 4.4
2.875 0.625 4.3375
2.8125 0.625 4.4
2.875 0.5625 4.3375
2.8125 0.5625 4.4
2.8125 0.625 4.3375
2.8125 0.5625 4.3375
3 0.5625 4.4
3 0.625 4.3375
2.9375 0.625 4.4
3 0.5625 4.3375
2.9375 0.5625 4.4
2.9375 0.625 4.3375
2.9375 0.5625 4.3375
3.125 0.5625 4.4
3.125 0.625 4.3375
3.0625 0.625 4.4
3.125 0.5625 4.3375
3.0625 0.5625 4.4
3.0625 0.625 4.3375
3.0625 0.5625 4.3375
3.25 0.5625 4.4
3.25 0.625 4.3375
3.1875 0.625 4.4
3.25 0.5625 4.3375
3.1875 0.5625 4.4
3.1875 0.625 4.3375
3.1875 0.5625 4.3375
3.375 0.5625 4.4
3.375 0.625 4.3375
3.3125 0.625 4.4
3.375 0.5625 4.3375
3.3125 0.5625 4.4
3.3125 0.625 4.3375
3.3125 0.5625 4.3375
3.5 0.5625 4.4
3.5 0.625 4.3375
3.4375 0.625 4.4
3.5 0.5625 4.3375
3.4375 0.5625 4.4
3.4375 0.625 4.3375
3.4375 0.5625 4.3375
3.625 0.5625 4.4
3.625 0.625 4.3375
3.5625 0.625 4.4
3.625 0.5625 4.3375
3.5625 0.5625 4.4
3.5625 0.625 4.3375
3.5625 0.5625 4.3375
3.75 0.5625 4.4
3.75 0.625 4.3375
3.6875 0.625 4.4
3.75 0.5625 4.3375
3.6875 0.5625 4.4
3.6875 0.625 4.3375
3.6875 0.5625 4.3375
3.875 0.5625 4.4
3.875 0.625 4.3375
3.8125 0.625 4.4
3.875 0.5625 4.3375
3.8125 0.5625 4.4
3.8125 0.625 4.3375
3.8125 0.5625 4.3375
4 0.5625 4.4
4 0.625 4.3375
3.9375 0.625 4.4
4 0.5625 4.3375
3.9375 0.5625 4.4
3.9375 0.625 4.3375
3.9375 0.5625 4.3375
0.125 0.6875 4.4
0 0.6875 4.4
0.125 0.75 4.3375
0.0625 0.75 4.4
0 0.75 4.3375
0.125 0.6875 4.3375
0.0625 0.6875 4.4
0 0.6875 4.3375
0.0625 0.75 4.3375
0.0625 0.6875 4.3375
0.25 0.6875 4.4
0.25 0.75 4.3375
0.1875 0.75 4.4
0.25 0.6875 4.3375
0.1875 0.6875 4.4
0.1875 0.75 4.3375
0.1875 0.6875 4.3375
0.375 0.6875 4.4
0.375 0.75 4.3375
0.3125 0.75 4.4
0.375 0.6875 4.3375
0.3125 0.6875 4.4
0.3125 0.75 4.3375
0.3125 0.6875 4.3375
0.5 0.6875 4.4
0.5 0.75 4.3375
0.4375 0.75 4.4
0.5 0.6875 4.3375
0.4375 0.6875 4.4
0.4375 0.75 4.3375
0.4375 0.6875 4.3375
0.625 0.6875 4.4
0.625 0.75 4.3375
0.5625 0.75 4.4
0.625 0.6875 4.3375
0.5625 0.6875 4.4
0.5625 0.75 4.3375
0.5625 0.6875 4.3375
0.75 0.6875 4.4
0.75 0.75 4.3375
0.6875 0.75 4.4
0.75 0.6875 4.3375
0.6875 0.6875 4.4
0.6875 0.75 4.3375
0.6875 0.6875 4.3375
0.875 0.6875 4.4
0.875 0.75 4.3375
0.8125 0.75 4.4
0.875 0.6875 4.3375
0.8125 0.6875 4.4
0.8125 0.75 4.3375
0.8125 0.6875 4.3375
1 0.6875 4.4
1 0.75 4.3375
0.9375 0.75 4.4
1 0.6875 4.3375
0.9375 0.6875 4.4
0.9375 0.75 4.3375
0.9375 0.6875 4.3375
1.125 0.6875 4.4
1.125 0.75 4.3375
1.0625 0.75 4.4
1.125 0.6875 4.3375
1.0625 0.6875 4.4
1.0625 0.75 4.3375
1.0625 0.6875 4.3375
1.25 0.6875 4.4
1.25 0.75 4.3375
1.1875 0.75 4.4
1.25 0.6875 4.3375
1.1875 0.6875 4.4
1.1875 0.75 4.3375
1.1875 0.6875 4.3375
1.375 0.6875 4.4
1.375 0.75 4.3375
1.3125 0.75 4.4
1.375 0.6875 4.3375
1.3125 0.6875 4.4
1.3125 0.75 4.3375
1.3125 0.6875 4.3375
1.5 0.6875 4.4
1.5 0.75 4.3375
1.4375 0.75 4.4
1.5 0.6875 4.3375
1.4375 0.6875 4.4
1.4375 0.75 4.3375
1.4375 0.6875 4.3375
1.625 0.6875 4.4
1.625 0.75 4.3375
1.5625 0.75 4.4
1.625 0.6875 4.3375
1.5625 0.6875 4.4
1.5625 0.75 4.3375
1.5625 0.6875 4.3375
1.75 0.6875 4.4
1.75 0.75 4.3375
1.6875 0.75 4.4
1.75 0.6875 4.3375
1.6875 0.6875 4.4
1.6875 0.75 4.3375
1.6875 0.6875 4.3375
1.875 0.6875 4.4
1.875 0.75 4.3375
1.8125 0.75 4.4
1.875 0.6875 4.3375
1.8125 0.6875 4.4
1.8125 0.75 4.3375
1.8125 0.6875 4.3375
2 0.6875 4.4
2 0.75 4.3375
1.9375 0.75 4.4
2 0.6875 4.3375
1.9375 0.6875 4.4
1.9375 0.75 4.3375
1.9375 0.6875 4.3375
2.125 0.6875 4.4
2.125 0.75 4.3375
2.0625 0.75 4.4
2.125 0.6875 4.3375
2.0625 0.6875 4.4
2.0625 0.75 4.3375
2.0625 0.6875 4.3375
2.25 0.6875 4.4
2.25 0.75 4.3375
2.1875 0.75 4.4
2.25 0.6875 4.3375
2.1875 0.6875 4.4
2.1875 0.75 4.3375
2.1875 0.6875 4.3375
2.375 0.6875 4.4
2.375 0.75 4.3375
2.3125 0.75 4.4
2.375 0.6875 4.3375
2.3125 0.6875 4.4
2.3125 0.75 4.3375
2.3125 0.6875 4.3375
2.5 0.6875 4.4
2.5 0.75 4.3375
2.4375 0.75 4.4
2.5 0.6875 4.3375
2.4375 0.6875 4.4
2.4375 0.75 4.3375
2.4375 0.6875 4.3375
2.625 0.6875 4.4
2.625 0.75 4.3375
2.5625 0.75 4.4
2.625 0.6875 4.3375
2.5625 0.6875 4.4
2.5625 0.75 4.3375
2.5625 0.6875 4.3375
2.75 0.6875 4.4
2.75 0.75 4.3375
2.6875 0.75 4.4
2.75 0.6875 4.3375
2.6875 0.6875 4.4
2.6875 0.75 4.3375
2.6875 0.6875 4.3375
2.875 0.6875 4.4
2.875 0.75 4.3375
2.8125 0.75 4.4
2.875 0.6875 4.3375
2.8125 0.6875 4.4
2.8125 0.75 4.3375
2.8125 0.6875 4.3375
3 0.6875 4.4
3 0.75 4.3375
2.9375 0.75 4.4
3 0.6875 4.3375
2.9375 0.6875 4.4
2.9375 0.75 4.3375
2.9375 0.6875 4.3375
3.125 0.6875 4.4
3.125 0.75 4.3375
3.0625 0.75 4.4
3.125 0.6875 4.3375
3.0625 0.6875 4.4
3.0625 0.75 4.3375
3.0625 0.6875 4.3375
3.25 0.6875 4.4
3.25 0.75 4.3375
3.1875 0.75 4.4
3.25 0.6875 4.3375
3.1875 0.6875 4.4
3.1875 0.75 4.3375
3.1875 0.6875 4.3375
3.375 0.6875 4.4
3.375 0.75 4.3375
3.3125 0.75 4.4
3.375 0.6875 4.3375
3.3125 0.6875 4.4
3.3125 0.75 4.3375
3.3125 0.6875 4.3375
3.5 0.6875 4.4
3.5 0.75 4.3375
3.4375 0.75 4.4
3.5 0.6875 4.3375
3.4375 0.6875 4.4
3.4375 0.75 4.3375
3.4375 0.6875 4.3375
3.625 0.6875 4.4
3.625 0.75 4.3375
3.5625 0.75 4.4
3.625 0.6875 4.3375
3.5625 0.6875 4.4
3.5625 0.75 4.3375
3.5625 0.6875 4.3375
3.75 0.6875 4.4
3.75 0.75 4.3375
3.6875 0.75 4.4
3.75 0.6875 4.3375
3.6875 0.6875 4.4
3.6875 0.75 4.3375
3.6875 0.6875 4.3375
3.875 0.6875 4.4
3.875 0.75 4.3375
3.8125 0.75 4.4
3.875 0.6875 4.3375
3.8125 0.6875 4.4
3.8125 0.75 4.3375
3.8125 0.6875 4.3375
4 0.6875 4.4
4 0.75 4.3375
3.9375 0.75 4.4
4 0.6875 4.3375
3.9375 0.6875 4.4
3.9375 0.75 4.3375
3.9375 0.6875 4.3375
0.125 0.8125 4.4
0 0.8125 4.4
0.125 0.875 4.3375
0.0625 0.875 4.4
0 0.875 4.3375
0.125 0.8125 4.3375
0.0625 0.8125 4.4
0 0.8125 4.3375
0.0625 0.875 4.3375
0.0625 0.8125 4.3375
0.25 0.8125 4.4
0.25 0.875 4.3375
0.1875 0.875 4.4
0.25 0.8125 4.3375
0.1875 0.8125 4.4
0.1875 0.875 4.3375
0.1875 0.8125 4.3375
0.375 0.8125 4.4
0.375 0.875 4.3375
0.3125 0.875 4.4
0.375 0.8125 4.3375
0.3125 0.8125 4.4
0.3125 0.875 4.3375
0.3125 0.8125 4.3375
0.5 0.8125 4.4
0.5 0.875 4.3375
0.4375 0.875 4.4
0.5 0.8125 4.3375
0.4375 0.8125 4.4
0.4375 0.875 4.3375
0.4375 0.8125 4.3375
0.625 0.8125 4.4
0.625 0.875 4.3375
0.5625 0.875 4.4
0.625 0.8125 4.3375
0.5625 0.8125 4.4
0.5625 0.875 4.3375
0.5625 0.8125 4.3375
0.75 0.8125 4.4
0.75 0.875 4.3375
0.6875 0.875 4.4
0.75 0.8125 4.3375
0.6875 0.8125 4.4
0.6875 0.875 4.3375
0.6875 0.8125 4.3375
0.875 0.8125 4.4
0.875 0.875 4.3375
0.8125 0.875 4.4
0.875 0.8125 4.3375
0.8125 0.8125 4.4
0.8125 0.875 4.3375
0.8125 0.8125 4.3375
1 0.8125 4.4
1 0.875 4.3375
0.9375 0.875 4.4
1 0.8125 4.3375
0.9375 0.8125 4.4
0.9375 0.875 4.3375
0.9375 0.8125 4.3375
1.125 0.8125 4.4
1.125 0.875 4.3375
1.0625 0.875 4.4
1.125 0.8125 4.3375
1.0625 0.8125 4.4
1.0625 0.875 4.3375
1.0625 0.8125 4.3375
1.25 0.8125 4.4
1.25 0.875 4.3375
1.1875 0.875 4.4
1.25 0.8125 4.3375
1.1875 0.8125 4.4
1.1875 0.875 4.3375
1.1875 0.8125 4.3375
1.375 0.8125 4.4
1.375 0.875 4.3375
1.3125 0.875 4.4
1.375 0.8125 4.3375
1.3125 0.8125 4.4
1.3125 0.875 4.3375
1.3125 0.8125 4.3375
1.5 0.8125 4.4
1.5 0.875 4.3375
1.4375 0.875 4.4
1.5 0.8125 4.3375
1.4375 0.8125 4.4
1.4375 0.875 4.3375
1.4375 0.8125 4.3375
1.625 0.8125 4.4
1.625 0.875 4.3375
1.5625 0.875 4.4
1.625 0.8125 4.3375
1.5625 0.8125 4.4
1.5625 0.875 4.3375
1.5625 0.8125 4.3375
1.75 0.8125 4.4
1.75 0.875 4.3375
1.6875 0.875 4.4
1.75 0.8125 4.3375
1.6875 0.8125 4.4
1.6875 0.875 4.3375
1.6875 0.8125 4.3375
1.875 0.8125 4.4
1.875 0.875 4.3375
1.8125 0.875 4.4
1.875 0.8125 4.3375
1.8125 0.8125 4.4
1.8125 0.875 4.3375
1.8125 0.8125 4.3375
2 0.8125 4.4
2 0.875 4.3375
1.9375 0.875 4.4
2 0.8125 4.3375
1.9375 0.8125 4.4
1.9375 0.875 4.3375
1.9375 0.8125 4.3375
2.125 0.8125 4.4
2.125 0.875 4.3375
2.0625 0.875 4.4
2.125 0.8125 4.3375
2.0625 0.8125 4.4
2.0625 0.875 4.3375
2.0625 0.8125 4.3375
2.25 0.8125 4.4
2.25 0.875 4.3375
2.1875 0.875 4.4
2.25 0.8125 4.3375
2.1875 0.8125 4.4
2.1875 0.875 4.3375
2.1875 0.8125 4.3375
2.375 0.8125 4.4
2.375 0.875 4.3375
2.3125 0.875 4.4
2.375 0.8125 4.3375
2.3125 0.8125 4.4
2.3125 0.875 4.3375
2.3125 0.8125 4.3375
2.5 0.8125 4.4
2.5 0.875 4.3375
2.4375 0.875 4.4
2.5 0.8125 4.3375
2.4375 0.8125 4.4
2.4375 0.875 4.3375
2.4375 0.8125 4.3375
2.625 0.8125 4.4
2.625 0.875 4.3375
2.5625 0.875 4.4
2.625 0.8125 4.3375
2.5625 0.8125 4.4
2.5625 0.875 4.3375
2.5625 0.8125 4.3375
2.75 0.8125 4.4
2.75 0.875 4.3375
2.6875 0.875 4.4
2.75 0.8125 4.3375
2.6875 0.8125 4.4
2.6875 0.875 4.3375
2.6875 0.8125 4.3375
2.875 0.8125 4.4
2.875 0.875 4.3375
2.8125 0.875 4.4
2.875 0.8125 4.3375
2.8125 0.8125 4.4
2.8125 0.875 4.3375
2.8125 0.8125 4.3375
3 0.8125 4.4
3 0.875 4.3375
2.9375 0.875 4.4
3 0.8125 4.3375
2.9375 0.8125 4.4
2.9375 0.875 4.3375
2.9375 0.8125 4.3375
3.125 0.8125 4.4
3.125 0.875 4.3375
3.0625 0.875 4.4
3.125 0.8125 4.3375
3.0625 0.8125 4.4
3.0625 0.875 4.3375
3.0625 0.8125 4.3375
3.25 0.8125 4.4
3.25 0.875 4.3375
3.1875 0.875 4.4
3.25 0.8125 4.3375
3.1875 0.8125 4.4
3.1875 0.875 4.3375
3.1875 0.8125 4.3375
3.375 0.8125 4.4
3.375 0.875 4.3375
3.3125 0.875 4.4
3.375 0.8125 4.3375
3.3125 0.8125 4.4
3.3125 0.875 4.3375
3.3125 0.8125 4.3375
3.5 0.8125 4.4
3.5 0.875 4.3375
3.4375 0.875 4.4
3.5 0.8125 4.3375
3.4375 0.8125 4.4
3.4375 0.875 4.3375
3.4375 0.8125 4.3375
3.625 0.8125 4.4
3.625 0.875 4.3375
3.5625 0.875 4.4
3.625 0.8125 4.3375
3.5625 0.8125 4.4
3.5625 0.875 4.3375
3.5625 0.8125 4.3375
3.75 0.8125 4.4
3.75 0.875 4.3375
3.6875 0.875 4.4
3.75 0.8125 4.3375
3.6875 0.8125 4.4
3.6875 0.875 4.3375
3.6875 0.8125 4.3375
3.875 0.8125 4.4
3.875 0.875 4.3375
3.8125 0.875 4.4
3.875 0.8125 4.3375
3.8125 0.8125 4.4
3.8125 0.875 4.3375
3.8125 0.8125 4.3375
4 0.8125 4.4
4 0.875 4.3375
3.9375 0.875 4.4
4 0.8125 4.3375
3.9375 0.8125 4.4
3.9375 0.875 4.3375
3.9375 0.8125 4.3375
0.125 0.9375 4.4
0 0.9375 4.4
0.125 1 4.3375
0.0625 1 4.4
0 1 4.3375
0.125 0.9375 4.3375
0.0625 0.9375 4.4
0 0.9375 4.3375
0.0625 1 4.3375
0.0625 0.9375 4.3375
0.25 0.9375 4.4
0.25 1 4.3375
0.1875 1 4.4
0.25 0.9375 4.3375
0.1875 0.9375 4.4
0.1875 1 4.3375
0.1875 0.9375 4.3375
0.375 0.9375 4.4
0.375 1 4.3375
0.3125 1 4.4
0.375 0.9375 4.3375
0.3125 0.9375 4.4
0.3125 1 4.3375
0.3125 0.9375 4.3375
0.5 0.9375 4.4
0.5 1 4.3375
0.4375 1 4.4
0.5 0.9375 4.3375
0.4375 0.9375 4.4
0.4375 1 4.3375
0.4375 0.9375 4.3375
0.625 0.9375 4.4
0.625 1 4.3375
0.5625 1 4.4
0.625 0.9375 4.3375
0.5625 0.9375 4.4
0.5625 1 4.3375
0.5625 0.9375 4.3375
0.75 0.9375 4.4
0.75 1 4.3375
0.6875 1 4.4
0.75 0.9375 4.3375
0.6875 0.9375 4.4
0.6875 1 4.3375
0.6875 0.9375 4.3375
0.875 0.9375 4.4
0.875 1 4.3375
0.8125 1 4.4
0.875 0.9375 4.3375
0.8125 0.9375 4.4
0.8125 1 4.3375
0.8125 0.9375 4.3375
1 0.9375 4.4
1 1 4.3375
0.9375 1 4.4
1 0.9375 4.3375
0.9375 0.9375 4.4
0.9375 1 4.3375
0.9375 0.9375 4.3375
1.125 0.9375 4.4
1.125 1 4.3375
1.0625 1 4.4
1.125 0.9375 4.3375
1.0625 0.9375 4.4
1.0625 1 4.3375
1.0625 0.9375 4.3375
1.25 0.9375 4.4
1.25 1 4.3375
1.1875 1 4.4
1.25 0.9375 4.3375
1.1875 0.9375 4.4
1.1875 1 4.3375
1.1875 0.9375 4.3375
1.375 0.9375 4.4
1.375 1 4.3375
1.3125 1 4.4
1.375 0.9375 4.3375
1.3125 0.9375 4.4
1.3125 1 4.3375
1.3125 0.9375 4.3375
1.5 0.9375 4.4
1.5 1 4.3375
1.4375 1 4.4
1.5 0.9375 4.3375
1.4375 0.9375 4.4
1.4375 1 4.3375
1.4375 0.9375 4.3375
1.625 0.9375 4.4
1.625 1 4.3375
1.5625 1 4.4
1.625 0.9375 4.3375
1.5625 0.9375 4.4
1.5625 1 4.3375
1.5625 0.9375 4.3375
1.75 0.9375 4.4
1.75 1 4.3375
1.6875 1 4.4
1.75 0.9375 4.3375
1.6875 0.9375 4.4
1.6875 1 4.3375
1.6875 0.9375 4.3375
1.875 0.9375 4.4
1.875 1 4.3375
1.8125 1 4.4
1.875 0.9375 4.3375
1.8125 0.9375 4.4
1.8125 1 4.3375
1.8125 0.9375 4.3375
2 0.9375 4.4
2 1 4.3375
1.9375 1 4.4
2 0.9375 4.3375
1.9375 0.9375 4.4
1.9375 1 4.3375
1.9375 0.9375 4.3375
2.125 0.9375 4.4
2.125 1 4.3375
2.0625 1 4.4
2.125 0.9375 4.3375
2.0625 0.9375 4.4
2.0625 1 4.3375
2.0625 0.9375 4.3375
2.25 0.9375 4.4
2.25 1 4.3375
2.1875 1 4.4
2.25 0.9375 4.3375
2.1875 0.9375 4.4
2.1875 1 4.3375
2.1875 0.9375 4.3375
2.375 0.9375 4.4
2.375 1 4.3375
2.3125 1 4.4
2.375 0.9375 4.3375
2.3125 0.9375 4.4
2.3125 1 4.3375
2.3125 0.9375 4.3375
2.5 0.9375 4.4
2.5 1 4.3375
2.4375 1 4.4
2.5 0.9375 4.3375
2.4375 0.9375 4.4
2.4375 1 4.3375
2.4375 0.9375 4.3375
2.625 0.9375 4.4
2.625 1 4.3375
2.5625 1 4.4
2.625 0.9375 4.3375
2.5625 0.9375 4.4
2.5625 1 4.3375
2.5625 0.9375 4.3375
2.75 0.9375 4.4
2.75 1 4.3375
2.6875 1 4.4
2.75 0.9375 4.3375
2.6875 0.9375 4.4
2.6875 1 4.3375
2.6875 0.9375 4.3375
2.875 0.9375 4.4
2.875 1 4.3375
2.8125 1 4.4
2.875 0.9375 4.3375
2.8125 0.9375 4.4
2.8125 1 4.3375
2.8125 0.9375 4.3375
3 0.9375 4.4
3 1 4.3375
2.9375 1 4.4
3 0.9375 4.3375
2.9375 0.9375 4.4
2.9375 1 4.3375
2.9375 0.9375 4.3375
3.125 0.9375 4.4
3.125 1 4.3375
3.0625 1 4.4
3.125 0.9375 4.3375
3.0625 0.9375 4.4
3.0625 1 4.3375
3.0625 0.9375 4.3375
3.25 0.9375 4.4
3.25 1 4.3375
3.1875 1 4.4
3.25 0.9375 4.3375
3.1875 0.9375 4.4
3.1875 1 4.3375
3.1875 0.9375 4.3375
3.375 0.9375 4.4
3.375 1 4.3375
3.3125 1 4.4
3.375 0.9375 4.3375
3.3125 0.9375 4.4
3.3125 1 4.3375
3.3125 0.9375 4.3375
3.5 0.9375 4.4
3.5 1 4.3375
3.4375 1 4.4
3.5 0.9375 4.3375
3.4375 0.9375 4.4
3.4375 1 4.3375
3.4375 0.9375 4.3375
3.625 0.9375 4.4
3.625 1 4.3375
3.5625 1 4.4
3.625 0.9375 4.3375
3.5625 0.9375 4.4
3.5625 1 4.3375
3.5625 0.9375 4.3375
3.75 0.9375 4.4
3.75 1 4.3375
3.6875 1 4.4
3.75 0.9375 4.3375
3.6875 0.9375 4.4
3.6875 1 4.3375
3.6875 0.9375 4.3375
3.875 0.9375 4.4
3.875 1 4.3375
3.8125 1 4.4
3.875 0.9375 4.3375
3.8125 0.9375 4.4
3.8125 1 4.3375
3.8125 0.9375 4.3375
4 0.9375 4.4
4 1 4.3375
3.9375 1 4.4
4 0.9375 4.3375
3.9375 0.9375 4.4
3.9375 1 4.3375
3.9375 0.9375 4.3375

CELLS 2049 55296
OFFSETS vtktypeint64
0 27 54 81 108 135 162 189 216 243 270 297 324 351 378 405 432 459 486 513 540 567 594 621 648 675 702 729 756 783 810 837 864 891 918 945 972 999 1026 1053 1080 1107 1134 1161 1188 1215 1242 1269 1296 1323 1350 1377 1404 1431 1458 1485 1512 1539 1566 1593 1620 1647 1674 1701 1728 1755 1782 1809 1836 1863 1890 1917 1944 1971 1998 2025 2052 2079 2106 2133 2160 2187 2214 2241 2268 2295 2322 2349 2376 2403 2430 2457 2484 2511 2538 2565 2592 2619 2646 2673 2700 2727 2754 2781 2808 2835 2862 2889 2916 2943 2970 2997 3024 3051 3078 3105 3132 3159 3186 3213 3240 3267 3294 3321 3348 3375 3402 3429 3456 3483 3510 3537 3564 3591 3618 3645 3672 3699 3726 3753 3780 3807 3834 3861 3888 3915 3942 3969 3996 4023 4050 4077 4104 4131 4158 4185 4212 4239 4266 4293 4320 4347 4374 4401 4428 4455 4482 4509 4536 4563 4590 4617 4644 4671 4698 4725 4752 4779 4806 4833 4860 4887 4914 4941 4968 4995 5022 5049 5076 5103 5130 5157 5184 5211 5238 5265 5292 5319 5346 5373 5400 5427 5454 5481 5508 5535 5562 5589 5616 5643 5670 5697 5724 5751 5778 5805 5832 5859 5886 5913 5940 5967 5994 6021 6048 6075 6102 6129 6156 6183 6210 6237 6264 6291 6318 6345 6372 6399 6426 6453 6480 6507 6534 6561 6588 6615 6642 6669 6696 6723 6750 6777 6804 6831 6858 6885 6912 6939 6966 6993 7020 7047 7074 7101 7128 7155 7182 7209 7236 7263 7290 7317 7344 7371 7398 7425 7452 7479 7506 7533 7560 7587 7614 7641 7668 7695 7722 7749 7776 7803 7830 7857 7884 7911 7938 7965 7992 8019 8046 8073 8100 8127 8154 8181 8208 8235 8262 8289 8316 8343 8370 8397 8424 8451 8478 8505 8532 8559 8586 8613 8640 8667 8694 8721 8748 8775 8802 8829 8856 8883 8910 8937 8964 8991 9018 9045 9072 9099 9126 9153 9180 9207 9234 9261 9288 9315 9342 9369 9396 9423 9450 9477 9504 9531 9558 9585 9612 9639 9666 9693 9720 9747 9774 9801 9828 9855 9882 9909 9936 9963 9990 10017 10044 10071 10098 10125 10152 10179 10206 10233 10260 10287 10314 10341 10368 10395 10422 10449 10476 10503 10530 10557 10584 10611 10638 10665 10692 10719 10746 10773 10800 10827 10854 10881 10908 10935 10962 10989 11016 11043 11070 11097 11124 11151 11178 11205 11232 11259 11286 11313 11340 11367 11394 11421 11448 11475 11502 11529 11556 11583 11610 11637 11664 11691 11718 11745 11772 11799 11826 11853 11880 11907 11934 11961 11988 12015 12042 12069 12096 12123 12150 12177 12204 12231 12258 12285 12312 12339 12366 12393 12420 12447 12474 12501 12528 12555 12582 12609 12636 12663 12690 12717 12744 12771 12798 12825 12852 12879 12906 12933 12960 12987 13014 13041 13068 13095 13122 13149 13176 13203 13230 13257 13284 13311 13338 13365 13392 13419 13446 13473 13500 13527 13554 13581 13608 13635 13662 13689 13716 13743 13770 13797 13824 13851 13878 13905 13932 13959 13986 14013 14040 14067 14094 14121 14148 14175 14202 14229 14256 14283 14310 14337 14364 14391 14418 14445 14472 14499 14526 14553 14580 14607 14634 14661 14688 14715 14742 14769 14796 14823 14850 14877 14904 14931 14958 14985 15012 15039 15066 15093 15120 15147 15174 15201 15228 15255 15282 15309 15336 15363 15390 15417 15444 15471 15498 15525 15552 15579 15606 15633 15660 15687 15714 15741 15768 15795 15822 15849 15876 15903 15930 15957 15984 16011 16038 16065 16092 16119 16146 16173 16200 16227 16254 16281 16308 16335 16362 16389 16416 16443 16470 16497 16524 16551 16578 16605 16632 16659 16686 16713 16740 16767 16794 16821 16848 16875 16902 16929 16956 16983 17010 17037 17064 17091 17118 17145 17172 17199 17226 17253 17280 17307 17334 17361 17388 17415 17442 17469 17496 17523 17550 17577 17604 17631 17658 17685 17712 17739 17766 17793 17820 17847 17874 17901 17928 17955 17982 18009 18036 18063 18090 18117 18144 18171 18198 18225 18252 18279 18306 18333 18360 18387 18414 18441 18468 18495 18522 18549 18576 18603 18630 18657 18684 18711 18738 18765 18792 18819 18846 18873 18900 18927 18954 18981 19008 19035 19062 19089 19116 19143 19170 19197 19224 19251 19278 19305 19332 19359 19386 19413 19440 19467 19494 19521 19548 19575 19602 19629 19656 19683 19710 19737 19764 19791 19818 19845 19872 19899 19926 19953 19980 20007 20034 20061 20088 20115 20142 20169 20196 20223 20250 20277 20304 20331 20358 20385 20412 20439 20466 20493 20520 20547 20574 20601 20628 20655 20682 20709 20736 20763 20790 20817 20844 20871 20898 20925 20952 20979 21006 21033 21060 21087 21114 21141 21168 21195 21222 21249 21276 21303 21330 21357 21384 21411 21438 21465 21492 21519 21546 21573 21600 21627 21654 21681 21708 21735 21762 21789 21816 21843 21870 21897 21924 21951 21978 22005 22032 22059 22086 22113 22140 22167 22194 22221 22248 22275 22302 22329 22356 22383 22410 22437 22464 22491 22518 22545 22572 22599 22626 22653 22680 22707 22734 22761 22788 22815 22842 22869 22896 22923 22950 22977 23004 23031 23058 23085 23112 23139 23166 23193 23220 23247 23274 23301 23328 23355 23382 23409 23436 23463 23490 23517 23544 23571 23598 23625 23652 23679 23706 23733 23760 23787 23814 23841 23868 23895 23922 23949 23976 24003 24030 24057 24084 24111 24138 24165 24192 24219 24246 24273 24300 24327 24354 24381 24408 24435 24462 24489 24516 24543 24570 24597 24624 24651 24678 24705 24732 24759 24786 24813 24840 24867 24894 24921 24948 24975 25002 25029 25056 25083 25110 25137 25164 25191 25218 25245 25272 25299 25326 25353 25380 25407 25434 25461 25488 25515 25542 25569 25596 25623 25650 25677 25704 25731 25758 25785 25812 25839 25866 25893 25920 25947 25974 26001 26028 26055 26082 26109 26136 26163 26190 26217 26244 26271 26298 26325 26352 26379 26406 26433 26460 26487 26514 26541 26568 26595 26622 26649 26676 26703 26730 26757 26784 26811 26838 26865 26892 26919 26946 26973 27000 27027 27054 27081 27108 27135 27162 27189 27216 27243 27270 27297 27324 27351 27378 27405 27432 27459 27486 27513 27540 27567 27594 27621 27648 27675 27702 27729 27756 27783 27810 27837 27864 27891 27918 27945 27972 27999 28026 28053 28080 28107 28134 28161 28188 28215 28242 28269 28296 28323 28350 28377 28404 28431 28458 28485 28512 28539 28566 28593 28620 28647 28674 28701 28728 28755 28782 28809 28836 28863 28890 28917 28944 28971 28998 29025 29052 29079 29106 29133 29160 29187 29214 29241 29268 29295 29322 29349 29376 29403 29430 29457 29484 29511 29538 29565 29592 29619 29646 29673 29700 29727 29754 29781 29808 29835 29862 29889 29916 29943 29970 29997 30024 30051 30078 30105 30132 30159 30186 30213 30240 30267 30294 30321 30348 30375 30402 30429 30456 30483 30510 30537 30564 30591 30618 30645 30672 30699 30726 30753 30780 30807 30834 30861 30888 30915 30942 30969 30996 31023 31050 31077 31104 31131 31158 31185 31212 31239 31266 31293 31320 31347 31374 31401 31428 31455 31482 31509 31536 31563 31590 31617 31644 31671 31698 31725 31752 31779 31806 31833 31860 31887 31914 31941 31968 31995 32022 32049 32076 32103 32130 32157 32184 32211 32238 32265 32292 32319 32346 32373 32400 32427 32454 32481 32508 32535 32562 32589 32616 32643 32670 32697 32724 32751 32778 32805 32832 32859 32886 32913 32940 32967 32994 33021 33048 33075 33102 33129 33156 33183 33210 33237 33264 33291 33318 33345 33372 33399 33426 33453 33480 33507 33534 33561 33588 33615 33642 33669 33696 33723 33750 33777 33804 33831 33858 33885 33912 33939 33966 33993 34020 34047 34074 34101 34128 34155 34182 34209 34236 34263 34290 34317 34344 34371 34398 34425 34452 34479 34506 34533 34560 34587 34614 34641 34668 34695 34722 34749 34776 34803 34830 34857 34884 34911 34938 34965 34992 35019 35046 35073 35100 35127 35154 35181 35208 35235 35262 35289 35316 35343 35370 35397 35424 35451 35478 35505 35532 35559 35586 35613 35640 35667 35694 35721 35748 35775 35802 35829 35856 35883 35910 35937 35964 35991 36018 36045 36072 36099 36126 36153 36180 36207 36234 36261 36288 36315 36342 36369 36396 36423 36450 36477 36504 36531 36558 36585 36612 36639 36666 36693 36720 36747 36774 36801 36828 36855 36882 36909 36936 36963 36990 37017 37044 37071 37098 37125 37152 37179 37206 37233 37260 37287 37314 37341 37368 37395 37422 37449 37476 37503 37530 37557 37584 37611 37638 37665 37692 37719 37746 37773 37800 37827 37854 37881 37908 37935 37962 37989 38016 38043 38070 38097 38124 38151 38178 38205 38232 38259 38286 38313 38340 38367 38394 38421 38448 38475 38502 38529 38556 38583 38610 38637 38664 38691 38718 38745 38772 38799 38826 38853 38880 38907 38934 38961 38988 39015 39042 39069 39096 39123 39150 39177 39204 39231 39258 39285 39312 39339 39366 39393 39420 39447 39474 39501 39528 39555 39582 39609 39636 39663 39690 39717 39744 39771 39798 39825 39852 39879 39906 39933 39960 39987 40014 40041 40068 40095 40122 40149 40176 40203 40230 40257 40284 40311 40338 40365 40392 40419 40446 40473 40500 40527 40554 40581 40608 40635 40662 40689 40716 40743 40770 40797 40824 40851 40878 40905 40932 40959 40986 41013 41040 41067 41094 41121 41148 41175 41202 41229 41256 41283 41310 41337 41364 41391 41418 41445 41472 41499 41526 41553 41580 41607 41634 41661 41688 41715 41742 41769 41796 41823 41850 41877 41904 41931 41958 41985 42012 42039 42066 42093 42120 42147 42174 42201 42228 42255 42282 42309 42336 42363 42390 42417 42444 42471 42498 42525 42552 42579 42606 42633 42660 42687 42714 42741 42768 42795 42822 42849 42876 42903 42930 42957 42984 43011 43038 43065 43092 43119 43146 43173 43200 43227 43254 43281 43308 43335 43362 43389 43416 43443 43470 43497 43524 43551 43578 43605 43632 43659 43686 43713 43740 43767 43794 43821 43848 43875 43902 43929 43956 43983 44010 44037 44064 44091 44118 44145 44172 44199 44226 44253 44280 44307 44334 44361 44388 44415 44442 44469 44496 44523 44550 44577 44604 44631 44658 44685 44712 44739 44766 44793 44820 44847 44874 44901 44928 44955 44982 45009 45036 45063 45090 45117 45144 45171 45198 45225 45252 45279 45306 45333 45360 45387 45414 45441 45468 45495 45522 45549 45576 45603 45630 45657 45684 45711 45738 45765 45792 45819 45846 45873 45900 45927 45954 45981 46008 46035 46062 46089 46116 46143 46170 46197 46224 46251 46278 46305 46332 46359 46386 46413 46440 46467 46494 46521 46548 46575 46602 46629 46656 46683 46710 46737 46764 46791 46818 46845 46872 46899 46926 46953 46980 47007 47034 47061 47088 47115 47142 47169 47196 47223 47250 47277 47304 47331 47358 47385 47412 47439 47466 47493 47520 47547 47574 47601 47628 47655 47682 47709 47736 47763 47790 47817 47844 47871 47898 47925 47952 47979 48006 48033 48060 48087 48114 48141 48168 48195 48222 48249 48276 48303 48330 48357 48384 48411 48438 48465 48492 48519 48546 48573 48600 48627 48654 48681 48708 48735 48762 48789 48816 48843 48870 48897 48924 48951 48978 49005 49032 49059 49086 49113 49140 49167 49194 49221 49248 49275 49302 49329 49356 49383 49410 49437 49464 49491 49518 49545 49572 49599 49626 49653 49680 49707 49734 49761 49788 49815 49842 49869 49896 49923 49950 49977 50004 50031 50058 50085 50112 50139 50166 50193 50220 50247 50274 50301 50328 50355 50382 50409 50436 50463 50490 50517 50544 50571 50598 50625 50652 50679 50706 50733 50760 50787 50814 50841 50868 50895 50922 50949 50976 51003 51030 51057 51084 51111 51138 51165 51192 51219 51246 51273 51300 51327 51354 51381 51408 51435 51462 51489 51516 51543 51570 51597 51624 51651 51678 51705 51732 51759 51786 51813 51840 51867 51894 51921 51948 51975 52002 52029 52056 52083 52110 52137 52164 52191 52218 52245 52272 52299 52326 52353 52380 52407 52434 52461 52488 52515 52542 52569 52596 52623 52650 52677 52704 52731 52758 52785 52812 52839 52866 52893 52920 52947 52974 53001 53028 53055 53082 53109 53136 53163 53190 53217 53244 53271 53298 53325 53352 53379 53406 53433 53460 53487 53514 53541 53568 53595 53622 53649 53676 53703 53730 53757 53784 53811 53838 53865 53892 53919 53946 53973 54000 54027 54054 54081 54108 54135 54162 54189 54216 54243 54270 54297 54324 54351 54378 54405 54432 54459 54486 54513 54540 54567 54594 54621 54648 54675 54702 54729 54756 54783 54810 54837 54864 54891 54918 54945 54972 54999 55026 55053 55080 55107 55134 55161 55188 55215 55242 55269 55296 
CONNECTIVITY vtktypeint64
0 1 298 297 33 34 331 330 2673 2674 2675 2676 2681 2682 2683 2684 2677 2678 2679 2680 2689 2687 2686 2688 2685 2690 2691 
1 2 299 298 34 35 332 331 2692 2693 2694 2674 2697 2698 2699 2682 2678 2695 2696 2679 2687 2702 2701 2703 2700 2704 2705 
2 3 300 299 35 36 333 332 2706 2707 2708 2693 2711 2712 2713 2698 2695 2709 2710 2696 2702 2716 2715 2717 2714 2718 2719 
3 4 301 300 36 37 334 333 2720 2721 2722 2707 2725 2726 2727 2712 2709 2723 2724 2710 2716 2730 2729 2731 2728 2732 2733 
4 5 302 301 37 38 335 334 2734 2735 2736 2721 2739 2740 2741 2726 2723 2737 2738 2724 2730 2744 2743 2745 2742 2746 2747 
5 6 303 302 38 39 336 335 2748 2749 2750 2735 2753 2754 2755 2740 2737 2751 2752 2738 2744 2758 2757 2759 2756 2760 2761 
6 7 304 303 39 40 337 336 2762 2763 2764 2749 2767 2768 2769 2754 2751 2765 2766 2752 2758 2772 2771 2773 2770 2774 2775 
7 8 305 304 40 41 338 337 2776 2777 2778 2763 2781 2782 2783 2768 2765 2779 2780 2766 2772 2786 2785 2787 2784 2788 2789 
8 9 306 305 41 42 339 338 2790 2791 2792 2777 2795 2796 2797 2782 2779 2793 2794 2780 2786 2800 2799 2801 2798 2802 2803 
9 10 307 306 42 43 340 339 2804 2805 2806 2791 2809 2810 2811 2796 2793 2807 2808 2794 2800 2814 2813 2815 2812 2816 2817 
10 11 308 307 43 44 341 340 2818 2819 2820 2805 2823 2824 2825 2810 2807 2821 2822 2808 2814 2828 2827 2829 2826 2830 2831 
11 12 309 308 44 45 342 341 2832 2833 2834 2819 2837 2838 2839 2824 2821 2835 2836 2822 2828 2842 2841 2843 2840 2844 2845 
12 13 310 309 45 46 343 342 2846 2847 2848 2833 2851 2852 2853 2838 2835 2849 2850 2836 2842 2856 2855 2857 2854 2858 2859 
13 14 311 310 46 47 344 343 2860 2861 2862 2847 2865 2866 2867 2852 2849 2863 2864 2850 2856 2870 2869 2871 2868 2872 2873 
14 15 312 311 47 48 345 344 2874 2875 2876 2861 2879 2880 2881 2866 2863 2877 2878 2864 2870 2884 2883 2885 2882 2886 2887 
15 16 313 312 48 49 346 345 2888 2889 2890 2875 2893 2894 2895 2880 2877 2891 2892 2878 2884 2898 2897 2899 2896 2900 2901 
16 17 314 313 49 50 347 346 2902 2903 2904 2889 2907 2908 2909 2894 2891 2905 2906 2892 2898 2912 2911 2913 2910 2914 2915 
17 18 315 314 50 51 348 347 2916 2917 2918 2903 2921 2922 2923 2908 2905 2919 2920 2906 2912 2926 2925 2927 2924 2928 2929 
18 19 316 315 51 52 349 348 2930 2931 2932 2917 2935 2936 2937 2922 2919 2933 2934 2920 2926 2940 2939 2941 2938 2942 2943 
19 20 317 316 52 53 350 349 2944 2945 2946 2931 2949 2950 2951 2936 2933 2947 2948 2934 2940 2954 2953 2955 2952 2956 2957 
20 21 318 317 53 54 351 350 2958 2959 2960 2945 2963 2964 2965 2950 2947 2961 2962 2948 2954 2968 2967 2969 2966 2970 2971 
21 22 319 318 54 55 352 351 2972 2973 2974 2959 2977 2978 2979 2964 2961 2975 2976 2962 2968 2982 2981 2983 2980 2984 2985 
22 23 320 319 55 56 353 352 2986 2987 2988 2973 2991 2992 2993 2978 2975 2989 2990 2976 2982 2996 2995 2997 2994 2998 2999 
23 24 321 320 56 57 354 353 3000 3001 3002 2987 3005 3006 3007 2992 2989 3003 3004 2990 2996 3010 3009 3011 3008 3012 3013 
24 25 322 321 57 58 355 354 3014 3015 3016 3001 3019 3020 3021 3006 3003 3017 3018 3004 3010 3024 3023 3025 3022 3026 3027 
25 26 323 322 58 59 356 355 3028 3029 3030 3015 3033 3034 3035 3020 3017 3031 3032 3018 3024 3038 3037 3039 3036 3040 3041 
26 27 324 323 59 60 357 356 3042 3043 3044 3029 3047 3048 3049 3034 3031 3045 3046 3032 3038 3052 3051 3053 3050 3054 3055 
27 28 325 324 60 61 358 357 3056 3057 3058 3043 3061 3062 3063 3048 3045 3059 3060 3046 3052 3066 3065 3067 3064 3068 3069 
28 29 326 325 61 62 359 358 3070 3071 3072 3057 3075 3076 3077 3062 3059 3073 3074 3060 3066 3080 3079 3081 3078 3082 3083 
29 30 327 326 62 63 360 359 3084 3085 3086 3071 3089 3090 3091 3076 3073 3087 3088 3074 3080 3094 3093 3095 3092 3096 3097 
30 31 328 327 63 64 361 360 3098 3099 3100 3085 3103 3104 3105 3090 3087 3101 3102 3088 3094 3108 3107 3109 3106 3110 3111 
31 32 329 328 64 65 362 361 3112 3113 3114 3099 3117 3118 3119 3104 3101 3115 3116 3102 3108 3122 3121 3123 3120 3124 3125 
33 34 331 330 66 67 364 363 2681 2682 2683 2684 3130 3131 3132 3133 3126 3127 3128 3129 3137 3135 3134 3136 2690 3138 3139 
34 35 332 331 67 68 365 364 2697 2698 2699 2682 3142 3143 3144 3131 3127 3140 3141 3128 3135 3146 3145 3147 2704 3148 3149 
35 36 333 332 68 69 366 365 2711 2712 2713 2698 3152 3153 3154 3143 3140 3150 3151 3141 3146 3156 3155 3157 2718 3158 3159 
36 37 334 333 69 70 367 366 2725 2726 2727 2712 3162 3163 3164 3153 3150 3160 3161 3151 3156 3166 3165 3167 2732 3168 3169 
37 38 335 334 70 71 368 367 2739 2740 2741 2726 3172 3173 3174 3163 3160 3170 3171 3161 3166 3176 3175 3177 2746 3178 3179 
38 39 336 335 71 72 369 368 2753 2754 2755 2740 3182 3183 3184 3173 3170 3180 3181 3171 3176 3186 3185 3187 2760 3188 3189 
39 40 337 336 72 73 370 369 2767 2768 2769 2754 3192 3193 3194 3183 3180 3190 3191 3181 3186 3196 3195 3197 2774 3198 3199 
40 41 338 337 73 74 371 370 2781 2782 2783 2768 3202 3203 3204 3193 3190 3200 3201 3191 3196 3206 3205 3207 2788 3208 3209 
41 42 339 338 74 75 372 371 2795 2796 2797 2782 3212 3213 3214 3203 3200 3210 3211 3201 3206 3216 3215 3217 2802 3218 3219 
42 43 340 339 75 76 373 372 2809 2810 2811 2796 3222 3223 3224 3213 3210 3220 3221 3211 3216 3226 3225 3227 2816 3228 3229 
43 44 341 340 76 77 374 373 2823 2824 2825 2810 3232 3233 3234 3223 3220 3230 3231 3221 3226 3236 3235 3237 2830 3238 3239 
44 45 342 341 77 78 375 374 2837 2838 2839 2824 3242 3243 3244 3233 3230 3240 3241 3231 3236 3246 3245 3247 2844 3248 3249 
45 46 343 342 78 79 376 375 2851 2852 2853 2838 3252 3253 3254 3243 3240 3250 3251 3241 3246 3256 3255 3257 2858 3258 3259 
46 47 344 343 79 80 377 376 2865 2866 2867 2852 3262 3263 3264 3253 3250 3260 3261 3251 3256 3266 3265 3267 2872 3268 3269 
47 48 345 344 80 81 378 377 2879 2880 2881 2866 3272 3273 3274 3263 3260 3270 3271 3261 3266 3276 3275 3277 2886 3278 3279 
48 49 346 345 81 82 379 378 2893 2894 2895 2880 3282 3283 3284 3273 3270 3280 3281 3271 3276 3286 3285 3287 2900 3288 3289 
49 50 347 346 82 83 380 379 2907 2908 2909 2894 3292 3293 3294 3283 3280 3290 3291 3281 3286 3296 3295 3297 2914 3298 3299 
50 51 348 347 83 84 381 380 2921 2922 2923 2908 3302 3303 3304 3293 3290 3300 3301 3291 3296 3306 3305 3307 2928 3308 3309 
51 52 349 348 84 85 382 381 2935 2936 2937 2922 3312 3313 3314 3303 3300 3310 3311 3301 3306 3316 3315 3317 2942 3318 3319 
52 53 350 349 85 86 383 382 2949 2950 2951 2936 3322 3323 3324 3313 3310 3320 3321 3311 3316 3326 3325 3327 2956 3328 3329 
53 54 351 350 86 87 384 383 2963 2964 2965 2950 3332 3333 3334 3323 3320 3330 3331 3321 3326 3336 3335 3337 2970 3338 3339 
54 55 352 351 87 88 385 384 2977 2978 2979 2964 3342 3343 3344 3333 3330 3340 3341 3331 3336 3346 3345 3347 2984 3348 3349 
55 56 353 352 88 89 386 385 2991 2992 2993 2978 3352 3353 3354 3343 3340 3350 3351 3341 3346 3356 3355 3357 2998 3358 3359 
56 57 354 353 89 90 387 386 3005 3006 3007 2992 3362 3363 3364 3353 3350 3360 3361 3351 3356 3366 3365 3367 3012 3368 3369 
57 58 355 354 90 91 388 387 3019 3020 3021 3006 3372 3373 3374 3363 3360 3370 3371 3361 3366 3376 3375 3377 3026 3378 3379 
58 59 356 355 91 92 389 388 3033 3034 3035 3020 3382 3383 3384 3373 3370 3380 3381 3371 3376 3386 3385 3387 3040 3388 3389 
59 60 357 356 92 93 390 389 3047 3048 3049 3034 3392 3393 3394 3383 3380 3390 3391 3381 3386 3396 3395 3397 3054 3398 3399 
60 61 358 357 93 94 391 390 3061 3062 3063 3048 3402 3403 3404 3393 3390 3400 3401 3391 3396 3406 3405 3407 3068 3408 3409 
61 62 359 358 94 95 392 391 3075 3076 3077 3062 3412 3413 3414 3403 3400 3410 3411 3401 3406 3416 3415 3417 3082 3418 3419 
62 63 360 359 95 96 393 392 3089 3090 3091 3076 3422 3423 3424 3413 3410 3420 3421 3411 3416 3426 3425 3427 3096 3428 3429 
63 64 361 360 96 97 394 393 3103 3104 3105 3090 3432 3433 3434 3423 3420 3430 3431 3421 3426 3436 3435 3437 3110 3438 3439 
64 65 362 361 97 98 395 394 3117 3118 3119 3104 3442 3443 3444 3433 3430 3440 3441 3431 3436 3446 3445 3447 3124 3448 3449 
66 67 364 363 99 100 397 396 3130 3131 3132 3133 3454 3455 3456 3457 3450 3451 3452 3453 3461 3459 3458 3460 3138 3462 3463 
67 68 365 364 100 101 398 397 3142 3143 3144 3131 3466 3467 3468 3455 3451 3464 3465 3452 3459 3470 3469 3471 3148 3472 3473 
68 69 366 365 101 102 399 398 3152 3153 3154 3143 3476 3477 3478 3467 3464 3474 3475 3465 3470 3480 3479 3481 3158 3482 3483 
69 70 367 366 102 103 400 399 3162 3163 3164 3153 3486 3487 3488 3477 3474 3484 3485 3475 3480 3490 3489 3491 3168 3492 3493 
70 71 368 367 103 104 401 400 3172 3173 3174 3163 3496 3497 3498 3487 3484 3494 3495 3485 3490 3500 3499 3501 3178 3502 3503 
71 72 369 368 104 105 402 401 3182 3183 3184 3173 3506 3507 3508 3497 3494 3504 3505 3495 3500 3510 3509 3511 3188 3512 3513 
72 73 370 369 105 106 403 402 3192 3193 3194 3183 3516 3517 3518 3507 3504 3514 3515 3505 3510 3520 3519 3521 3198 3522 3523 
73 74 371 370 106 107 404 403 3202 3203 3204 3193 3526 3527 3528 3517 3514 3524 3525 3515 3520 3530 3529 3531 3208 3532 3533 
74 75 372 371 107 108 405 404 3212 3213 3214 3203 3536 3537 3538 3527 3524 3534 3535 3525 3530 3540 3539 3541 3218 3542 3543 
75 76 373 372 108 109 406 405 3222 3223 3224 3213 3546 3547 3548 3537 3534 3544 3545 3535 3540 3550 3549 3551 3228 3552 3553 
76 77 374 373 109 110 407 406 3232 3233 3234 3223 3556 3557 3558 3547 3544 3554 3555 3545 3550 3560 3559 3561 3238 3562 3563 
77 78 375 374 110 111 408 407 3242 3243 3244 3233 3566 3567 3568 3557 3554 3564 3565 3555 3560 3570 3569 3571 3248 3572 3573 
78 79 376 375 111 112 409 408 3252 3253 3254 3243 3576 3577 3578 3567 3564 3574 3575 3565 3570 3580 3579 3581 3258 3582 3583 
79 80 377 376 112 113 410 409 3262 3263 3264 3253 3586 3587 3588 3577 3574 3584 3585 3575 3580 3590 3589 3591 3268 3592 3593 
80 81 378 377 113 114 411 410 3272 3273 3274 3263 3596 3597 3598 3587 3584 3594 3595 3585 3590 3600 3599 3601 3278 3602 3603 
81 82 379 378 114 115 412 411 3282 3283 3284 3273 3606 3607 3608 3597 3594 3604 3605 3595 3600 3610 3609 3611 3288 3612 3613 
82 83 380 379 115 116 413 412 3292 3293 3294 3283 3616 3617 3618 3607 3604 3614 3615 3605 3610 3620 3619 3621 3298 3622 3623 
83 84 381 380 116 117 414 413 3302 3303 3304 3293 3626 3627 3628 3617 3614 3624 3625 3615 3620 3630 3629 3631 3308 3632 3633 
84 85 382 381 117 118 415 414 3312 3313 3314 3303 3636 3637 3638 3627 3624 3634 3635 3625 3630 3640 3639 3641 3318 3642 3643 
85 86 383 382 118 119 416 415 3322 3323 3324 3313 3646 3647 3648 3637 3634 3644 3645 3635 3640 3650 3649 3651 3328 3652 3653 
86 87 384 383 119 120 417 416 3332 3333 3334 3323 3656 3657 3658 3647 3644 3654 3655 3645 3650 3660 3659 3661 3338 3662 3663 
87 88 385 384 120 121 418 417 3342 3343 3344 3333 3666 3667 3668 3657 3654 3664 3665 3655 3660 3670 3669 3671 3348 3672 3673 
88 89 386 385 121 122 419 418 3352 3353 3354 3343 3676 3677 3678 3667 3664 3674 3675 3665 3670 3680 3679 3681 3358 3682 3683 
89 90 387 386 122 123 420 419 3362 3363 3364 3353 3686 3687 3688 3677 3674 3684 3685 3675 3680 3690 3689 3691 3368 3692 3693 
90 91 388 387 123 124 421 420 3372 3373 3374 3363 3696 3697 3698 3687 3684 3694 3695 3685 3690 3700 3699 3701 3378 3702 3703 
91 92 389 388 124 125 422 421 3382 3383 3384 3373 3706 3707 3708 3697 3694 3704 3705 3695 3700 3710 3709 3711 3388 3712 3713 
92 93 390 389 125 126 423 422 3392 3393 3394 3383 3716 3717 3718 3707 3704 3714 3715 3705 3710 3720 3719 3721 3398 3722 3723 
93 94 391 390 126 127 424 423 3402 3403 3404 3393 3726 3727 3728 3717 3714 3724 3725 3715 3720 3730 3729 3731 3408 3732 3733 
94 95 392 391 127 128 425 424 3412 3413 3414 3403 3736 3737 3738 3727 3724 3734 3735 3725 3730 3740 3739 3741 3418 3742 3743 
95 96 393 392 128 129 426 425 3422 3423 3424 3413 3746 3747 3748 3737 3734 3744 3745 3735 3740 3750 3749 3751 3428 3752 3753 
96 97 394 393 129 130 427 426 3432 3433 3434 3423 3756 3757 3758 3747 3744 3754 3755 3745 3750 3760 3759 3761 3438 3762 3763 
97 98 395 394 130 131 428 427 3442 3443 3444 3433 3766 3767 3768 3757 3754 3764 3765 3755 3760 3770 3769 3771 3448 3772 3773 
99 100 397 396 132 133 430 429 3454 3455 3456 3457 3778 3779 3780 3781 3774 3775 3776 3777 3785 3783 3782 3784 3462 3786 3787 
100 101 398 397 133 134 431 430 3466 3467 3468 3455 3790 3791 3792 3779 3775 3788 3789 3776 3783 3794 3793 3795 3472 3796 3797 
101 102 399 398 134 135 432 431 3476 3477 3478 3467 3800 3801 3802 3791 3788 3798 3799 3789 3794 3804 3803 3805 3482 3806 3807 
102 103 400 399 135 136 433 432 3486 3487 3488 3477 3810 3811 3812 3801 3798 3808 3809 3799 3804 3814 3813 3815 3492 3816 3817 
103 104 401 400 136 137 434 433 3496 3497 3498 3487 3820 3821 3822 3811 3808 3818 3819 3809 3814 3824 3823 3825 3502 3826 3827 
104 105 402 401 137 138 435 434 3506 3507 3508 3497 3830 3831 3832 3821 3818 3828 3829 3819 3824 3834 3833 3835 3512 3836 3837 
105 106 403 402 138 139 436 435 3516 3517 3518 3507 3840 3841 3842 3831 3828 3838 3839 3829 3834 3844 3843 3845 3522 3846 3847 
106 107 404 403 139 140 437 436 3526 3527 3528 3517 3850 3851 3852 3841 3838 3848 3849 3839 3844 3854 3853 3855 3532 3856 3857 
107 108 405 404 140 141 438 437 3536 3537 3538 3527 3860 3861 3862 3851 3848 3858 3859 3849 3854 3864 3863 3865 3542 3866 3867 
108 109 406 405 141 142 439 438 3546 3547 3548 3537 3870 3871 3872 3861 3858 3868 3869 3859 3864 3874 3873 3875 3552 3876 3877 
109 110 407 406 142 143 440 439 3556 3557 3558 3547 3880 3881 3882 3871 3868 3878 3879 3869 3874 3884 3883 3885 3562 3886 3887 
110 111 408 407 143 144 441 440 3566 3567 3568 3557 3890 3891 3892 3881 3878 3888 3889 3879 3884 3894 3893 3895 3572 3896 3897 
111 112 409 408 144 145 442 441 3576 3577 3578 3567 3900 3901 3902 3891 3888 3898 3899 3889 3894 3904 3903 3905 3582 3906 3907 
112 113 410 409 145 146 443 442 3586 3587 3588 3577 3910 3911 3912 3901 3898 3908 3909 3899 3904 3914 3913 3915 3592 3916 3917 
113 114 411 410 146 147 444 443 3596 3597 3598 3587 3920 3921 3922 3911 3908 3918 3919 3909 3914 3924 3923 3925 3602 3926 3927 
114 115 412 411 147 148 445 444 3606 3607 3608 3597 3930 3931 3932 3921 3918 3928 3929 3919 3924 3934 3933 3935 3612 3936 3937 
115 116 413 412 148 149 446 445 3616 3617 3618 3607 3940 3941 3942 3931 3928 3938 3939 3929 3934 3944 3943 3945 3622 3946 3947 
116 117 414 413 149 150 447 446 3626 3627 3628 3617 3950 3951 3952 3941 3938 3948 3949 3939 3944 3954 3953 3955 3632 3956 3957 
117 118 415 414 150 151 448 447 3636 3637 3638 3627 3960 3961 3962 3951 3948 3958 3959 3949 3954 3964 3963 3965 3642 3966 3967 
118 119 416 415 151 152 449 448 3646 3647 3648 3637 3970 3971 3972 3961 3958 3968 3969 3959 3964 3974 3973 3975 3652 3976 3977 
119 120 417 416 152 153 450 449 3656 3657 3658 3647 3980 3981 3982 3971 3968 3978 3979 3969 3974 3984 3983 3985 3662 3986 3987 
120 121 418 417 153 154 451 450 3666 3667 3668 3657 3990 3991 3992 3981 3978 3988 3989 3979 3984 3994 3993 3995 3672 3996 3997 
121 122 419 418 154 155 452 451 3676 3677 3678 3667 4000 4001 4002 3991 3988 3998 3999 3989 3994 4004 4003 4005 3682 4006 4007 
122 123 420 419 155 156 453 452 3686 3687 3688 3677 4010 4011 4012 4001 3998 4008 4009 3999 4004 4014 4013 4015 3692 4016 4017 
123 124 421 420 156 157 454 453 3696 3697 3698 3687 4020 4021 4022 4011 4008 4018 4019 4009 4014 4024 4023 4025 3702 4026 4027 
124 125 422 421 157 158 455 454 3706 3707 3708 3697 4030 4031 4032 4021 4018 4028 4029 4019 4024 4034 4033 4035 3712 4036 4037 
125 126 423 422 158 159 456 455 3716 3717 3718 3707 4040 4041 4042 4031 4028 4038 4039 4029 4034 4044 4043 4045 3722 4046 4047 
126 127 424 423 159 160 457 456 3726 3727 3728 3717 4050 4051 4052 4041 4038 4048 4049 4039 4044 4054 4053 4055 3732 4056 4057 
127 128 425 424 160 161 458 457 3736 3737 3738 3727 4060 4061 4062 4051 4048 4058 4059 4049 4054 4064 4063 4065 3742 4066 4067 
128 129 426 425 161 162 459 458 3746 3747 3748 3737 4070 4071 4072 4061 4058 4068 4069 4059 4064 4074 4073 4075 3752 4076 4077 
129 130 427 426 162 163 460 459 3756 3757 3758 3747 4080 4081 4082 4071 4068 4078 4079 4069 4074 4084 4083 4085 3762 4086 4087 
130 131 428 427 163 164 461 460 3766 3767 3768 3757 4090 4091 4092 4081 4078 4088 4089 4079 4084 4094 4093 4095 3772 4096 4097 
132 133 430 429 165 166 463 462 3778 3779 3780 3781 4102 4103 4104 4105 4098 4099 4100 4101 4109 4107 4106 4108 3786 4110 4111 
133 134 431 430 166 167 464 463 3790 3791 3792 3779 4114 4115 4116 4103 4099 4112 4113 4100 4107 4118 4117 4119 3796 4120 4121 
134 135 432 431 167 168 465 464 3800 3801 3802 3791 4124 4125 4126 4115 4112 4122 4123 4113 4118 4128 4127 4129 3806 4130 4131 
135 136 433 432 168 169 466 465 3810 3811 3812 3801 4134 4135 4136 4125 4122 4132 4133 4123 4128 4138 4137 4139 3816 4140 4141 
136 137 434 433 169 170 467 466 3820 3821 3822 3811 4144 4145 4146 4135 4132 4142 4143 4133 4138 4148 4147 4149 3826 4150 4151 
137 138 435 434 170 171 468 467 3830 3831 3832 3821 4154 4155 4156 4145 4142 4152 4153 4143 4148 4158 4157 4159 3836 4160 4161 
138 139 436 435 171 172 469 468 3840 3841 3842 3831 4164 4165 4166 4155 4152 4162 4163 4153 4158 4168 4167 4169 3846 4170 4171 
139 140 437 436 172 173 470 469 3850 3851 3852 3841 4174 4175 4176 4165 4162 4172 4173 4163 4168 4178 4177 4179 3856 4180 4181 
140 141 438 437 173 174 471 470 3860 3861 3862 3851 4184 4185 4186 4175 4172 4182 4183 4173 4178 4188 4187 4189 3866 4190 4191 
141 142 439 438 174 175 472 471 3870 3871 3872 3861 4194 4195 4196 4185 4182 4192 4193 4183 4188 4198 4197 4199 3876 4200 4201 
142 143 440 439 175 176 473 472 3880 3881 3882 3871 4204 4205 4206 4195 4192 4202 4203 4193 4198 4208 4207 4209 3886 4210 4211 
143 144 441 440 176 177 474 473 3890 3891 3892 3881 4214 4215 4216 4205 4202 4212 4213 4203 4208 4218 4217 4219 3896 4220 4221 
144 145 442 441 177 178 475 474 3900 3901 3902 3891 4224 4225 4226 4215 4212 4222 4223 4213 4218 4228 4227 4229 3906 4230 4231 
145 146 443 442 178 179 476 475 3910 3911 3912 3901 4234 4235 4236 4225 4222 4232 4233 4223 4228 4238 4237 4239 3916 4240 4241 
146 147 444 443 179 180 477 476 3920 3921 3922 3911 4244 4245 4246 4235 4232 4242 4243 4233 4238 4248 4247 4249 3926 4250 4251 
147 148 445 444 180 181 478 477 3930 3931 3932 3921 4254 4255 4256 4245 4242 4252 4253 4243 4248 4258 4257 4259 3936 4260 4261 
148 149 446 445 181 182 479 478 3940 3941 3942 3931 4264 4265 4266 4255 4252 4262 4263 4253 4258 4268 4267 4269 3946 4270 4271 
149 150 447 446 182 183 480 479 3950 3951 3952 3941 4274 4275 4276 4265 4262 4272 4273 4263 4268 4278 4277 4279 3956 4280 4281 
150 151 448 447 183 184 481 480 3960 3961 3962 3951 4284 4285 4286 4275 4272 4282 4283 4273 4278 4288 4287 4289 3966 4290 4291 
151 152 449 448 184 185 482 481 3970 3971 3972 3961 4294 4295 4296 4285 4282 4292 4293 4283 4288 4298 4297 4299 3976 4300 4301 
152 153 450 449 185 186 483 482 3980 3981 3982 3971 4304 4305 4306 4295 4292 4302 4303 4293 4298 4308 4307 4309 3986 4310 4311 
153 154 451 450 186 187 484 483 3990 3991 3992 3981 4314 4315 4316 4305 4302 4312 4313 4303 4308 4318 4317 4319 3996 4320 4321 
154 155 452 451 187 188 485 484 4000 4001 4002 3991 4324 4325 4326 4315 4312 4322 4323 4313 4318 4328 4327 4329 4006 4330 4331 
155 156 453 452 188 189 486 485 4010 4011 4012 4001 4334 4335 4336 4325 4322 4332 4333 4323 4328 4338 4337 4339 4016 4340 4341 
156 157 454 453 189 190 487 486 4020 4021 4022 4011 4344 4345 4346 4335 4332 4342 4343 4333 4338 4348 4347 4349 4026 4350 4351 
157 158 455 454 190 191 488 487 4030 4031 4032 4021 4354 4355 4356 4345 4342 4352 4353 4343 4348 4358 4357 4359 4036 4360 4361 
158 159 456 455 191 192 489 488 4040 4041 4042 4031 4364 4365 4366 4355 4352 4362 4363 4353 4358 4368 4367 4369 4046 4370 4371 
159 160 457 456 192 193 490 489 4050 4051 4052 4041 4374 4375 4376 4365 4362 4372 4373 4363 4368 4378 4377 4379 4056 4380 4381 
160 161 458 457 193 194 491 490 4060 4061 4062 4051 4384 4385 4386 4375 4372 4382 4383 4373 4378 4388 4387 4389 4066 4390 4391 
161 162 459 458 194 195 492 491 4070 4071 4072 4061 4394 4395 4396 4385 4382 4392 4393 4383 4388 4398 4397 4399 4076 4400 4401 
162 163 460 459 195 196 493 492 4080 4081 4082 4071 4404 4405 4406 4395 4392 4402 4403 4393 4398 4408 4407 4409 4086 4410 4411 
163 164 461 460 196 197 494 493 4090 4091 4092 4081 4414 4415 4416 4405 4402 4412 4413 4403 4408 4418 4417 4419 4096 4420 4421 
165 166 463 462 198 199 496 495 4102 4103 4104 4105 4426 4427 4428 4429 4422 4423 4424 4425 4433 4431 4430 4432 4110 4434 4435 
166 167 464 463 199 200 497 496 4114 4115 4116 4103 4438 4439 4440 4427 4423 4436 4437 4424 4431 4442 4441 4443 4120 4444 4445 
167 168 465 464 200 201 498 497 4124 4125 4126 4115 4448 4449 4450 4439 4436 4446 4447 4437 4442 4452 4451 4453 4130 4454 4455 
168 169 466 465 201 202 499 498 4134 4135 4136 4125 4458 4459 4460 4449 4446 4456 4457 4447 4452 4462 4461 4463 4140 4464 4465 
169 170 467 466 202 203 500 499 4144 4145 4146 4135 4468 4469 4470 4459 4456 4466 4467 4457 4462 4472 4471 4473 4150 4474 4475 
170 171 468 467 203 204 501 500 4154 4155 4156 4145 4478 4479 4480 4469 4466 4476 4477 4467 4472 4482 4481 4483 4160 4484 4485 
171 172 469 468 204 205 502 501 4164 4165 4166 4155 4488 4489 4490 4479 4476 4486 4487 4477 4482 4492 4491 4493 4170 4494 4495 
172 173 470 469 205 206 503 502 4174 4175 4176 4165 4498 4499 4500 4489 4486 4496 4497 4487 4492 4502 4501 4503 4180 4504 4505 
173 174 471 470 206 207 504 503 4184 4185 4186 4175 4508 4509 4510 4499 4496 4506 4507 4497 4502 4512 4511 4513 4190 4514 4515 
174 175 472 471 207 208 505 504 4194 4195 4196 4185 4518 4519 4520 4509 4506 4516 4517 4507 4512 4522 4521 4523 4200 4524 4525 
175 176 473 472 208 209 506 505 4204 4205 4206 4195 4528 4529 4530 4519 4516 4526 4527 4517 4522 4532 4531 4533 4210 4534 4535 
176 177 474 473 209 210 507 506 4214 4215 4216 4205 4538 4539 4540 4529 4526 4536 4537 4527 4532 4542 4541 4543 4220 4544 4545 
177 178 475 474 210 211 508 507 4224 4225 4226 4215 4548 4549 4550 4539 4536 4546 4547 4537 4542 4552 4551 4553 4230 4554 4555 
178 179 476 475 211 212 509 508 4234 4235 4236 4225 4558 4559 4560 4549 4546 4556 4557 4547 4552 4562 4561 4563 4240 4564 4565 
179 180 477 476 212 213 510 509 4244 4245 4246 4235 4568 4569 4570 4559 4556 4566 4567 4557 4562 4572 4571 4573 4250 4574 4575 
180 181 478 477 213 214 511 510 4254 4255 4256 4245 4578 4579 4580 4569 4566 4576 4577 4567 4572 4582 4581 4583 4260 4584 4585 
181 182 479 478 214 215 512 511 4264 4265 4266 4255 4588 4589 4590 4579 4576 4586 4587 4577 4582 4592 4591 4593 4270 4594 4595 
182 183 480 479 215 216 513 512 4274 4275 4276 4265 4598 4599 4600 4589 4586 4596 4597 4587 4592 4602 4601 4603 4280 4604 4605 
183 184 481 480 216 217 514 513 4284 4285 4286 4275 4608 4609 4610 4599 4596 4606 4607 4597 4602 4612 4611 4613 4290 4614 4615 
184 185 482 481 217 218 515 514 4294 4295 4296 4285 4618 4619 4620 4609 4606 4616 4617 4607 4612 4622 4621 4623 4300 4624 4625 
185 186 483 482 218 219 516 515 4304 4305 4306 4295 4628 4629 4630 4619 4616 4626 4627 4617 4622 4632 4631 4633 4310 4634 4635 
186 187 484 483 219 220 517 516 4314 4315 4316 4305 4638 4639 4640 4629 4626 4636 4637 4627 4632 4642 4641 4643 4320 4644 4645 
187 188 485 484 220 221 518 517 4324 4325 4326 4315 4648 4649 4650 4639 4636 4646 4647 4637 4642 4652 4651 4653 4330 4654 4655 
188 189 486 485 221 222 519 518 4334 4335 4336 4325 4658 4659 4660 4649 4646 4656 4657 4647 4652 4662 4661 4663 4340 4664 4665 
189 190 487 486 222 223 520 519 4344 4345 4346 4335 4668 4669 4670 4659 4656 4666 4667 4657 4662 4672 4671 4673 4350 4674 4675 
190 191 488 487 223 224 521 520 4354 4355 4356 4345 4678 4679 4680 4669 4666 4676 4677 4667 4672 4682 4681 4683 4360 4684 4685 
191 192 489 488 224 225 522 521 4364 4365 4366 4355 4688 4689 4690 4679 4676 4686 4687 4677 4682 4692 4691 4693 4370 4694 4695 
192 193 490 489 225 226 523 522 4374 4375 4376 4365 4698 4699 4700 4689 4686 4696 4697 4687 4692 4702 4701 4703 4380 4704 4705 
193 194 491 490 226 227 524 523 4384 4385 4386 4375 4708 4709 4710 4699 4696 4706 4707 4697 4702 4712 4711 4713 4390 4714 4715 
194 195 492 491 227 228 525 524 4394 4395 4396 4385 4718 4719 4720 4709 4706 4716 4717 4707 4712 4722 4721 4723 4400 4724 4725 
195 196 493 492 228 229 526 525 4404 4405 4406 4395 4728 4729 4730 4719 4716 4726 4727 4717 4722 4732 4731 4733 4410 4734 4735 
196 197 494 493 229 230 527 526 4414 4415 4416 4405 4738 4739 4740 4729 4726 4736 4737 4727 4732 4742 4741 4743 4420 4744 4745 
198 199 496 495 231 232 529 528 4426 4427 4428 4429 4750 4751 4752 4753 4746 4747 4748 4749 4757 4755 4754 4756 4434 4758 4759 
199 200 497 496 232 233 530 529 4438 4439 4440 4427 4762 4763 4764 4751 4747 4760 4761 4748 4755 4766 4765 4767 4444 4768 4769 
200 201 498 497 233 234 531 530 4448 4449 4450 4439 4772 4773 4774 4763 4760 4770 4771 4761 4766 4776 4775 4777 4454 4778 4779 
201 202 499 498 234 235 532 531 4458 4459 4460 4449 4782 4783 4784 4773 4770 4780 4781 4771 4776 4786 4785 4787 4464 4788 4789 
202 203 500 499 235 236 533 532 4468 4469 4470 4459 4792 4793 4794 4783 4780 4790 4791 4781 4786 4796 4795 4797 4474 4798 4799 
203 204 501 500 236 237 534 533 4478 4479 4480 4469 4802 4803 4804 4793 4790 4800 4801 4791 4796 4806 4805 4807 4484 4808 4809 
204 205 502 501 237 238 535 534 4488 4489 4490 4479 4812 4813 4814 4803 4800 4810 4811 4801 4806 4816 4815 4817 4494 4818 4819 
205 206 503 502 238 239 536 535 4498 4499 4500 4489 4822 4823 4824 4813 4810 4820 4821 4811 4816 4826 4825 4827 4504 4828 4829 
206 207 504 503 239 240 537 536 4508 4509 4510 4499 4832 4833 4834 4823 4820 4830 4831 4821 4826 4836 4835 4837 4514 4838 4839 
207 208 505 504 240 241 538 537 4518 4519 4520 4509 4842 4843 4844 4833 4830 4840 4841 4831 4836 4846 4845 4847 4524 4848 4849 
208 209 506 505 241 242 539 538 4528 4529 4530 4519 4852 4853 4854 4843 4840 4850 4851 4841 4846 4856 4855 4857 4534 4858 4859 
209 210 507 506 242 243 540 539 4538 4539 4540 4529 4862 4863 4864 4853 4850 4860 4861 4851 4856 4866 4865 4867 4544 4868 4869 
210 211 508 507 243 244 541 540 4548 4549 4550 4539 4872 4873 4874 4863 4860 4870 4871 4861 4866 4876 4875 4877 4554 4878 4879 
211 212 509 508 244 245 542 541 4558 4559 4560 4549 4882 4883 4884 4873 4870 4880 4881 4871 4876 4886 4885 4887 4564 4888 4889 
212 213 510 509 245 246 543 542 4568 4569 4570 4559 4892 4893 4894 4883 4880 4890 4891 4881 4886 4896 4895 4897 4574 4898 4899 
213 214 511 510 246 247 544 543 4578 4579 4580 4569 4902 4903 4904 4893 4890 4900 4901 4891 4896 4906 4905 4907 4584 4908 4909 
214 215 512 511 247 248 545 544 4588 4589 4590 4579 4912 4913 4914 4903 4900 4910 4911 4901 4906 4916 4915 4917 4594 4918 4919 
215 216 513 512 248 249 546 545 4598 4599 4600 4589 4922 4923 4924 4913 4910 4920 4921 4911 4916 4926 4925 4927 4604 4928 4929 
216 217 514 513 249 250 547 546 4608 4609 4610 4599 4932 4933 4934 4923 4920 4930 4931 4921 4926 4936 4935 4937 4614 4938 4939 
217 218 515 514 250 251 548 547 4618 4619 4620 4609 4942 4943 4944 4933 4930 4940 4941 4931 4936 4946 4945 4947 4624 4948 4949 
218 219 516 515 251 252 549 548 4628 4629 4630 4619 4952 4953 4954 4943 4940 4950 4951 4941 4946 4956 4955 4957 4634 4958 4959 
219 220 517 516 252 253 550 549 4638 4639 4640 4629 4962 4963 4964 4953 4950 4960 4961 4951 4956 4966 4965 4967 4644 4968 4969 
220 221 518 517 253 254 551 550 4648 4649 4650 4639 4972 4973 4974 4963 4960 4970 4971 4961 4966 4976 4975 4977 4654 4978 4979 
221 222 519 518 254 255 552 551 4658 4659 4660 4649 4982 4983 4984 4973 4970 4980 4981 4971 4976 4986 4985 4987 4664 4988 4989 
222 223 520 519 255 256 553 552 4668 4669 4670 4659 4992 4993 4994 4983 4980 4990 4991 4981 4986 4996 4995 4997 4674 4998 4999 
223 224 521 520 256 257 554 553 4678 4679 4680 4669 5002 5003 5004 4993 4990 5000 5001 4991 4996 5006 5005 5007 4684 5008 5009 
224 225 522 521 257 258 555 554 4688 4689 4690 4679 5012 5013 5014 5003 5000 5010 5011 5001 5006 5016 5015 5017 4694 5018 5019 
225 226 523 522 258 259 556 555 4698 4699 4700 4689 5022 5023 5024 5013 5010 5020 5021 5011 5016 5026 5025 5027 4704 5028 5029 
226 227 524 523 259 260 557 556 4708 4709 4710 4699 5032 5033 5034 5023 5020 5030 5031 5021 5026 5036 5035 5037 4714 5038 5039 
227 228 525 524 260 261 558 557 4718 4719 4720 4709 5042 5043 5044 5033 5030 5040 5041 5031 5036 5046 5045 5047 4724 5048 5049 
228 229 526 525 261 262 559 558 4728 4729 4730 4719 5052 5053 5054 5043 5040 5050 5051 5041 5046 5056 5055 5057 4734 5058 5059 
229 230 527 526 262 263 560 559 4738 4739 4740 4729 5062 5063 5064 5053 5050 5060 5061 5051 5056 5066 5065 5067 4744 5068 5069 
231 232 529 528 264 265 562 561 4750 4751 4752 4753 5074 5075 5076 5077 5070 5071 5072 5073 5081 5079 5078 5080 4758 5082 5083 
232 233 530 529 265 266 563 562 4762 4763 4764 4751 5086 5087 5088 5075 5071 5084 5085 5072 5079 5090 5089 5091 4768 5092 5093 
233 234 531 530 266 267 564 563 4772 4773 4774 4763 5096 5097 5098 5087 5084 5094 5095 5085 5090 5100 5099 5101 4778 5102 5103 
234 235 532 531 267 268 565 564 4782 4783 4784 4773 5106 5107 5108 5097 5094 5104 5105 5095 5100 5110 5109 5111 4788 5112 5113 
235 236 533 532 268 269 566 565 4792 4793 4794 4783 5116 5117 5118 5107 5104 5114 5115 5105 5110 5120 5119 5121 4798 5122 5123 
236 237 534 533 269 270 567 566 4802 4803 4804 4793 5126 5127 5128 5117 5114 5124 5125 5115 5120 5130 5129 5131 4808 5132 5133 
237 238 535 534 270 271 568 567 4812 4813 4814 4803 5136 5137 5138 5127 5124 5134 5135 5125 5130 5140 5139 5141 4818 5142 5143 
238 239 536 535 271 272 569 568 4822 4823 4824 4813 5146 5147 5148 5137 5134 5144 5145 5135 5140 5150 5149 5151 4828 5152 5153 
239 240 537 536 272 273 570 569 4832 4833 4834 4823 5156 5157 5158 5147 5144 5154 5155 5145 5150 5160 5159 5161 4838 5162 5163 
240 241 538 537 273 274 571 570 4842 4843 4844 4833 5166 5167 5168 5157 5154 5164 5165 5155 5160 5170 5169 5171 4848 5172 5173 
241 242 539 538 274 275 572 571 4852 4853 4854 4843 5176 5177 5178 5167 5164 5174 5175 5165 5170 5180 5179 5181 4858 5182 5183 
242 243 540 539 275 276 573 572 4862 4863 4864 4853 5186 5187 5188 5177 5174 5184 5185 5175 5180 5190 5189 5191 4868 5192 5193 
243 244 541 540 276 277 574 573 4872 4873 4874 4863 5196 5197 5198 5187 5184 5194 5195 5185 5190 5200 5199 5201 4878 5202 5203 
244 245 542 541 277 278 575 574 4882 4883 4884 4873 5206 5207 5208 5197 5194 5204 5205 5195 5200 5210 5209 5211 4888 5212 5213 
245 246 543 542 278 279 576 575 4892 4893 4894 4883 5216 5217 5218 5207 5204 5214 5215 5205 5210 5220 5219 5221 4898 5222 5223 
246 247 544 543 279 280 577 576 4902 4903 4904 4893 5226 5227 5228 5217 5214 5224 5225 5215 5220 5230 5229 5231 4908 5232 5233 
247 248 545 544 280 281 578 577 4912 4913 4914 4903 5236 5237 5238 5227 5224 5234 5235 5225 5230 5240 5239 5241 4918 5242 5243 
248 249 546 545 281 282 579 578 4922 4923 4924 4913 5246 5247 5248 5237 5234 5244 5245 5235 5240 5250 5249 5251 4928 5252 5253 
249 250 547 546 282 283 580 579 4932 4933 4934 4923 5256 5257 5258 5247 5244 5254 5255 5245 5250 5260 5259 5261 4938 5262 5263 
250 251 548 547 283 284 581 580 4942 4943 4944 4933 5266 5267 5268 5257 5254 5264 5265 5255 5260 5270 5269 5271 4948 5272 5273 
251 252 549 548 284 285 582 581 4952 4953 4954 4943 5276 5277 5278 5267 5264 5274 5275 5265 5270 5280 5279 5281 4958 5282 5283 
252 253 550 549 285 286 583 582 4962 4963 4964 4953 5286 5287 5288 5277 5274 5284 5285 5275 5280 5290 5289 5291 4968 5292 5293 
253 254 551 550 286 287 584 583 4972 4973 4974 4963 5296 5297 5298 5287 5284 5294 5295 5285 5290 5300 5299 5301 4978 5302 5303 
254 255 552 551 287 288 585 584 4982 4983 4984 4973 5306 5307 5308 5297 5294 5304 5305 5295 5300 5310 5309 5311 4988 5312 5313 
255 256 553 552 288 289 586 585 4992 4993 4994 4983 5316 5317 5318 5307 5304 5314 5315 5305 5310 5320 5319 5321 4998 5322 5323 
256 257 554 553 289 290 587 586 5002 5003 5004 4993 5326 5327 5328 5317 5314 5324 5325 5315 5320 5330 5329 5331 5008 5332 5333 
257 258 555 554 290 291 588 587 5012 5013 5014 5003 5336 5337 5338 5327 5324 5334 5335 5325 5330 5340 5339 5341 5018 5342 5343 
258 259 556 555 291 292 589 588 5022 5023 5024 5013 5346 5347 5348 5337 5334 5344 5345 5335 5340 5350 5349 5351 5028 5352 5353 
259 260 557 556 292 293 590 589 5032 5033 5034 5023 5356 5357 5358 5347 5344 5354 5355 5345 5350 5360 5359 5361 5038 5362 5363 
260 261 558 557 293 294 591 590 5042 5043 5044 5033 5366 5367 5368 5357 5354 5364 5365 5355 5360 5370 5369 5371 5048 5372 5373 
261 262 559 558 294 295 592 591 5052 5053 5054 5043 5376 5377 5378 5367 5364 5374 5375 5365 5370 5380 5379 5381 5058 5382 5383 
262 263 560 559 295 296 593 592 5062 5063 5064 5053 5386 5387 5388 5377 5374 5384 5385 5375 5380 5390 5389 5391 5068 5392 5393 
297 298 595 594 330 331 628 627 2675 5394 5395 5396 2683 5399 5400 5401 2680 2679 5397 5398 5405 5403 2688 5404 5402 5406 5407 
298 299 596 595 331 332 629 628 2694 5408 5409 5394 2699 5411 5412 5399 2679 2696 5410 5397 5403 5414 2703 5415 5413 5416 5417 
299 300 597 596 332 333 630 629 2708 5418 5419 5408 2713 5421 5422 5411 2696 2710 5420 5410 5414 5424 2717 5425 5423 5426 5427 
300 301 598 597 333 334 631 630 2722 5428 5429 5418 2727 5431 5432 5421 2710 2724 5430 5420 5424 5434 2731 5435 5433 5436 5437 
301 302 599 598 334 335 632 631 2736 5438 5439 5428 2741 5441 5442 5431 2724 2738 5440 5430 5434 5444 2745 5445 5443 5446 5447 
302 303 600 599 335 336 633 632 2750 5448 5449 5438 2755 5451 5452 5441 2738 2752 5450 5440 5444 5454 2759 5455 5453 5456 5457 
303 304 601 600 336 337 634 633 2764 5458 5459 5448 2769 5461 5462 5451 2752 2766 5460 5450 5454 5464 2773 5465 5463 5466 5467 
304 305 602 601 337 338 635 634 2778 5468 5469 5458 2783 5471 5472 5461 2766 2780 5470 5460 5464 5474 2787 5475 5473 5476 5477 
305 306 603 602 338 339 636 635 2792 5478 5479 5468 2797 5481 5482 5471 2780 2794 5480 5470 5474 5484 2801 5485 5483 5486 5487 
306 307 604 603 339 340 637 636 2806 5488 5489 5478 2811 5491 5492 5481 2794 2808 5490 5480 5484 5494 2815 5495 5493 5496 5497 
307 308 605 604 340 341 638 637 2820 5498 5499 5488 2825 5501 5502 5491 2808 2822 5500 5490 5494 5504 2829 5505 5503 5506 5507 
308 309 606 605 341 342 639 638 2834 5508 5509 5498 2839 5511 5512 5501 2822 2836 5510 5500 5504 5514 2843 5515 5513 5516 5517 
309 310 607 606 342 343 640 639 2848 5518 5519 5508 2853 5521 5522 5511 2836 2850 5520 5510 5514 5524 2857 5525 5523 5526 5527 
310 311 608 607 343 344 641 640 2862 5528 5529 5518 2867 5531 5532 5521 2850 2864 5530 5520 5524 5534 2871 5535 5533 5536 5537 
311 312 609 608 344 345 642 641 2876 5538 5539 5528 2881 5541 5542 5531 2864 2878 5540 5530 5534 5544 2885 5545 5543 5546 5547 
312 313 610 609 345 346 643 642 2890 5548 5549 5538 2895 5551 5552 5541 2878 2892 5550 5540 5544 5554 2899 5555 5553 5556 5557 
313 314 611 610 346 347 644 643 2904 5558 5559 5548 2909 5561 5562 5551 2892 2906 5560 5550 5554 5564 2913 5565 5563 5566 5567 
314 315 612 611 347 348 645 644 2918 5568 5569 5558 2923 5571 5572 5561 2906 2920 5570 5560 5564 5574 2927 5575 5573 5576 5577 
315 316 613 612 348 349 646 645 2932 5578 5579 5568 2937 5581 5582 5571 2920 2934 5580 5570 5574 5584 2941 5585 5583 5586 5587 
316 317 614 613 349 350 647 646 2946 5588 5589 5578 2951 5591 5592 5581 2934 2948 5590 5580 5584 5594 2955 5595 5593 5596 5597 
317 318 615 614 350 351 648 647 2960 5598 5599 5588 2965 5601 5602 5591 2948 2962 5600 5590 5594 5604 2969 5605 5603 5606 5607 
318 319 616 615 351 352 649 648 2974 5608 5609 5598 2979 5611 5612 5601 2962 2976 5610 5600 5604 5614 2983 5615 5613 5616 5617 
319 320 617 616 352 353 650 649 2988 5618 5619 5608 2993 5621 5622 5611 2976 2990 5620 5610 5614 5624 2997 5625 5623 5626 5627 
320 321 618 617 353 354 651 650 3002 5628 5629 5618 3007 5631 5632 5621 2990 3004 5630 5620 5624 5634 3011 5635 5633 5636 5637 
321 322 619 618 354 355 652 651 3016 5638 5639 5628 3021 5641 5642 5631 3004 3018 5640 5630 5634 5644 3025 5645 5643 5646 5647 
322 323 620 619 355 356 653 652 3030 5648 5649 5638 3035 5651 5652 5641 3018 3032 5650 5640 5644 5654 3039 5655 5653 5656 5657 
323 324 621 620 356 357 654 653 3044 5658 5659 5648 3049 5661 5662 5651 3032 3046 5660 5650 5654 5664 3053 5665 5663 5666 5667 
324 325 622 621 357 358 655 654 3058 5668 5669 5658 3063 5671 5672 5661 3046 3060 5670 5660 5664 5674 3067 5675 5673 5676 5677 
325 326 623 622 358 359 656 655 3072 5678 5679 5668 3077 5681 5682 5671 3060 3074 5680 5670 5674 5684 3081 5685 5683 5686 5687 
326 327 624 623 359 360 657 656 3086 5688 5689 5678 3091 5691 5692 5681 3074 3088 5690 5680 5684 5694 3095 5695 5693 5696 5697 
327 328 625 624 360 361 658 657 3100 5698 5699 5688 3105 5701 5702 5691 3088 3102 5700 5690 5694 5704 3109 5705 5703 5706 5707 
328 329 626 625 361 362 659 658 3114 5708 5709 5698 3119 5711 5712 5701 3102 3116 5710 5700 5704 5714 3123 5715 5713 5716 5717 
330 331 628 627 363 364 661 660 2683 5399 5400 5401 3132 5720 5721 5722 3129 3128 5718 5719 5725 5723 3136 5724 5406 5726 5727 
331 332 629 628 364 365 662 661 2699 5411 5412 5399 3144 5729 5730 5720 3128 3141 5728 5718 5723 5731 3147 5732 5416 5733 5734 
332 333 630 629 365 366 663 662 2713 5421 5422 5411 3154 5736 5737 5729 3141 3151 5735 5728 5731 5738 3157 5739 5426 5740 5741 
333 334 631 630 366 367 664 663 2727 5431 5432 5421 3164 5743 5744 5736 3151 3161 5742 5735 5738 5745 3167 5746 5436 5747 5748 
334 335 632 631 367 368 665 664 2741 5441 5442 5431 3174 5750 5751 5743 3161 3171 5749 5742 5745 5752 3177 5753 5446 5754 5755 
335 336 633 632 368 369 666 665 2755 5451 5452 5441 3184 5757 5758 5750 3171 3181 5756 5749 5752 5759 3187 5760 5456 5761 5762 
336 337 634 633 369 370 667 666 2769 5461 5462 5451 3194 5764 5765 5757 3181 3191 5763 5756 5759 5766 3197 5767 5466 5768 5769 
337 338 635 634 370 371 668 667 2783 5471 5472 5461 3204 5771 5772 5764 3191 3201 5770 5763 5766 5773 3207 5774 5476 5775 5776 
338 339 636 635 371 372 669 668 2797 5481 5482 5471 3214 5778 5779 5771 3201 3211 5777 5770 5773 5780 3217 5781 5486 5782 5783 
339 340 637 636 372 373 670 669 2811 5491 5492 5481 3224 5785 5786 5778 3211 3221 5784 5777 5780 5787 3227 5788 5496 5789 5790 
340 341 638 637 373 374 671 670 2825 5501 5502 5491 3234 5792 5793 5785 3221 3231 5791 5784 5787 5794 3237 5795 5506 5796 5797 
341 342 639 638 374 375 672 671 2839 5511 5512 5501 3244 5799 5800 5792 3231 3241 5798 5791 5794 5801 3247 5802 5516 5803 5804 
342 343 640 639 375 376 673 672 2853 5521 5522 5511 3254 5806 5807 5799 3241 3251 5805 5798 5801 5808 3257 5809 5526 5810 5811 
343 344 641 640 376 377 674 673 2867 5531 5532 5521 3264 5813 5814 5806 3251 3261 5812 5805 5808 5815 3267 5816 5536 5817 5818 
344 345 642 641 377 378 675 674 2881 5541 5542 5531 3274 5820 5821 5813 3261 3271 5819 5812 5815 5822 3277 5823 5546 5824 5825 
345 346 643 642 378 379 676 675 2895 5551 5552 5541 3284 5827 5828 5820 3271 3281 5826 5819 5822 5829 3287 5830 5556 5831 5832 
346 347 644 643 379 380 677 676 2909 5561 5562 5551 3294 5834 5835 5827 3281 3291 5833 5826 5829 5836 3297 5837 5566 5838 5839 
347 348 645 644 380 381 678 677 2923 5571 5572 5561 3304 5841 5842 5834 3291 3301 5840 5833 5836 5843 3307 5844 5576 5845 5846 
348 349 646 645 381 382 679 678 2937 5581 5582 5571 3314 5848 5849 5841 3301 3311 5847 5840 5843 5850 3317 5851 5586 5852 5853 
349 350 647 646 382 383 680 679 2951 5591 5592 5581 3324 5855 5856 5848 3311 3321 5854 5847 5850 5857 3327 5858 5596 5859 5860 
350 351 648 647 383 384 681 680 2965 5601 5602 5591 3334 5862 5863 5855 3321 3331 5861 5854 5857 5864 3337 5865 5606 5866 5867 
351 352 649 648 384 385 682 681 2979 5611 5612 5601 3344 5869 5870 5862 3331 3341 5868 5861 5864 5871 3347 5872 5616 5873 5874 
352 353 650 649 385 386 683 682 2993 5621 5622 5611 3354 5876 5877 5869 3341 3351 5875 5868 5871 5878 3357 5879 5626 5880 5881 
353 354 651 650 386 387 684 683 3007 5631 5632 5621 3364 5883 5884 5876 3351 3361 5882 5875 5878 5885 3367 5886 5636 5887 5888 
354 355 652 651 387 388 685 684 3021 5641 5642 5631 3374 5890 5891 5883 3361 3371 5889 5882 5885 5892 3377 5893 5646 5894 5895 
355 356 653 652 388 389 686 685 3035 5651 5652 5641 3384 5897 5898 5890 3371 3381 5896 5889 5892 5899 3387 5900 5656 5901 5902 
356 357 654 653 389 390 687 686 3049 5661 5662 5651 3394 5904 5905 5897 3381 3391 5903 5896 5899 5906 3397 5907 5666 5908 5909 
357 358 655 654 390 391 688 687 3063 5671 5672 5661 3404 5911 5912 5904 3391 3401 5910 5903 5906 5913 3407 5914 5676 5915 5916 
358 359 656 655 391 392 689 688 3077 5681 5682 5671 3414 5918 5919 5911 3401 3411 5917 5910 5913 5920 3417 5921 5686 5922 5923 
359 360 657 656 392 393 690 689 3091 5691 5692 5681 3424 5925 5926 5918 3411 3421 5924 5917 5920 5927 3427 5928 5696 5929 5930 
360 361 658 657 393 394 691 690 3105 5701 5702 5691 3434 5932 5933 5925 3421 3431 5931 5924 5927 5934 3437 5935 5706 5936 5937 
361 362 659 658 394 395 692 691 3119 5711 5712 5701 3444 5939 5940 5932 3431 3441 5938 5931 5934 5941 3447 5942 5716 5943 5944 
363 364 661 660 396 397 694 693 3132 5720 5721 5722 3456 5947 5948 5949 3453 3452 5945 5946 5952 5950 3460 5951 5726 5953 5954 
364 365 662 661 397 398 695 694 3144 5729 5730 5720 3468 5956 5957 5947 3452 3465 5955 5945 5950 5958 3471 5959 5733 5960 5961 
365 366 663 662 398 399 696 695 3154 5736 5737 5729 3478 5963 5964 5956 3465 3475 5962 5955 5958 5965 3481 5966 5740 5967 5968 
366 367 664 663 399 400 697 696 3164 5743 5744 5736 3488 5970 5971 5963 3475 3485 5969 5962 5965 5972 3491 5973 5747 5974 5975 
367 368 665 664 400 401 698 697 3174 5750 5751 5743 3498 5977 5978 5970 3485 3495 5976 5969 5972 5979 3501 5980 5754 5981 5982 
368 369 666 665 401 402 699 698 3184 5757 5758 5750 3508 5984 5985 5977 3495 3505 5983 5976 5979 5986 3511 5987 5761 5988 5989 
369 370 667 666 402 403 700 699 3194 5764 5765 5757 3518 5991 5992 5984 3505 3515 5990 5983 5986 5993 3521 5994 5768 5995 5996 
370 371 668 667 403 404 701 700 3204 5771 5772 5764 3528 5998 5999 5991 3515 3525 5997 5990 5993 6000 3531 6001 5775 6002 6003 
371 372 669 668 404 405 702 701 3214 5778 5779 5771 3538 6005 6006 5998 3525 3535 6004 5997 6000 6007 3541 6008 5782 6009 6010 
372 373 670 669 405 406 703 702 3224 5785 5786 5778 3548 6012 6013 6005 3535 3545 6011 6004 6007 6014 3551 6015 5789 6016 6017 
373 374 671 670 406 407 704 703 3234 5792 5793 5785 3558 6019 6020 6012 3545 3555 6018 6011 6014 6021 3561 6022 5796 6023 6024 
374 375 672 671 407 408 705 704 3244 5799 5800 5792 3568 6026 6027 6019 3555 3565 6025 6018 6021 6028 3571 6029 5803 6030 6031 
375 376 673 672 408 409 706 705 3254 5806 5807 5799 3578 6033 6034 6026 3565 3575 6032 6025 6028 6035 3581 6036 5810 6037 6038 
376 377 674 673 409 410 707 706 3264 5813 5814 5806 3588 6040 6041 6033 3575 3585 6039 6032 6035 6042 3591 6043 5817 6044 6045 
377 378 675 674 410 411 708 707 3274 5820 5821 5813 3598 6047 6048 6040 3585 3595 6046 6039 6042 6049 3601 6050 5824 6051 6052 
378 379 676 675 411 412 709 708 3284 5827 5828 5820 3608 6054 6055 6047 3595 3605 6053 6046 6049 6056 3611 6057 5831 6058 6059 
379 380 677 676 412 413 710 709 3294 5834 5835 5827 3618 6061 6062 6054 3605 3615 6060 6053 6056 6063 3621 6064 5838 6065 6066 
380 381 678 677 413 414 711 710 3304 5841 5842 5834 3628 6068 6069 6061 3615 3625 6067 6060 6063 6070 3631 6071 5845 6072 6073 
381 382 679 678 414 415 712 711 3314 5848 5849 5841 3638 6075 6076 6068 3625 3635 6074 6067 6070 6077 3641 6078 5852 6079 6080 
382 383 680 679 415 416 713 712 3324 5855 5856 5848 3648 6082 6083 6075 3635 3645 6081 6074 6077 6084 3651 6085 5859 6086 6087 
383 384 681 680 416 417 714 713 3334 5862 5863 5855 3658 6089 6090 6082 3645 3655 6088 6081 6084 6091 3661 6092 5866 6093 6094 
384 385 682 681 417 418 715 714 3344 5869 5870 5862 3668 6096 6097 6089 3655 3665 6095 6088 6091 6098 3671 6099 5873 6100 6101 
385 386 683 682 418 419 716 715 3354 5876 5877 5869 3678 6103 6104 6096 3665 3675 6102 6095 6098 6105 3681 6106 5880 6107 6108 
386 387 684 683 419 420 717 716 3364 5883 5884 5876 3688 6110 6111 6103 3675 3685 6109 6102 6105 6112 3691 6113 5887 6114 6115 
387 388 685 684 420 421 718 717 3374 5890 5891 5883 3698 6117 6118 6110 3685 3695 6116 6109 6112 6119 3701 6120 5894 6121 6122 
388 389 686 685 421 422 719 718 3384 5897 5898 5890 3708 6124 6125 6117 3695 3705 6123 6116 6119 6126 3711 6127 5901 6128 6129 
389 390 687 686 422 423 720 719 3394 5904 5905 5897 3718 6131 6132 6124 3705 3715 6130 6123 6126 6133 3721 6134 5908 6135 6136 
390 391 688 687 423 424 721 720 3404 5911 5912 5904 3728 6138 6139 6131 3715 3725 6137 6130 6133 6140 3731 6141 5915 6142 6143 
391 392 689 688 424 425 722 721 3414 5918 5919 5911 3738 6145 6146 6138 3725 3735 6144 6137 6140 6147 3741 6148 5922 6149 6150 
392 393 690 689 425 426 723 722 3424 5925 5926 5918 3748 6152 6153 6145 3735 3745 6151 6144 6147 6154 3751 6155 5929 6156 6157 
393 394 691 690 426 427 724 723 3434 5932 5933 5925 3758 6159 6160 6152 3745 3755 6158 6151 6154 6161 3761 6162 5936 6163 6164 
394 395 692 691 427 428 725 724 3444 5939 5940 5932 3768 6166 6167 6159 3755 3765 6165 6158 6161 6168 3771 6169 5943 6170 6171 
396 397 694 693 429 430 727 726 3456 5947 5948 5949 3780 6174 6175 6176 3777 3776 6172 6173 6179 6177 3784 6178 5953 6180 6181 
397 398 695 694 430 431 728 727 3468 5956 5957 5947 3792 6183 6184 6174 3776 3789 6182 6172 6177 6185 3795 6186 5960 6187 6188 
398 399 696 695 431 432 729 728 3478 5963 5964 5956 3802 6190 6191 6183 3789 3799 6189 6182 6185 6192 3805 6193 5967 6194 6195 
399 400 697 696 432 433 730 729 3488 5970 5971 5963 3812 6197 6198 6190 3799 3809 6196 6189 6192 6199 3815 6200 5974 6201 6202 
400 401 698 697 433 434 731 730 3498 5977 5978 5970 3822 6204 6205 6197 3809 3819 6203 6196 6199 6206 3825 6207 5981 6208 6209 
401 402 699 698 434 435 732 731 3508 5984 5985 5977 3832 6211 6212 6204 3819 3829 6210 6203 6206 6213 3835 6214 5988 6215 6216 
402 403 700 699 435 436 733 732 3518 5991 5992 5984 3842 6218 6219 6211 3829 3839 6217 6210 6213 6220 3845 6221 5995 6222 6223 
403 404 701 700 436 437 734 733 3528 5998 5999 5991 3852 6225 6226 6218 3839 3849 6224 6217 6220 6227 3855 6228 6002 6229 6230 
404 405 702 701 437 438 735 734 3538 6005 6006 5998 3862 6232 6233 6225 3849 3859 6231 6224 6227 6234 3865 6235 6009 6236 6237 
405 406 703 702 438 439 736 735 3548 6012 6013 6005 3872 6239 6240 6232 3859 3869 6238 6231 6234 6241 3875 6242 6016 6243 6244 
406 407 704 703 439 440 737 736 3558 6019 6020 6012 3882 6246 6247 6239 3869 3879 6245 6238 6241 6248 3885 6249 6023 6250 6251 
407 408 705 704 440 441 738 737 3568 6026 6027 6019 3892 6253 6254 6246 3879 3889 6252 6245 6248 6255 3895 6256 6030 6257 6258 
408 409 706 705 441 442 739 738 3578 6033 6034 6026 3902 6260 6261 6253 3889 3899 6259 6252 6255 6262 3905 6263 6037 6264 6265 
409 410 707 706 442 443 740 739 3588 6040 6041 6033 3912 6267 6268 6260 3899 3909 6266 6259 6262 6269 3915 6270 6044 6271 6272 
410 411 708 707 443 444 741 740 3598 6047 6048 6040 3922 6274 6275 6267 3909 3919 6273 6266 6269 6276 3925 6277 6051 6278 6279 
411 412 709 708 444 445 742 741 3608 6054 6055 6047 3932 6281 6282 6274 3919 3929 6280 6273 6276 6283 3935 6284 6058 6285 6286 
412 413 710 709 445 446 743 742 3618 6061 6062 6054 3942 6288 6289 6281 3929 3939 6287 6280 6283 6290 3945 6291 6065 6292 6293 
413 414 711 710 446 447 744 743 3628 6068 6069 6061 3952 6295 6296 6288 3939 3949 6294 6287 6290 6297 3955 6298 6072 6299 6300 
414 415 712 711 447 448 745 744 3638 6075 6076 6068 3962 6302 6303 6295 3949 3959 6301 6294 6297 6304 3965 6305 6079 6306 6307 
415 416 713 712 448 449 746 745 3648 6082 6083 6075 3972 6309 6310 6302 3959 3969 6308 6301 6304 6311 3975 6312 6086 6313 6314 
416 417 714 713 449 450 747 746 3658 6089 6090 6082 3982 6316 6317 6309 3969 3979 6315 6308 6311 6318 3985 6319 6093 6320 6321 
417 418 715 714 450 451 748 747 3668 6096 6097 6089 3992 6323 6324 6316 3979 3989 6322 6315 6318 6325 3995 6326 6100 6327 6328 
418 419 716 715 451 452 749 748 3678 6103 6104 6096 4002 6330 6331 6323 3989 3999 6329 6322 6325 6332 4005 6333 6107 6334 6335 
419 420 717 716 452 453 750 749 3688 6110 6111 6103 4012 6337 6338 6330 3999 4009 6336 6329 6332 6339 4015 6340 6114 6341 6342 
420 421 718 717 453 454 751 750 3698 6117 6118 6110 4022 6344 6345 6337 4009 4019 6343 6336 6339 6346 4025 6347 6121 6348 6349 
421 422 719 718 454 455 752 751 3708 6124 6125 6117 4032 6351 6352 6344 4019 4029 6350 6343 6346 6353 4035 6354 6128 6355 6356 
422 423 720 719 455 456 753 752 3718 6131 6132 6124 4042 6358 6359 6351 4029 4039 6357 6350 6353 6360 4045 6361 6135 6362 6363 
423 424 721 720 456 457 754 753 3728 6138 6139 6131 4052 6365 6366 6358 4039 4049 6364 6357 6360 6367 4055 6368 6142 6369 6370 
424 425 722 721 457 458 755 754 3738 6145 6146 6138 4062 6372 6373 6365 4049 4059 6371 6364 6367 6374 4065 6375 6149 6376 6377 
425 426 723 722 458 459 756 755 3748 6152 6153 6145 4072 6379 6380 6372 4059 4069 6378 6371 6374 6381 4075 6382 6156 6383 6384 
426 427 724 723 459 460 757 756 3758 6159 6160 6152 4082 6386 6387 6379 4069 4079 6385 6378 6381 6388 4085 6389 6163 6390 6391 
427 428 725 724 460 461 758 757 3768 6166 6167 6159 4092 6393 6394 6386 4079 4089 6392 6385 6388 6395 4095 6396 6170 6397 6398 
429 430 727 726 462 463 760 759 3780 6174 6175 6176 4104 6401 6402 6403 4101 4100 6399 6400 6406 6404 4108 6405 6180 6407 6408 
430 431 728 727 463 464 761 760 3792 6183 6184 6174 4116 6410 6411 6401 4100 4113 6409 6399 6404 6412 4119 6413 6187 6414 6415 
431 432 729 728 464 465 762 761 3802 6190 6191 6183 4126 6417 6418 6410 4113 4123 6416 6409 6412 6419 4129 6420 6194 6421 6422 
432 433 730 729 465 466 763 762 3812 6197 6198 6190 4136 6424 6425 6417 4123 4133 6423 6416 6419 6426 4139 6427 6201 6428 6429 
433 434 731 730 466 467 764 763 3822 6204 6205 6197 4146 6431 6432 6424 4133 4143 6430 6423 6426 6433 4149 6434 6208 6435 6436 
434 435 732 731 467 468 765 764 3832 6211 6212 6204 4156 6438 6439 6431 4143 4153 6437 6430 6433 6440 4159 6441 6215 6442 6443 
435 436 733 732 468 469 766 765 3842 6218 6219 6211 4166 6445 6446 6438 4153 4163 6444 6437 6440 6447 4169 6448 6222 6449 6450 
436 437 734 733 469 470 767 766 3852 6225 6226 6218 4176 6452 6453 6445 4163 4173 6451 6444 6447 6454 4179 6455 6229 6456 6457 
437 438 735 734 470 471 768 767 3862 6232 6233 6225 4186 6459 6460 6452 4173 4183 6458 6451 6454 6461 4189 6462 6236 6463 6464 
438 439 736 735 471 472 769 768 3872 6239 6240 6232 4196 6466 6467 6459 4183 4193 6465 6458 6461 6468 4199 6469 6243 6470 6471 
439 440 737 736 472 473 770 769 3882 6246 6247 6239 4206 6473 6474 6466 4193 4203 6472 6465 6468 6475 4209 6476 6250 6477 6478 
440 441 738 737 473 474 771 770 3892 6253 6254 6246 4216 6480 6481 6473 4203 4213 6479 6472 6475 6482 4219 6483 6257 6484 6485 
441 442 739 738 474 475 772 771 3902 6260 6261 6253 4226 6487 6488 6480 4213 4223 6486 6479 6482 6489 4229 6490 6264 6491 6492 
442 443 740 739 475 476 773 772 3912 6267 6268 6260 4236 6494 6495 6487 4223 4233 6493 6486 6489 6496 4239 6497 6271 6498 6499 
443 444 741 740 476 477 774 773 3922 6274 6275 6267 4246 6501 6502 6494 4233 4243 6500 6493 6496 6503 4249 6504 6278 6505 6506 
444 445 742 741 477 478 775 774 3932 6281 6282 6274 4256 6508 6509 6501 4243 4253 6507 6500 6503 6510 4259 6511 6285 6512 6513 
445 446 743 742 478 479 776 775 3942 6288 6289 6281 4266 6515 6516 6508 4253 4263 6514 6507 6510 6517 4269 6518 6292 6519 6520 
446 447 744 743 479 480 777 776 3952 6295 6296 6288 4276 6522 6523 6515 4263 4273 6521 6514 6517 6524 4279 6525 6299 6526 6527 
447 448 745 744 480 481 778 777 3962 6302 6303 6295 4286 6529 6530 6522 4273 4283 6528 6521 6524 6531 4289 6532 6306 6533 6534 
448 449 746 745 481 482 779 778 3972 6309 6310 6302 4296 6536 6537 6529 4283 4293 6535 6528 6531 6538 4299 6539 6313 6540 6541 
449 450 747 746 482 483 780 779 3982 6316 6317 6309 4306 6543 6544 6536 4293 4303 6542 6535 6538 6545 4309 6546 6320 6547 6548 
450 451 748 747 483 484 781 780 3992 6323 6324 6316 4316 6550 6551 6543 4303 4313 6549 6542 6545 6552 4319 6553 6327 6554 6555 
451 452 749 748 484 485 782 781 4002 6330 6331 6323 4326 6557 6558 6550 4313 4323 6556 6549 6552 6559 4329 6560 6334 6561 6562 
452 453 750 749 485 486 783 782 4012 6337 6338 6330 4336 6564 6565 6557 4323 4333 6563 6556 6559 6566 4339 6567 6341 6568 6569 
453 454 751 750 486 487 784 783 4022 6344 6345 6337 4346 6571 6572 6564 4333 4343 6570 6563 6566 6573 4349 6574 6348 6575 6576 
454 455 752 751 487 488 785 784 4032 6351 6352 6344 4356 6578 6579 6571 4343 4353 6577 6570 6573 6580 4359 6581 6355 6582 6583 
455 456 753 752 488 489 786 785 4042 6358 6359 6351 4366 6585 6586 6578 4353 4363 6584 6577 6580 6587 4369 6588 6362 6589 6590 
456 457 754 753 489 490 787 786 4052 6365 6366 6358 4376 6592 6593 6585 4363 4373 6591 6584 6587 6594 4379 6595 6369 6596 6597 
457 458 755 754 490 491 788 787 4062 6372 6373 6365 4386 6599 6600 6592 4373 4383 6598 6591 6594 6601 4389 6602 6376 6603 6604 
458 459 756 755 491 492 789 788 4072 6379 6380 6372 4396 6606 6607 6599 4383 4393 6605 6598 6601 6608 4399 6609 6383 6610 6611 
459 460 757 756 492 493 790 789 4082 6386 6387 6379 4406 6613 6614 6606 4393 4403 6612 6605 6608 6615 4409 6616 6390 6617 6618 
460 461 758 757 493 494 791 790 4092 6393 6394 6386 4416 6620 6621 6613 4403 4413 6619 6612 6615 6622 4419 6623 6397 6624 6625 
462 463 760 759 495 496 793 792 4104 6401 6402 6403 4428 6628 6629 6630 4425 4424 6626 6627 6633 6631 4432 6632 6407 6634 6635 
463 464 761 760 496 497 794 793 4116 6410 6411 6401 4440 6637 6638 6628 4424 4437 6636 6626 6631 6639 4443 6640 6414 6641 6642 
464 465 762 761 497 498 795 794 4126 6417 6418 6410 4450 6644 6645 6637 4437 4447 6643 6636 6639 6646 4453 6647 6421 6648 6649 
465 466 763 762 498 499 796 795 4136 6424 6425 6417 4460 6651 6652 6644 4447 4457 6650 6643 6646 6653 4463 6654 6428 6655 6656 
466 467 764 763 499 500 797 796 4146 6431 6432 6424 4470 6658 6659 6651 4457 4467 6657 6650 6653 6660 4473 6661 6435 6662 6663 
467 468 765 764 500 501 798 797 4156 6438 6439 6431 4480 6665 6666 6658 4467 4477 6664 6657 6660 6667 4483 6668 6442 6669 6670 
468 469 766 765 501 502 799 798 4166 6445 6446 6438 4490 6672 6673 6665 4477 4487 6671 6664 6667 6674 4493 6675 6449 6676 6677 
469 470 767 766 502 503 800 799 4176 6452 6453 6445 4500 6679 6680 6672 4487 4497 6678 6671 6674 6681 4503 6682 6456 6683 6684 
470 471 768 767 503 504 801 800 4186 6459 6460 6452 4510 6686 6687 6679 4497 4507 6685 6678 6681 6688 4513 6689 6463 6690 6691 
471 472 769 768 504 505 802 801 4196 6466 6467 6459 4520 6693 6694 6686 4507 4517 6692 6685 6688 6695 4523 6696 6470 6697 6698 
472 473 770 769 505 506 803 802 4206 6473 6474 6466 4530 6700 6701 6693 4517 4527 6699 6692 6695 6702 4533 6703 6477 6704 6705 
473 474 771 770 506 507 804 803 4216 6480 6481 6473 4540 6707 6708 6700 4527 4537 6706 6699 6702 6709 4543 6710 6484 6711 6712 
474 475 772 771 507 508 805 804 4226 6487 6488 6480 4550 6714 6715 6707 4537 4547 6713 6706 6709 6716 4553 6717 6491 6718 6719 
475 476 773 772 508 509 806 805 4236 6494 6495 6487 4560 6721 6722 6714 4547 4557 6720 6713 6716 6723 4563 6724 6498 6725 6726 
476 477 774 773 509 510 807 806 4246 6501 6502 6494 4570 6728 6729 6721 4557 4567 6727 6720 6723 6730 4573 6731 6505 6732 6733 
477 478 775 774 510 511 808 807 4256 6508 6509 6501 4580 6735 6736 6728 4567 4577 6734 6727 6730 6737 4583 6738 6512 6739 6740 
478 479 776 775 511 512 809 808 4266 6515 6516 6508 4590 6742 6743 6735 4577 4587 6741 6734 6737 6744 4593 6745 6519 6746 6747 
479 480 777 776 512 513 810 809 4276 6522 6523 6515 4600 6749 6750 6742 4587 4597 6748 6741 6744 6751 4603 6752 6526 6753 6754 
480 481 778 777 513 514 811 810 4286 6529 6530 6522 4610 6756 6757 6749 4597 4607 6755 6748 6751 6758 4613 6759 6533 6760 6761 
481 482 779 778 514 515 812 811 4296 6536 6537 6529 4620 6763 6764 6756 4607 4617 6762 6755 6758 6765 4623 6766 6540 6767 6768 
482 483 780 779 515 516 813 812 4306 6543 6544 6536 4630 6770 6771 6763 4617 4627 6769 6762 6765 6772 4633 6773 6547 6774 6775 
483 484 781 780 516 517 814 813 4316 6550 6551 6543 4640 6777 6778 6770 4627 4637 6776 6769 6772 6779 4643 6780 6554 6781 6782 
484 485 782 781 517 518 815 814 4326 6557 6558 6550 4650 6784 6785 6777 4637 4647 6783 6776 6779 6786 4653 6787 6561 6788 6789 
485 486 783 782 518 519 816 815 4336 6564 6565 6557 4660 6791 6792 6784 4647 4657 6790 6783 6786 6793 4663 6794 6568 6795 6796 
486 487 784 783 519 520 817 816 4346 6571 6572 6564 4670 6798 6799 6791 4657 4667 6797 6790 6793 6800 4673 6801 6575 6802 6803 
487 488 785 784 520 521 818 817 4356 6578 6579 6571 4680 6805 6806 6798 4667 4677 6804 6797 6800 6807 4683 6808 6582 6809 6810 
488 489 786 785 521 522 819 818 4366 6585 6586 6578 4690 6812 6813 6805 4677 4687 6811 6804 6807 6814 4693 6815 6589 6816 6817 
489 490 787 786 522 523 820 819 4376 6592 6593 6585 4700 6819 6820 6812 4687 4697 6818 6811 6814 6821 4703 6822 6596 6823 6824 
490 491 788 787 523 524 821 820 4386 6599 6600 6592 4710 6826 6827 6819 4697 4707 6825 6818 6821 6828 4713 6829 6603 6830 6831 
491 492 789 788 524 525 822 821 4396 6606 6607 6599 4720 6833 6834 6826 4707 4717 6832 6825 6828 6835 4723 6836 6610 6837 6838 
492 493 790 789 525 526 823 822 4406 6613 6614 6606 4730 6840 6841 6833 4717 4727 6839 6832 6835 6842 4733 6843 6617 6844 6845 
493 494 791 790 526 527 824 823 4416 6620 6621 6613 4740 6847 6848 6840 4727 4737 6846 6839 6842 6849 4743 6850 6624 6851 6852 
495 496 793 792 528 529 826 825 4428 6628 6629 6630 4752 6855 6856 6857 4749 4748 6853 6854 6860 6858 4756 6859 6634 6861 6862 
496 497 794 793 529 530 827 826 4440 6637 6638 6628 4764 6864 6865 6855 4748 4761 6863 6853 6858 6866 4767 6867 6641 6868 6869 
497 498 795 794 530 531 828 827 4450 6644 6645 6637 4774 6871 6872 6864 4761 4771 6870 6863 6866 6873 4777 6874 6648 6875 6876 
498 499 796 795 531 532 829 828 4460 6651 6652 6644 4784 6878 6879 6871 4771 4781 6877 6870 6873 6880 4787 6881 6655 6882 6883 
499 500 797 796 532 533 830 829 4470 6658 6659 6651 4794 6885 6886 6878 4781 4791 6884 6877 6880 6887 4797 6888 6662 6889 6890 
500 501 798 797 533 534 831 830 4480 6665 6666 6658 4804 6892 6893 6885 4791 4801 6891 6884 6887 6894 4807 6895 6669 6896 6897 
501 502 799 798 534 535 832 831 4490 6672 6673 6665 4814 6899 6900 6892 4801 4811 6898 6891 6894 6901 4817 6902 6676 6903 6904 
502 503 800 799 535 536 833 832 4500 6679 6680 6672 4824 6906 6907 6899 4811 4821 6905 6898 6901 6908 4827 6909 6683 6910 6911 
503 504 801 800 536 537 834 833 4510 6686 6687 6679 4834 6913 6914 6906 4821 4831 6912 6905 6908 6915 4837 6916 6690 6917 6918 
504 505 802 801 537 538 835 834 4520 6693 6694 6686 4844 6920 6921 6913 4831 4841 6919 6912 6915 6922 4847 6923 6697 6924 6925 
505 506 803 802 538 539 836 835 4530 6700 6701 6693 4854 6927 6928 6920 4841 4851 6926 6919 6922 6929 4857 6930 6704 6931 6932 
506 507 804 803 539 540 837 836 4540 6707 6708 6700 4864 6934 6935 6927 4851 4861 6933 6926 6929 6936 4867 6937 6711 6938 6939 
507 508 805 804 540 541 838 837 4550 6714 6715 6707 4874 6941 6942 6934 4861 4871 6940 6933 6936 6943 4877 6944 6718 6945 6946 
508 509 806 805 541 542 839 838 4560 6721 6722 6714 4884 6948 6949 6941 4871 4881 6947 6940 6943 6950 4887 6951 6725 6952 6953 
509 510 807 806 542 543 840 839 4570 6728 6729 6721 4894 6955 6956 6948 4881 4891 6954 6947 6950 6957 4897 6958 6732 6959 6960 
510 511 808 807 543 544 841 840 4580 6735 6736 6728 4904 6962 6963 6955 4891 4901 6961 6954 6957 6964 4907 6965 6739 6966 6967 
511 512 809 808 544 545 842 841 4590 6742 6743 6735 4914 6969 6970 6962 4901 4911 6968 6961 6964 6971 4917 6972 6746 6973 6974 
512 513 810 809 545 546 843 842 4600 6749 6750 6742 4924 6976 6977 6969 4911 4921 6975 6968 6971 6978 4927 6979 6753 6980 6981 
513 514 811 810 546 547 844 843 4610 6756 6757 6749 4934 6983 6984 6976 4921 4931 6982 6975 6978 6985 4937 6986 6760 6987 6988 
514 515 812 811 547 548 845 844 4620 6763 6764 6756 4944 6990 6991 6983 4931 4941 6989 6982 6985 6992 4947 6993 6767 6994 6995 
515 516 813 812 548 549 846 845 4630 6770 6771 6763 4954 6997 6998 6990 4941 4951 6996 6989 6992 6999 4957 7000 6774 7001 7002 
516 517 814 813 549 550 847 846 4640 6777 6778 6770 4964 7004 7005 6997 4951 4961 7003 6996 6999 7006 4967 7007 6781 7008 7009 
517 518 815 814 550 551 848 847 4650 6784 6785 6777 4974 7011 7012 7004 4961 4971 7010 7003 7006 7013 4977 7014 6788 7015 7016 
518 519 816 815 551 552 849 848 4660 6791 6792 6784 4984 7018 7019 7011 4971 4981 7017 7010 7013 7020 4987 7021 6795 7022 7023 
519 520 817 816 552 553 850 849 4670 6798 6799 6791 4994 7025 7026 7018 4981 4991 7024 7017 7020 7027 4997 7028 6802 7029 7030 
520 521 818 817 553 554 851 850 4680 6805 6806 6798 5004 7032 7033 7025 4991 5001 7031 7024 7027 7034 5007 7035 6809 7036 7037 
521 522 819 818 554 555 852 851 4690 6812 6813 6805 5014 7039 7040 7032 5001 5011 7038 7031 7034 7041 5017 7042 6816 7043 7044 
522 523 820 819 555 556 853 852 4700 6819 6820 6812 5024 7046 7047 7039 5011 5021 7045 7038 7041 7048 5027 7049 6823 7050 7051 
523 524 821 820 556 557 854 853 4710 6826 6827 6819 5034 7053 7054 7046 5021 5031 7052 7045 7048 7055 5037 7056 6830 7057 7058 
524 525 822 821 557 558 855 854 4720 6833 6834 6826 5044 7060 7061 7053 5031 5041 7059 7052 7055 7062 5047 7063 6837 7064 7065 
525 526 823 822 558 559 856 855 4730 6840 6841 6833 5054 7067 7068 7060 5041 5051 7066 7059 7062 7069 5057 7070 6844 7071 7072 
526 527 824 823 559 560 857 856 4740 6847 6848 6840 5064 7074 7075 7067 5051 5061 7073 7066 7069 7076 5067 7077 6851 7078 7079 
528 529 826 825 561 562 859 858 4752 6855 6856 6857 5076 7082 7083 7084 5073 5072 7080 7081 7087 7085 5080 7086 6861 7088 7089 
529 530 827 826 562 563 860 859 4764 6864 6865 6855 5088 7091 7092 7082 5072 5085 7090 7080 7085 7093 5091 7094 6868 7095 7096 
530 531 828 827 563 564 861 860 4774 6871 6872 6864 5098 7098 7099 7091 5085 5095 7097 7090 7093 7100 5101 7101 6875 7102 7103 
531 532 829 828 564 565 862 861 4784 6878 6879 6871 5108 7105 7106 7098 5095 5105 7104 7097 7100 7107 5111 7108 6882 7109 7110 
532 533 830 829 565 566 863 862 4794 6885 6886 6878 5118 7112 7113 7105 5105 5115 7111 7104 7107 7114 5121 7115 6889 7116 7117 
533 534 831 830 566 567 864 863 4804 6892 6893 6885 5128 7119 7120 7112 5115 5125 7118 7111 7114 7121 5131 7122 6896 7123 7124 
534 535 832 831 567 568 865 864 4814 6899 6900 6892 5138 7126 7127 7119 5125 5135 7125 7118 7121 7128 5141 7129 6903 7130 7131 
535 536 833 832 568 569 866 865 4824 6906 6907 6899 5148 7133 7134 7126 5135 5145 7132 7125 7128 7135 5151 7136 6910 7137 7138 
536 537 834 833 569 570 867 866 4834 6913 6914 6906 5158 7140 7141 7133 5145 5155 7139 7132 7135 7142 5161 7143 6917 7144 7145 
537 538 835 834 570 571 868 867 4844 6920 6921 6913 5168 7147 7148 7140 5155 5165 7146 7139 7142 7149 5171 7150 6924 7151 7152 
538 539 836 835 571 572 869 868 4854 6927 6928 6920 5178 7154 7155 7147 5165 5175 7153 7146 7149 7156 5181 7157 6931 7158 7159 
539 540 837 836 572 573 870 869 4864 6934 6935 6927 5188 7161 7162 7154 5175 5185 7160 7153 7156 7163 5191 7164 6938 7165 7166 
540 541 838 837 573 574 871 870 4874 6941 6942 6934 5198 7168 7169 7161 5185 5195 7167 7160 7163 7170 5201 7171 6945 7172 7173 
541 542 839 838 574 575 872 871 4884 6948 6949 6941 5208 7175 7176 7168 5195 5205 7174 7167 7170 7177 5211 7178 6952 7179 7180 
542 543 840 839 575 576 873 872 4894 6955 6956 6948 5218 7182 7183 7175 5205 5215 7181 7174 7177 7184 5221 7185 6959 7186 7187 
543 544 841 840 576 577 874 873 4904 6962 6963 6955 5228 7189 7190 7182 5215 5225 7188 7181 7184 7191 5231 7192 6966 7193 7194 
544 545 842 841 577 578 875 874 4914 6969 6970 6962 5238 7196 7197 7189 5225 5235 7195 7188 7191 7198 5241 7199 6973 7200 7201 
545 546 843 842 578 579 876 875 4924 6976 6977 6969 5248 7203 7204 7196 5235 5245 7202 7195 7198 7205 5251 7206 6980 7207 7208 
546 547 844 843 579 580 877 876 4934 6983 6984 6976 5258 7210 7211 7203 5245 5255 7209 7202 7205 7212 5261 7213 6987 7214 7215 
547 548 845 844 580 581 878 877 4944 6990 6991 6983 5268 7217 7218 7210 5255 5265 7216 7209 7212 7219 5271 7220 6994 7221 7222 
548 549 846 845 581 582 879 878 4954 6997 6998 6990 5278 7224 7225 7217 5265 5275 7223 7216 7219 7226 5281 7227 7001 7228 7229 
549 550 847 846 582 583 880 879 4964 7004 7005 6997 5288 7231 7232 7224 5275 5285 7230 7223 7226 7233 5291 7234 7008 7235 7236 
550 551 848 847 583 584 881 880 4974 7011 7012 7004 5298 7238 7239 7231 5285 5295 7237 7230 7233 7240 5301 7241 7015 7242 7243 
551 552 849 848 584 585 882 881 4984 7018 7019 7011 5308 7245 7246 7238 5295 5305 7244 7237 7240 7247 5311 7248 7022 7249 7250 
552 553 850 849 585 586 883 882 4994 7025 7026 7018 5318 7252 7253 7245 5305 5315 7251 7244 7247 7254 5321 7255 7029 7256 7257 
553 554 851 850 586 587 884 883 5004 7032 7033 7025 5328 7259 7260 7252 5315 5325 7258 7251 7254 7261 5331 7262 7036 7263 7264 
554 555 852 851 587 588 885 884 5014 7039 7040 7032 5338 7266 7267 7259 5325 5335 7265 7258 7261 7268 5341 7269 7043 7270 7271 
555 556 853 852 588 589 886 885 5024 7046 7047 7039 5348 7273 7274 7266 5335 5345 7272 7265 7268 7275 5351 7276 7050 7277 7278 
556 557 854 853 589 590 887 886 5034 7053 7054 7046 5358 7280 7281 7273 5345 5355 7279 7272 7275 7282 5361 7283 7057 7284 7285 
557 558 855 854 590 591 888 887 5044 7060 7061 7053 5368 7287 7288 7280 5355 5365 7286 7279 7282 7289 5371 7290 7064 7291 7292 
558 559 856 855 591 592 889 888 5054 7067 7068 7060 5378 7294 7295 7287 5365 5375 7293 7286 7289 7296 5381 7297 7071 7298 7299 
559 560 857 856 592 593 890 889 5064 7074 7075 7067 5388 7301 7302 7294 5375 5385 7300 7293 7296 7303 5391 7304 7078 7305 7306 
594 595 892 891 627 628 925 924 5395 7307 7308 7309 5400 7312 7313 7314 5398 5397 7310 7311 7318 7316 5404 7317 7315 7319 7320 
595 596 893 892 628 629 926 925 5409 7321 7322 7307 5412 7324 7325 7312 5397 5410 7323 7310 7316 7327 5415 7328 7326 7329 7330 
596 597 894 893 629 630 927 926 5419 7331 7332 7321 5422 7334 7335 7324 5410 5420 7333 7323 7327 7337 5425 7338 7336 7339 7340 
597 598 895 894 630 631 928 927 5429 7341 7342 7331 5432 7344 7345 7334 5420 5430 7343 7333 7337 7347 5435 7348 7346 7349 7350 
598 599 896 895 631 632 929 928 5439 7351 7352 7341 5442 7354 7355 7344 5430 5440 7353 7343 7347 7357 5445 7358 7356 7359 7360 
599 600 897 896 632 633 930 929 5449 7361 7362 7351 5452 7364 7365 7354 5440 5450 7363 7353 7357 7367 5455 7368 7366 7369 7370 
600 601 898 897 633 634 931 930 5459 7371 7372 7361 5462 7374 7375 7364 5450 5460 7373 7363 7367 7377 5465 7378 7376 7379 7380 
601 602 899 898 634 635 932 931 5469 7381 7382 7371 5472 7384 7385 7374 5460 5470 7383 7373 7377 7387 5475 7388 7386 7389 7390 
602 603 900 899 635 636 933 932 5479 7391 7392 7381 5482 7394 7395 7384 5470 5480 7393 7383 7387 7397 5485 7398 7396 7399 7400 
603 604 901 900 636 637 934 933 5489 7401 7402 7391 5492 7404 7405 7394 5480 5490 7403 7393 7397 7407 5495 7408 7406 7409 7410 
604 605 902 901 637 638 935 934 5499 7411 7412 7401 5502 7414 7415 7404 5490 5500 7413 7403 7407 7417 5505 7418 7416 7419 7420 
605 606 903 902 638 639 936 935 5509 7421 7422 7411 5512 7424 7425 7414 5500 5510 7423 7413 7417 7427 5515 7428 7426 7429 7430 
606 607 904 903 639 640 937 936 5519 7431 7432 7421 5522 7434 7435 7424 5510 5520 7433 7423 7427 7437 5525 7438 7436 7439 7440 
607 608 905 904 640 641 938 937 5529 7441 7442 7431 5532 7444 7445 7434 5520 5530 7443 7433 7437 7447 5535 7448 7446 7449 7450 
608 609 906 905 641 642 939 938 5539 7451 7452 7441 5542 7454 7455 7444 5530 5540 7453 7443 7447 7457 5545 7458 7456 7459 7460 
609 610 907 906 642 643 940 939 5549 7461 7462 7451 5552 7464 7465 7454 5540 5550 7463 7453 7457 7467 5555 7468 7466 7469 7470 
610 611 908 907 643 644 941 940 5559 7471 7472 7461 5562 7474 7475 7464 5550 5560 7473 7463 7467 7477 5565 7478 7476 7479 7480 
611 612 909 908 644 645 942 941 5569 7481 7482 7471 5572 7484 7485 7474 5560 5570 7483 7473 7477 7487 5575 7488 7486 7489 7490 
612 613 910 909 645 646 943 942 5579 7491 7492 7481 5582 7494 7495 7484 5570 5580 7493 7483 7487 7497 5585 7498 7496 7499 7500 
613 614 911 910 646 647 944 943 5589 7501 7502 7491 5592 7504 7505 7494 5580 5590 7503 7493 7497 7507 5595 7508 7506 7509 7510 
614 615 912 911 647 648 945 944 5599 7511 7512 7501 5602 7514 7515 7504 5590 5600 7513 7503 7507 7517 5605 7518 7516 7519 7520 
615 616 913 912 648 649 946 945 5609 7521 7522 7511 5612 7524 7525 7514 5600 5610 7523 7513 7517 7527 5615 7528 7526 7529 7530 
616 617 914 913 649 650 947 946 5619 7531 7532 7521 5622 7534 7535 7524 5610 5620 7533 7523 7527 7537 5625 7538 7536 7539 7540 
617 618 915 914 650 651 948 947 5629 7541 7542 7531 5632 7544 7545 7534 5620 5630 7543 7533 7537 7547 5635 7548 7546 7549 7550 
618 619 916 915 651 652 949 948 5639 7551 7552 7541 5642 7554 7555 7544 5630 5640 7553 7543 7547 7557 5645 7558 7556 7559 7560 
619 620 917 916 652 653 950 949 5649 7561 7562 7551 5652 7564 7565 7554 5640 5650 7563 7553 7557 7567 5655 7568 7566 7569 7570 
620 621 918 917 653 654 951 950 5659 7571 7572 7561 5662 7574 7575 7564 5650 5660 7573 7563 7567 7577 5665 7578 7576 7579 7580 
621 622 919 918 654 655 952 951 5669 7581 7582 7571 5672 7584 7585 7574 5660 5670 7583 7573 7577 7587 5675 7588 7586 7589 7590 
622 623 920 919 655 656 953 952 5679 7591 7592 7581 5682 7594 7595 7584 5670 5680 7593 7583 7587 7597 5685 7598 7596 7599 7600 
623 624 921 920 656 657 954 953 5689 7601 7602 7591 5692 7604 7605 7594 5680 5690 7603 7593 7597 7607 5695 7608 7606 7609 7610 
624 625 922 921 657 658 955 954 5699 7611 7612 7601 5702 7614 7615 7604 5690 5700 7613 7603 7607 7617 5705 7618 7616 7619 7620 
625 626 923 922 658 659 956 955 5709 7621 7622 7611 5712 7624 7625 7614 5700 5710 7623 7613 7617 7627 5715 7628 7626 7629 7630 
627 628 925 924 660 661 958 957 5400 7312 7313 7314 5721 7633 7634 7635 5719 5718 7631 7632 7638 7636 5724 7637 7319 7639 7640 
628 629 926 925 661 662 959 958 5412 7324 7325 7312 5730 7642 7643 7633 5718 5728 7641 7631 7636 7644 5732 7645 7329 7646 7647 
629 630 927 926 662 663 960 959 5422 7334 7335 7324 5737 7649 7650 7642 5728 5735 7648 7641 7644 7651 5739 7652 7339 7653 7654 
630 631 928 927 663 664 961 960 5432 7344 7345 7334 5744 7656 7657 7649 5735 5742 7655 7648 7651 7658 5746 7659 7349 7660 7661 
631 632 929 928 664 665 962 961 5442 7354 7355 7344 5751 7663 7664 7656 5742 5749 7662 7655 7658 7665 5753 7666 7359 7667 7668 
632 633 930 929 665 666 963 962 5452 7364 7365 7354 5758 7670 7671 7663 5749 5756 7669 7662 7665 7672 5760 7673 7369 7674 7675 
633 634 931 930 666 667 964 963 5462 7374 7375 7364 5765 7677 7678 7670 5756 5763 7676 7669 7672 7679 5767 7680 7379 7681 7682 
634 635 932 931 667 668 965 964 5472 7384 7385 7374 5772 7684 7685 7677 5763 5770 7683 7676 7679 7686 5774 7687 7389 7688 7689 
635 636 933 932 668 669 966 965 5482 7394 7395 7384 5779 7691 7692 7684 5770 5777 7690 7683 7686 7693 5781 7694 7399 7695 7696 
636 637 934 933 669 670 967 966 5492 7404 7405 7394 5786 7698 7699 7691 5777 5784 7697 7690 7693 7700 5788 7701 7409 7702 7703 
637 638 935 934 670 671 968 967 5502 7414 7415 7404 5793 7705 7706 7698 5784 5791 7704 7697 7700 7707 5795 7708 7419 7709 7710 
638 639 936 935 671 672 969 968 5512 7424 7425 7414 5800 7712 7713 7705 5791 5798 7711 7704 7707 7714 5802 7715 7429 7716 7717 
639 640 937 936 672 673 970 969 5522 7434 7435 7424 5807 7719 7720 7712 5798 5805 7718 7711 7714 7721 5809 7722 7439 7723 7724 
640 641 938 937 673 674 971 970 5532 7444 7445 7434 5814 7726 7727 7719 5805 5812 7725 7718 7721 7728 5816 7729 7449 7730 7731 
641 642 939 938 674 675 972 971 5542 7454 7455 7444 5821 7733 7734 7726 5812 5819 7732 7725 7728 7735 5823 7736 7459 7737 7738 
642 643 940 939 675 676 973 972 5552 7464 7465 7454 5828 7740 7741 7733 5819 5826 7739 7732 7735 7742 5830 7743 7469 7744 7745 
643 644 941 940 676 677 974 973 5562 7474 7475 7464 5835 7747 7748 7740 5826 5833 7746 7739 7742 7749 5837 7750 7479 7751 7752 
644 645 942 941 677 678 975 974 5572 7484 7485 7474 5842 7754 7755 7747 5833 5840 7753 7746 7749 7756 5844 7757 7489 7758 7759 
645 646 943 942 678 679 976 975 5582 7494 7495 7484 5849 7761 7762 7754 5840 5847 7760 7753 7756 7763 5851 7764 7499 7765 7766 
646 647 944 943 679 680 977 976 5592 7504 7505 7494 5856 7768 7769 7761 5847 5854 7767 7760 7763 7770 5858 7771 7509 7772 7773 
647 648 945 944 680 681 978 977 5602 7514 7515 7504 5863 7775 7776 7768 5854 5861 7774 7767 7770 7777 5865 7778 7519 7779 7780 
648 649 946 945 681 682 979 978 5612 7524 7525 7514 5870 7782 7783 7775 5861 5868 7781 7774 7777 7784 5872 7785 7529 7786 7787 
649 650 947 946 682 683 980 979 5622 7534 7535 7524 5877 7789 7790 7782 5868 5875 7788 7781 7784 7791 5879 7792 7539 7793 7794 
650 651 948 947 683 684 981 980 5632 7544 7545 7534 5884 7796 7797 7789 5875 5882 7795 7788 7791 7798 5886 7799 7549 7800 7801 
651 652 949 948 684 685 982 981 5642 7554 7555 7544 5891 7803 7804 7796 5882 5889 7802 7795 7798 7805 5893 7806 7559 7807 7808 
652 653 950 949 685 686 983 982 5652 7564 7565 7554 5898 7810 7811 7803 5889 5896 7809 7802 7805 7812 5900 7813 7569 7814 7815 
653 654 951 950 686 687 984 983 5662 7574 7575 7564 5905 7817 7818 7810 5896 5903 7816 7809 7812 7819 5907 7820 7579 7821 7822 
654 655 952 951 687 688 985 984 5672 7584 7585 7574 5912 7824 7825 7817 5903 5910 7823 7816 7819 7826 5914 7827 7589 7828 7829 
655 656 953 952 688 689 986 985 5682 7594 7595 7584 5919 7831 7832 7824 5910 5917 7830 7823 7826 7833 5921 7834 7599 7835 7836 
656 657 954 953 689 690 987 986 5692 7604 7605 7594 5926 7838 7839 7831 5917 5924 7837 7830 7833 7840 5928 7841 7609 7842 7843 
657 658 955 954 690 691 988 987 5702 7614 7615 7604 5933 7845 7846 7838 5924 5931 7844 7837 7840 7847 5935 7848 7619 7849 7850 
658 659 956 955 691 692 989 988 5712 7624 7625 7614 5940 7852 7853 7845 5931 5938 7851 7844 7847 7854 5942 7855 7629 7856 7857 
660 661 958 957 693 694 991 990 5721 7633 7634 7635 5948 7860 7861 7862 5946 5945 7858 7859 7865 7863 5951 7864 7639 7866 7867 
661 662 959 958 694 695 992 991 5730 7642 7643 7633 5957 7869 7870 7860 5945 5955 7868 7858 7863 7871 5959 7872 7646 7873 7874 
662 663 960 959 695 696 993 992 5737 7649 7650 7642 5964 7876 7877 7869 5955 5962 7875 7868 7871 7878 5966 7879 7653 7880 7881 
663 664 961 960 696 697 994 993 5744 7656 7657 7649 5971 7883 7884 7876 5962 5969 7882 7875 7878 7885 5973 7886 7660 7887 7888 
664 665 962 961 697 698 995 994 5751 7663 7664 7656 5978 7890 7891 7883 5969 5976 7889 7882 7885 7892 5980 7893 7667 7894 7895 
665 666 963 962 698 699 996 995 5758 7670 7671 7663 5985 7897 7898 7890 5976 5983 7896 7889 7892 7899 5987 7900 7674 7901 7902 
666 667 964 963 699 700 997 996 5765 7677 7678 7670 5992 7904 7905 7897 5983 5990 7903 7896 7899 7906 5994 7907 7681 7908 7909 
667 668 965 964 700 701 998 997 5772 7684 7685 7677 5999 7911 7912 7904 5990 5997 7910 7903 7906 7913 6001 7914 7688 7915 7916 
668 669 966 965 701 702 999 998 5779 7691 7692 7684 6006 7918 7919 7911 5997 6004 7917 7910 7913 7920 6008 7921 7695 7922 7923 
669 670 967 966 702 703 1000 999 5786 7698 7699 7691 6013 7925 7926 7918 6004 6011 7924 7917 7920 7927 6015 7928 7702 7929 7930 
670 671 968 967 703 704 1001 1000 5793 7705 7706 7698 6020 7932 7933 7925 6011 6018 7931 7924 7927 7934 6022 7935 7709 7936 7937 
671 672 969 968 704 705 1002 1001 5800 7712 7713 7705 6027 7939 7940 7932 6018 6025 7938 7931 7934 7941 6029 7942 7716 7943 7944 
672 673 970 969 705 706 1003 1002 5807 7719 7720 7712 6034 7946 7947 7939 6025 6032 7945 7938 7941 7948 6036 7949 7723 7950 7951 
673 674 971 970 706 707 1004 1003 5814 7726 7727 7719 6041 7953 7954 7946 6032 6039 7952 7945 7948 7955 6043 7956 7730 7957 7958 
674 675 972 971 707 708 1005 1004 5821 7733 7734 7726 6048 7960 7961 7953 6039 6046 7959 7952 7955 7962 6050 7963 7737 7964 7965 
675 676 973 972 708 709 1006 1005 5828 7740 7741 7733 6055 7967 7968 7960 6046 6053 7966 7959 7962 7969 6057 7970 7744 7971 7972 
676 677 974 973 709 710 1007 1006 5835 7747 7748 7740 6062 7974 7975 7967 6053 6060 7973 7966 7969 7976 6064 7977 7751 7978 7979 
677 678 975 974 710 711 1008 1007 5842 7754 7755 7747 6069 7981 7982 7974 6060 6067 7980 7973 7976 7983 6071 7984 7758 7985 7986 
678 679 976 975 711 712 1009 1008 5849 7761 7762 7754 6076 7988 7989 7981 6067 6074 7987 7980 7983 7990 6078 7991 7765 7992 7993 
679 680 977 976 712 713 1010 1009 5856 7768 7769 7761 6083 7995 7996 7988 6074 6081 7994 7987 7990 7997 6085 7998 7772 7999 8000 
680 681 978 977 713 714 1011 1010 5863 7775 7776 7768 6090 8002 8003 7995 6081 6088 8001 7994 7997 8004 6092 8005 7779 8006 8007 
681 682 979 978 714 715 1012 1011 5870 7782 7783 7775 6097 8009 8010 8002 6088 6095 8008 8001 8004 8011 6099 8012 7786 8013 8014 
682 683 980 979 715 716 1013 1012 5877 7789 7790 7782 6104 8016 8017 8009 6095 6102 8015 8008 8011 8018 6106 8019 7793 8020 8021 
683 684 981 980 716 717 1014 1013 5884 7796 7797 7789 6111 8023 8024 8016 6102 6109 8022 8015 8018 8025 6113 8026 7800 8027 8028 
684 685 982 981 717 718 1015 1014 5891 7803 7804 7796 6118 8030 8031 8023 6109 6116 8029 8022 8025 8032 6120 8033 7807 8034 8035 
685 686 983 982 718 719 1016 1015 5898 7810 7811 7803 6125 8037 8038 8030 6116 6123 8036 8029 8032 8039 6127 8040 7814 8041 8042 
686 687 984 983 719 720 1017 1016 5905 7817 7818 7810 6132 8044 8045 8037 6123 6130 8043 8036 8039 8046 6134 8047 7821 8048 8049 
687 688 985 984 720 721 1018 1017 5912 7824 7825 7817 6139 8051 8052 8044 6130 6137 8050 8043 8046 8053 6141 8054 7828 8055 8056 
688 689 986 985 721 722 1019 1018 5919 7831 7832 7824 6146 8058 8059 8051 6137 6144 8057 8050 8053 8060 6148 8061 7835 8062 8063 
689 690 987 986 722 723 1020 1019 5926 7838 7839 7831 6153 8065 8066 8058 6144 6151 8064 8057 8060 8067 6155 8068 7842 8069 8070 
690 691 988 987 723 724 1021 1020 5933 7845 7846 7838 6160 8072 8073 8065 6151 6158 8071 8064 8067 8074 6162 8075 7849 8076 8077 
691 692 989 988 724 725 1022 1021 5940 7852 7853 7845 6167 8079 8080 8072 6158 6165 8078 8071 8074 8081 6169 8082 7856 8083 8084 
693 694 991 990 726 727 1024 1023 5948 7860 7861 7862 6175 8087 8088 8089 6173 6172 8085 8086 8092 8090 6178 8091 7866 8093 8094 
694 695 992 991 727 728 1025 1024 5957 7869 7870 7860 6184 8096 8097 8087 6172 6182 8095 8085 8090 8098 6186 8099 7873 8100 8101 
695 696 993 992 728 729 1026 1025 5964 7876 7877 7869 6191 8103 8104 8096 6182 6189 8102 8095 8098 8105 6193 8106 7880 8107 8108 
696 697 994 993 729 730 1027 1026 5971 7883 7884 7876 6198 8110 8111 8103 6189 6196 8109 8102 8105 8112 6200 8113 7887 8114 8115 
697 698 995 994 730 731 1028 1027 5978 7890 7891 7883 6205 8117 8118 8110 6196 6203 8116 8109 8112 8119 6207 8120 7894 8121 8122 
698 699 996 995 731 732 1029 1028 5985 7897 7898 7890 6212 8124 8125 8117 6203 6210 8123 8116 8119 8126 6214 8127 7901 8128 8129 
699 700 997 996 732 733 1030 1029 5992 7904 7905 7897 6219 8131 8132 8124 6210 6217 8130 8123 8126 8133 6221 8134 7908 8135 8136 
700 701 998 997 733 734 1031 1030 5999 7911 7912 7904 6226 8138 8139 8131 6217 6224 8137 8130 8133 8140 6228 8141 7915 8142 8143 
701 702 999 998 734 735 1032 1031 6006 7918 7919 7911 6233 8145 8146 8138 6224 6231 8144 8137 8140 8147 6235 8148 7922 8149 8150 
702 703 1000 999 735 736 1033 1032 6013 7925 7926 7918 6240 8152 8153 8145 6231 6238 8151 8144 8147 8154 6242 8155 7929 8156 8157 
703 704 1001 1000 736 737 1034 1033 6020 7932 7933 7925 6247 8159 8160 8152 6238 6245 8158 8151 8154 8161 6249 8162 7936 8163 8164 
704 705 1002 1001 737 738 1035 1034 6027 7939 7940 7932 6254 8166 8167 8159 6245 6252 8165 8158 8161 8168 6256 8169 7943 8170 8171 
705 706 1003 1002 738 739 1036 1035 6034 7946 7947 7939 6261 8173 8174 8166 6252 6259 8172 8165 8168 8175 6263 8176 7950 8177 8178 
706 707 1004 1003 739 740 1037 1036 6041 7953 7954 7946 6268 8180 8181 8173 6259 6266 8179 8172 8175 8182 6270 8183 7957 8184 8185 
707 708 1005 1004 740 741 1038 1037 6048 7960 7961 7953 6275 8187 8188 8180 6266 6273 8186 8179 8182 8189 6277 8190 7964 8191 8192 
708 709 1006 1005 741 742 1039 1038 6055 7967 7968 7960 6282 8194 8195 8187 6273 6280 8193 8186 8189 8196 6284 8197 7971 8198 8199 
709 710 1007 1006 742 743 1040 1039 6062 7974 7975 7967 6289 8201 8202 8194 6280 6287 8200 8193 8196 8203 6291 8204 7978 8205 8206 
710 711 1008 1007 743 744 1041 1040 6069 7981 7982 7974 6296 8208 8209 8201 6287 6294 8207 8200 8203 8210 6298 8211 7985 8212 8213 
711 712 1009 1008 744 745 1042 1041 6076 7988 7989 7981 6303 8215 8216 8208 6294 6301 8214 8207 8210 8217 6305 8218 7992 8219 8220 
712 713 1010 1009 745 746 1043 1042 6083 7995 7996 7988 6310 8222 8223 8215 6301 6308 8221 8214 8217 8224 6312 8225 7999 8226 8227 
713 714 1011 1010 746 747 1044 1043 6090 8002 8003 7995 6317 8229 8230 8222 6308 6315 8228 8221 8224 8231 6319 8232 8006 8233 8234 
714 715 1012 1011 747 748 1045 1044 6097 8009 8010 8002 6324 8236 8237 8229 6315 6322 8235 8228 8231 8238 6326 8239 8013 8240 8241 
715 716 1013 1012 748 749 1046 1045 6104 8016 8017 8009 6331 8243 8244 8236 6322 6329 8242 8235 8238 8245 6333 8246 8020 8247 8248 
716 717 1014 1013 749 750 1047 1046 6111 8023 8024 8016 6338 8250 8251 8243 6329 6336 8249 8242 8245 8252 6340 8253 8027 8254 8255 
717 718 1015 1014 750 751 1048 1047 6118 8030 8031 8023 6345 8257 8258 8250 6336 6343 8256 8249 8252 8259 6347 8260 8034 8261 8262 
718 719 1016 1015 751 752 1049 1048 6125 8037 8038 8030 6352 8264 8265 8257 6343 6350 8263 8256 8259 8266 6354 8267 8041 8268 8269 
719 720 1017 1016 752 753 1050 1049 6132 8044 8045 8037 6359 8271 8272 8264 6350 6357 8270 8263 8266 8273 6361 8274 8048 8275 8276 
720 721 1018 1017 753 754 1051 1050 6139 8051 8052 8044 6366 8278 8279 8271 6357 6364 8277 8270 8273 8280 6368 8281 8055 8282 8283 
721 722 1019 1018 754 755 1052 1051 6146 8058 8059 8051 6373 8285 8286 8278 6364 6371 8284 8277 8280 8287 6375 8288 8062 8289 8290 
722 723 1020 1019 755 756 1053 1052 6153 8065 8066 8058 6380 8292 8293 8285 6371 6378 8291 8284 8287 8294 6382 8295 8069 8296 8297 
723 724 1021 1020 756 757 1054 1053 6160 8072 8073 8065 6387 8299 8300 8292 6378 6385 8298 8291 8294 8301 6389 8302 8076 8303 8304 
724 725 1022 1021 757 758 1055 1054 6167 8079 8080 8072 6394 8306 8307 8299 6385 6392 8305 8298 8301 8308 6396 8309 8083 8310 8311 
726 727 1024 1023 759 760 1057 1056 6175 8087 8088 8089 6402 8314 8315 8316 6400 6399 8312 8313 8319 8317 6405 8318 8093 8320 8321 
727 728 1025 1024 760 761 1058 1057 6184 8096 8097 8087 6411 8323 8324 8314 6399 6409 8322 8312 8317 8325 6413 8326 8100 8327 8328 
728 729 1026 1025 761 762 1059 1058 6191 8103 8104 8096 6418 8330 8331 8323 6409 6416 8329 8322 8325 8332 6420 8333 8107 8334 8335 
729 730 1027 1026 762 763 1060 1059 6198 8110 8111 8103 6425 8337 8338 8330 6416 6423 8336 8329 8332 8339 6427 8340 8114 8341 8342 
730 731 1028 1027 763 764 1061 1060 6205 8117 8118 8110 6432 8344 8345 8337 6423 6430 8343 8336 8339 8346 6434 8347 8121 8348 8349 
731 732 1029 1028 764 765 1062 1061 6212 8124 8125 8117 6439 8351 8352 8344 6430 6437 8350 8343 8346 8353 6441 8354 8128 8355 8356 
732 733 1030 1029 765 766 1063 1062 6219 8131 8132 8124 6446 8358 8359 8351 6437 6444 8357 8350 8353 8360 6448 8361 8135 8362 8363 
733 734 1031 1030 766 767 1064 1063 6226 8138 8139 8131 6453 8365 8366 8358 6444 6451 8364 8357 8360 8367 6455 8368 8142 8369 8370 
734 735 1032 1031 767 768 1065 1064 6233 8145 8146 8138 6460 8372 8373 8365 6451 6458 8371 8364 8367 8374 6462 8375 8149 8376 8377 
735 736 1033 1032 768 769 1066 1065 6240 8152 8153 8145 6467 8379 8380 8372 6458 6465 8378 8371 8374 8381 6469 8382 8156 8383 8384 
736 737 1034 1033 769 770 1067 1066 6247 8159 8160 8152 6474 8386 8387 8379 6465 6472 8385 8378 8381 8388 6476 8389 8163 8390 8391 
737 738 1035 1034 770 771 1068 1067 6254 8166 8167 8159 6481 8393 8394 8386 6472 6479 8392 8385 8388 8395 6483 8396 8170 8397 8398 
738 739 1036 1035 771 772 1069 1068 6261 8173 8174 8166 6488 8400 8401 8393 6479 6486 8399 8392 8395 8402 6490 8403 8177 8404 8405 
739 740 1037 1036 772 773 1070 1069 6268 8180 8181 8173 6495 8407 8408 8400 6486 6493 8406 8399 8402 8409 6497 8410 8184 8411 8412 
740 741 1038 1037 773 774 1071 1070 6275 8187 8188 8180 6502 8414 8415 8407 6493 6500 8413 8406 8409 8416 6504 8417 8191 8418 8419 
741 742 1039 1038 774 775 1072 1071 6282 8194 8195 8187 6509 8421 8422 8414 6500 6507 8420 8413 8416 8423 6511 8424 8198 8425 8426 
742 743 1040 1039 775 776 1073 1072 6289 8201 8202 8194 6516 8428 8429 8421 6507 6514 8427 8420 8423 8430 6518 8431 8205 8432 8433 
743 744 1041 1040 776 777 1074 1073 6296 8208 8209 8201 6523 8435 8436 8428 6514 6521 8434 8427 8430 8437 6525 8438 8212 8439 8440 
744 745 1042 1041 777 778 1075 1074 6303 8215 8216 8208 6530 8442 8443 8435 6521 6528 8441 8434 8437 8444 6532 8445 8219 8446 8447 
745 746 1043 1042 778 779 1076 1075 6310 8222 8223 8215 6537 8449 8450 8442 6528 6535 8448 8441 8444 8451 6539 8452 8226 8453 8454 
746 747 1044 1043 779 780 1077 1076 6317 8229 8230 8222 6544 8456 8457 8449 6535 6542 8455 8448 8451 8458 6546 8459 8233 8460 8461 
747 748 1045 1044 780 781 1078 1077 6324 8236 8237 8229 6551 8463 8464 8456 6542 6549 8462 8455 8458 8465 6553 8466 8240 8467 8468 
748 749 1046 1045 781 782 1079 1078 6331 8243 8244 8236 6558 8470 8471 8463 6549 6556 8469 8462 8465 8472 6560 8473 8247 8474 8475 
749 750 1047 1046 782 783 1080 1079 6338 8250 8251 8243 6565 8477 8478 8470 6556 6563 8476 8469 8472 8479 6567 8480 8254 8481 8482 
750 751 1048 1047 783 784 1081 1080 6345 8257 8258 8250 6572 8484 8485 8477 6563 6570 8483 8476 8479 8486 6574 8487 8261 8488 8489 
751 752 1049 1048 784 785 1082 1081 6352 8264 8265 8257 6579 8491 8492 8484 6570 6577 8490 8483 8486 8493 6581 8494 8268 8495 8496 
752 753 1050 1049 785 786 1083 1082 6359 8271 8272 8264 6586 8498 8499 8491 6577 6584 8497 8490 8493 8500 6588 8501 8275 8502 8503 
753 754 1051 1050 786 787 1084 1083 6366 8278 8279 8271 6593 8505 8506 8498 6584 6591 8504 8497 8500 8507 6595 8508 8282 8509 8510 
754 755 1052 1051 787 788 1085 1084 6373 8285 8286 8278 6600 8512 8513 8505 6591 6598 8511 8504 8507 8514 6602 8515 8289 8516 8517 
755 756 1053 1052 788 789 1086 1085 6380 8292 8293 8285 6607 8519 8520 8512 6598 6605 8518 8511 8514 8521 6609 8522 8296 8523 8524 
756 757 1054 1053 789 790 1087 1086 6387 8299 8300 8292 6614 8526 8527 8519 6605 6612 8525 8518 8521 8528 6616 8529 8303 8530 8531 
757 758 1055 1054 790 791 1088 1087 6394 8306 8307 8299 6621 8533 8534 8526 6612 6619 8532 8525 8528 8535 6623 8536 8310 8537 8538 
759 760 1057 1056 792 793 1090 1089 6402 8314 8315 8316 6629 8541 8542 8543 6627 6626 8539 8540 8546 8544 6632 8545 8320 8547 8548 
760 761 1058 1057 793 794 1091 1090 6411 8323 8324 8314 6638 8550 8551 8541 6626 6636 8549 8539 8544 8552 6640 8553 8327 8554 8555 
761 762 1059 1058 794 795 1092 1091 6418 8330 8331 8323 6645 8557 8558 8550 6636 6643 8556 8549 8552 8559 6647 8560 8334 8561 8562 
762 763 1060 1059 795 796 1093 1092 6425 8337 8338 8330 6652 8564 8565 8557 6643 6650 8563 8556 8559 8566 6654 8567 8341 8568 8569 
763 764 1061 1060 796 797 1094 1093 6432 8344 8345 8337 6659 8571 8572 8564 6650 6657 8570 8563 8566 8573 6661 8574 8348 8575 8576 
764 765 1062 1061 797 798 1095 1094 6439 8351 8352 8344 6666 8578 8579 8571 6657 6664 8577 8570 8573 8580 6668 8581 8355 8582 8583 
765 766 1063 1062 798 799 1096 1095 6446 8358 8359 8351 6673 8585 8586 8578 6664 6671 8584 8577 8580 8587 6675 8588 8362 8589 8590 
766 767 1064 1063 799 800 1097 1096 6453 8365 8366 8358 6680 8592 8593 8585 6671 6678 8591 8584 8587 8594 6682 8595 8369 8596 8597 
767 768 1065 1064 800 801 1098 1097 6460 8372 8373 8365 6687 8599 8600 8592 6678 6685 8598 8591 8594 8601 6689 8602 8376 8603 8604 
768 769 1066 1065 801 802 1099 1098 6467 8379 8380 8372 6694 8606 8607 8599 6685 6692 8605 8598 8601 8608 6696 8609 8383 8610 8611 
769 770 1067 1066 802 803 1100 1099 6474 8386 8387 8379 6701 8613 8614 8606 6692 6699 8612 8605 8608 8615 6703 8616 8390 8617 8618 
770 771 1068 1067 803 804 1101 1100 6481 8393 8394 8386 6708 8620 8621 8613 6699 6706 8619 8612 8615 8622 6710 8623 8397 8624 8625 
771 772 1069 1068 804 805 1102 1101 6488 8400 8401 8393 6715 8627 8628 8620 6706 6713 8626 8619 8622 8629 6717 8630 8404 8631 8632 
772 773 1070 1069 805 806 1103 1102 6495 8407 8408 8400 6722 8634 8635 8627 6713 6720 8633 8626 8629 8636 6724 8637 8411 8638 8639 
773 774 1071 1070 806 807 1104 1103 6502 8414 8415 8407 6729 8641 8642 8634 6720 6727 8640 8633 8636 8643 6731 8644 8418 8645 8646 
774 775 1072 1071 807 808 1105 1104 6509 8421 8422 8414 6736 8648 8649 8641 6727 6734 8647 8640 8643 8650 6738 8651 8425 8652 8653 
775 776 1073 1072 808 809 1106 1105 6516 8428 8429 8421 6743 8655 8656 8648 6734 6741 8654 8647 8650 8657 6745 8658 8432 8659 8660 
776 777 1074 1073 809 810 1107 1106 6523 8435 8436 8428 6750 8662 8663 8655 6741 6748 8661 8654 8657 8664 6752 8665 8439 8666 8667 
777 778 1075 1074 810 811 1108 1107 6530 8442 8443 8435 6757 8669 8670 8662 6748 6755 8668 8661 8664 8671 6759 8672 8446 8673 8674 
778 779 1076 1075 811 812 1109 1108 6537 8449 8450 8442 6764 8676 8677 8669 6755 6762 8675 8668 8671 8678 6766 8679 8453 8680 8681 
779 780 1077 1076 812 813 1110 1109 6544 8456 8457 8449 6771 8683 8684 8676 6762 6769 8682 8675 8678 8685 6773 8686 8460 8687 8688 
780 781 1078 1077 813 814 1111 1110 6551 8463 8464 8456 6778 8690 8691 8683 6769 6776 8689 8682 8685 8692 6780 8693 8467 8694 8695 
781 782 1079 1078 814 815 1112 1111 6558 8470 8471 8463 6785 8697 8698 8690 6776 6783 8696 8689 8692 8699 6787 8700 8474 8701 8702 
782 783 1080 1079 815 816 1113 1112 6565 8477 8478 8470 6792 8704 8705 8697 6783 6790 8703 8696 8699 8706 6794 8707 8481 8708 8709 
783 784 1081 1080 816 817 1114 1113 6572 8484 8485 8477 6799 8711 8712 8704 6790 6797 8710 8703 8706 8713 6801 8714 8488 8715 8716 
784 785 1082 1081 817 818 1115 1114 6579 8491 8492 8484 6806 8718 8719 8711 6797 6804 8717 8710 8713 8720 6808 8721 8495 8722 8723 
785 786 1083 1082 818 819 1116 1115 6586 8498 8499 8491 6813 8725 8726 8718 6804 6811 8724 8717 8720 8727 6815 8728 8502 8729 8730 
786 787 1084 1083 819 820 1117 1116 6593 8505 8506 8498 6820 8732 8733 8725 6811 6818 8731 8724 8727 8734 6822 8735 8509 8736 8737 
787 788 1085 1084 820 821 1118 1117 6600 8512 8513 8505 6827 8739 8740 8732 6818 6825 8738 8731 8734 8741 6829 8742 8516 8743 8744 
788 789 1086 1085 821 822 1119 1118 6607 8519 8520 8512 6834 8746 8747 8739 6825 6832 8745 8738 8741 8748 6836 8749 8523 8750 8751 
789 790 1087 1086 822 823 1120 1119 6614 8526 8527 8519 6841 8753 8754 8746 6832 6839 8752 8745 8748 8755 6843 8756 8530 8757 8758 
790 791 1088 1087 823 824 1121 1120 6621 8533 8534 8526 6848 8760 8761 8753 6839 6846 8759 8752 8755 8762 6850 8763 8537 8764 8765 
792 793 1090 1089 825 826 1123 1122 6629 8541 8542 8543 6856 8768 8769 8770 6854 6853 8766 8767 8773 8771 6859 8772 8547 8774 8775 
793 794 1091 1090 826 827 1124 1123 6638 8550 8551 8541 6865 8777 8778 8768 6853 6863 8776 8766 8771 8779 6867 8780 8554 8781 8782 
794 795 1092 1091 827 828 1125 1124 6645 8557 8558 8550 6872 8784 8785 8777 6863 6870 8783 8776 8779 8786 6874 8787 8561 8788 8789 
795 796 1093 1092 828 829 1126 1125 6652 8564 8565 8557 6879 8791 8792 8784 6870 6877 8790 8783 8786 8793 6881 8794 8568 8795 8796 
796 797 1094 1093 829 830 1127 1126 6659 8571 8572 8564 6886 8798 8799 8791 6877 6884 8797 8790 8793 8800 6888 8801 8575 8802 8803 
797 798 1095 1094 830 831 1128 1127 6666 8578 8579 8571 6893 8805 8806 8798 6884 6891 8804 8797 8800 8807 6895 8808 8582 8809 8810 
798 799 1096 1095 831 832 1129 1128 6673 8585 8586 8578 6900 8812 8813 8805 6891 6898 8811 8804 8807 8814 6902 8815 8589 8816 8817 
799 800 1097 1096 832 833 1130 1129 6680 8592 8593 8585 6907 8819 8820 8812 6898 6905 8818 8811 8814 8821 6909 8822 8596 8823 8824 
800 801 1098 1097 833 834 1131 1130 6687 8599 8600 8592 6914 8826 8827 8819 6905 6912 8825 8818 8821 8828 6916 8829 8603 8830 8831 
801 802 1099 1098 834 835 1132 1131 6694 8606 8607 8599 6921 8833 8834 8826 6912 6919 8832 8825 8828 8835 6923 8836 8610 8837 8838 
802 803 1100 1099 835 836 1133 1132 6701 8613 8614 8606 6928 8840 8841 8833 6919 6926 8839 8832 8835 8842 6930 8843 8617 8844 8845 
803 804 1101 1100 836 837 1134 1133 6708 8620 8621 8613 6935 8847 8848 8840 6926 6933 8846 8839 8842 8849 6937 8850 8624 8851 8852 
804 805 1102 1101 837 838 1135 1134 6715 8627 8628 8620 6942 8854 8855 8847 6933 6940 8853 8846 8849 8856 6944 8857 8631 8858 8859 
805 806 1103 1102 838 839 1136 1135 6722 8634 8635 8627 6949 8861 8862 8854 6940 6947 8860 8853 8856 8863 6951 8864 8638 8865 8866 
806 807 1104 1103 839 840 1137 1136 6729 8641 8642 8634 6956 8868 8869 8861 6947 6954 8867 8860 8863 8870 6958 8871 8645 8872 8873 
807 808 1105 1104 840 841 1138 1137 6736 8648 8649 8641 6963 8875 8876 8868 6954 6961 8874 8867 8870 8877 6965 8878 8652 8879 8880 
808 809 1106 1105 841 842 1139 1138 6743 8655 8656 8648 6970 8882 8883 8875 6961 6968 8881 8874 8877 8884 6972 8885 8659 8886 8887 
809 810 1107 1106 842 843 1140 1139 6750 8662 8663 8655 6977 8889 8890 8882 6968 6975 8888 8881 8884 8891 6979 8892 8666 8893 8894 
810 811 1108 1107 843 844 1141 1140 6757 8669 8670 8662 6984 8896 8897 8889 6975 6982 8895 8888 8891 8898 6986 8899 8673 8900 8901 
811 812 1109 1108 844 845 1142 1141 6764 8676 8677 8669 6991 8903 8904 8896 6982 6989 8902 8895 8898 8905 6993 8906 8680 8907 8908 
812 813 1110 1109 845 846 1143 1142 6771 8683 8684 8676 6998 8910 8911 8903 6989 6996 8909 8902 8905 8912 7000 8913 8687 8914 8915 
813 814 1111 1110 846 847 1144 1143 6778 8690 8691 8683 7005 8917 8918 8910 6996 7003 8916 8909 8912 8919 7007 8920 8694 8921 8922 
814 815 1112 1111 847 848 1145 1144 6785 8697 8698 8690 7012 8924 8925 8917 7003 7010 8923 8916 8919 8926 7014 8927 8701 8928 8929 
815 816 1113 1112 848 849 1146 1145 6792 8704 8705 8697 7019 8931 8932 8924 7010 7017 8930 8923 8926 8933 7021 8934 8708 8935 8936 
816 817 1114 1113 849 850 1147 1146 6799 8711 8712 8704 7026 8938 8939 8931 7017 7024 8937 8930 8933 8940 7028 8941 8715 8942 8943 
817 818 1115 1114 850 851 1148 1147 6806 8718 8719 8711 7033 8945 8946 8938 7024 7031 8944 8937 8940 8947 7035 8948 8722 8949 8950 
818 819 1116 1115 851 852 1149 1148 6813 8725 8726 8718 7040 8952 8953 8945 7031 7038 8951 8944 8947 8954 7042 8955 8729 8956 8957 
819 820 1117 1116 852 853 1150 1149 6820 8732 8733 8725 7047 8959 8960 8952 7038 7045 8958 8951 8954 8961 7049 8962 8736 8963 8964 
820 821 1118 1117 853 854 1151 1150 6827 8739 8740 8732 7054 8966 8967 8959 7045 7052 8965 8958 8961 8968 7056 8969 8743 8970 8971 
821 822 1119 1118 854 855 1152 1151 6834 8746 8747 8739 7061 8973 8974 8966 7052 7059 8972 8965 8968 8975 7063 8976 8750 8977 8978 
822 823 1120 1119 855 856 1153 1152 6841 8753 8754 8746 7068 8980 8981 8973 7059 7066 8979 8972 8975 8982 7070 8983 8757 8984 8985 
823 824 1121 1120 856 857 1154 1153 6848 8760 8761 8753 7075 8987 8988 8980 7066 7073 8986 8979 8982 8989 7077 8990 8764 8991 8992 
825 826 1123 1122 858 859 1156 1155 6856 8768 8769 8770 7083 8995 8996 8997 7081 7080 8993 8994 9000 8998 7086 8999 8774 9001 9002 
826 827 1124 1123 859 860 1157 1156 6865 8777 8778 8768 7092 9004 9005 8995 7080 7090 9003 8993 8998 9006 7094 9007 8781 9008 9009 
827 828 1125 1124 860 861 1158 1157 6872 8784 8785 8777 7099 9011 9012 9004 7090 7097 9010 9003 9006 9013 7101 9014 8788 9015 9016 
828 829 1126 1125 861 862 1159 1158 6879 8791 8792 8784 7106 9018 9019 9011 7097 7104 9017 9010 9013 9020 7108 9021 8795 9022 9023 
829 830 1127 1126 862 863 1160 1159 6886 8798 8799 8791 7113 9025 9026 9018 7104 7111 9024 9017 9020 9027 7115 9028 8802 9029 9030 
830 831 1128 1127 863 864 1161 1160 6893 8805 8806 8798 7120 9032 9033 9025 7111 7118 9031 9024 9027 9034 7122 9035 8809 9036 9037 
831 832 1129 1128 864 865 1162 1161 6900 8812 8813 8805 7127 9039 9040 9032 7118 7125 9038 9031 9034 9041 7129 9042 8816 9043 9044 
832 833 1130 1129 865 866 1163 1162 6907 8819 8820 8812 7134 9046 9047 9039 7125 7132 9045 9038 9041 9048 7136 9049 8823 9050 9051 
833 834 1131 1130 866 867 1164 1163 6914 8826 8827 8819 7141 9053 9054 9046 7132 7139 9052 9045 9048 9055 7143 9056 8830 9057 9058 
834 835 1132 1131 867 868 1165 1164 6921 8833 8834 8826 7148 9060 9061 9053 7139 7146 9059 9052 9055 9062 7150 9063 8837 9064 9065 
835 836 1133 1132 868 869 1166 1165 6928 8840 8841 8833 7155 9067 9068 9060 7146 7153 9066 9059 9062 9069 7157 9070 8844 9071 9072 
836 837 1134 1133 869 870 1167 1166 6935 8847 8848 8840 7162 9074 9075 9067 7153 7160 9073 9066 9069 9076 7164 9077 8851 9078 9079 
837 838 1135 1134 870 871 1168 1167 6942 8854 8855 8847 7169 9081 9082 9074 7160 7167 9080 9073 9076 9083 7171 9084 8858 9085 9086 
838 839 1136 1135 871 872 1169 1168 6949 8861 8862 8854 7176 9088 9089 9081 7167 7174 9087 9080 9083 9090 7178 9091 8865 9092 9093 
839 840 1137 1136 872 873 1170 1169 6956 8868 8869 8861 7183 9095 9096 9088 7174 7181 9094 9087 9090 9097 7185 9098 8872 9099 9100 
840 841 1138 1137 873 874 1171 1170 6963 8875 8876 8868 7190 9102 9103 9095 7181 7188 9101 9094 9097 9104 7192 9105 8879 9106 9107 
841 842 1139 1138 874 875 1172 1171 6970 8882 8883 8875 7197 9109 9110 9102 7188 7195 9108 9101 9104 9111 7199 9112 8886 9113 9114 
842 843 1140 1139 875 876 1173 1172 6977 8889 8890 8882 7204 9116 9117 9109 7195 7202 9115 9108 9111 9118 7206 9119 8893 9120 9121 
843 844 1141 1140 876 877 1174 1173 6984 8896 8897 8889 7211 9123 9124 9116 7202 7209 9122 9115 9118 9125 7213 9126 8900 9127 9128 
844 845 1142 1141 877 878 1175 1174 6991 8903 8904 8896 7218 9130 9131 9123 7209 7216 9129 9122 9125 9132 7220 9133 8907 9134 9135 
845 846 1143 1142 878 879 1176 1175 6998 8910 8911 8903 7225 9137 9138 9130 7216 7223 9136 9129 9132 9139 7227 9140 8914 9141 9142 
846 847 1144 1143 879 880 1177 1176 7005 8917 8918 8910 7232 9144 9145 9137 7223 7230 9143 9136 9139 9146 7234 9147 8921 9148 9149 
847 848 1145 1144 880 881 1178 1177 7012 8924 8925 8917 7239 9151 9152 9144 7230 7237 9150 9143 9146 9153 7241 9154 8928 9155 9156 
848 849 1146 1145 881 882 1179 1178 7019 8931 8932 8924 7246 9158 9159 9151 7237 7244 9157 9150 9153 9160 7248 9161 8935 9162 9163 
849 850 1147 1146 882 883 1180 1179 7026 8938 8939 8931 7253 9165 9166 9158 7244 7251 9164 9157 9160 9167 7255 9168 8942 9169 9170 
850 851 1148 1147 883 884 1181 1180 7033 8945 8946 8938 7260 9172 9173 9165 7251 7258 9171 9164 9167 9174 7262 9175 8949 9176 9177 
851 852 1149 1148 884 885 1182 1181 7040 8952 8953 8945 7267 9179 9180 9172 7258 7265 9178 9171 9174 9181 7269 9182 8956 9183 9184 
852 853 1150 1149 885 886 1183 1182 7047 8959 8960 8952 7274 9186 9187 9179 7265 7272 9185 9178 9181 9188 7276 9189 8963 9190 9191 
853 854 1151 1150 886 887 1184 1183 7054 8966 8967 8959 7281 9193 9194 9186 7272 7279 9192 9185 9188 9195 7283 9196 8970 9197 9198 
854 855 1152 1151 887 888 1185 1184 7061 8973 8974 8966 7288 9200 9201 9193 7279 7286 9199 9192 9195 9202 7290 9203 8977 9204 9205 
855 856 1153 1152 888 889 1186 1185 7068 8980 8981 8973 7295 9207 9208 9200 7286 7293 9206 9199 9202 9209 7297 9210 8984 9211 9212 
856 857 1154 1153 889 890 1187 1186 7075 8987 8988 8980 7302 9214 9215 9207 7293 7300 9213 9206 9209 9216 7304 9217 8991 9218 9219 
891 892 1189 1188 924 925 1222 1221 7308 9220 9221 9222 7313 9225 9226 9227 7311 7310 9223 9224 9231 9229 7317 9230 9228 9232 9233 
892 893 1190 1189 925 926 1223 1222 7322 9234 9235 9220 7325 9237 9238 9225 7310 7323 9236 9223 9229 9240 7328 9241 9239 9242 9243 
893 894 1191 1190 926 927 1224 1223 7332 9244 9245 9234 7335 9247 9248 9237 7323 7333 9246 9236 9240 9250 7338 9251 9249 9252 9253 
894 895 1192 1191 927 928 1225 1224 7342 9254 9255 9244 7345 9257 9258 9247 7333 7343 9256 9246 9250 9260 7348 9261 9259 9262 9263 
895 896 1193 1192 928 929 1226 1225 7352 9264 9265 9254 7355 9267 9268 9257 7343 7353 9266 9256 9260 9270 7358 9271 9269 9272 9273 
896 897 1194 1193 929 930 1227 1226 7362 9274 9275 9264 7365 9277 9278 9267 7353 7363 9276 9266 9270 9280 7368 9281 9279 9282 9283 
897 898 1195 1194 930 931 1228 1227 7372 9284 9285 9274 7375 9287 9288 9277 7363 7373 9286 9276 9280 9290 7378 9291 9289 9292 9293 
898 899 1196 1195 931 932 1229 1228 7382 9294 9295 9284 7385 9297 9298 9287 7373 7383 9296 9286 9290 9300 7388 9301 9299 9302 9303 
899 900 1197 1196 932 933 1230 1229 7392 9304 9305 9294 7395 9307 9308 9297 7383 7393 9306 9296 9300 9310 7398 9311 9309 9312 9313 
900 901 1198 1197 933 934 1231 1230 7402 9314 9315 9304 7405 9317 9318 9307 7393 7403 9316 9306 9310 9320 7408 9321 9319 9322 9323 
901 902 1199 1198 934 935 1232 1231 7412 9324 9325 9314 7415 9327 9328 9317 7403 7413 9326 9316 9320 9330 7418 9331 9329 9332 9333 
902 903 1200 1199 935 936 1233 1232 7422 9334 9335 9324 7425 9337 9338 9327 7413 7423 9336 9326 9330 9340 7428 9341 9339 9342 9343 
903 904 1201 1200 936 937 1234 1233 7432 9344 9345 9334 7435 9347 9348 9337 7423 7433 9346 9336 9340 9350 7438 9351 9349 9352 9353 
904 905 1202 1201 937 938 1235 1234 7442 9354 9355 9344 7445 9357 9358 9347 7433 7443 9356 9346 9350 9360 7448 9361 9359 9362 9363 
905 906 1203 1202 938 939 1236 1235 7452 9364 9365 9354 7455 9367 9368 9357 7443 7453 9366 9356 9360 9370 7458 9371 9369 9372 9373 
906 907 1204 1203 939 940 1237 1236 7462 9374 9375 9364 7465 9377 9378 9367 7453 7463 9376 9366 9370 9380 7468 9381 9379 9382 9383 
907 908 1205 1204 940 941 1238 1237 7472 9384 9385 9374 7475 9387 9388 9377 7463 7473 9386 9376 9380 9390 7478 9391 9389 9392 9393 
908 909 1206 1205 941 942 1239 1238 7482 9394 9395 9384 7485 9397 9398 9387 7473 7483 9396 9386 9390 9400 7488 9401 9399 9402 9403 
909 910 1207 1206 942 943 1240 1239 7492 9404 9405 9394 7495 9407 9408 9397 7483 7493 9406 9396 9400 9410 7498 9411 9409 9412 9413 
910 911 1208 1207 943 944 1241 1240 7502 9414 9415 9404 7505 9417 9418 9407 7493 7503 9416 9406 9410 9420 7508 9421 9419 9422 9423 
911 912 1209 1208 944 945 1242 1241 7512 9424 9425 9414 7515 9427 9428 9417 7503 7513 9426 9416 9420 9430 7518 9431 9429 9432 9433 
912 913 1210 1209 945 946 1243 1242 7522 9434 9435 9424 7525 9437 9438 9427 7513 7523 9436 9426 9430 9440 7528 9441 9439 9442 9443 
913 914 1211 1210 946 947 1244 1243 7532 9444 9445 9434 7535 9447 9448 9437 7523 7533 9446 9436 9440 9450 7538 9451 9449 9452 9453 
914 915 1212 1211 947 948 1245 1244 7542 9454 9455 9444 7545 9457 9458 9447 7533 7543 9456 9446 9450 9460 7548 9461 9459 9462 9463 
915 916 1213 1212 948 949 1246 1245 7552 9464 9465 9454 7555 9467 9468 9457 7543 7553 9466 9456 9460 9470 7558 9471 9469 9472 9473 
916 917 1214 1213 949 950 1247 1246 7562 9474 9475 9464 7565 9477 9478 9467 7553 7563 9476 9466 9470 9480 7568 9481 9479 9482 9483 
917 918 1215 1214 950 951 1248 1247 7572 9484 9485 9474 7575 9487 9488 9477 7563 7573 9486 9476 9480 9490 7578 9491 9489 9492 9493 
918 919 1216 1215 951 952 1249 1248 7582 9494 9495 9484 7585 9497 9498 9487 7573 7583 9496 9486 9490 9500 7588 9501 9499 9502 9503 
919 920 1217 1216 952 953 1250 1249 7592 9504 9505 9494 7595 9507 9508 9497 7583 7593 9506 9496 9500 9510 7598 9511 9509 9512 9513 
920 921 1218 1217 953 954 1251 1250 7602 9514 9515 9504 7605 9517 9518 9507 7593 7603 9516 9506 9510 9520 7608 9521 9519 9522 9523 
921 922 1219 1218 954 955 1252 1251 7612 9524 9525 9514 7615 9527 9528 9517 7603 7613 9526 9516 9520 9530 7618 9531 9529 9532 9533 
922 923 1220 1219 955 956 1253 1252 7622 9534 9535 9524 7625 9537 9538 9527 7613 7623 9536 9526 9530 9540 7628 9541 9539 9542 9543 
924 925 1222 1221 957 958 1255 1254 7313 9225 9226 9227 7634 9546 9547 9548 7632 7631 9544 9545 9551 9549 7637 9550 9232 9552 9553 
925 926 1223 1222 958 959 1256 1255 7325 9237 9238 9225 7643 9555 9556 9546 7631 7641 9554 9544 9549 9557 7645 9558 9242 9559 9560 
926 927 1224 1223 959 960 1257 1256 7335 9247 9248 9237 7650 9562 9563 9555 7641 7648 9561 9554 9557 9564 7652 9565 9252 9566 9567 
927 928 1225 1224 960 961 1258 1257 7345 9257 9258 9247 7657 9569 9570 9562 7648 7655 9568 9561 9564 9571 7659 9572 9262 9573 9574 
928 929 1226 1225 961 962 1259 1258 7355 9267 9268 9257 7664 9576 9577 9569 7655 7662 9575 9568 9571 9578 7666 9579 9272 9580 9581 
929 930 1227 1226 962 963 1260 1259 7365 9277 9278 9267 7671 9583 9584 9576 7662 7669 9582 9575 9578 9585 7673 9586 9282 9587 9588 
930 931 1228 1227 963 964 1261 1260 7375 9287 9288 9277 7678 9590 9591 9583 7669 7676 9589 9582 9585 9592 7680 9593 9292 9594 9595 
931 932 1229 1228 964 965 1262 1261 7385 9297 9298 9287 7685 9597 9598 9590 7676 7683 9596 9589 9592 9599 7687 9600 9302 9601 9602 
932 933 1230 1229 965 966 1263 1262 7395 9307 9308 9297 7692 9604 9605 9597 7683 7690 9603 9596 9599 9606 7694 9607 9312 9608 9609 
933 934 1231 1230 966 967 1264 1263 7405 9317 9318 9307 7699 9611 9612 9604 7690 7697 9610 9603 9606 9613 7701 9614 9322 9615 9616 
934 935 1232 1231 967 968 1265 1264 7415 9327 9328 9317 7706 9618 9619 9611 7697 7704 9617 9610 9613 9620 7708 9621 9332 9622 9623 
935 936 1233 1232 968 969 1266 1265 7425 9337 9338 9327 7713 9625 9626 9618 7704 7711 9624 9617 9620 9627 7715 9628 9342 9629 9630 
936 937 1234 1233 969 970 1267 1266 7435 9347 9348 9337 7720 9632 9633 9625 7711 7718 9631 9624 9627 9634 7722 9635 9352 9636 9637 
937 938 1235 1234 970 971 1268 1267 7445 9357 9358 9347 7727 9639 9640 9632 7718 7725 9638 9631 9634 9641 7729 9642 9362 9643 9644 
938 939 1236 1235 971 972 1269 1268 7455 9367 9368 9357 7734 9646 9647 9639 7725 7732 9645 9638 9641 9648 7736 9649 9372 9650 9651 
939 940 1237 1236 972 973 1270 1269 7465 9377 9378 9367 7741 9653 9654 9646 7732 7739 9652 9645 9648 9655 7743 9656 9382 9657 9658 
940 941 1238 1237 973 974 1271 1270 7475 9387 9388 9377 7748 9660 9661 9653 7739 7746 9659 9652 9655 9662 7750 9663 9392 9664 9665 
941 942 1239 1238 974 975 1272 1271 7485 9397 9398 9387 7755 9667 9668 9660 7746 7753 9666 9659 9662 9669 7757 9670 9402 9671 9672 
942 943 1240 1239 975 976 1273 1272 7495 9407 9408 9397 7762 9674 9675 9667 7753 7760 9673 9666 9669 9676 7764 9677 9412 9678 9679 
943 944 1241 1240 976 977 1274 1273 7505 9417 9418 9407 7769 9681 9682 9674 7760 7767 9680 9673 9676 9683 7771 9684 9422 9685 9686 
944 945 1242 1241 977 978 1275 1274 7515 9427 9428 9417 7776 9688 9689 9681 7767 7774 9687 9680 9683 9690 7778 9691 9432 9692 9693 
945 946 1243 1242 978 979 1276 1275 7525 9437 9438 9427 7783 9695 9696 9688 7774 7781 9694 9687 9690 9697 7785 9698 9442 9699 9700 
946 947 1244 1243 979 980 1277 1276 7535 9447 9448 9437 7790 9702 9703 9695 7781 7788 9701 9694 9697 9704 7792 9705 9452 9706 9707 
947 948 1245 1244 980 981 1278 1277 7545 9457 9458 9447 7797 9709 9710 9702 7788 7795 9708 9701 9704 9711 7799 9712 9462 9713 9714 
948 949 1246 1245 981 982 1279 1278 7555 9467 9468 9457 7804 9716 9717 9709 7795 7802 9715 9708 9711 9718 7806 9719 9472 9720 9721 
949 950 1247 1246 982 983 1280 1279 7565 9477 9478 9467 7811 9723 9724 9716 7802 7809 9722 9715 9718 9725 7813 9726 9482 9727 9728 
950 951 1248 1247 983 984 1281 1280 7575 9487 9488 9477 7818 9730 9731 9723 7809 7816 9729 9722 9725 9732 7820 9733 9492 9734 9735 
951 952 1249 1248 984 985 1282 1281 7585 9497 9498 9487 7825 9737 9738 9730 7816 7823 9736 9729 9732 9739 7827 9740 9502 9741 9742 
952 953 1250 1249 985 986 1283 1282 7595 9507 9508 9497 7832 9744 9745 9737 7823 7830 9743 9736 9739 9746 7834 9747 9512 9748 9749 
953 954 1251 1250 986 987 1284 1283 7605 9517 9518 9507 7839 9751 9752 9744 7830 7837 9750 9743 9746 9753 7841 9754 9522 9755 9756 
954 955 1252 1251 987 988 1285 1284 7615 9527 9528 9517 7846 9758 9759 9751 7837 7844 9757 9750 9753 9760 7848 9761 9532 9762 9763 
955 956 1253 1252 988 989 1286 1285 7625 9537 9538 9527 7853 9765 9766 9758 7844 7851 9764 9757 9760 9767 7855 9768 9542 9769 9770 
957 958 1255 1254 990 991 1288 1287 7634 9546 9547 9548 7861 9773 9774 9775 7859 7858 9771 9772 9778 9776 7864 9777 9552 9779 9780 
958 959 1256 1255 991 992 1289 1288 7643 9555 9556 9546 7870 9782 9783 9773 7858 7868 9781 9771 9776 9784 7872 9785 9559 9786 9787 
959 960 1257 1256 992 993 1290 1289 7650 9562 9563 9555 7877 9789 9790 9782 7868 7875 9788 9781 9784 9791 7879 9792 9566 9793 9794 
960 961 1258 1257 993 994 1291 1290 7657 9569 9570 9562 7884 9796 9797 9789 7875 7882 9795 9788 9791 9798 7886 9799 9573 9800 9801 
961 962 1259 1258 994 995 1292 1291 7664 9576 9577 9569 7891 9803 9804 9796 7882 7889 9802 9795 9798 9805 7893 9806 9580 9807 9808 
962 963 1260 1259 995 996 1293 1292 7671 9583 9584 9576 7898 9810 9811 9803 7889 7896 9809 9802 9805 9812 7900 9813 9587 9814 9815 
963 964 1261 1260 996 997 1294 1293 7678 9590 9591 9583 7905 9817 9818 9810 7896 7903 9816 9809 9812 9819 7907 9820 9594 9821 9822 
964 965 1262 1261 997 998 1295 1294 7685 9597 9598 9590 7912 9824 9825 9817 7903 7910 9823 9816 9819 9826 7914 9827 9601 9828 9829 
965 966 1263 1262 998 999 1296 1295 7692 9604 9605 9597 7919 9831 9832 9824 7910 7917 9830 9823 9826 9833 7921 9834 9608 9835 9836 
966 967 1264 1263 999 1000 1297 1296 7699 9611 9612 9604 7926 9838 9839 9831 7917 7924 9837 9830 9833 9840 7928 9841 9615 9842 9843 
967 968 1265 1264 1000 1001 1298 1297 7706 9618 9619 9611 7933 9845 9846 9838 7924 7931 9844 9837 9840 9847 7935 9848 9622 9849 9850 
968 969 1266 1265 1001 1002 1299 1298 7713 9625 9626 9618 7940 9852 9853 9845 7931 7938 9851 9844 9847 9854 7942 9855 9629 9856 9857 
969 970 1267 1266 1002 1003 1300 1299 7720 9632 9633 9625 7947 9859 9860 9852 7938 7945 9858 9851 9854 9861 7949 9862 9636 9863 9864 
970 971 1268 1267 1003 1004 1301 1300 7727 9639 9640 9632 7954 9866 9867 9859 7945 7952 9865 9858 9861 9868 7956 9869 9643 9870 9871 
971 972 1269 1268 1004 1005 1302 1301 7734 9646 9647 9639 7961 9873 9874 9866 7952 7959 9872 9865 9868 9875 7963 9876 9650 9877 9878 
972 973 1270 1269 1005 1006 1303 1302 7741 9653 9654 9646 7968 9880 9881 9873 7959 7966 9879 9872 9875 9882 7970 9883 9657 9884 9885 
973 974 1271 1270 1006 1007 1304 1303 7748 9660 9661 9653 7975 9887 9888 9880 7966 7973 9886 9879 9882 9889 7977 9890 9664 9891 9892 
974 975 1272 1271 1007 1008 1305 1304 7755 9667 9668 9660 7982 9894 9895 9887 7973 7980 9893 9886 9889 9896 7984 9897 9671 9898 9899 
975 976 1273 1272 1008 1009 1306 1305 7762 9674 9675 9667 7989 9901 9902 9894 7980 7987 9900 9893 9896 9903 7991 9904 9678 9905 9906 
976 977 1274 1273 1009 1010 1307 1306 7769 9681 9682 9674 7996 9908 9909 9901 7987 7994 9907 9900 9903 9910 7998 9911 9685 9912 9913 
977 978 1275 1274 1010 1011 1308 1307 7776 9688 9689 9681 8003 9915 9916 9908 7994 8001 9914 9907 9910 9917 8005 9918 9692 9919 9920 
978 979 1276 1275 1011 1012 1309 1308 7783 9695 9696 9688 8010 9922 9923 9915 8001 8008 9921 9914 9917 9924 8012 9925 9699 9926 9927 
979 980 1277 1276 1012 1013 1310 1309 7790 9702 9703 9695 8017 9929 9930 9922 8008 8015 9928 9921 9924 9931 8019 9932 9706 9933 9934 
980 981 1278 1277 1013 1014 1311 1310 7797 9709 9710 9702 8024 9936 9937 9929 8015 8022 9935 9928 9931 9938 8026 9939 9713 9940 9941 
981 982 1279 1278 1014 1015 1312 1311 7804 9716 9717 9709 8031 9943 9944 9936 8022 8029 9942 9935 9938 9945 8033 9946 9720 9947 9948 
982 983 1280 1279 1015 1016 1313 1312 7811 9723 9724 9716 8038 9950 9951 9943 8029 8036 9949 9942 9945 9952 8040 9953 9727 9954 9955 
983 984 1281 1280 1016 1017 1314 1313 7818 9730 9731 9723 8045 9957 9958 9950 8036 8043 9956 9949 9952 9959 8047 9960 9734 9961 9962 
984 985 1282 1281 1017 1018 1315 1314 7825 9737 9738 9730 8052 9964 9965 9957 8043 8050 9963 9956 9959 9966 8054 9967 9741 9968 9969 
985 986 1283 1282 1018 1019 1316 1315 7832 9744 9745 9737 8059 9971 9972 9964 8050 8057 9970 9963 9966 9973 8061 9974 9748 9975 9976 
986 987 1284 1283 1019 1020 1317 1316 7839 9751 9752 9744 8066 9978 9979 9971 8057 8064 9977 9970 9973 9980 8068 9981 9755 9982 9983 
987 988 1285 1284 1020 1021 1318 1317 7846 9758 9759 9751 8073 9985 9986 9978 8064 8071 9984 9977 9980 9987 8075 9988 9762 9989 9990 
988 989 1286 1285 1021 1022 1319 1318 7853 9765 9766 9758 8080 9992 9993 9985 8071 8078 9991 9984 9987 9994 8082 9995 9769 9996 9997 
990 991 1288 1287 1023 1024 1321 1320 7861 9773 9774 9775 8088 10000 10001 10002 8086 8085 9998 9999 10005 10003 8091 10004 9779 10006 10007 
991 992 1289 1288 1024 1025 1322 1321 7870 9782 9783 9773 8097 10009 10010 10000 8085 8095 10008 9998 10003 10011 8099 10012 9786 10013 10014 
992 993 1290 1289 1025 1026 1323 1322 7877 9789 9790 9782 8104 10016 10017 10009 8095 8102 10015 10008 10011 10018 8106 10019 9793 10020 10021 
993 994 1291 1290 1026 1027 1324 1323 7884 9796 9797 9789 8111 10023 10024 10016 8102 8109 10022 10015 10018 10025 8113 10026 9800 10027 10028 
994 995 1292 1291 1027 1028 1325 1324 7891 9803 9804 9796 8118 10030 10031 10023 8109 8116 10029 10022 10025 10032 8120 10033 9807 10034 10035 
995 996 1293 1292 1028 1029 1326 1325 7898 9810 9811 9803 8125 10037 10038 10030 8116 8123 10036 10029 10032 10039 8127 10040 9814 10041 10042 
996 997 1294 1293 1029 1030 1327 1326 7905 9817 9818 9810 8132 10044 10045 10037 8123 8130 10043 10036 10039 10046 8134 10047 9821 10048 10049 
997 998 1295 1294 1030 1031 1328 1327 7912 9824 9825 9817 8139 10051 10052 10044 8130 8137 10050 10043 10046 10053 8141 10054 9828 10055 10056 
998 999 1296 1295 1031 1032 1329 1328 7919 9831 9832 9824 8146 10058 10059 10051 8137 8144 10057 10050 10053 10060 8148 10061 9835 10062 10063 
999 1000 1297 1296 1032 1033 1330 1329 7926 9838 9839 9831 8153 10065 10066 10058 8144 8151 10064 10057 10060 10067 8155 10068 9842 10069 10070 
1000 1001 1298 1297 1033 1034 1331 1330 7933 9845 9846 9838 8160 10072 10073 10065 8151 8158 10071 10064 10067 10074 8162 10075 9849 10076 10077 
1001 1002 1299 1298 1034 1035 1332 1331 7940 9852 9853 9845 8167 10079 10080 10072 8158 8165 10078 10071 10074 10081 8169 10082 9856 10083 10084 
1002 1003 1300 1299 1035 1036 1333 1332 7947 9859 9860 9852 8174 10086 10087 10079 8165 8172 10085 10078 10081 10088 8176 10089 9863 10090 10091 
1003 1004 1301 1300 1036 1037 1334 1333 7954 9866 9867 9859 8181 10093 10094 10086 8172 8179 10092 10085 10088 10095 8183 10096 9870 10097 10098 
1004 1005 1302 1301 1037 1038 1335 1334 7961 9873 9874 9866 8188 10100 10101 10093 8179 8186 10099 10092 10095 10102 8190 10103 9877 10104 10105 
1005 1006 1303 1302 1038 1039 1336 1335 7968 9880 9881 9873 8195 10107 10108 10100 8186 8193 10106 10099 10102 10109 8197 10110 9884 10111 10112 
1006 1007 1304 1303 1039 1040 1337 1336 7975 9887 9888 9880 8202 10114 10115 10107 8193 8200 10113 10106 10109 10116 8204 10117 9891 10118 10119 
1007 1008 1305 1304 1040 1041 1338 1337 7982 9894 9895 9887 8209 10121 10122 10114 8200 8207 10120 10113 10116 10123 8211 10124 9898 10125 10126 
1008 1009 1306 1305 1041 1042 1339 1338 7989 9901 9902 9894 8216 10128 10129 10121 8207 8214 10127 10120 10123 10130 8218 10131 9905 10132 10133 
1009 1010 1307 1306 1042 1043 1340 1339 7996 9908 9909 9901 8223 10135 10136 10128 8214 8221 10134 10127 10130 10137 8225 10138 9912 10139 10140 
1010 1011 1308 1307 1043 1044 1341 1340 8003 9915 9916 9908 8230 10142 10143 10135 8221 8228 10141 10134 10137 10144 8232 10145 9919 10146 10147 
1011 1012 1309 1308 1044 1045 1342 1341 8010 9922 9923 9915 8237 10149 10150 10142 8228 8235 10148 10141 10144 10151 8239 10152 9926 10153 10154 
1012 1013 1310 1309 1045 1046 1343 1342 8017 9929 9930 9922 8244 10156 10157 10149 8235 8242 10155 10148 10151 10158 8246 10159 9933 10160 10161 
1013 1014 1311 1310 1046 1047 1344 1343 8024 9936 9937 9929 8251 10163 10164 10156 8242 8249 10162 10155 10158 10165 8253 10166 9940 10167 10168 
1014 1015 1312 1311 1047 1048 1345 1344 8031 9943 9944 9936 8258 10170 10171 10163 8249 8256 10169 10162 10165 10172 8260 10173 9947 10174 10175 
1015 1016 1313 1312 1048 1049 1346 1345 8038 9950 9951 9943 8265 10177 10178 10170 8256 8263 10176 10169 10172 10179 8267 10180 9954 10181 10182 
1016 1017 1314 1313 1049 1050 1347 1346 8045 9957 9958 9950 8272 10184 10185 10177 8263 8270 10183 10176 10179 10186 8274 10187 9961 10188 10189 
1017 1018 1315 1314 1050 1051 1348 1347 8052 9964 9965 9957 8279 10191 10192 10184 8270 8277 10190 10183 10186 10193 8281 10194 9968 10195 10196 
1018 1019 1316 1315 1051 1052 1349 1348 8059 9971 9972 9964 8286 10198 10199 10191 8277 8284 10197 10190 10193 10200 8288 10201 9975 10202 10203 
1019 1020 1317 1316 1052 1053 1350 1349 8066 9978 9979 9971 8293 10205 10206 10198 8284 8291 10204 10197 10200 10207 8295 10208 9982 10209 10210 
1020 1021 1318 1317 1053 1054 1351 1350 8073 9985 9986 9978 8300 10212 10213 10205 8291 8298 10211 10204 10207 10214 8302 10215 9989 10216 10217 
1021 1022 1319 1318 1054 1055 1352 1351 8080 9992 9993 9985 8307 10219 10220 10212 8298 8305 10218 10211 10214 10221 8309 10222 9996 10223 10224 
1023 1024 1321 1320 1056 1057 1354 1353 8088 10000 10001 10002 8315 10227 10228 10229 8313 8312 10225 10226 10232 10230 8318 10231 10006 10233 10234 
1024 1025 1322 1321 1057 1058 1355 1354 8097 10009 10010 10000 8324 10236 10237 10227 8312 8322 10235 10225 10230 10238 8326 10239 10013 10240 10241 
1025 1026 1323 1322 1058 1059 1356 1355 8104 10016 10017 10009 8331 10243 10244 10236 8322 8329 10242 10235 10238 10245 8333 10246 10020 10247 10248 
1026 1027 1324 1323 1059 1060 1357 1356 8111 10023 10024 10016 8338 10250 10251 10243 8329 8336 10249 10242 10245 10252 8340 10253 10027 10254 10255 
1027 1028 1325 1324 1060 1061 1358 1357 8118 10030 10031 10023 8345 10257 10258 10250 8336 8343 10256 10249 10252 10259 8347 10260 10034 10261 10262 
1028 1029 1326 1325 1061 1062 1359 1358 8125 10037 10038 10030 8352 10264 10265 10257 8343 8350 10263 10256 10259 10266 8354 10267 10041 10268 10269 
1029 1030 1327 1326 1062 1063 1360 1359 8132 10044 10045 10037 8359 10271 10272 10264 8350 8357 10270 10263 10266 10273 8361 10274 10048 10275 10276 
1030 1031 1328 1327 1063 1064 1361 1360 8139 10051 10052 10044 8366 10278 10279 10271 8357 8364 10277 10270 10273 10280 8368 10281 10055 10282 10283 
1031 1032 1329 1328 1064 1065 1362 1361 8146 10058 10059 10051 8373 10285 10286 10278 8364 8371 10284 10277 10280 10287 8375 10288 10062 10289 10290 
1032 1033 1330 1329 1065 1066 1363 1362 8153 10065 10066 10058 8380 10292 10293 10285 8371 8378 10291 10284 10287 10294 8382 10295 10069 10296 10297 
1033 1034 1331 1330 1066 1067 1364 1363 8160 10072 10073 10065 8387 10299 10300 10292 8378 8385 10298 10291 10294 10301 8389 10302 10076 10303 10304 
1034 1035 1332 1331 1067 1068 1365 1364 8167 10079 10080 10072 8394 10306 10307 10299 8385 8392 10305 10298 10301 10308 8396 10309 10083 10310 10311 
1035 1036 1333 1332 1068 1069 1366 1365 8174 10086 10087 10079 8401 10313 10314 10306 8392 8399 10312 10305 10308 10315 8403 10316 10090 10317 10318 
1036 1037 1334 1333 1069 1070 1367 1366 8181 10093 10094 10086 8408 10320 10321 10313 8399 8406 10319 10312 10315 10322 8410 10323 10097 10324 10325 
1037 1038 1335 1334 1070 1071 1368 1367 8188 10100 10101 10093 8415 10327 10328 10320 8406 8413 10326 10319 10322 10329 8417 10330 10104 10331 10332 
1038 1039 1336 1335 1071 1072 1369 1368 8195 10107 10108 10100 8422 10334 10335 10327 8413 8420 10333 10326 10329 10336 8424 10337 10111 10338 10339 
1039 1040 1337 1336 1072 1073 1370 1369 8202 10114 10115 10107 8429 10341 10342 10334 8420 8427 10340 10333 10336 10343 8431 10344 10118 10345 10346 
1040 1041 1338 1337 1073 1074 1371 1370 8209 10121 10122 10114 8436 10348 10349 10341 8427 8434 10347 10340 10343 10350 8438 10351 10125 10352 10353 
1041 1042 1339 1338 1074 1075 1372 1371 8216 10128 10129 10121 8443 10355 10356 10348 8434 8441 10354 10347 10350 10357 8445 10358 10132 10359 10360 
1042 1043 1340 1339 1075 1076 1373 1372 8223 10135 10136 10128 8450 10362 10363 10355 8441 8448 10361 10354 10357 10364 8452 10365 10139 10366 10367 
1043 1044 1341 1340 1076 1077 1374 1373 8230 10142 10143 10135 8457 10369 10370 10362 8448 8455 10368 10361 10364 10371 8459 10372 10146 10373 10374 
1044 1045 1342 1341 1077 1078 1375 1374 8237 10149 10150 10142 8464 10376 10377 10369 8455 8462 10375 10368 10371 10378 8466 10379 10153 10380 10381 
1045 1046 1343 1342 1078 1079 1376 1375 8244 10156 10157 10149 8471 10383 10384 10376 8462 8469 10382 10375 10378 10385 8473 10386 10160 10387 10388 
1046 1047 1344 1343 1079 1080 1377 1376 8251 10163 10164 10156 8478 10390 10391 10383 8469 8476 10389 10382 10385 10392 8480 10393 10167 10394 10395 
1047 1048 1345 1344 1080 1081 1378 1377 8258 10170 10171 10163 8485 10397 10398 10390 8476 8483 10396 10389 10392 10399 8487 10400 10174 10401 10402 
1048 1049 1346 1345 1081 1082 1379 1378 8265 10177 10178 10170 8492 10404 10405 10397 8483 8490 10403 10396 10399 10406 8494 10407 10181 10408 10409 
1049 1050 1347 1346 1082 1083 1380 1379 8272 10184 10185 10177 8499 10411 10412 10404 8490 8497 10410 10403 10406 10413 8501 10414 10188 10415 10416 
1050 1051 1348 1347 1083 1084 1381 1380 8279 10191 10192 10184 8506 10418 10419 10411 8497 8504 10417 10410 10413 10420 8508 10421 10195 10422 10423 
1051 1052 1349 1348 1084 1085 1382 1381 8286 10198 10199 10191 8513 10425 10426 10418 8504 8511 10424 10417 10420 10427 8515 10428 10202 10429 10430 
1052 1053 1350 1349 1085 1086 1383 1382 8293 10205 10206 10198 8520 10432 10433 10425 8511 8518 10431 10424 10427 10434 8522 10435 10209 10436 10437 
1053 1054 1351 1350 1086 1087 1384 1383 8300 10212 10213 10205 8527 10439 10440 10432 8518 8525 10438 10431 10434 10441 8529 10442 10216 10443 10444 
1054 1055 1352 1351 1087 1088 1385 1384 8307 10219 10220 10212 8534 10446 10447 10439 8525 8532 10445 10438 10441 10448 8536 10449 10223 10450 10451 
1056 1057 1354 1353 1089 1090 1387 1386 8315 10227 10228 10229 8542 10454 10455 10456 8540 8539 10452 10453 10459 10457 8545 10458 10233 10460 10461 
1057 1058 1355 1354 1090 1091 1388 1387 8324 10236 10237 10227 8551 10463 10464 10454 8539 8549 10462 10452 10457 10465 8553 10466 10240 10467 10468 
1058 1059 1356 1355 1091 1092 1389 1388 8331 10243 10244 10236 8558 10470 10471 10463 8549 8556 10469 10462 10465 10472 8560 10473 10247 10474 10475 
1059 1060 1357 1356 1092 1093 1390 1389 8338 10250 10251 10243 8565 10477 10478 10470 8556 8563 10476 10469 10472 10479 8567 10480 10254 10481 10482 
1060 1061 1358 1357 1093 1094 1391 1390 8345 10257 10258 10250 8572 10484 10485 10477 8563 8570 10483 10476 10479 10486 8574 10487 10261 10488 10489 
1061 1062 1359 1358 1094 1095 1392 1391 8352 10264 10265 10257 8579 10491 10492 10484 8570 8577 10490 10483 10486 10493 8581 10494 10268 10495 10496 
1062 1063 1360 1359 1095 1096 1393 1392 8359 10271 10272 10264 8586 10498 10499 10491 8577 8584 10497 10490 10493 10500 8588 10501 10275 10502 10503 
1063 1064 1361 1360 1096 1097 1394 1393 8366 10278 10279 10271 8593 10505 10506 10498 8584 8591 10504 10497 10500 10507 8595 10508 10282 10509 10510 
1064 1065 1362 1361 1097 1098 1395 1394 8373 10285 10286 10278 8600 10512 10513 10505 8591 8598 10511 10504 10507 10514 8602 10515 10289 10516 10517 
1065 1066 1363 1362 1098 1099 1396 1395 8380 10292 10293 10285 8607 10519 10520 10512 8598 8605 10518 10511 10514 10521 8609 10522 10296 10523 10524 
1066 1067 1364 1363 1099 1100 1397 1396 8387 10299 10300 10292 8614 10526 10527 10519 8605 8612 10525 10518 10521 10528 8616 10529 10303 10530 10531 
1067 1068 1365 1364 1100 1101 1398 1397 8394 10306 10307 10299 8621 10533 10534 10526 8612 8619 10532 10525 10528 10535 8623 10536 10310 10537 10538 
1068 1069 1366 1365 1101 1102 1399 1398 8401 10313 10314 10306 8628 10540 10541 10533 8619 8626 10539 10532 10535 10542 8630 10543 10317 10544 10545 
1069 1070 1367 1366 1102 1103 1400 1399 8408 10320 10321 10313 8635 10547 10548 10540 8626 8633 10546 10539 10542 10549 8637 10550 10324 10551 10552 
1070 1071 1368 1367 1103 1104 1401 1400 8415 10327 10328 10320 8642 10554 10555 10547 8633 8640 10553 10546 10549 10556 8644 10557 10331 10558 10559 
1071 1072 1369 1368 1104 1105 1402 1401 8422 10334 10335 10327 8649 10561 10562 10554 8640 8647 10560 10553 10556 10563 8651 10564 10338 10565 10566 
1072 1073 1370 1369 1105 1106 1403 1402 8429 10341 10342 10334 8656 10568 10569 10561 8647 8654 10567 10560 10563 10570 8658 10571 10345 10572 10573 
1073 1074 1371 1370 1106 1107 1404 1403 8436 10348 10349 10341 8663 10575 10576 10568 8654 8661 10574 10567 10570 10577 8665 10578 10352 10579 10580 
1074 1075 1372 1371 1107 1108 1405 1404 8443 10355 10356 10348 8670 10582 10583 10575 8661 8668 10581 10574 10577 10584 8672 10585 10359 10586 10587 
1075 1076 1373 1372 1108 1109 1406 1405 8450 10362 10363 10355 8677 10589 10590 10582 8668 8675 10588 10581 10584 10591 8679 10592 10366 10593 10594 
1076 1077 1374 1373 1109 1110 1407 1406 8457 10369 10370 10362 8684 10596 10597 10589 8675 8682 10595 10588 10591 10598 8686 10599 10373 10600 10601 
1077 1078 1375 1374 1110 1111 1408 1407 8464 10376 10377 10369 8691 10603 10604 10596 8682 8689 10602 10595 10598 10605 8693 10606 10380 10607 10608 
1078 1079 1376 1375 1111 1112 1409 1408 8471 10383 10384 10376 8698 10610 10611 10603 8689 8696 10609 10602 10605 10612 8700 10613 10387 10614 10615 
1079 1080 1377 1376 1112 1113 1410 1409 8478 10390 10391 10383 8705 10617 10618 10610 8696 8703 10616 10609 10612 10619 8707 10620 10394 10621 10622 
1080 1081 1378 1377 1113 1114 1411 1410 8485 10397 10398 10390 8712 10624 10625 10617 8703 8710 10623 10616 10619 10626 8714 10627 10401 10628 10629 
1081 1082 1379 1378 1114 1115 1412 1411 8492 10404 10405 10397 8719 10631 10632 10624 8710 8717 10630 10623 10626 10633 8721 10634 10408 10635 10636 
1082 1083 1380 1379 1115 1116 1413 1412 8499 10411 10412 10404 8726 10638 10639 10631 8717 8724 10637 10630 10633 10640 8728 10641 10415 10642 10643 
1083 1084 1381 1380 1116 1117 1414 1413 8506 10418 10419 10411 8733 10645 10646 10638 8724 8731 10644 10637 10640 10647 8735 10648 10422 10649 10650 
1084 1085 1382 1381 1117 1118 1415 1414 8513 10425 10426 10418 8740 10652 10653 10645 8731 8738 10651 10644 10647 10654 8742 10655 10429 10656 10657 
1085 1086 1383 1382 1118 1119 1416 1415 8520 10432 10433 10425 8747 10659 10660 10652 8738 8745 10658 10651 10654 10661 8749 10662 10436 10663 10664 
1086 1087 1384 1383 1119 1120 1417 1416 8527 10439 10440 10432 8754 10666 10667 10659 8745 8752 10665 10658 10661 10668 8756 10669 10443 10670 10671 
1087 1088 1385 1384 1120 1121 1418 1417 8534 10446 10447 10439 8761 10673 10674 10666 8752 8759 10672 10665 10668 10675 8763 10676 10450 10677 10678 
1089 1090 1387 1386 1122 1123 1420 1419 8542 10454 10455 10456 8769 10681 10682 10683 8767 8766 10679 10680 10686 10684 8772 10685 10460 10687 10688 
1090 1091 1388 1387 1123 1124 1421 1420 8551 10463 10464 10454 8778 10690 10691 10681 8766 8776 10689 10679 10684 10692 8780 10693 10467 10694 10695 
1091 1092 1389 1388 1124 1125 1422 1421 8558 10470 10471 10463 8785 10697 10698 10690 8776 8783 10696 10689 10692 10699 8787 10700 10474 10701 10702 
1092 1093 1390 1389 1125 1126 1423 1422 8565 10477 10478 10470 8792 10704 10705 10697 8783 8790 10703 10696 10699 10706 8794 10707 10481 10708 10709 
1093 1094 1391 1390 1126 1127 1424 1423 8572 10484 10485 10477 8799 10711 10712 10704 8790 8797 10710 10703 10706 10713 8801 10714 10488 10715 10716 
1094 1095 1392 1391 1127 1128 1425 1424 8579 10491 10492 10484 8806 10718 10719 10711 8797 8804 10717 10710 10713 10720 8808 10721 10495 10722 10723 
1095 1096 1393 1392 1128 1129 1426 1425 8586 10498 10499 10491 8813 10725 10726 10718 8804 8811 10724 10717 10720 10727 8815 10728 10502 10729 10730 
1096 1097 1394 1393 1129 1130 1427 1426 8593 10505 10506 10498 8820 10732 10733 10725 8811 8818 10731 10724 10727 10734 8822 10735 10509 10736 10737 
1097 1098 1395 1394 1130 1131 1428 1427 8600 10512 10513 10505 8827 10739 10740 10732 8818 8825 10738 10731 10734 10741 8829 10742 10516 10743 10744 
1098 1099 1396 1395 1131 1132 1429 1428 8607 10519 10520 10512 8834 10746 10747 10739 8825 8832 10745 10738 10741 10748 8836 10749 10523 10750 10751 
1099 1100 1397 1396 1132 1133 1430 1429 8614 10526 10527 10519 8841 10753 10754 10746 8832 8839 10752 10745 10748 10755 8843 10756 10530 10757 10758 
1100 1101 1398 1397 1133 1134 1431 1430 8621 10533 10534 10526 8848 10760 10761 10753 8839 8846 10759 10752 10755 10762 8850 10763 10537 10764 10765 
1101 1102 1399 1398 1134 1135 1432 1431 8628 10540 10541 10533 8855 10767 10768 10760 8846 8853 10766 10759 10762 10769 8857 10770 10544 10771 10772 
1102 1103 1400 1399 1135 1136 1433 1432 8635 10547 10548 10540 8862 10774 10775 10767 8853 8860 10773 10766 10769 10776 8864 10777 10551 10778 10779 
1103 1104 1401 1400 1136 1137 1434 1433 8642 10554 10555 10547 8869 10781 10782 10774 8860 8867 10780 10773 10776 10783 8871 10784 10558 10785 10786 
1104 1105 1402 1401 1137 1138 1435 1434 8649 10561 10562 10554 8876 10788 10789 10781 8867 8874 10787 10780 10783 10790 8878 10791 10565 10792 10793 
1105 1106 1403 1402 1138 1139 1436 1435 8656 10568 10569 10561 8883 10795 10796 10788 8874 8881 10794 10787 10790 10797 8885 10798 10572 10799 10800 
1106 1107 1404 1403 1139 1140 1437 1436 8663 10575 10576 10568 8890 10802 10803 10795 8881 8888 10801 10794 10797 10804 8892 10805 10579 10806 10807 
1107 1108 1405 1404 1140 1141 1438 1437 8670 10582 10583 10575 8897 10809 10810 10802 8888 8895 10808 10801 10804 10811 8899 10812 10586 10813 10814 
1108 1109 1406 1405 1141 1142 1439 1438 8677 10589 10590 10582 8904 10816 10817 10809 8895 8902 10815 10808 10811 10818 8906 10819 10593 10820 10821 
1109 1110 1407 1406 1142 1143 1440 1439 8684 10596 10597 10589 8911 10823 10824 10816 8902 8909 10822 10815 10818 10825 8913 10826 10600 10827 10828 
1110 1111 1408 1407 1143 1144 1441 1440 8691 10603 10604 10596 8918 10830 10831 10823 8909 8916 10829 10822 10825 10832 8920 10833 10607 10834 10835 
1111 1112 1409 1408 1144 1145 1442 1441 8698 10610 10611 10603 8925 10837 10838 10830 8916 8923 10836 10829 10832 10839 8927 10840 10614 10841 10842 
1112 1113 1410 1409 1145 1146 1443 1442 8705 10617 10618 10610 8932 10844 10845 10837 8923 8930 10843 10836 10839 10846 8934 10847 10621 10848 10849 
1113 1114 1411 1410 1146 1147 1444 1443 8712 10624 10625 10617 8939 10851 10852 10844 8930 8937 10850 10843 10846 10853 8941 10854 10628 10855 10856 
1114 1115 1412 1411 1147 1148 1445 1444 8719 10631 10632 10624 8946 10858 10859 10851 8937 8944 10857 10850 10853 10860 8948 10861 10635 10862 10863 
1115 1116 1413 1412 1148 1149 1446 1445 8726 10638 10639 10631 8953 10865 10866 10858 8944 8951 10864 10857 10860 10867 8955 10868 10642 10869 10870 
1116 1117 1414 1413 1149 1150 1447 1446 8733 10645 10646 10638 8960 10872 10873 10865 8951 8958 10871 10864 10867 10874 8962 10875 10649 10876 10877 
1117 1118 1415 1414 1150 1151 1448 1447 8740 10652 10653 10645 8967 10879 10880 10872 8958 8965 10878 10871 10874 10881 8969 10882 10656 10883 10884 
1118 1119 1416 1415 1151 1152 1449 1448 8747 10659 10660 10652 8974 10886 10887 10879 8965 8972 10885 10878 10881 10888 8976 10889 10663 10890 10891 
1119 1120 1417 1416 1152 1153 1450 1449 8754 10666 10667 10659 8981 10893 10894 10886 8972 8979 10892 10885 10888 10895 8983 10896 10670 10897 10898 
1120 1121 1418 1417 1153 1154 1451 1450 8761 10673 10674 10666 8988 10900 10901 10893 8979 8986 10899 10892 10895 10902 8990 10903 10677 10904 10905 
1122 1123 1420 1419 1155 1156 1453 1452 8769 10681 10682 10683 8996 10908 10909 10910 8994 8993 10906 10907 10913 10911 8999 10912 10687 10914 10915 
1123 1124 1421 1420 1156 1157 1454 1453 8778 10690 10691 10681 9005 10917 10918 10908 8993 9003 10916 10906 10911 10919 9007 10920 10694 10921 10922 
1124 1125 1422 1421 1157 1158 1455 1454 8785 10697 10698 10690 9012 10924 10925 10917 9003 9010 10923 10916 10919 10926 9014 10927 10701 10928 10929 
1125 1126 1423 1422 1158 1159 1456 1455 8792 10704 10705 10697 9019 10931 10932 10924 9010 9017 10930 10923 10926 10933 9021 10934 10708 10935 10936 
1126 1127 1424 1423 1159 1160 1457 1456 8799 10711 10712 10704 9026 10938 10939 10931 9017 9024 10937 10930 10933 10940 9028 10941 10715 10942 10943 
1127 1128 1425 1424 1160 1161 1458 1457 8806 10718 10719 10711 9033 10945 10946 10938 9024 9031 10944 10937 10940 10947 9035 10948 10722 10949 10950 
1128 1129 1426 1425 1161 1162 1459 1458 8813 10725 10726 10718 9040 10952 10953 10945 9031 9038 10951 10944 10947 10954 9042 10955 10729 10956 10957 
1129 1130 1427 1426 1162 1163 1460 1459 8820 10732 10733 10725 9047 10959 10960 10952 9038 9045 10958 10951 10954 10961 9049 10962 10736 10963 10964 
1130 1131 1428 1427 1163 1164 1461 1460 8827 10739 10740 10732 9054 10966 10967 10959 9045 9052 10965 10958 10961 10968 9056 10969 10743 10970 10971 
1131 1132 1429 1428 1164 1165 1462 1461 8834 10746 10747 10739 9061 10973 10974 10966 9052 9059 10972 10965 10968 10975 9063 10976 10750 10977 10978 
1132 1133 1430 1429 1165 1166 1463 1462 8841 10753 10754 10746 9068 10980 10981 10973 9059 9066 10979 10972 10975 10982 9070 10983 10757 10984 10985 
1133 1134 1431 1430 1166 1167 1464 1463 8848 10760 10761 10753 9075 10987 10988 10980 9066 9073 10986 10979 10982 10989 9077 10990 10764 10991 10992 
1134 1135 1432 1431 1167 1168 1465 1464 8855 10767 10768 10760 9082 10994 10995 10987 9073 9080 10993 10986 10989 10996 9084 10997 10771 10998 10999 
1135 1136 1433 1432 1168 1169 1466 1465 8862 10774 10775 10767 9089 11001 11002 10994 9080 9087 11000 10993 10996 11003 9091 11004 10778 11005 11006 
1136 1137 1434 1433 1169 1170 1467 1466 8869 10781 10782 10774 9096 11008 11009 11001 9087 9094 11007 11000 11003 11010 9098 11011 10785 11012 11013 
1137 1138 1435 1434 1170 1171 1468 1467 8876 10788 10789 10781 9103 11015 11016 11008 9094 9101 11014 11007 11010 11017 9105 11018 10792 11019 11020 
1138 1139 1436 1435 1171 1172 1469 1468 8883 10795 10796 10788 9110 11022 11023 11015 9101 9108 11021 11014 11017 11024 9112 11025 10799 11026 11027 
1139 1140 1437 1436 1172 1173 1470 1469 8890 10802 10803 10795 9117 11029 11030 11022 9108 9115 11028 11021 11024 11031 9119 11032 10806 11033 11034 
1140 1141 1438 1437 1173 1174 1471 1470 8897 10809 10810 10802 9124 11036 11037 11029 9115 9122 11035 11028 11031 11038 9126 11039 10813 11040 11041 
1141 1142 1439 1438 1174 1175 1472 1471 8904 10816 10817 10809 9131 11043 11044 11036 9122 9129 11042 11035 11038 11045 9133 11046 10820 11047 11048 
1142 1143 1440 1439 1175 1176 1473 1472 8911 10823 10824 10816 9138 11050 11051 11043 9129 9136 11049 11042 11045 11052 9140 11053 10827 11054 11055 
1143 1144 1441 1440 1176 1177 1474 1473 8918 10830 10831 10823 9145 11057 11058 11050 9136 9143 11056 11049 11052 11059 9147 11060 10834 11061 11062 
1144 1145 1442 1441 1177 1178 1475 1474 8925 10837 10838 10830 9152 11064 11065 11057 9143 9150 11063 11056 11059 11066 9154 11067 10841 11068 11069 
1145 1146 1443 1442 1178 1179 1476 1475 8932 10844 10845 10837 9159 11071 11072 11064 9150 9157 11070 11063 11066 11073 9161 11074 10848 11075 11076 
1146 1147 1444 1443 1179 1180 1477 1476 8939 10851 10852 10844 9166 11078 11079 11071 9157 9164 11077 11070 11073 11080 9168 11081 10855 11082 11083 
1147 1148 1445 1444 1180 1181 1478 1477 8946 10858 10859 10851 9173 11085 11086 11078 9164 9171 11084 11077 11080 11087 9175 11088 10862 11089 11090 
1148 1149 1446 1445 1181 1182 1479 1478 8953 10865 10866 10858 9180 11092 11093 11085 9171 9178 11091 11084 11087 11094 9182 11095 10869 11096 11097 
1149 1150 1447 1446 1182 1183 1480 1479 8960 10872 10873 10865 9187 11099 11100 11092 9178 9185 11098 11091 11094 11101 9189 11102 10876 11103 11104 
1150 1151 1448 1447 1183 1184 1481 1480 8967 10879 10880 10872 9194 11106 11107 11099 9185 9192 11105 11098 11101 11108 9196 11109 10883 11110 11111 
1151 1152 1449 1448 1184 1185 1482 1481 8974 10886 10887 10879 9201 11113 11114 11106 9192 9199 11112 11105 11108 11115 9203 11116 10890 11117 11118 
1152 1153 1450 1449 1185 1186 1483 1482 8981 10893 10894 10886 9208 11120 11121 11113 9199 9206 11119 11112 11115 11122 9210 11123 10897 11124 11125 
1153 1154 1451 1450 1186 1187 1484 1483 8988 10900 10901 10893 9215 11127 11128 11120 9206 9213 11126 11119 11122 11129 9217 11130 10904 11131 11132 
1188 1189 1486 1485 1221 1222 1519 1518 9221 11133 11134 11135 9226 11138 11139 11140 9224 9223 11136 11137 11144 11142 9230 11143 11141 11145 11146 
1189 1190 1487 1486 1222 1223 1520 1519 9235 11147 11148 11133 9238 11150 11151 11138 9223 9236 11149 11136 11142 11153 9241 11154 11152 11155 11156 
1190 1191 1488 1487 1223 1224 1521 1520 9245 11157 11158 11147 9248 11160 11161 11150 9236 9246 11159 11149 11153 11163 9251 11164 11162 11165 11166 
1191 1192 1489 1488 1224 1225 1522 1521 9255 11167 11168 11157 9258 11170 11171 11160 9246 9256 11169 11159 11163 11173 9261 11174 11172 11175 11176 
1192 1193 1490 1489 1225 1226 1523 1522 9265 11177 11178 11167 9268 11180 11181 11170 9256 9266 11179 11169 11173 11183 9271 11184 11182 11185 11186 
1193 1194 1491 1490 1226 1227 1524 1523 9275 11187 11188 11177 9278 11190 11191 11180 9266 9276 11189 11179 11183 11193 9281 11194 11192 11195 11196 
1194 1195 1492 1491 1227 1228 1525 1524 9285 11197 11198 11187 9288 11200 11201 11190 9276 9286 11199 11189 11193 11203 9291 11204 11202 11205 11206 
1195 1196 1493 1492 1228 1229 1526 1525 9295 11207 11208 11197 9298 11210 11211 11200 9286 9296 11209 11199 11203 11213 9301 11214 11212 11215 11216 
1196 1197 1494 1493 1229 1230 1527 1526 9305 11217 11218 11207 9308 11220 11221 11210 9296 9306 11219 11209 11213 11223 9311 11224 11222 11225 11226 
1197 1198 1495 1494 1230 1231 1528 1527 9315 11227 11228 11217 9318 11230 11231 11220 9306 9316 11229 11219 11223 11233 9321 11234 11232 11235 11236 
1198 1199 1496 1495 1231 1232 1529 1528 9325 11237 11238 11227 9328 11240 11241 11230 9316 9326 11239 11229 11233 11243 9331 11244 11242 11245 11246 
1199 1200 1497 1496 1232 1233 1530 1529 9335 11247 11248 11237 9338 11250 11251 11240 9326 9336 11249 11239 11243 11253 9341 11254 11252 11255 11256 
1200 1201 1498 1497 1233 1234 1531 1530 9345 11257 11258 11247 9348 11260 11261 11250 9336 9346 11259 11249 11253 11263 9351 11264 11262 11265 11266 
1201 1202 1499 1498 1234 1235 1532 1531 9355 11267 11268 11257 9358 11270 11271 11260 9346 9356 11269 11259 11263 11273 9361 11274 11272 11275 11276 
1202 1203 1500 1499 1235 1236 1533 1532 9365 11277 11278 11267 9368 11280 11281 11270 9356 9366 11279 11269 11273 11283 9371 11284 11282 11285 11286 
1203 1204 1501 1500 1236 1237 1534 1533 9375 11287 11288 11277 9378 11290 11291 11280 9366 9376 11289 11279 11283 11293 9381 11294 11292 11295 11296 
1204 1205 1502 1501 1237 1238 1535 1534 9385 11297 11298 11287 9388 11300 11301 11290 9376 9386 11299 11289 11293 11303 9391 11304 11302 11305 11306 
1205 1206 1503 1502 1238 1239 1536 1535 9395 11307 11308 11297 9398 11310 11311 11300 9386 9396 11309 11299 11303 11313 9401 11314 11312 11315 11316 
1206 1207 1504 1503 1239 1240 1537 1536 9405 11317 11318 11307 9408 11320 11321 11310 9396 9406 11319 11309 11313 11323 9411 11324 11322 11325 11326 
1207 1208 1505 1504 1240 1241 1538 1537 9415 11327 11328 11317 9418 11330 11331 11320 9406 9416 11329 11319 11323 11333 9421 11334 11332 11335 11336 
1208 1209 1506 1505 1241 1242 1539 1538 9425 11337 11338 11327 9428 11340 11341 11330 9416 9426 11339 11329 11333 11343 9431 11344 11342 11345 11346 
1209 1210 1507 1506 1242 1243 1540 1539 9435 11347 11348 11337 9438 11350 11351 11340 9426 9436 11349 11339 11343 11353 9441 11354 11352 11355 11356 
1210 1211 1508 1507 1243 1244 1541 1540 9445 11357 11358 11347 9448 11360 11361 11350 9436 9446 11359 11349 11353 11363 9451 11364 11362 11365 11366 
1211 1212 1509 1508 1244 1245 1542 1541 9455 11367 11368 11357 9458 11370 11371 11360 9446 9456 11369 11359 11363 11373 9461 11374 11372 11375 11376 
1212 1213 1510 1509 1245 1246 1543 1542 9465 11377 11378 11367 9468 11380 11381 11370 9456 9466 11379 11369 11373 11383 9471 11384 11382 11385 11386 
1213 1214 1511 1510 1246 1247 1544 1543 9475 11387 11388 11377 9478 11390 11391 11380 9466 9476 11389 11379 11383 11393 9481 11394 11392 11395 11396 
1214 1215 1512 1511 1247 1248 1545 1544 9485 11397 11398 11387 9488 11400 11401 11390 9476 9486 11399 11389 11393 11403 9491 11404 11402 11405 11406 
1215 1216 1513 1512 1248 1249 1546 1545 9495 11407 11408 11397 9498 11410 11411 11400 9486 9496 11409 11399 11403 11413 9501 11414 11412 11415 11416 
1216 1217 1514 1513 1249 1250 1547 1546 9505 11417 11418 11407 9508 11420 11421 11410 9496 9506 11419 11409 11413 11423 9511 11424 11422 11425 11426 
1217 1218 1515 1514 1250 1251 1548 1547 9515 11427 11428 11417 9518 11430 11431 11420 9506 9516 11429 11419 11423 11433 9521 11434 11432 11435 11436 
1218 1219 1516 1515 1251 1252 1549 1548 9525 11437 11438 11427 9528 11440 11441 11430 9516 9526 11439 11429 11433 11443 9531 11444 11442 11445 11446 
1219 1220 1517 1516 1252 1253 1550 1549 9535 11447 11448 11437 9538 11450 11451 11440 9526 9536 11449 11439 11443 11453 9541 11454 11452 11455 11456 
1221 1222 1519 1518 1254 1255 1552 1551 9226 11138 11139 11140 9547 11459 11460 11461 9545 9544 11457 11458 11464 11462 9550 11463 11145 11465 11466 
1222 1223 1520 1519 1255 1256 1553 1552 9238 11150 11151 11138 9556 11468 11469 11459 9544 9554 11467 11457 11462 11470 9558 11471 11155 11472 11473 
1223 1224 1521 1520 1256 1257 1554 1553 9248 11160 11161 11150 9563 11475 11476 11468 9554 9561 11474 11467 11470 11477 9565 11478 11165 11479 11480 
1224 1225 1522 1521 1257 1258 1555 1554 9258 11170 11171 11160 9570 11482 11483 11475 9561 9568 11481 11474 11477 11484 9572 11485 11175 11486 11487 
1225 1226 1523 1522 1258 1259 1556 1555 9268 11180 11181 11170 9577 11489 11490 11482 9568 9575 11488 11481 11484 11491 9579 11492 11185 11493 11494 
1226 1227 1524 1523 1259 1260 1557 1556 9278 11190 11191 11180 9584 11496 11497 11489 9575 9582 11495 11488 11491 11498 9586 11499 11195 11500 11501 
1227 1228 1525 1524 1260 1261 1558 1557 9288 11200 11201 11190 9591 11503 11504 11496 9582 9589 11502 11495 11498 11505 9593 11506 11205 11507 11508 
1228 1229 1526 1525 1261 1262 1559 1558 9298 11210 11211 11200 9598 11510 11511 11503 9589 9596 11509 11502 11505 11512 9600 11513 11215 11514 11515 
1229 1230 1527 1526 1262 1263 1560 1559 9308 11220 11221 11210 9605 11517 11518 11510 9596 9603 11516 11509 11512 11519 9607 11520 11225 11521 11522 
1230 1231 1528 1527 1263 1264 1561 1560 9318 11230 11231 11220 9612 11524 11525 11517 9603 9610 11523 11516 11519 11526 9614 11527 11235 11528 11529 
1231 1232 1529 1528 1264 1265 1562 1561 9328 11240 11241 11230 9619 11531 11532 11524 9610 9617 11530 11523 11526 11533 9621 11534 11245 11535 11536 
1232 1233 1530 1529 1265 1266 1563 1562 9338 11250 11251 11240 9626 11538 11539 11531 9617 9624 11537 11530 11533 11540 9628 11541 11255 11542 11543 
1233 1234 1531 1530 1266 1267 1564 1563 9348 11260 11261 11250 9633 11545 11546 11538 9624 9631 11544 11537 11540 11547 9635 11548 11265 11549 11550 
1234 1235 1532 1531 1267 1268 1565 1564 9358 11270 11271 11260 9640 11552 11553 11545 9631 9638 11551 11544 11547 11554 9642 11555 11275 11556 11557 
1235 1236 1533 1532 1268 1269 1566 1565 9368 11280 11281 11270 9647 11559 11560 11552 9638 9645 11558 11551 11554 11561 9649 11562 11285 11563 11564 
1236 1237 1534 1533 1269 1270 1567 1566 9378 11290 11291 11280 9654 11566 11567 11559 9645 9652 11565 11558 11561 11568 9656 11569 11295 11570 11571 
1237 1238 1535 1534 1270 1271 1568 1567 9388 11300 11301 11290 9661 11573 11574 11566 9652 9659 11572 11565 11568 11575 9663 11576 11305 11577 11578 
1238 1239 1536 1535 1271 1272 1569 1568 9398 11310 11311 11300 9668 11580 11581 11573 9659 9666 11579 11572 11575 11582 9670 11583 11315 11584 11585 
1239 1240 1537 1536 1272 1273 1570 1569 9408 11320 11321 11310 9675 11587 11588 11580 9666 9673 11586 11579 11582 11589 9677 11590 11325 11591 11592 
1240 1241 1538 1537 1273 1274 1571 1570 9418 11330 11331 11320 9682 11594 11595 11587 9673 9680 11593 11586 11589 11596 9684 11597 11335 11598 11599 
1241 1242 1539 1538 1274 1275 1572 1571 9428 11340 11341 11330 9689 11601 11602 11594 9680 9687 11600 11593 11596 11603 9691 11604 11345 11605 11606 
1242 1243 1540 1539 1275 1276 1573 1572 9438 11350 11351 11340 9696 11608 11609 11601 9687 9694 11607 11600 11603 11610 9698 11611 11355 11612 11613 
1243 1244 1541 1540 1276 1277 1574 1573 9448 11360 11361 11350 9703 11615 11616 11608 9694 9701 11614 11607 11610 11617 9705 11618 11365 11619 11620 
1244 1245 1542 1541 1277 1278 1575 1574 9458 11370 11371 11360 9710 11622 11623 11615 9701 9708 11621 11614 11617 11624 9712 11625 11375 11626 11627 
1245 1246 1543 1542 1278 1279 1576 1575 9468 11380 11381 11370 9717 11629 11630 11622 9708 9715 11628 11621 11624 11631 9719 11632 11385 11633 11634 
1246 1247 1544 1543 1279 1280 1577 1576 9478 11390 11391 11380 9724 11636 11637 11629 9715 9722 11635 11628 11631 11638 9726 11639 11395 11640 11641 
1247 1248 1545 1544 1280 1281 1578 1577 9488 11400 11401 11390 9731 11643 11644 11636 9722 9729 11642 11635 11638 11645 9733 11646 11405 11647 11648 
1248 1249 1546 1545 1281 1282 1579 1578 9498 11410 11411 11400 9738 11650 11651 11643 9729 9736 11649 11642 11645 11652 9740 11653 11415 11654 11655 
1249 1250 1547 1546 1282 1283 1580 1579 9508 11420 11421 11410 9745 11657 11658 11650 9736 9743 11656 11649 11652 11659 9747 11660 11425 11661 11662 
1250 1251 1548 1547 1283 1284 1581 1580 9518 11430 11431 11420 9752 11664 11665 11657 9743 9750 11663 11656 11659 11666 9754 11667 11435 11668 11669 
1251 1252 1549 1548 1284 1285 1582 1581 9528 11440 11441 11430 9759 11671 11672 11664 9750 9757 11670 11663 11666 11673 9761 11674 11445 11675 11676 
1252 1253 1550 1549 1285 1286 1583 1582 9538 11450 11451 11440 9766 11678 11679 11671 9757 9764 11677 11670 11673 11680 9768 11681 11455 11682 11683 
1254 1255 1552 1551 1287 1288 1585 1584 9547 11459 11460 11461 9774 11686 11687 11688 9772 9771 11684 11685 11691 11689 9777 11690 11465 11692 11693 
1255 1256 1553 1552 1288 1289 1586 1585 9556 11468 11469 11459 9783 11695 11696 11686 9771 9781 11694 11684 11689 11697 9785 11698 11472 11699 11700 
1256 1257 1554 1553 1289 1290 1587 1586 9563 11475 11476 11468 9790 11702 11703 11695 9781 9788 11701 11694 11697 11704 9792 11705 11479 11706 11707 
1257 1258 1555 1554 1290 1291 1588 1587 9570 11482 11483 11475 9797 11709 11710 11702 9788 9795 11708 11701 11704 11711 9799 11712 11486 11713 11714 
1258 1259 1556 1555 1291 1292 1589 1588 9577 11489 11490 11482 9804 11716 11717 11709 9795 9802 11715 11708 11711 11718 9806 11719 11493 11720 11721 
1259 1260 1557 1556 1292 1293 1590 1589 9584 11496 11497 11489 9811 11723 11724 11716 9802 9809 11722 11715 11718 11725 9813 11726 11500 11727 11728 
1260 1261 1558 1557 1293 1294 1591 1590 9591 11503 11504 11496 9818 11730 11731 11723 9809 9816 11729 11722 11725 11732 9820 11733 11507 11734 11735 
1261 1262 1559 1558 1294 1295 1592 1591 9598 11510 11511 11503 9825 11737 11738 11730 9816 9823 11736 11729 11732 11739 9827 11740 11514 11741 11742 
1262 1263 1560 1559 1295 1296 1593 1592 9605 11517 11518 11510 9832 11744 11745 11737 9823 9830 11743 11736 11739 11746 9834 11747 11521 11748 11749 
1263 1264 1561 1560 1296 1297 1594 1593 9612 11524 11525 11517 9839 11751 11752 11744 9830 9837 11750 11743 11746 11753 9841 11754 11528 11755 11756 
1264 1265 1562 1561 1297 1298 1595 1594 9619 11531 11532 11524 9846 11758 11759 11751 9837 9844 11757 11750 11753 11760 9848 11761 11535 11762 11763 
1265 1266 1563 1562 1298 1299 1596 1595 9626 11538 11539 11531 9853 11765 11766 11758 9844 9851 11764 11757 11760 11767 9855 11768 11542 11769 11770 
1266 1267 1564 1563 1299 1300 1597 1596 9633 11545 11546 11538 9860 11772 11773 11765 9851 9858 11771 11764 11767 11774 9862 11775 11549 11776 11777 
1267 1268 1565 1564 1300 1301 1598 1597 9640 11552 11553 11545 9867 11779 11780 11772 9858 9865 11778 11771 11774 11781 9869 11782 11556 11783 11784 
1268 1269 1566 1565 1301 1302 1599 1598 9647 11559 11560 11552 9874 11786 11787 11779 9865 9872 11785 11778 11781 11788 9876 11789 11563 11790 11791 
1269 1270 1567 1566 1302 1303 1600 1599 9654 11566 11567 11559 9881 11793 11794 11786 9872 9879 11792 11785 11788 11795 9883 11796 11570 11797 11798 
1270 1271 1568 1567 1303 1304 1601 1600 9661 11573 11574 11566 9888 11800 11801 11793 9879 9886 11799 11792 11795 11802 9890 11803 11577 11804 11805 
1271 1272 1569 1568 1304 1305 1602 1601 9668 11580 11581 11573 9895 11807 11808 11800 9886 9893 11806 11799 11802 11809 9897 11810 11584 11811 11812 
1272 1273 1570 1569 1305 1306 1603 1602 9675 11587 11588 11580 9902 11814 11815 11807 9893 9900 11813 11806 11809 11816 9904 11817 11591 11818 11819 
1273 1274 1571 1570 1306 1307 1604 1603 9682 11594 11595 11587 9909 11821 11822 11814 9900 9907 11820 11813 11816 11823 9911 11824 11598 11825 11826 
1274 1275 1572 1571 1307 1308 1605 1604 9689 11601 11602 11594 9916 11828 11829 11821 9907 9914 11827 11820 11823 11830 9918 11831 11605 11832 11833 
1275 1276 1573 1572 1308 1309 1606 1605 9696 11608 11609 11601 9923 11835 11836 11828 9914 9921 11834 11827 11830 11837 9925 11838 11612 11839 11840 
1276 1277 1574 1573 1309 1310 1607 1606 9703 11615 11616 11608 9930 11842 11843 11835 9921 9928 11841 11834 11837 11844 9932 11845 11619 11846 11847 
1277 1278 1575 1574 1310 1311 1608 1607 9710 11622 11623 11615 9937 11849 11850 11842 9928 9935 11848 11841 11844 11851 9939 11852 11626 11853 11854 
1278 1279 1576 1575 1311 1312 1609 1608 9717 11629 11630 11622 9944 11856 11857 11849 9935 9942 11855 11848 11851 11858 9946 11859 11633 11860 11861 
1279 1280 1577 1576 1312 1313 1610 1609 9724 11636 11637 11629 9951 11863 11864 11856 9942 9949 11862 11855 11858 11865 9953 11866 11640 11867 11868 
1280 1281 1578 1577 1313 1314 1611 1610 9731 11643 11644 11636 9958 11870 11871 11863 9949 9956 11869 11862 11865 11872 9960 11873 11647 11874 11875 
1281 1282 1579 1578 1314 1315 1612 1611 9738 11650 11651 11643 9965 11877 11878 11870 9956 9963 11876 11869 11872 11879 9967 11880 11654 11881 11882 
1282 1283 1580 1579 1315 1316 1613 1612 9745 11657 11658 11650 9972 11884 11885 11877 9963 9970 11883 11876 11879 11886 9974 11887 11661 11888 11889 
1283 1284 1581 1580 1316 1317 1614 1613 9752 11664 11665 11657 9979 11891 11892 11884 9970 9977 11890 11883 11886 11893 9981 11894 11668 11895 11896 
1284 1285 1582 1581 1317 1318 1615 1614 9759 11671 11672 11664 9986 11898 11899 11891 9977 9984 11897 11890 11893 11900 9988 11901 11675 11902 11903 
1285 1286 1583 1582 1318 1319 1616 1615 9766 11678 11679 11671 9993 11905 11906 11898 9984 9991 11904 11897 11900 11907 9995 11908 11682 11909 11910 
1287 1288 1585 1584 1320 1321 1618 1617 9774 11686 11687 11688 10001 11913 11914 11915 9999 9998 11911 11912 11918 11916 10004 11917 11692 11919 11920 
1288 1289 1586 1585 1321 1322 1619 1618 9783 11695 11696 11686 10010 11922 11923 11913 9998 10008 11921 11911 11916 11924 10012 11925 11699 11926 11927 
1289 1290 1587 1586 1322 1323 1620 1619 9790 11702 11703 11695 10017 11929 11930 11922 10008 10015 11928 11921 11924 11931 10019 11932 11706 11933 11934 
1290 1291 1588 1587 1323 1324 1621 1620 9797 11709 11710 11702 10024 11936 11937 11929 10015 10022 11935 11928 11931 11938 10026 11939 11713 11940 11941 
1291 1292 1589 1588 1324 1325 1622 1621 9804 11716 11717 11709 10031 11943 11944 11936 10022 10029 11942 11935 11938 11945 10033 11946 11720 11947 11948 
1292 1293 1590 1589 1325 1326 1623 1622 9811 11723 11724 11716 10038 11950 11951 11943 10029 10036 11949 11942 11945 11952 10040 11953 11727 11954 11955 
1293 1294 1591 1590 1326 1327 1624 1623 9818 11730 11731 11723 10045 11957 11958 11950 10036 10043 11956 11949 11952 11959 10047 11960 11734 11961 11962 
1294 1295 1592 1591 1327 1328 1625 1624 9825 11737 11738 11730 10052 11964 11965 11957 10043 10050 11963 11956 11959 11966 10054 11967 11741 11968 11969 
1295 1296 1593 1592 1328 1329 1626 1625 9832 11744 11745 11737 10059 11971 11972 11964 10050 10057 11970 11963 11966 11973 10061 11974 11748 11975 11976 
1296 1297 1594 1593 1329 1330 1627 1626 9839 11751 11752 11744 10066 11978 11979 11971 10057 10064 11977 11970 11973 11980 10068 11981 11755 11982 11983 
1297 1298 1595 1594 1330 1331 1628 1627 9846 11758 11759 11751 10073 11985 11986 11978 10064 10071 11984 11977 11980 11987 10075 11988 11762 11989 11990 
1298 1299 1596 1595 1331 1332 1629 1628 9853 11765 11766 11758 10080 11992 11993 11985 10071 10078 11991 11984 11987 11994 10082 11995 11769 11996 11997 
1299 1300 1597 1596 1332 1333 1630 1629 9860 11772 11773 11765 10087 11999 12000 11992 10078 10085 11998 11991 11994 12001 10089 12002 11776 12003 12004 
1300 1301 1598 1597 1333 1334 1631 1630 9867 11779 11780 11772 10094 12006 12007 11999 10085 10092 12005 11998 12001 12008 10096 12009 11783 12010 12011 
1301 1302 1599 1598 1334 1335 1632 1631 9874 11786 11787 11779 10101 12013 12014 12006 10092 10099 12012 12005 12008 12015 10103 12016 11790 12017 12018 
1302 1303 1600 1599 1335 1336 1633 1632 9881 11793 11794 11786 10108 12020 12021 12013 10099 10106 12019 12012 12015 12022 10110 12023 11797 12024 12025 
1303 1304 1601 1600 1336 1337 1634 1633 9888 11800 11801 11793 10115 12027 12028 12020 10106 10113 12026 12019 12022 12029 10117 12030 11804 12031 12032 
1304 1305 1602 1601 1337 1338 1635 1634 9895 11807 11808 11800 10122 12034 12035 12027 10113 10120 12033 12026 12029 12036 10124 12037 11811 12038 12039 
1305 1306 1603 1602 1338 1339 1636 1635 9902 11814 11815 11807 10129 12041 12042 12034 10120 10127 12040 12033 12036 12043 10131 12044 11818 12045 12046 
1306 1307 1604 1603 1339 1340 1637 1636 9909 11821 11822 11814 10136 12048 12049 12041 10127 10134 12047 12040 12043 12050 10138 12051 11825 12052 12053 
1307 1308 1605 1604 1340 1341 1638 1637 9916 11828 11829 11821 10143 12055 12056 12048 10134 10141 12054 12047 12050 12057 10145 12058 11832 12059 12060 
1308 1309 1606 1605 1341 1342 1639 1638 9923 11835 11836 11828 10150 12062 12063 12055 10141 10148 12061 12054 12057 12064 10152 12065 11839 12066 12067 
1309 1310 1607 1606 1342 1343 1640 1639 9930 11842 11843 11835 10157 12069 12070 12062 10148 10155 12068 12061 12064 12071 10159 12072 11846 12073 12074 
1310 1311 1608 1607 1343 1344 1641 1640 9937 11849 11850 11842 10164 12076 12077 12069 10155 10162 12075 12068 12071 12078 10166 12079 11853 12080 12081 
1311 1312 1609 1608 1344 1345 1642 1641 9944 11856 11857 11849 10171 12083 12084 12076 10162 10169 12082 12075 12078 12085 10173 12086 11860 12087 12088 
1312 1313 1610 1609 1345 1346 1643 1642 9951 11863 11864 11856 10178 12090 12091 12083 10169 10176 12089 12082 12085 12092 10180 12093 11867 12094 12095 
1313 1314 1611 1610 1346 1347 1644 1643 9958 11870 11871 11863 10185 12097 12098 12090 10176 10183 12096 12089 12092 12099 10187 12100 11874 12101 12102 
1314 1315 1612 1611 1347 1348 1645 1644 9965 11877 11878 11870 10192 12104 12105 12097 10183 10190 12103 12096 12099 12106 10194 12107 11881 12108 12109 
1315 1316 1613 1612 1348 1349 1646 1645 9972 11884 11885 11877 10199 12111 12112 12104 10190 10197 12110 12103 12106 12113 10201 12114 11888 12115 12116 
1316 1317 1614 1613 1349 1350 1647 1646 9979 11891 11892 11884 10206 12118 12119 12111 10197 10204 12117 12110 12113 12120 10208 12121 11895 12122 12123 
1317 1318 1615 1614 1350 1351 1648 1647 9986 11898 11899 11891 10213 12125 12126 12118 10204 10211 12124 12117 12120 12127 10215 12128 11902 12129 12130 
1318 1319 1616 1615 1351 1352 1649 1648 9993 11905 11906 11898 10220 12132 12133 12125 10211 10218 12131 12124 12127 12134 10222 12135 11909 12136 12137 
1320 1321 1618 1617 1353 1354 1651 1650 10001 11913 11914 11915 10228 12140 12141 12142 10226 10225 12138 12139 12145 12143 10231 12144 11919 12146 12147 
1321 1322 1619 1618 1354 1355 1652 1651 10010 11922 11923 11913 10237 12149 12150 12140 10225 10235 12148 12138 12143 12151 10239 12152 11926 12153 12154 
1322 1323 1620 1619 1355 1356 1653 1652 10017 11929 11930 11922 10244 12156 12157 12149 10235 10242 12155 12148 12151 12158 10246 12159 11933 12160 12161 
1323 1324 1621 1620 1356 1357 1654 1653 10024 11936 11937 11929 10251 12163 12164 12156 10242 10249 12162 12155 12158 12165 10253 12166 11940 12167 12168 
1324 1325 1622 1621 1357 1358 1655 1654 10031 11943 11944 11936 10258 12170 12171 12163 10249 10256 12169 12162 12165 12172 10260 12173 11947 12174 12175 
1325 1326 1623 1622 1358 1359 1656 1655 10038 11950 11951 11943 10265 12177 12178 12170 10256 10263 12176 12169 12172 12179 10267 12180 11954 12181 12182 
1326 1327 1624 1623 1359 1360 1657 1656 10045 11957 11958 11950 10272 12184 12185 12177 10263 10270 12183 12176 12179 12186 10274 12187 11961 12188 12189 
1327 1328 1625 1624 1360 1361 1658 1657 10052 11964 11965 11957 10279 12191 12192 12184 10270 10277 12190 12183 12186 12193 10281 12194 11968 12195 12196 
1328 1329 1626 1625 1361 1362 1659 1658 10059 11971 11972 11964 10286 12198 12199 12191 10277 10284 12197 12190 12193 12200 10288 12201 11975 12202 12203 
1329 1330 1627 1626 1362 1363 1660 1659 10066 11978 11979 11971 10293 12205 12206 12198 10284 10291 12204 12197 12200 12207 10295 12208 11982 12209 12210 
1330 1331 1628 1627 1363 1364 1661 1660 10073 11985 11986 11978 10300 12212 12213 12205 10291 10298 12211 12204 12207 12214 10302 12215 11989 12216 12217 
1331 1332 1629 1628 1364 1365 1662 1661 10080 11992 11993 11985 10307 12219 12220 12212 10298 10305 12218 12211 12214 12221 10309 12222 11996 12223 12224 
1332 1333 1630 1629 1365 1366 1663 1662 10087 11999 12000 11992 10314 12226 12227 12219 10305 10312 12225 12218 12221 12228 10316 12229 12003 12230 12231 
1333 1334 1631 1630 1366 1367 1664 1663 10094 12006 12007 11999 10321 12233 12234 12226 10312 10319 12232 12225 12228 12235 10323 12236 12010 12237 12238 
1334 1335 1632 1631 1367 1368 1665 1664 10101 12013 12014 12006 10328 12240 12241 12233 10319 10326 12239 12232 12235 12242 10330 12243 12017 12244 12245 
1335 1336 1633 1632 1368 1369 1666 1665 10108 12020 12021 12013 10335 12247 12248 12240 10326 10333 12246 12239 12242 12249 10337 12250 12024 12251 12252 
1336 1337 1634 1633 1369 1370 1667 1666 10115 12027 12028 12020 10342 12254 12255 12247 10333 10340 12253 12246 12249 12256 10344 12257 12031 12258 12259 
1337 1338 1635 1634 1370 1371 1668 1667 10122 12034 12035 12027 10349 12261 12262 12254 10340 10347 12260 12253 12256 12263 10351 12264 12038 12265 12266 
1338 1339 1636 1635 1371 1372 1669 1668 10129 12041 12042 12034 10356 12268 12269 12261 10347 10354 12267 12260 12263 12270 10358 12271 12045 12272 12273 
1339 1340 1637 1636 1372 1373 1670 1669 10136 12048 12049 12041 10363 12275 12276 12268 10354 10361 12274 12267 12270 12277 10365 12278 12052 12279 12280 
1340 1341 1638 1637 1373 1374 1671 1670 10143 12055 12056 12048 10370 12282 12283 12275 10361 10368 12281 12274 12277 12284 10372 12285 12059 12286 12287 
1341 1342 1639 1638 1374 1375 1672 1671 10150 12062 12063 12055 10377 12289 12290 12282 10368 10375 12288 12281 12284 12291 10379 12292 12066 12293 12294 
1342 1343 1640 1639 1375 1376 1673 1672 10157 12069 12070 12062 10384 12296 12297 12289 10375 10382 12295 12288 12291 12298 10386 12299 12073 12300 12301 
1343 1344 1641 1640 1376 1377 1674 1673 10164 12076 12077 12069 10391 12303 12304 12296 10382 10389 12302 12295 12298 12305 10393 12306 12080 12307 12308 
1344 1345 1642 1641 1377 1378 1675 1674 10171 12083 12084 12076 10398 12310 12311 12303 10389 10396 12309 12302 12305 12312 10400 12313 12087 12314 12315 
1345 1346 1643 1642 1378 1379 1676 1675 10178 12090 12091 12083 10405 12317 12318 12310 10396 10403 12316 12309 12312 12319 10407 12320 12094 12321 12322 
1346 1347 1644 1643 1379 1380 1677 1676 10185 12097 12098 12090 10412 12324 12325 12317 10403 10410 12323 12316 12319 12326 10414 12327 12101 12328 12329 
1347 1348 1645 1644 1380 1381 1678 1677 10192 12104 12105 12097 10419 12331 12332 12324 10410 10417 12330 12323 12326 12333 10421 12334 12108 12335 12336 
1348 1349 1646 1645 1381 1382 1679 1678 10199 12111 12112 12104 10426 12338 12339 12331 10417 10424 12337 12330 12333 12340 10428 12341 12115 12342 12343 
1349 1350 1647 1646 1382 1383 1680 1679 10206 12118 12119 12111 10433 12345 12346 12338 10424 10431 12344 12337 12340 12347 10435 12348 12122 12349 12350 
1350 1351 1648 1647 1383 1384 1681 1680 10213 12125 12126 12118 10440 12352 12353 12345 10431 10438 12351 12344 12347 12354 10442 12355 12129 12356 12357 
1351 1352 1649 1648 1384 1385 1682 1681 10220 12132 12133 12125 10447 12359 12360 12352 10438 10445 12358 12351 12354 12361 10449 12362 12136 12363 12364 
1353 1354 1651 1650 1386 1387 1684 1683 10228 12140 12141 12142 10455 12367 12368 12369 10453 10452 12365 12366 12372 12370 10458 12371 12146 12373 12374 
1354 1355 1652 1651 1387 1388 1685 1684 10237 12149 12150 12140 10464 12376 12377 12367 10452 10462 12375 12365 12370 12378 10466 12379 12153 12380 12381 
1355 1356 1653 1652 1388 1389 1686 1685 10244 12156 12157 12149 10471 12383 12384 12376 10462 10469 12382 12375 12378 12385 10473 12386 12160 12387 12388 
1356 1357 1654 1653 1389 1390 1687 1686 10251 12163 12164 12156 10478 12390 12391 12383 10469 10476 12389 12382 12385 12392 10480 12393 12167 12394 12395 
1357 1358 1655 1654 1390 1391 1688 1687 10258 12170 12171 12163 10485 12397 12398 12390 10476 10483 12396 12389 12392 12399 10487 12400 12174 12401 12402 
1358 1359 1656 1655 1391 1392 1689 1688 10265 12177 12178 12170 10492 12404 12405 12397 10483 10490 12403 12396 12399 12406 10494 12407 12181 12408 12409 
1359 1360 1657 1656 1392 1393 1690 1689 10272 12184 12185 12177 10499 12411 12412 12404 10490 10497 12410 12403 12406 12413 10501 12414 12188 12415 12416 
1360 1361 1658 1657 1393 1394 1691 1690 10279 12191 12192 12184 10506 12418 12419 12411 10497 10504 12417 12410 12413 12420 10508 12421 12195 12422 12423 
1361 1362 1659 1658 1394 1395 1692 1691 10286 12198 12199 12191 10513 12425 12426 12418 10504 10511 12424 12417 12420 12427 10515 12428 12202 12429 12430 
1362 1363 1660 1659 1395 1396 1693 1692 10293 12205 12206 12198 10520 12432 12433 12425 10511 10518 12431 12424 12427 12434 10522 12435 12209 12436 12437 
1363 1364 1661 1660 1396 1397 1694 1693 10300 12212 12213 12205 10527 12439 12440 12432 10518 10525 12438 12431 12434 12441 10529 12442 12216 12443 12444 
1364 1365 1662 1661 1397 1398 1695 1694 10307 12219 12220 12212 10534 12446 12447 12439 10525 10532 12445 12438 12441 12448 10536 12449 12223 12450 12451 
1365 1366 1663 1662 1398 1399 1696 1695 10314 12226 12227 12219 10541 12453 12454 12446 10532 10539 12452 12445 12448 12455 10543 12456 12230 12457 12458 
1366 1367 1664 1663 1399 1400 1697 1696 10321 12233 12234 12226 10548 12460 12461 12453 10539 10546 12459 12452 12455 12462 10550 12463 12237 12464 12465 
1367 1368 1665 1664 1400 1401 1698 1697 10328 12240 12241 12233 10555 12467 12468 12460 10546 10553 12466 12459 12462 12469 10557 12470 12244 12471 12472 
1368 1369 1666 1665 1401 1402 1699 1698 10335 12247 12248 12240 10562 12474 12475 12467 10553 10560 12473 12466 12469 12476 10564 12477 12251 12478 12479 
1369 1370 1667 1666 1402 1403 1700 1699 10342 12254 12255 12247 10569 12481 12482 12474 10560 10567 12480 12473 12476 12483 10571 12484 12258 12485 12486 
1370 1371 1668 1667 1403 1404 1701 1700 10349 12261 12262 12254 10576 12488 12489 12481 10567 10574 12487 12480 12483 12490 10578 12491 12265 12492 12493 
1371 1372 1669 1668 1404 1405 1702 1701 10356 12268 12269 12261 10583 12495 12496 12488 10574 10581 12494 12487 12490 12497 10585 12498 12272 12499 12500 
1372 1373 1670 1669 1405 1406 1703 1702 10363 12275 12276 12268 10590 12502 12503 12495 10581 10588 12501 12494 12497 12504 10592 12505 12279 12506 12507 
1373 1374 1671 1670 1406 1407 1704 1703 10370 12282 12283 12275 10597 12509 12510 12502 10588 10595 12508 12501 12504 12511 10599 12512 12286 12513 12514 
1374 1375 1672 1671 1407 1408 1705 1704 10377 12289 12290 12282 10604 12516 12517 12509 10595 10602 12515 12508 12511 12518 10606 12519 12293 12520 12521 
1375 1376 1673 1672 1408 1409 1706 1705 10384 12296 12297 12289 10611 12523 12524 12516 10602 10609 12522 12515 12518 12525 10613 12526 12300 12527 12528 
1376 1377 1674 1673 1409 1410 1707 1706 10391 12303 12304 12296 10618 12530 12531 12523 10609 10616 12529 12522 12525 12532 10620 12533 12307 12534 12535 
1377 1378 1675 1674 1410 1411 1708 1707 10398 12310 12311 12303 10625 12537 12538 12530 10616 10623 12536 12529 12532 12539 10627 12540 12314 12541 12542 
1378 1379 1676 1675 1411 1412 1709 1708 10405 12317 12318 12310 10632 12544 12545 12537 10623 10630 12543 12536 12539 12546 10634 12547 12321 12548 12549 
1379 1380 1677 1676 1412 1413 1710 1709 10412 12324 12325 12317 10639 12551 12552 12544 10630 10637 12550 12543 12546 12553 10641 12554 12328 12555 12556 
1380 1381 1678 1677 1413 1414 1711 1710 10419 12331 12332 12324 10646 12558 12559 12551 10637 10644 12557 12550 12553 12560 10648 12561 12335 12562 12563 
1381 1382 1679 1678 1414 1415 1712 1711 10426 12338 12339 12331 10653 12565 12566 12558 10644 10651 12564 12557 12560 12567 10655 12568 12342 12569 12570 
1382 1383 1680 1679 1415 1416 1713 1712 10433 12345 12346 12338 10660 12572 12573 12565 10651 10658 12571 12564 12567 12574 10662 12575 12349 12576 12577 
1383 1384 1681 1680 1416 1417 1714 1713 10440 12352 12353 12345 10667 12579 12580 12572 10658 10665 12578 12571 12574 12581 10669 12582 12356 12583 12584 
1384 1385 1682 1681 1417 1418 1715 1714 10447 12359 12360 12352 10674 12586 12587 12579 10665 10672 12585 12578 12581 12588 10676 12589 12363 12590 12591 
1386 1387 1684 1683 1419 1420 1717 1716 10455 12367 12368 12369 10682 12594 12595 12596 10680 10679 12592 12593 12599 12597 10685 12598 12373 12600 12601 
1387 1388 1685 1684 1420 1421 1718 1717 10464 12376 12377 12367 10691 12603 12604 12594 10679 10689 12602 12592 12597 12605 10693 12606 12380 12607 12608 
1388 1389 1686 1685 1421 1422 1719 1718 10471 12383 12384 12376 10698 12610 12611 12603 10689 10696 12609 12602 12605 12612 10700 12613 12387 12614 12615 
1389 1390 1687 1686 1422 1423 1720 1719 10478 12390 12391 12383 10705 12617 12618 12610 10696 10703 12616 12609 12612 12619 10707 12620 12394 12621 12622 
1390 1391 1688 1687 1423 1424 1721 1720 10485 12397 12398 12390 10712 12624 12625 12617 10703 10710 12623 12616 12619 12626 10714 12627 12401 12628 12629 
1391 1392 1689 1688 1424 1425 1722 1721 10492 12404 12405 12397 10719 12631 12632 12624 10710 10717 12630 12623 12626 12633 10721 12634 12408 12635 12636 
1392 1393 1690 1689 1425 1426 1723 1722 10499 12411 12412 12404 10726 12638 12639 12631 10717 10724 12637 12630 12633 12640 10728 12641 12415 12642 12643 
1393 1394 1691 1690 1426 1427 1724 1723 10506 12418 12419 12411 10733 12645 12646 12638 10724 10731 12644 12637 12640 12647 10735 12648 12422 12649 12650 
1394 1395 1692 1691 1427 1428 1725 1724 10513 12425 12426 12418 10740 12652 12653 12645 10731 10738 12651 12644 12647 12654 10742 12655 12429 12656 12657 
1395 1396 1693 1692 1428 1429 1726 1725 10520 12432 12433 12425 10747 12659 12660 12652 10738 10745 12658 12651 12654 12661 10749 12662 12436 12663 12664 
1396 1397 1694 1693 1429 1430 1727 1726 10527 12439 12440 12432 10754 12666 12667 12659 10745 10752 12665 12658 12661 12668 10756 12669 12443 12670 12671 
1397 1398 1695 1694 1430 1431 1728 1727 10534 12446 12447 12439 10761 12673 12674 12666 10752 10759 12672 12665 12668 12675 10763 12676 12450 12677 12678 
1398 1399 1696 1695 1431 1432 1729 1728 10541 12453 12454 12446 10768 12680 12681 12673 10759 10766 12679 12672 12675 12682 10770 12683 12457 12684 12685 
1399 1400 1697 1696 1432 1433 1730 1729 10548 12460 12461 12453 10775 12687 12688 12680 10766 10773 12686 12679 12682 12689 10777 12690 12464 12691 12692 
1400 1401 1698 1697 1433 1434 1731 1730 10555 12467 12468 12460 10782 12694 12695 12687 10773 10780 12693 12686 12689 12696 10784 12697 12471 12698 12699 
1401 1402 1699 1698 1434 1435 1732 1731 10562 12474 12475 12467 10789 12701 12702 12694 10780 10787 12700 12693 12696 12703 10791 12704 12478 12705 12706 
1402 1403 1700 1699 1435 1436 1733 1732 10569 12481 12482 12474 10796 12708 12709 12701 10787 10794 12707 12700 12703 12710 10798 12711 12485 12712 12713 
1403 1404 1701 1700 1436 1437 1734 1733 10576 12488 12489 12481 10803 12715 12716 12708 10794 10801 12714 12707 12710 12717 10805 12718 12492 12719 12720 
1404 1405 1702 1701 1437 1438 1735 1734 10583 12495 12496 12488 10810 12722 12723 12715 10801 10808 12721 12714 12717 12724 10812 12725 12499 12726 12727 
1405 1406 1703 1702 1438 1439 1736 1735 10590 12502 12503 12495 10817 12729 12730 12722 10808 10815 12728 12721 12724 12731 10819 12732 12506 12733 12734 
1406 1407 1704 1703 1439 1440 1737 1736 10597 12509 12510 12502 10824 12736 12737 12729 10815 10822 12735 12728 12731 12738 10826 12739 12513 12740 12741 
1407 1408 1705 1704 1440 1441 1738 1737 10604 12516 12517 12509 10831 12743 12744 12736 10822 10829 12742 12735 12738 12745 10833 12746 12520 12747 12748 
1408 1409 1706 1705 1441 1442 1739 1738 10611 12523 12524 12516 10838 12750 12751 12743 10829 10836 12749 12742 12745 12752 10840 12753 12527 12754 12755 
1409 1410 1707 1706 1442 1443 1740 1739 10618 12530 12531 12523 10845 12757 12758 12750 10836 10843 12756 12749 12752 12759 10847 12760 12534 12761 12762 
1410 1411 1708 1707 1443 1444 1741 1740 10625 12537 12538 12530 10852 12764 12765 12757 10843 10850 12763 12756 12759 12766 10854 12767 12541 12768 12769 
1411 1412 1709 1708 1444 1445 1742 1741 10632 12544 12545 12537 10859 12771 12772 12764 10850 10857 12770 12763 12766 12773 10861 12774 12548 12775 12776 
1412 1413 1710 1709 1445 1446 1743 1742 10639 12551 12552 12544 10866 12778 12779 12771 10857 10864 12777 12770 12773 12780 10868 12781 12555 12782 12783 
1413 1414 1711 1710 1446 1447 1744 1743 10646 12558 12559 12551 10873 12785 12786 12778 10864 10871 12784 12777 12780 12787 10875 12788 12562 12789 12790 
1414 1415 1712 1711 1447 1448 1745 1744 10653 12565 12566 12558 10880 12792 12793 12785 10871 10878 12791 12784 12787 12794 10882 12795 12569 12796 12797 
1415 1416 1713 1712 1448 1449 1746 1745 10660 12572 12573 12565 10887 12799 12800 12792 10878 10885 12798 12791 12794 12801 10889 12802 12576 12803 12804 
1416 1417 1714 1713 1449 1450 1747 1746 10667 12579 12580 12572 10894 12806 12807 12799 10885 10892 12805 12798 12801 12808 10896 12809 12583 12810 12811 
1417 1418 1715 1714 1450 1451 1748 1747 10674 12586 12587 12579 10901 12813 12814 12806 10892 10899 12812 12805 12808 12815 10903 12816 12590 12817 12818 
1419 1420 1717 1716 1452 1453 1750 1749 10682 12594 12595 12596 10909 12821 12822 12823 10907 10906 12819 12820 12826 12824 10912 12825 12600 12827 12828 
1420 1421 1718 1717 1453 1454 1751 1750 10691 12603 12604 12594 10918 12830 12831 12821 10906 10916 12829 12819 12824 12832 10920 12833 12607 12834 12835 
1421 1422 1719 1718 1454 1455 1752 1751 10698 12610 12611 12603 10925 12837 12838 12830 10916 10923 12836 12829 12832 12839 10927 12840 12614 12841 12842 
1422 1423 1720 1719 1455 1456 1753 1752 10705 12617 12618 12610 10932 12844 12845 12837 10923 10930 12843 12836 12839 12846 10934 12847 12621 12848 12849 
1423 1424 1721 1720 1456 1457 1754 1753 10712 12624 12625 12617 10939 12851 12852 12844 10930 10937 12850 12843 12846 12853 10941 12854 12628 12855 12856 
1424 1425 1722 1721 1457 1458 1755 1754 10719 12631 12632 12624 10946 12858 12859 12851 10937 10944 12857 12850 12853 12860 10948 12861 12635 12862 12863 
1425 1426 1723 1722 1458 1459 1756 1755 10726 12638 12639 12631 10953 12865 12866 12858 10944 10951 12864 12857 12860 12867 10955 12868 12642 12869 12870 
1426 1427 1724 1723 1459 1460 1757 1756 10733 12645 12646 12638 10960 12872 12873 12865 10951 10958 12871 12864 12867 12874 10962 12875 12649 12876 12877 
1427 1428 1725 1724 1460 1461 1758 1757 10740 12652 12653 12645 10967 12879 12880 12872 10958 10965 12878 12871 12874 12881 10969 12882 12656 12883 12884 
1428 1429 1726 1725 1461 1462 1759 1758 10747 12659 12660 12652 10974 12886 12887 12879 10965 10972 12885 12878 12881 12888 10976 12889 12663 12890 12891 
1429 1430 1727 1726 1462 1463 1760 1759 10754 12666 12667 12659 10981 12893 12894 12886 10972 10979 12892 12885 12888 12895 10983 12896 12670 12897 12898 
1430 1431 1728 1727 1463 1464 1761 1760 10761 12673 12674 12666 10988 12900 12901 12893 10979 10986 12899 12892 12895 12902 10990 12903 12677 12904 12905 
1431 1432 1729 1728 1464 1465 1762 1761 10768 12680 12681 12673 10995 12907 12908 12900 10986 10993 12906 12899 12902 12909 10997 12910 12684 12911 12912 
1432 1433 1730 1729 1465 1466 1763 1762 10775 12687 12688 12680 11002 12914 12915 12907 10993 11000 12913 12906 12909 12916 11004 12917 12691 12918 12919 
1433 1434 1731 1730 1466 1467 1764 1763 10782 12694 12695 12687 11009 12921 12922 12914 11000 11007 12920 12913 12916 12923 11011 12924 12698 12925 12926 
1434 1435 1732 1731 1467 1468 1765 1764 10789 12701 12702 12694 11016 12928 12929 12921 11007 11014 12927 12920 12923 12930 11018 12931 12705 12932 12933 
1435 1436 1733 1732 1468 1469 1766 1765 10796 12708 12709 12701 11023 12935 12936 12928 11014 11021 12934 12927 12930 12937 11025 12938 12712 12939 12940 
1436 1437 1734 1733 1469 1470 1767 1766 10803 12715 12716 12708 11030 12942 12943 12935 11021 11028 12941 12934 12937 12944 11032 12945 12719 12946 12947 
1437 1438 1735 1734 1470 1471 1768 1767 10810 12722 12723 12715 11037 12949 12950 12942 11028 11035 12948 12941 12944 12951 11039 12952 12726 12953 12954 
1438 1439 1736 1735 1471 1472 1769 1768 10817 12729 12730 12722 11044 12956 12957 12949 11035 11042 12955 12948 12951 12958 11046 12959 12733 12960 12961 
1439 1440 1737 1736 1472 1473 1770 1769 10824 12736 12737 12729 11051 12963 12964 12956 11042 11049 12962 12955 12958 12965 11053 12966 12740 12967 12968 
1440 1441 1738 1737 1473 1474 1771 1770 10831 12743 12744 12736 11058 12970 12971 12963 11049 11056 12969 12962 12965 12972 11060 12973 12747 12974 12975 
1441 1442 1739 1738 1474 1475 1772 1771 10838 12750 12751 12743 11065 12977 12978 12970 11056 11063 12976 12969 12972 12979 11067 12980 12754 12981 12982 
1442 1443 1740 1739 1475 1476 1773 1772 10845 12757 12758 12750 11072 12984 12985 12977 11063 11070 12983 12976 12979 12986 11074 12987 12761 12988 12989 
1443 1444 1741 1740 1476 1477 1774 1773 10852 12764 12765 12757 11079 12991 12992 12984 11070 11077 12990 12983 12986 12993 11081 12994 12768 12995 12996 
1444 1445 1742 1741 1477 1478 1775 1774 10859 12771 12772 12764 11086 12998 12999 12991 11077 11084 12997 12990 12993 13000 11088 13001 12775 13002 13003 
1445 1446 1743 1742 1478 1479 1776 1775 10866 12778 12779 12771 11093 13005 13006 12998 11084 11091 13004 12997 13000 13007 11095 13008 12782 13009 13010 
1446 1447 1744 1743 1479 1480 1777 1776 10873 12785 12786 12778 11100 13012 13013 13005 11091 11098 13011 13004 13007 13014 11102 13015 12789 13016 13017 
1447 1448 1745 1744 1480 1481 1778 1777 10880 12792 12793 12785 11107 13019 13020 13012 11098 11105 13018 13011 13014 13021 11109 13022 12796 13023 13024 
1448 1449 1746 1745 1481 1482 1779 1778 10887 12799 12800 12792 11114 13026 13027 13019 11105 11112 13025 13018 13021 13028 11116 13029 12803 13030 13031 
1449 1450 1747 1746 1482 1483 1780 1779 10894 12806 12807 12799 11121 13033 13034 13026 11112 11119 13032 13025 13028 13035 11123 13036 12810 13037 13038 
1450 1451 1748 1747 1483 1484 1781 1780 10901 12813 12814 12806 11128 13040 13041 13033 11119 11126 13039 13032 13035 13042 11130 13043 12817 13044 13045 
1485 1486 1783 1782 1518 1519 1816 1815 11134 13046 13047 13048 11139 13051 13052 13053 11137 11136 13049 13050 13057 13055 11143 13056 13054 13058 13059 
1486 1487 1784 1783 1519 1520 1817 1816 11148 13060 13061 13046 11151 13063 13064 13051 11136 11149 13062 13049 13055 13066 11154 13067 13065 13068 13069 
1487 1488 1785 1784 1520 1521 1818 1817 11158 13070 13071 13060 11161 13073 13074 13063 11149 11159 13072 13062 13066 13076 11164 13077 13075 13078 13079 
1488 1489 1786 1785 1521 1522 1819 1818 11168 13080 13081 13070 11171 13083 13084 13073 11159 11169 13082 13072 13076 13086 11174 13087 13085 13088 13089 
1489 1490 1787 1786 1522 1523 1820 1819 11178 13090 13091 13080 11181 13093 13094 13083 11169 11179 13092 13082 13086 13096 11184 13097 13095 13098 13099 
1490 1491 1788 1787 1523 1524 1821 1820 11188 13100 13101 13090 11191 13103 13104 13093 11179 11189 13102 13092 13096 13106 11194 13107 13105 13108 13109 
1491 1492 1789 1788 1524 1525 1822 1821 11198 13110 13111 13100 11201 13113 13114 13103 11189 11199 13112 13102 13106 13116 11204 13117 13115 13118 13119 
1492 1493 1790 1789 1525 1526 1823 1822 11208 13120 13121 13110 11211 13123 13124 13113 11199 11209 13122 13112 13116 13126 11214 13127 13125 13128 13129 
1493 1494 1791 1790 1526 1527 1824 1823 11218 13130 13131 13120 11221 13133 13134 13123 11209 11219 13132 13122 13126 13136 11224 13137 13135 13138 13139 
1494 1495 1792 1791 1527 1528 1825 1824 11228 13140 13141 13130 11231 13143 13144 13133 11219 11229 13142 13132 13136 13146 11234 13147 13145 13148 13149 
1495 1496 1793 1792 1528 1529 1826 1825 11238 13150 13151 13140 11241 13153 13154 13143 11229 11239 13152 13142 13146 13156 11244 13157 13155 13158 13159 
1496 1497 1794 1793 1529 1530 1827 1826 11248 13160 13161 13150 11251 13163 13164 13153 11239 11249 13162 13152 13156 13166 11254 13167 13165 13168 13169 
1497 1498 1795 1794 1530 1531 1828 1827 11258 13170 13171 13160 11261 13173 13174 13163 11249 11259 13172 13162 13166 13176 11264 13177 13175 13178 13179 
1498 1499 1796 1795 1531 1532 1829 1828 11268 13180 13181 13170 11271 13183 13184 13173 11259 11269 13182 13172 13176 13186 11274 13187 13185 13188 13189 
1499 1500 1797 1796 1532 1533 1830 1829 11278 13190 13191 13180 11281 13193 13194 13183 11269 11279 13192 13182 13186 13196 11284 13197 13195 13198 13199 
1500 1501 1798 1797 1533 1534 1831 1830 11288 13200 13201 13190 11291 13203 13204 13193 11279 11289 13202 13192 13196 13206 11294 13207 13205 13208 13209 
1501 1502 1799 1798 1534 1535 1832 1831 11298 13210 13211 13200 11301 13213 13214 13203 11289 11299 13212 13202 13206 13216 11304 13217 13215 13218 13219 
1502 1503 1800 1799 1535 1536 1833 1832 11308 13220 13221 13210 11311 13223 13224 13213 11299 11309 13222 13212 13216 13226 11314 13227 13225 13228 13229 
1503 1504 1801 1800 1536 1537 1834 1833 11318 13230 13231 13220 11321 13233 13234 13223 11309 11319 13232 13222 13226 13236 11324 13237 13235 13238 13239 
1504 1505 1802 1801 1537 1538 1835 1834 11328 13240 13241 13230 11331 13243 13244 13233 11319 11329 13242 13232 13236 13246 11334 13247 13245 13248 13249 
1505 1506 1803 1802 1538 1539 1836 1835 11338 13250 13251 13240 11341 13253 13254 13243 11329 11339 13252 13242 13246 13256 11344 13257 13255 13258 13259 
1506 1507 1804 1803 1539 1540 1837 1836 11348 13260 13261 13250 11351 13263 13264 13253 11339 11349 13262 13252 13256 13266 11354 13267 13265 13268 13269 
1507 1508 1805 1804 1540 1541 1838 1837 11358 13270 13271 13260 11361 13273 13274 13263 11349 11359 13272 13262 13266 13276 11364 13277 13275 13278 13279 
1508 1509 1806 1805 1541 1542 1839 1838 11368 13280 13281 13270 11371 13283 13284 13273 11359 11369 13282 13272 13276 13286 11374 13287 13285 13288 13289 
1509 1510 1807 1806 1542 1543 1840 1839 11378 13290 13291 13280 11381 13293 13294 13283 11369 11379 13292 13282 13286 13296 11384 13297 13295 13298 13299 
1510 1511 1808 1807 1543 1544 1841 1840 11388 13300 13301 13290 11391 13303 13304 13293 11379 11389 13302 13292 13296 13306 11394 13307 13305 13308 13309 
1511 1512 1809 1808 1544 1545 1842 1841 11398 13310 13311 13300 11401 13313 13314 13303 11389 11399 13312 13302 13306 13316 11404 13317 13315 13318 13319 
1512 1513 1810 1809 1545 1546 1843 1842 11408 13320 13321 13310 11411 13323 13324 13313 11399 11409 13322 13312 13316 13326 11414 13327 13325 13328 13329 
1513 1514 1811 1810 1546 1547 1844 1843 11418 13330 13331 13320 11421 13333 13334 13323 11409 11419 13332 13322 13326 13336 11424 13337 13335 13338 13339 
1514 1515 1812 1811 1547 1548 1845 1844 11428 13340 13341 13330 11431 13343 13344 13333 11419 11429 13342 13332 13336 13346 11434 13347 13345 13348 13349 
1515 1516 1813 1812 1548 1549 1846 1845 11438 13350 13351 13340 11441 13353 13354 13343 11429 11439 13352 13342 13346 13356 11444 13357 13355 13358 13359 
1516 1517 1814 1813 1549 1550 1847 1846 11448 13360 13361 13350 11451 13363 13364 13353 11439 11449 13362 13352 13356 13366 11454 13367 13365 13368 13369 
1518 1519 1816 1815 1551 1552 1849 1848 11139 13051 13052 13053 11460 13372 13373 13374 11458 11457 13370 13371 13377 13375 11463 13376 13058 13378 13379 
1519 1520 1817 1816 1552 1553 1850 1849 11151 13063 13064 13051 11469 13381 13382 13372 11457 11467 13380 13370 13375 13383 11471 13384 13068 13385 13386 
1520 1521 1818 1817 1553 1554 1851 1850 11161 13073 13074 13063 11476 13388 13389 13381 11467 11474 13387 13380 13383 13390 11478 13391 13078 13392 13393 
1521 1522 1819 1818 1554 1555 1852 1851 11171 13083 13084 13073 11483 13395 13396 13388 11474 11481 13394 13387 13390 13397 11485 13398 13088 13399 13400 
1522 1523 1820 1819 1555 1556 1853 1852 11181 13093 13094 13083 11490 13402 13403 13395 11481 11488 13401 13394 13397 13404 11492 13405 13098 13406 13407 
1523 1524 1821 1820 1556 1557 1854 1853 11191 13103 13104 13093 11497 13409 13410 13402 11488 11495 13408 13401 13404 13411 11499 13412 13108 13413 13414 
1524 1525 1822 1821 1557 1558 1855 1854 11201 13113 13114 13103 11504 13416 13417 13409 11495 11502 13415 13408 13411 13418 11506 13419 13118 13420 13421 
1525 1526 1823 1822 1558 1559 1856 1855 11211 13123 13124 13113 11511 13423 13424 13416 11502 11509 13422 13415 13418 13425 11513 13426 13128 13427 13428 
1526 1527 1824 1823 1559 1560 1857 1856 11221 13133 13134 13123 11518 13430 13431 13423 11509 11516 13429 13422 13425 13432 11520 13433 13138 13434 13435 
1527 1528 1825 1824 1560 1561 1858 1857 11231 13143 13144 13133 11525 13437 13438 13430 11516 11523 13436 13429 13432 13439 11527 13440 13148 13441 13442 
1528 1529 1826 1825 1561 1562 1859 1858 11241 13153 13154 13143 11532 13444 13445 13437 11523 11530 13443 13436 13439 13446 11534 13447 13158 13448 13449 
1529 1530 1827 1826 1562 1563 1860 1859 11251 13163 13164 13153 11539 13451 13452 13444 11530 11537 13450 13443 13446 13453 11541 13454 13168 13455 13456 
1530 1531 1828 1827 1563 1564 1861 1860 11261 13173 13174 13163 11546 13458 13459 13451 11537 11544 13457 13450 13453 13460 11548 13461 13178 13462 13463 
1531 1532 1829 1828 1564 1565 1862 1861 11271 13183 13184 13173 11553 13465 13466 13458 11544 11551 13464 13457 13460 13467 11555 13468 13188 13469 13470 
1532 1533 1830 1829 1565 1566 1863 1862 11281 13193 13194 13183 11560 13472 13473 13465 11551 11558 13471 13464 13467 13474 11562 13475 13198 13476 13477 
1533 1534 1831 1830 1566 1567 1864 1863 11291 13203 13204 13193 11567 13479 13480 13472 11558 11565 13478 13471 13474 13481 11569 13482 13208 13483 13484 
1534 1535 1832 1831 1567 1568 1865 1864 11301 13213 13214 13203 11574 13486 13487 13479 11565 11572 13485 13478 13481 13488 11576 13489 13218 13490 13491 
1535 1536 1833 1832 1568 1569 1866 1865 11311 13223 13224 13213 11581 13493 13494 13486 11572 11579 13492 13485 13488 13495 11583 13496 13228 13497 13498 
1536 1537 1834 1833 1569 1570 1867 1866 11321 13233 13234 13223 11588 13500 13501 13493 11579 11586 13499 13492 13495 13502 11590 13503 13238 13504 13505 
1537 1538 1835 1834 1570 1571 1868 1867 11331 13243 13244 13233 11595 13507 13508 13500 11586 11593 13506 13499 13502 13509 11597 13510 13248 13511 13512 
1538 1539 1836 1835 1571 1572 1869 1868 11341 13253 13254 13243 11602 13514 13515 13507 11593 11600 13513 13506 13509 13516 11604 13517 13258 13518 13519 
1539 1540 1837 1836 1572 1573 1870 1869 11351 13263 13264 13253 11609 13521 13522 13514 11600 11607 13520 13513 13516 13523 11611 13524 13268 13525 13526 
1540 1541 1838 1837 1573 1574 1871 1870 11361 13273 13274 13263 11616 13528 13529 13521 11607 11614 13527 13520 13523 13530 11618 13531 13278 13532 13533 
1541 1542 1839 1838 1574 1575 1872 1871 11371 13283 13284 13273 11623 13535 13536 13528 11614 11621 13534 13527 13530 13537 11625 13538 13288 13539 13540 
1542 1543 1840 1839 1575 1576 1873 1872 11381 13293 13294 13283 11630 13542 13543 13535 11621 11628 13541 13534 13537 13544 11632 13545 13298 13546 13547 
1543 1544 1841 1840 1576 1577 1874 1873 11391 13303 13304 13293 11637 13549 13550 13542 11628 11635 13548 13541 13544 13551 11639 13552 13308 13553 13554 
1544 1545 1842 1841 1577 1578 1875 1874 11401 13313 13314 13303 11644 13556 13557 13549 11635 11642 13555 13548 13551 13558 11646 13559 13318 13560 13561 
1545 1546 1843 1842 1578 1579 1876 1875 11411 13323 13324 13313 11651 13563 13564 13556 11642 11649 13562 13555 13558 13565 11653 13566 13328 13567 13568 
1546 1547 1844 1843 1579 1580 1877 1876 11421 13333 13334 13323 11658 13570 13571 13563 11649 11656 13569 13562 13565 13572 11660 13573 13338 13574 13575 
1547 1548 1845 1844 1580 1581 1878 1877 11431 13343 13344 13333 11665 13577 13578 13570 11656 11663 13576 13569 13572 13579 11667 13580 13348 13581 13582 
1548 1549 1846 1845 1581 1582 1879 1878 11441 13353 13354 13343 11672 13584 13585 13577 11663 11670 13583 13576 13579 13586 11674 13587 13358 13588 13589 
1549 1550 1847 1846 1582 1583 1880 1879 11451 13363 13364 13353 11679 13591 13592 13584 11670 11677 13590 13583 13586 13593 11681 13594 13368 13595 13596 
1551 1552 1849 1848 1584 1585 1882 1881 11460 13372 13373 13374 11687 13599 13600 13601 11685 11684 13597 13598 13604 13602 11690 13603 13378 13605 13606 
1552 1553 1850 1849 1585 1586 1883 1882 11469 13381 13382 13372 11696 13608 13609 13599 11684 11694 13607 13597 13602 13610 11698 13611 13385 13612 13613 
1553 1554 1851 1850 1586 1587 1884 1883 11476 13388 13389 13381 11703 13615 13616 13608 11694 11701 13614 13607 13610 13617 11705 13618 13392 13619 13620 
1554 1555 1852 1851 1587 1588 1885 1884 11483 13395 13396 13388 11710 13622 13623 13615 11701 11708 13621 13614 13617 13624 11712 13625 13399 13626 13627 
1555 1556 1853 1852 1588 1589 1886 1885 11490 13402 13403 13395 11717 13629 13630 13622 11708 11715 13628 13621 13624 13631 11719 13632 13406 13633 13634 
1556 1557 1854 1853 1589 1590 1887 1886 11497 13409 13410 13402 11724 13636 13637 13629 11715 11722 13635 13628 13631 13638 11726 13639 13413 13640 13641 
1557 1558 1855 1854 1590 1591 1888 1887 11504 13416 13417 13409 11731 13643 13644 13636 11722 11729 13642 13635 13638 13645 11733 13646 13420 13647 13648 
1558 1559 1856 1855 1591 1592 1889 1888 11511 13423 13424 13416 11738 13650 13651 13643 11729 11736 13649 13642 13645 13652 11740 13653 13427 13654 13655 
1559 1560 1857 1856 1592 1593 1890 1889 11518 13430 13431 13423 11745 13657 13658 13650 11736 11743 13656 13649 13652 13659 11747 13660 13434 13661 13662 
1560 1561 1858 1857 1593 1594 1891 1890 11525 13437 13438 13430 11752 13664 13665 13657 11743 11750 13663 13656 13659 13666 11754 13667 13441 13668 13669 
1561 1562 1859 1858 1594 1595 1892 1891 11532 13444 13445 13437 11759 13671 13672 13664 11750 11757 13670 13663 13666 13673 11761 13674 13448 13675 13676 
1562 1563 1860 1859 1595 1596 1893 1892 11539 13451 13452 13444 11766 13678 13679 13671 11757 11764 13677 13670 13673 13680 11768 13681 13455 13682 13683 
1563 1564 1861 1860 1596 1597 1894 1893 11546 13458 13459 13451 11773 13685 13686 13678 11764 11771 13684 13677 13680 13687 11775 13688 13462 13689 13690 
1564 1565 1862 1861 1597 1598 1895 1894 11553 13465 13466 13458 11780 13692 13693 13685 11771 11778 13691 13684 13687 13694 11782 13695 13469 13696 13697 
1565 1566 1863 1862 1598 1599 1896 1895 11560 13472 13473 13465 11787 13699 13700 13692 11778 11785 13698 13691 13694 13701 11789 13702 13476 13703 13704 
1566 1567 1864 1863 1599 1600 1897 1896 11567 13479 13480 13472 11794 13706 13707 13699 11785 11792 13705 13698 13701 13708 11796 13709 13483 13710 13711 
1567 1568 1865 1864 1600 1601 1898 1897 11574 13486 13487 13479 11801 13713 13714 13706 11792 11799 13712 13705 13708 13715 11803 13716 13490 13717 13718 
1568 1569 1866 1865 1601 1602 1899 1898 11581 13493 13494 13486 11808 13720 13721 13713 11799 11806 13719 13712 13715 13722 11810 13723 13497 13724 13725 
1569 1570 1867 1866 1602 1603 1900 1899 11588 13500 13501 13493 11815 13727 13728 13720 11806 11813 13726 13719 13722 13729 11817 13730 13504 13731 13732 
1570 1571 1868 1867 1603 1604 1901 1900 11595 13507 13508 13500 11822 13734 13735 13727 11813 11820 13733 13726 13729 13736 11824 13737 13511 13738 13739 
1571 1572 1869 1868 1604 1605 1902 1901 11602 13514 13515 13507 11829 13741 13742 13734 11820 11827 13740 13733 13736 13743 11831 13744 13518 13745 13746 
1572 1573 1870 1869 1605 1606 1903 1902 11609 13521 13522 13514 11836 13748 13749 13741 11827 11834 13747 13740 13743 13750 11838 13751 13525 13752 13753 
1573 1574 1871 1870 1606 1607 1904 1903 11616 13528 13529 13521 11843 13755 13756 13748 11834 11841 13754 13747 13750 13757 11845 13758 13532 13759 13760 
1574 1575 1872 1871 1607 1608 1905 1904 11623 13535 13536 13528 11850 13762 13763 13755 11841 11848 13761 13754 13757 13764 11852 13765 13539 13766 13767 
1575 1576 1873 1872 1608 1609 1906 1905 11630 13542 13543 13535 11857 13769 13770 13762 11848 11855 13768 13761 13764 13771 11859 13772 13546 13773 13774 
1576 1577 1874 1873 1609 1610 1907 1906 11637 13549 13550 13542 11864 13776 13777 13769 11855 11862 13775 13768 13771 13778 11866 13779 13553 13780 13781 
1577 1578 1875 1874 1610 1611 1908 1907 11644 13556 13557 13549 11871 13783 13784 13776 11862 11869 13782 13775 13778 13785 11873 13786 13560 13787 13788 
1578 1579 1876 1875 1611 1612 1909 1908 11651 13563 13564 13556 11878 13790 13791 13783 11869 11876 13789 13782 13785 13792 11880 13793 13567 13794 13795 
1579 1580 1877 1876 1612 1613 1910 1909 11658 13570 13571 13563 11885 13797 13798 13790 11876 11883 13796 13789 13792 13799 11887 13800 13574 13801 13802 
1580 1581 1878 1877 1613 1614 1911 1910 11665 13577 13578 13570 11892 13804 13805 13797 11883 11890 13803 13796 13799 13806 11894 13807 13581 13808 13809 
1581 1582 1879 1878 1614 1615 1912 1911 11672 13584 13585 13577 11899 13811 13812 13804 11890 11897 13810 13803 13806 13813 11901 13814 13588 13815 13816 
1582 1583 1880 1879 1615 1616 1913 1912 11679 13591 13592 13584 11906 13818 13819 13811 11897 11904 13817 13810 13813 13820 11908 13821 13595 13822 13823 
1584 1585 1882 1881 1617 1618 1915 1914 11687 13599 13600 13601 11914 13826 13827 13828 11912 11911 13824 13825 13831 13829 11917 13830 13605 13832 13833 
1585 1586 1883 1882 1618 1619 1916 1915 11696 13608 13609 13599 11923 13835 13836 13826 11911 11921 13834 13824 13829 13837 11925 13838 13612 13839 13840 
1586 1587 1884 1883 1619 1620 1917 1916 11703 13615 13616 13608 11930 13842 13843 13835 11921 11928 13841 13834 13837 13844 11932 13845 13619 13846 13847 
1587 1588 1885 1884 1620 1621 1918 1917 11710 13622 13623 13615 11937 13849 13850 13842 11928 11935 13848 13841 13844 13851 11939 13852 13626 13853 13854 
1588 1589 1886 1885 1621 1622 1919 1918 11717 13629 13630 13622 11944 13856 13857 13849 11935 11942 13855 13848 13851 13858 11946 13859 13633 13860 13861 
1589 1590 1887 1886 1622 1623 1920 1919 11724 13636 13637 13629 11951 13863 13864 13856 11942 11949 13862 13855 13858 13865 11953 13866 13640 13867 13868 
1590 1591 1888 1887 1623 1624 1921 1920 11731 13643 13644 13636 11958 13870 13871 13863 11949 11956 13869 13862 13865 13872 11960 13873 13647 13874 13875 
1591 1592 1889 1888 1624 1625 1922 1921 11738 13650 13651 13643 11965 13877 13878 13870 11956 11963 13876 13869 13872 13879 11967 13880 13654 13881 13882 
1592 1593 1890 1889 1625 1626 1923 1922 11745 13657 13658 13650 11972 13884 13885 13877 11963 11970 13883 13876 13879 13886 11974 13887 13661 13888 13889 
1593 1594 1891 1890 1626 1627 1924 1923 11752 13664 13665 13657 11979 13891 13892 13884 11970 11977 13890 13883 13886 13893 11981 13894 13668 13895 13896 
1594 1595 1892 1891 1627 1628 1925 1924 11759 13671 13672 13664 11986 13898 13899 13891 11977 11984 13897 13890 13893 13900 11988 13901 13675 13902 13903 
1595 1596 1893 1892 1628 1629 1926 1925 11766 13678 13679 13671 11993 13905 13906 13898 11984 11991 13904 13897 13900 13907 11995 13908 13682 13909 13910 
1596 1597 1894 1893 1629 1630 1927 1926 11773 13685 13686 13678 12000 13912 13913 13905 11991 11998 13911 13904 13907 13914 12002 13915 13689 13916 13917 
1597 1598 1895 1894 1630 1631 1928 1927 11780 13692 13693 13685 12007 13919 13920 13912 11998 12005 13918 13911 13914 13921 12009 13922 13696 13923 13924 
1598 1599 1896 1895 1631 1632 1929 1928 11787 13699 13700 13692 12014 13926 13927 13919 12005 12012 13925 13918 13921 13928 12016 13929 13703 13930 13931 
1599 1600 1897 1896 1632 1633 1930 1929 11794 13706 13707 13699 12021 13933 13934 13926 12012 12019 13932 13925 13928 13935 12023 13936 13710 13937 13938 
1600 1601 1898 1897 1633 1634 1931 1930 11801 13713 13714 13706 12028 13940 13941 13933 12019 12026 13939 13932 13935 13942 12030 13943 13717 13944 13945 
1601 1602 1899 1898 1634 1635 1932 1931 11808 13720 13721 13713 12035 13947 13948 13940 12026 12033 13946 13939 13942 13949 12037 13950 13724 13951 13952 
1602 1603 1900 1899 1635 1636 1933 1932 11815 13727 13728 13720 12042 13954 13955 13947 12033 12040 13953 13946 13949 13956 12044 13957 13731 13958 13959 
1603 1604 1901 1900 1636 1637 1934 1933 11822 13734 13735 13727 12049 13961 13962 13954 12040 12047 13960 13953 13956 13963 12051 13964 13738 13965 13966 
1604 1605 1902 1901 1637 1638 1935 1934 11829 13741 13742 13734 12056 13968 13969 13961 12047 12054 13967 13960 13963 13970 12058 13971 13745 13972 13973 
1605 1606 1903 1902 1638 1639 1936 1935 11836 13748 13749 13741 12063 13975 13976 13968 12054 12061 13974 13967 13970 13977 12065 13978 13752 13979 13980 
1606 1607 1904 1903 1639 1640 1937 1936 11843 13755 13756 13748 12070 13982 13983 13975 12061 12068 13981 13974 13977 13984 12072 13985 13759 13986 13987 
1607 1608 1905 1904 1640 1641 1938 1937 11850 13762 13763 13755 12077 13989 13990 13982 12068 12075 13988 13981 13984 13991 12079 13992 13766 13993 13994 
1608 1609 1906 1905 1641 1642 1939 1938 11857 13769 13770 13762 12084 13996 13997 13989 12075 12082 13995 13988 13991 13998 12086 13999 13773 14000 14001 
1609 1610 1907 1906 1642 1643 1940 1939 11864 13776 13777 13769 12091 14003 14004 13996 12082 12089 14002 13995 13998 14005 12093 14006 13780 14007 14008 
1610 1611 1908 1907 1643 1644 1941 1940 11871 13783 13784 13776 12098 14010 14011 14003 12089 12096 14009 14002 14005 14012 12100 14013 13787 14014 14015 
1611 1612 1909 1908 1644 1645 1942 1941 11878 13790 13791 13783 12105 14017 14018 14010 12096 12103 14016 14009 14012 14019 12107 14020 13794 14021 14022 
1612 1613 1910 1909 1645 1646 1943 1942 11885 13797 13798 13790 12112 14024 14025 14017 12103 12110 14023 14016 14019 14026 12114 14027 13801 14028 14029 
1613 1614 1911 1910 1646 1647 1944 1943 11892 13804 13805 13797 12119 14031 14032 14024 12110 12117 14030 14023 14026 14033 12121 14034 13808 14035 14036 
1614 1615 1912 1911 1647 1648 1945 1944 11899 13811 13812 13804 12126 14038 14039 14031 12117 12124 14037 14030 14033 14040 12128 14041 13815 14042 14043 
1615 1616 1913 1912 1648 1649 1946 1945 11906 13818 13819 13811 12133 14045 14046 14038 12124 12131 14044 14037 14040 14047 12135 14048 13822 14049 14050 
1617 1618 1915 1914 1650 1651 1948 1947 11914 13826 13827 13828 12141 14053 14054 14055 12139 12138 14051 14052 14058 14056 12144 14057 13832 14059 14060 
1618 1619 1916 1915 1651 1652 1949 1948 11923 13835 13836 13826 12150 14062 14063 14053 12138 12148 14061 14051 14056 14064 12152 14065 13839 14066 14067 
1619 1620 1917 1916 1652 1653 1950 1949 11930 13842 13843 13835 12157 14069 14070 14062 12148 12155 14068 14061 14064 14071 12159 14072 13846 14073 14074 
1620 1621 1918 1917 1653 1654 1951 1950 11937 13849 13850 13842 12164 14076 14077 14069 12155 12162 14075 14068 14071 14078 12166 14079 13853 14080 14081 
1621 1622 1919 1918 1654 1655 1952 1951 11944 13856 13857 13849 12171 14083 14084 14076 12162 12169 14082 14075 14078 14085 12173 14086 13860 14087 14088 
1622 1623 1920 1919 1655 1656 1953 1952 11951 13863 13864 13856 12178 14090 14091 14083 12169 12176 14089 14082 14085 14092 12180 14093 13867 14094 14095 
1623 1624 1921 1920 1656 1657 1954 1953 11958 13870 13871 13863 12185 14097 14098 14090 12176 12183 14096 14089 14092 14099 12187 14100 13874 14101 14102 
1624 1625 1922 1921 1657 1658 1955 1954 11965 13877 13878 13870 12192 14104 14105 14097 12183 12190 14103 14096 14099 14106 12194 14107 13881 14108 14109 
1625 1626 1923 1922 1658 1659 1956 1955 11972 13884 13885 13877 12199 14111 14112 14104 12190 12197 14110 14103 14106 14113 12201 14114 13888 14115 14116 
1626 1627 1924 1923 1659 1660 1957 1956 11979 13891 13892 13884 12206 14118 14119 14111 12197 12204 14117 14110 14113 14120 12208 14121 13895 14122 14123 
1627 1628 1925 1924 1660 1661 1958 1957 11986 13898 13899 13891 12213 14125 14126 14118 12204 12211 14124 14117 14120 14127 12215 14128 13902 14129 14130 
1628 1629 1926 1925 1661 1662 1959 1958 11993 13905 13906 13898 12220 14132 14133 14125 12211 12218 14131 14124 14127 14134 12222 14135 13909 14136 14137 
1629 1630 1927 1926 1662 1663 1960 1959 12000 13912 13913 13905 12227 14139 14140 14132 12218 12225 14138 14131 14134 14141 12229 14142 13916 14143 14144 
1630 1631 1928 1927 1663 1664 1961 1960 12007 13919 13920 13912 12234 14146 14147 14139 12225 12232 14145 14138 14141 14148 12236 14149 13923 14150 14151 
1631 1632 1929 1928 1664 1665 1962 1961 12014 13926 13927 13919 12241 14153 14154 14146 12232 12239 14152 14145 14148 14155 12243 14156 13930 14157 14158 
1632 1633 1930 1929 1665 1666 1963 1962 12021 13933 13934 13926 12248 14160 14161 14153 12239 12246 14159 14152 14155 14162 12250 14163 13937 14164 14165 
1633 1634 1931 1930 1666 1667 1964 1963 12028 13940 13941 13933 12255 14167 14168 14160 12246 12253 14166 14159 14162 14169 12257 14170 13944 14171 14172 
1634 1635 1932 1931 1667 1668 1965 1964 12035 13947 13948 13940 12262 14174 14175 14167 12253 12260 14173 14166 14169 14176 12264 14177 13951 14178 14179 
1635 1636 1933 1932 1668 1669 1966 1965 12042 13954 13955 13947 12269 14181 14182 14174 12260 12267 14180 14173 14176 14183 12271 14184 13958 14185 14186 
1636 1637 1934 1933 1669 1670 1967 1966 12049 13961 13962 13954 12276 14188 14189 14181 12267 12274 14187 14180 14183 14190 12278 14191 13965 14192 14193 
1637 1638 1935 1934 1670 1671 1968 1967 12056 13968 13969 13961 12283 14195 14196 14188 12274 12281 14194 14187 14190 14197 12285 14198 13972 14199 14200 
1638 1639 1936 1935 1671 1672 1969 1968 12063 13975 13976 13968 12290 14202 14203 14195 12281 12288 14201 14194 14197 14204 12292 14205 13979 14206 14207 
1639 1640 1937 1936 1672 1673 1970 1969 12070 13982 13983 13975 12297 14209 14210 14202 12288 12295 14208 14201 14204 14211 12299 14212 13986 14213 14214 
1640 1641 1938 1937 1673 1674 1971 1970 12077 13989 13990 13982 12304 14216 14217 14209 12295 12302 14215 14208 14211 14218 12306 14219 13993 14220 14221 
1641 1642 1939 1938 1674 1675 1972 1971 12084 13996 13997 13989 12311 14223 14224 14216 12302 12309 14222 14215 14218 14225 12313 14226 14000 14227 14228 
1642 1643 1940 1939 1675 1676 1973 1972 12091 14003 14004 13996 12318 14230 14231 14223 12309 12316 14229 14222 14225 14232 12320 14233 14007 14234 14235 
1643 1644 1941 1940 1676 1677 1974 1973 12098 14010 14011 14003 12325 14237 14238 14230 12316 12323 14236 14229 14232 14239 12327 14240 14014 14241 14242 
1644 1645 1942 1941 1677 1678 1975 1974 12105 14017 14018 14010 12332 14244 14245 14237 12323 12330 14243 14236 14239 14246 12334 14247 14021 14248 14249 
1645 1646 1943 1942 1678 1679 1976 1975 12112 14024 14025 14017 12339 14251 14252 14244 12330 12337 14250 14243 14246 14253 12341 14254 14028 14255 14256 
1646 1647 1944 1943 1679 1680 1977 1976 12119 14031 14032 14024 12346 14258 14259 14251 12337 12344 14257 14250 14253 14260 12348 14261 14035 14262 14263 
1647 1648 1945 1944 1680 1681 1978 1977 12126 14038 14039 14031 12353 14265 14266 14258 12344 12351 14264 14257 14260 14267 12355 14268 14042 14269 14270 
1648 1649 1946 1945 1681 1682 1979 1978 12133 14045 14046 14038 12360 14272 14273 14265 12351 12358 14271 14264 14267 14274 12362 14275 14049 14276 14277 
1650 1651 1948 1947 1683 1684 1981 1980 12141 14053 14054 14055 12368 14280 14281 14282 12366 12365 14278 14279 14285 14283 12371 14284 14059 14286 14287 
1651 1652 1949 1948 1684 1685 1982 1981 12150 14062 14063 14053 12377 14289 14290 14280 12365 12375 14288 14278 14283 14291 12379 14292 14066 14293 14294 
1652 1653 1950 1949 1685 1686 1983 1982 12157 14069 14070 14062 12384 14296 14297 14289 12375 12382 14295 14288 14291 14298 12386 14299 14073 14300 14301 
1653 1654 1951 1950 1686 1687 1984 1983 12164 14076 14077 14069 12391 14303 14304 14296 12382 12389 14302 14295 14298 14305 12393 14306 14080 14307 14308 
1654 1655 1952 1951 1687 1688 1985 1984 12171 14083 14084 14076 12398 14310 14311 14303 12389 12396 14309 14302 14305 14312 12400 14313 14087 14314 14315 
1655 1656 1953 1952 1688 1689 1986 1985 12178 14090 14091 14083 12405 14317 14318 14310 12396 12403 14316 14309 14312 14319 12407 14320 14094 14321 14322 
1656 1657 1954 1953 1689 1690 1987 1986 12185 14097 14098 14090 12412 14324 14325 14317 12403 12410 14323 14316 14319 14326 12414 14327 14101 14328 14329 
1657 1658 1955 1954 1690 1691 1988 1987 12192 14104 14105 14097 12419 14331 14332 14324 12410 12417 14330 14323 14326 14333 12421 14334 14108 14335 14336 
1658 1659 1956 1955 1691 1692 1989 1988 12199 14111 14112 14104 12426 14338 14339 14331 12417 12424 14337 14330 14333 14340 12428 14341 14115 14342 14343 
1659 1660 1957 1956 1692 1693 1990 1989 12206 14118 14119 14111 12433 14345 14346 14338 12424 12431 14344 14337 14340 14347 12435 14348 14122 14349 14350 
1660 1661 1958 1957 1693 1694 1991 1990 12213 14125 14126 14118 12440 14352 14353 14345 12431 12438 14351 14344 14347 14354 12442 14355 14129 14356 14357 
1661 1662 1959 1958 1694 1695 1992 1991 12220 14132 14133 14125 12447 14359 14360 14352 12438 12445 14358 14351 14354 14361 12449 14362 14136 14363 14364 
1662 1663 1960 1959 1695 1696 1993 1992 12227 14139 14140 14132 12454 14366 14367 14359 12445 12452 14365 14358 14361 14368 12456 14369 14143 14370 14371 
1663 1664 1961 1960 1696 1697 1994 1993 12234 14146 14147 14139 12461 14373 14374 14366 12452 12459 14372 14365 14368 14375 12463 14376 14150 14377 14378 
1664 1665 1962 1961 1697 1698 1995 1994 12241 14153 14154 14146 12468 14380 14381 14373 12459 12466 14379 14372 14375 14382 12470 14383 14157 14384 14385 
1665 1666 1963 1962 1698 1699 1996 1995 12248 14160 14161 14153 12475 14387 14388 14380 12466 12473 14386 14379 14382 14389 12477 14390 14164 14391 14392 
1666 1667 1964 1963 1699 1700 1997 1996 12255 14167 14168 14160 12482 14394 14395 14387 12473 12480 14393 14386 14389 14396 12484 14397 14171 14398 14399 
1667 1668 1965 1964 1700 1701 1998 1997 12262 14174 14175 14167 12489 14401 14402 14394 12480 12487 14400 14393 14396 14403 12491 14404 14178 14405 14406 
1668 1669 1966 1965 1701 1702 1999 1998 12269 14181 14182 14174 12496 14408 14409 14401 12487 12494 14407 14400 14403 14410 12498 14411 14185 14412 14413 
1669 1670 1967 1966 1702 1703 2000 1999 12276 14188 14189 14181 12503 14415 14416 14408 12494 12501 14414 14407 14410 14417 12505 14418 14192 14419 14420 
1670 1671 1968 1967 1703 1704 2001 2000 12283 14195 14196 14188 12510 14422 14423 14415 12501 12508 14421 14414 14417 14424 12512 14425 14199 14426 14427 
1671 1672 1969 1968 1704 1705 2002 2001 12290 14202 14203 14195 12517 14429 14430 14422 12508 12515 14428 14421 14424 14431 12519 14432 14206 14433 14434 
1672 1673 1970 1969 1705 1706 2003 2002 12297 14209 14210 14202 12524 14436 14437 14429 12515 12522 14435 14428 14431 14438 12526 14439 14213 14440 14441 
1673 1674 1971 1970 1706 1707 2004 2003 12304 14216 14217 14209 12531 14443 14444 14436 12522 12529 14442 14435 14438 14445 12533 14446 14220 14447 14448 
1674 1675 1972 1971 1707 1708 2005 2004 12311 14223 14224 14216 12538 14450 14451 14443 12529 12536 14449 14442 14445 14452 12540 14453 14227 14454 14455 
1675 1676 1973 1972 1708 1709 2006 2005 12318 14230 14231 14223 12545 14457 14458 14450 12536 12543 14456 14449 14452 14459 12547 14460 14234 14461 14462 
1676 1677 1974 1973 1709 1710 2007 2006 12325 14237 14238 14230 12552 14464 14465 14457 12543 12550 14463 14456 14459 14466 12554 14467 14241 14468 14469 
1677 1678 1975 1974 1710 1711 2008 2007 12332 14244 14245 14237 12559 14471 14472 14464 12550 12557 14470 14463 14466 14473 12561 14474 14248 14475 14476 
1678 1679 1976 1975 1711 1712 2009 2008 12339 14251 14252 14244 12566 14478 14479 14471 12557 12564 14477 14470 14473 14480 12568 14481 14255 14482 14483 
1679 1680 1977 1976 1712 1713 2010 2009 12346 14258 14259 14251 12573 14485 14486 14478 12564 12571 14484 14477 14480 14487 12575 14488 14262 14489 14490 
1680 1681 1978 1977 1713 1714 2011 2010 12353 14265 14266 14258 12580 14492 14493 14485 12571 12578 14491 14484 14487 14494 12582 14495 14269 14496 14497 
1681 1682 1979 1978 1714 1715 2012 2011 12360 14272 14273 14265 12587 14499 14500 14492 12578 12585 14498 14491 14494 14501 12589 14502 14276 14503 14504 
1683 1684 1981 1980 1716 1717 2014 2013 12368 14280 14281 14282 12595 14507 14508 14509 12593 12592 14505 14506 14512 14510 12598 14511 14286 14513 14514 
1684 1685 1982 1981 1717 1718 2015 2014 12377 14289 14290 14280 12604 14516 14517 14507 12592 12602 14515 14505 14510 14518 12606 14519 14293 14520 14521 
1685 1686 1983 1982 1718 1719 2016 2015 12384 14296 14297 14289 12611 14523 14524 14516 12602 12609 14522 14515 14518 14525 12613 14526 14300 14527 14528 
1686 1687 1984 1983 1719 1720 2017 2016 12391 14303 14304 14296 12618 14530 14531 14523 12609 12616 14529 14522 14525 14532 12620 14533 14307 14534 14535 
1687 1688 1985 1984 1720 1721 2018 2017 12398 14310 14311 14303 12625 14537 14538 14530 12616 12623 14536 14529 14532 14539 12627 14540 14314 14541 14542 
1688 1689 1986 1985 1721 1722 2019 2018 12405 14317 14318 14310 12632 14544 14545 14537 12623 12630 14543 14536 14539 14546 12634 14547 14321 14548 14549 
1689 1690 1987 1986 1722 1723 2020 2019 12412 14324 14325 14317 12639 14551 14552 14544 12630 12637 14550 14543 14546 14553 12641 14554 14328 14555 14556 
1690 1691 1988 1987 1723 1724 2021 2020 12419 14331 14332 14324 12646 14558 14559 14551 12637 12644 14557 14550 14553 14560 12648 14561 14335 14562 14563 
1691 1692 1989 1988 1724 1725 2022 2021 12426 14338 14339 14331 12653 14565 14566 14558 12644 12651 14564 14557 14560 14567 12655 14568 14342 14569 14570 
1692 1693 1990 1989 1725 1726 2023 2022 12433 14345 14346 14338 12660 14572 14573 14565 12651 12658 14571 14564 14567 14574 12662 14575 14349 14576 14577 
1693 1694 1991 1990 1726 1727 2024 2023 12440 14352 14353 14345 12667 14579 14580 14572 12658 12665 14578 14571 14574 14581 12669 14582 14356 14583 14584 
1694 1695 1992 1991 1727 1728 2025 2024 12447 14359 14360 14352 12674 14586 14587 14579 12665 12672 14585 14578 14581 14588 12676 14589 14363 14590 14591 
1695 1696 1993 1992 1728 1729 2026 2025 12454 14366 14367 14359 12681 14593 14594 14586 12672 12679 14592 14585 14588 14595 12683 14596 14370 14597 14598 
1696 1697 1994 1993 1729 1730 2027 2026 12461 14373 14374 14366 12688 14600 14601 14593 12679 12686 14599 14592 14595 14602 12690 14603 14377 14604 14605 
1697 1698 1995 1994 1730 1731 2028 2027 12468 14380 14381 14373 12695 14607 14608 14600 12686 12693 14606 14599 14602 14609 12697 14610 14384 14611 14612 
1698 1699 1996 1995 1731 1732 2029 2028 12475 14387 14388 14380 12702 14614 14615 14607 12693 12700 14613 14606 14609 14616 12704 14617 14391 14618 14619 
1699 1700 1997 1996 1732 1733 2030 2029 12482 14394 14395 14387 12709 14621 14622 14614 12700 12707 14620 14613 14616 14623 12711 14624 14398 14625 14626 
1700 1701 1998 1997 1733 1734 2031 2030 12489 14401 14402 14394 12716 14628 14629 14621 12707 12714 14627 14620 14623 14630 12718 14631 14405 14632 14633 
1701 1702 1999 1998 1734 1735 2032 2031 12496 14408 14409 14401 12723 14635 14636 14628 12714 12721 14634 14627 14630 14637 12725 14638 14412 14639 14640 
1702 1703 2000 1999 1735 1736 2033 2032 12503 14415 14416 14408 12730 14642 14643 14635 12721 12728 14641 14634 14637 14644 12732 14645 14419 14646 14647 
1703 1704 2001 2000 1736 1737 2034 2033 12510 14422 14423 14415 12737 14649 14650 14642 12728 12735 14648 14641 14644 14651 12739 14652 14426 14653 14654 
1704 1705 2002 2001 1737 1738 2035 2034 12517 14429 14430 14422 12744 14656 14657 14649 12735 12742 14655 14648 14651 14658 12746 14659 14433 14660 14661 
1705 1706 2003 2002 1738 1739 2036 2035 12524 14436 14437 14429 12751 14663 14664 14656 12742 12749 14662 14655 14658 14665 12753 14666 14440 14667 14668 
1706 1707 2004 2003 1739 1740 2037 2036 12531 14443 14444 14436 12758 14670 14671 14663 12749 12756 14669 14662 14665 14672 12760 14673 14447 14674 14675 
1707 1708 2005 2004 1740 1741 2038 2037 12538 14450 14451 14443 12765 14677 14678 14670 12756 12763 14676 14669 14672 14679 12767 14680 14454 14681 14682 
1708 1709 2006 2005 1741 1742 2039 2038 12545 14457 14458 14450 12772 14684 14685 14677 12763 12770 14683 14676 14679 14686 12774 14687 14461 14688 14689 
1709 1710 2007 2006 1742 1743 2040 2039 12552 14464 14465 14457 12779 14691 14692 14684 12770 12777 14690 14683 14686 14693 12781 14694 14468 14695 14696 
1710 1711 2008 2007 1743 1744 2041 2040 12559 14471 14472 14464 12786 14698 14699 14691 12777 12784 14697 14690 14693 14700 12788 14701 14475 14702 14703 
1711 1712 2009 2008 1744 1745 2042 2041 12566 14478 14479 14471 12793 14705 14706 14698 12784 12791 14704 14697 14700 14707 12795 14708 14482 14709 14710 
1712 1713 2010 2009 1745 1746 2043 2042 12573 14485 14486 14478 12800 14712 14713 14705 12791 12798 14711 14704 14707 14714 12802 14715 14489 14716 14717 
1713 1714 2011 2010 1746 1747 2044 2043 12580 14492 14493 14485 12807 14719 14720 14712 12798 12805 14718 14711 14714 14721 12809 14722 14496 14723 14724 
1714 1715 2012 2011 1747 1748 2045 2044 12587 14499 14500 14492 12814 14726 14727 14719 12805 12812 14725 14718 14721 14728 12816 14729 14503 14730 14731 
1716 1717 2014 2013 1749 1750 2047 2046 12595 14507 14508 14509 12822 14734 14735 14736 12820 12819 14732 14733 14739 14737 12825 14738 14513 14740 14741 
1717 1718 2015 2014 1750 1751 2048 2047 12604 14516 14517 14507 12831 14743 14744 14734 12819 12829 14742 14732 14737 14745 12833 14746 14520 14747 14748 
1718 1719 2016 2015 1751 1752 2049 2048 12611 14523 14524 14516 12838 14750 14751 14743 12829 12836 14749 14742 14745 14752 12840 14753 14527 14754 14755 
1719 1720 2017 2016 1752 1753 2050 2049 12618 14530 14531 14523 12845 14757 14758 14750 12836 12843 14756 14749 14752 14759 12847 14760 14534 14761 14762 
1720 1721 2018 2017 1753 1754 2051 2050 12625 14537 14538 14530 12852 14764 14765 14757 12843 12850 14763 14756 14759 14766 12854 14767 14541 14768 14769 
1721 1722 2019 2018 1754 1755 2052 2051 12632 14544 14545 14537 12859 14771 14772 14764 12850 12857 14770 14763 14766 14773 12861 14774 14548 14775 14776 
1722 1723 2020 2019 1755 1756 2053 2052 12639 14551 14552 14544 12866 14778 14779 14771 12857 12864 14777 14770 14773 14780 12868 14781 14555 14782 14783 
1723 1724 2021 2020 1756 1757 2054 2053 12646 14558 14559 14551 12873 14785 14786 14778 12864 12871 14784 14777 14780 14787 12875 14788 14562 14789 14790 
1724 1725 2022 2021 1757 1758 2055 2054 12653 14565 14566 14558 12880 14792 14793 14785 12871 12878 14791 14784 14787 14794 12882 14795 14569 14796 14797 
1725 1726 2023 2022 1758 1759 2056 2055 12660 14572 14573 14565 12887 14799 14800 14792 12878 12885 14798 14791 14794 14801 12889 14802 14576 14803 14804 
1726 1727 2024 2023 1759 1760 2057 2056 12667 14579 14580 14572 12894 14806 14807 14799 12885 12892 14805 14798 14801 14808 12896 14809 14583 14810 14811 
1727 1728 2025 2024 1760 1761 2058 2057 12674 14586 14587 14579 12901 14813 14814 14806 12892 12899 14812 14805 14808 14815 12903 14816 14590 14817 14818 
1728 1729 2026 2025 1761 1762 2059 2058 12681 14593 14594 14586 12908 14820 14821 14813 12899 12906 14819 14812 14815 14822 12910 14823 14597 14824 14825 
1729 1730 2027 2026 1762 1763 2060 2059 12688 14600 14601 14593 12915 14827 14828 14820 12906 12913 14826 14819 14822 14829 12917 14830 14604 14831 14832 
1730 1731 2028 2027 1763 1764 2061 2060 12695 14607 14608 14600 12922 14834 14835 14827 12913 12920 14833 14826 14829 14836 12924 14837 14611 14838 14839 
1731 1732 2029 2028 1764 1765 2062 2061 12702 14614 14615 14607 12929 14841 14842 14834 12920 12927 14840 14833 14836 14843 12931 14844 14618 14845 14846 
1732 1733 2030 2029 1765 1766 2063 2062 12709 14621 14622 14614 12936 14848 14849 14841 12927 12934 14847 14840 14843 14850 12938 14851 14625 14852 14853 
1733 1734 2031 2030 1766 1767 2064 2063 12716 14628 14629 14621 12943 14855 14856 14848 12934 12941 14854 14847 14850 14857 12945 14858 14632 14859 14860 
1734 1735 2032 2031 1767 1768 2065 2064 12723 14635 14636 14628 12950 14862 14863 14855 12941 12948 14861 14854 14857 14864 12952 14865 14639 14866 14867 
1735 1736 2033 2032 1768 1769 2066 2065 12730 14642 14643 14635 12957 14869 14870 14862 12948 12955 14868 14861 14864 14871 12959 14872 14646 14873 14874 
1736 1737 2034 2033 1769 1770 2067 2066 12737 14649 14650 14642 12964 14876 14877 14869 12955 12962 14875 14868 14871 14878 12966 14879 14653 14880 14881 
1737 1738 2035 2034 1770 1771 2068 2067 12744 14656 14657 14649 12971 14883 14884 14876 12962 12969 14882 14875 14878 14885 12973 14886 14660 14887 14888 
1738 1739 2036 2035 1771 1772 2069 2068 12751 14663 14664 14656 12978 14890 14891 14883 12969 12976 14889 14882 14885 14892 12980 14893 14667 14894 14895 
1739 1740 2037 2036 1772 1773 2070 2069 12758 14670 14671 14663 12985 14897 14898 14890 12976 12983 14896 14889 14892 14899 12987 14900 14674 14901 14902 
1740 1741 2038 2037 1773 1774 2071 2070 12765 14677 14678 14670 12992 14904 14905 14897 12983 12990 14903 14896 14899 14906 12994 14907 14681 14908 14909 
1741 1742 2039 2038 1774 1775 2072 2071 12772 14684 14685 14677 12999 14911 14912 14904 12990 12997 14910 14903 14906 14913 13001 14914 14688 14915 14916 
1742 1743 2040 2039 1775 1776 2073 2072 12779 14691 14692 14684 13006 14918 14919 14911 12997 13004 14917 14910 14913 14920 13008 14921 14695 14922 14923 
1743 1744 2041 2040 1776 1777 2074 2073 12786 14698 14699 14691 13013 14925 14926 14918 13004 13011 14924 14917 14920 14927 13015 14928 14702 14929 14930 
1744 1745 2042 2041 1777 1778 2075 2074 12793 14705 14706 14698 13020 14932 14933 14925 13011 13018 14931 14924 14927 14934 13022 14935 14709 14936 14937 
1745 1746 2043 2042 1778 1779 2076 2075 12800 14712 14713 14705 13027 14939 14940 14932 13018 13025 14938 14931 14934 14941 13029 14942 14716 14943 14944 
1746 1747 2044 2043 1779 1780 2077 2076 12807 14719 14720 14712 13034 14946 14947 14939 13025 13032 14945 14938 14941 14948 13036 14949 14723 14950 14951 
1747 1748 2045 2044 1780 1781 2078 2077 12814 14726 14727 14719 13041 14953 14954 14946 13032 13039 14952 14945 14948 14955 13043 14956 14730 14957 14958 
1782 1783 2080 2079 1815 1816 2113 2112 13047 14959 14960 14961 13052 14964 14965 14966 13050 13049 14962 14963 14970 14968 13056 14969 14967 14971 14972 
1783 1784 2081 2080 1816 1817 2114 2113 13061 14973 14974 14959 13064 14976 14977 14964 13049 13062 14975 14962 14968 14979 13067 14980 14978 14981 14982 
1784 1785 2082 2081 1817 1818 2115 2114 13071 14983 14984 14973 13074 14986 14987 14976 13062 13072 14985 14975 14979 14989 13077 14990 14988 14991 14992 
1785 1786 2083 2082 1818 1819 2116 2115 13081 14993 14994 14983 13084 14996 14997 14986 13072 13082 14995 14985 14989 14999 13087 15000 14998 15001 15002 
1786 1787 2084 2083 1819 1820 2117 2116 13091 15003 15004 14993 13094 15006 15007 14996 13082 13092 15005 14995 14999 15009 13097 15010 15008 15011 15012 
1787 1788 2085 2084 1820 1821 2118 2117 13101 15013 15014 15003 13104 15016 15017 15006 13092 13102 15015 15005 15009 15019 13107 15020 15018 15021 15022 
1788 1789 2086 2085 1821 1822 2119 2118 13111 15023 15024 15013 13114 15026 15027 15016 13102 13112 15025 15015 15019 15029 13117 15030 15028 15031 15032 
1789 1790 2087 2086 1822 1823 2120 2119 13121 15033 15034 15023 13124 15036 15037 15026 13112 13122 15035 15025 15029 15039 13127 15040 15038 15041 15042 
1790 1791 2088 2087 1823 1824 2121 2120 13131 15043 15044 15033 13134 15046 15047 15036 13122 13132 15045 15035 15039 15049 13137 15050 15048 15051 15052 
1791 1792 2089 2088 1824 1825 2122 2121 13141 15053 15054 15043 13144 15056 15057 15046 13132 13142 15055 15045 15049 15059 13147 15060 15058 15061 15062 
1792 1793 2090 2089 1825 1826 2123 2122 13151 15063 15064 15053 13154 15066 15067 15056 13142 13152 15065 15055 15059 15069 13157 15070 15068 15071 15072 
1793 1794 2091 2090 1826 1827 2124 2123 13161 15073 15074 15063 13164 15076 15077 15066 13152 13162 15075 15065 15069 15079 13167 15080 15078 15081 15082 
1794 1795 2092 2091 1827 1828 2125 2124 13171 15083 15084 15073 13174 15086 15087 15076 13162 13172 15085 15075 15079 15089 13177 15090 15088 15091 15092 
1795 1796 2093 2092 1828 1829 2126 2125 13181 15093 15094 15083 13184 15096 15097 15086 13172 13182 15095 15085 15089 15099 13187 15100 15098 15101 15102 
1796 1797 2094 2093 1829 1830 2127 2126 13191 15103 15104 15093 13194 15106 15107 15096 13182 13192 15105 15095 15099 15109 13197 15110 15108 15111 15112 
1797 1798 2095 2094 1830 1831 2128 2127 13201 15113 15114 15103 13204 15116 15117 15106 13192 13202 15115 15105 15109 15119 13207 15120 15118 15121 15122 
1798 1799 2096 2095 1831 1832 2129 2128 13211 15123 15124 15113 13214 15126 15127 15116 13202 13212 15125 15115 15119 15129 13217 15130 15128 15131 15132 
1799 1800 2097 2096 1832 1833 2130 2129 13221 15133 15134 15123 13224 15136 15137 15126 13212 13222 15135 15125 15129 15139 13227 15140 15138 15141 15142 
1800 1801 2098 2097 1833 1834 2131 2130 13231 15143 15144 15133 13234 15146 15147 15136 13222 13232 15145 15135 15139 15149 13237 15150 15148 15151 15152 
1801 1802 2099 2098 1834 1835 2132 2131 13241 15153 15154 15143 13244 15156 15157 15146 13232 13242 15155 15145 15149 15159 13247 15160 15158 15161 15162 
1802 1803 2100 2099 1835 1836 2133 2132 13251 15163 15164 15153 13254 15166 15167 15156 13242 13252 15165 15155 15159 15169 13257 15170 15168 15171 15172 
1803 1804 2101 2100 1836 1837 2134 2133 13261 15173 15174 15163 13264 15176 15177 15166 13252 13262 15175 15165 15169 15179 13267 15180 15178 15181 15182 
1804 1805 2102 2101 1837 1838 2135 2134 13271 15183 15184 15173 13274 15186 15187 15176 13262 13272 15185 15175 15179 15189 13277 15190 15188 15191 15192 
1805 1806 2103 2102 1838 1839 2136 2135 13281 15193 15194 15183 13284 15196 15197 15186 13272 13282 15195 15185 15189 15199 13287 15200 15198 15201 15202 
1806 1807 2104 2103 1839 1840 2137 2136 13291 15203 15204 15193 13294 15206 15207 15196 13282 13292 15205 15195 15199 15209 13297 15210 15208 15211 15212 
1807 1808 2105 2104 1840 1841 2138 2137 13301 15213 15214 15203 13304 15216 15217 15206 13292 13302 15215 15205 15209 15219 13307 15220 15218 15221 15222 
1808 1809 2106 2105 1841 1842 2139 2138 13311 15223 15224 15213 13314 15226 15227 15216 13302 13312 15225 15215 15219 15229 13317 15230 15228 15231 15232 
1809 1810 2107 2106 1842 1843 2140 2139 13321 15233 15234 15223 13324 15236 15237 15226 13312 13322 15235 15225 15229 15239 13327 15240 15238 15241 15242 
1810 1811 2108 2107 1843 1844 2141 2140 13331 15243 15244 15233 13334 15246 15247 15236 13322 13332 15245 15235 15239 15249 13337 15250 15248 15251 15252 
1811 1812 2109 2108 1844 1845 2142 2141 13341 15253 15254 15243 13344 15256 15257 15246 13332 13342 15255 15245 15249 15259 13347 15260 15258 15261 15262 
1812 1813 2110 2109 1845 1846 2143 2142 13351 15263 15264 15253 13354 15266 15267 15256 13342 13352 15265 15255 15259 15269 13357 15270 15268 15271 15272 
1813 1814 2111 2110 1846 1847 2144 2143 13361 15273 15274 15263 13364 15276 15277 15266 13352 13362 15275 15265 15269 15279 13367 15280 15278 15281 15282 
1815 1816 2113 2112 1848 1849 2146 2145 13052 14964 14965 14966 13373 15285 15286 15287 13371 13370 15283 15284 15290 15288 13376 15289 14971 15291 15292 
1816 1817 2114 2113 1849 1850 2147 2146 13064 14976 14977 14964 13382 15294 15295 15285 13370 13380 15293 15283 15288 15296 13384 15297 14981 15298 15299 
1817 1818 2115 2114 1850 1851 2148 2147 13074 14986 14987 14976 13389 15301 15302 15294 13380 13387 15300 15293 15296 15303 13391 15304 14991 15305 15306 
1818 1819 2116 2115 1851 1852 2149 2148 13084 14996 14997 14986 13396 15308 15309 15301 13387 13394 15307 15300 15303 15310 13398 15311 15001 15312 15313 
1819 1820 2117 2116 1852 1853 2150 2149 13094 15006 15007 14996 13403 15315 15316 15308 13394 13401 15314 15307 15310 15317 13405 15318 15011 15319 15320 
1820 1821 2118 2117 1853 1854 2151 2150 13104 15016 15017 15006 13410 15322 15323 15315 13401 13408 15321 15314 15317 15324 13412 15325 15021 15326 15327 
1821 1822 2119 2118 1854 1855 2152 2151 13114 15026 15027 15016 13417 15329 15330 15322 13408 13415 15328 15321 15324 15331 13419 15332 15031 15333 15334 
1822 1823 2120 2119 1855 1856 2153 2152 13124 15036 15037 15026 13424 15336 15337 15329 13415 13422 15335 15328 15331 15338 13426 15339 15041 15340 15341 
1823 1824 2121 2120 1856 1857 2154 2153 13134 15046 15047 15036 13431 15343 15344 15336 13422 13429 15342 15335 15338 15345 13433 15346 15051 15347 15348 
1824 1825 2122 2121 1857 1858 2155 2154 13144 15056 15057 15046 13438 15350 15351 15343 13429 13436 15349 15342 15345 15352 13440 15353 15061 15354 15355 
1825 1826 2123 2122 1858 1859 2156 2155 13154 15066 15067 15056 13445 15357 15358 15350 13436 13443 15356 15349 15352 15359 13447 15360 15071 15361 15362 
1826 1827 2124 2123 1859 1860 2157 2156 13164 15076 15077 15066 13452 15364 15365 15357 13443 13450 15363 15356 15359 15366 13454 15367 15081 15368 15369 
1827 1828 2125 2124 1860 1861 2158 2157 13174 15086 15087 15076 13459 15371 15372 15364 13450 13457 15370 15363 15366 15373 13461 15374 15091 15375 15376 
1828 1829 2126 2125 1861 1862 2159 2158 13184 15096 15097 15086 13466 15378 15379 15371 13457 13464 15377 15370 15373 15380 13468 15381 15101 15382 15383 
1829 1830 2127 2126 1862 1863 2160 2159 13194 15106 15107 15096 13473 15385 15386 15378 13464 13471 15384 15377 15380 15387 13475 15388 15111 15389 15390 
1830 1831 2128 2127 1863 1864 2161 2160 13204 15116 15117 15106 13480 15392 15393 15385 13471 13478 15391 15384 15387 15394 13482 15395 15121 15396 15397 
1831 1832 2129 2128 1864 1865 2162 2161 13214 15126 15127 15116 13487 15399 15400 15392 13478 13485 15398 15391 15394 15401 13489 15402 15131 15403 15404 
1832 1833 2130 2129 1865 1866 2163 2162 13224 15136 15137 15126 13494 15406 15407 15399 13485 13492 15405 15398 15401 15408 13496 15409 15141 15410 15411 
1833 1834 2131 2130 1866 1867 2164 2163 13234 15146 15147 15136 13501 15413 15414 15406 13492 13499 15412 15405 15408 15415 13503 15416 15151 15417 15418 
1834 1835 2132 2131 1867 1868 2165 2164 13244 15156 15157 15146 13508 15420 15421 15413 13499 13506 15419 15412 15415 15422 13510 15423 15161 15424 15425 
1835 1836 2133 2132 1868 1869 2166 2165 13254 15166 15167 15156 13515 15427 15428 15420 13506 13513 15426 15419 15422 15429 13517 15430 15171 15431 15432 
1836 1837 2134 2133 1869 1870 2167 2166 13264 15176 15177 15166 13522 15434 15435 15427 13513 13520 15433 15426 15429 15436 13524 15437 15181 15438 15439 
1837 1838 2135 2134 1870 1871 2168 2167 13274 15186 15187 15176 13529 15441 15442 15434 13520 13527 15440 15433 15436 15443 13531 15444 15191 15445 15446 
1838 1839 2136 2135 1871 1872 2169 2168 13284 15196 15197 15186 13536 15448 15449 15441 13527 13534 15447 15440 15443 15450 13538 15451 15201 15452 15453 
1839 1840 2137 2136 1872 1873 2170 2169 13294 15206 15207 15196 13543 15455 15456 15448 13534 13541 15454 15447 15450 15457 13545 15458 15211 15459 15460 
1840 1841 2138 2137 1873 1874 2171 2170 13304 15216 15217 15206 13550 15462 15463 15455 13541 13548 15461 15454 15457 15464 13552 15465 15221 15466 15467 
1841 1842 2139 2138 1874 1875 2172 2171 13314 15226 15227 15216 13557 15469 15470 15462 13548 13555 15468 15461 15464 15471 13559 15472 15231 15473 15474 
1842 1843 2140 2139 1875 1876 2173 2172 13324 15236 15237 15226 13564 15476 15477 15469 13555 13562 15475 15468 15471 15478 13566 15479 15241 15480 15481 
1843 1844 2141 2140 1876 1877 2174 2173 13334 15246 15247 15236 13571 15483 15484 15476 13562 13569 15482 15475 15478 15485 13573 15486 15251 15487 15488 
1844 1845 2142 2141 1877 1878 2175 2174 13344 15256 15257 15246 13578 15490 15491 15483 13569 13576 15489 15482 15485 15492 13580 15493 15261 15494 15495 
1845 1846 2143 2142 1878 1879 2176 2175 13354 15266 15267 15256 13585 15497 15498 15490 13576 13583 15496 15489 15492 15499 13587 15500 15271 15501 15502 
1846 1847 2144 2143 1879 1880 2177 2176 13364 15276 15277 15266 13592 15504 15505 15497 13583 13590 15503 15496 15499 15506 13594 15507 15281 15508 15509 
1848 1849 2146 2145 1881 1882 2179 2178 13373 15285 15286 15287 13600 15512 15513 15514 13598 13597 15510 15511 15517 15515 13603 15516 15291 15518 15519 
1849 1850 2147 2146 1882 1883 2180 2179 13382 15294 15295 15285 13609 15521 15522 15512 13597 13607 15520 15510 15515 15523 13611 15524 15298 15525 15526 
1850 1851 2148 2147 1883 1884 2181 2180 13389 15301 15302 15294 13616 15528 15529 15521 13607 13614 15527 15520 15523 15530 13618 15531 15305 15532 15533 
1851 1852 2149 2148 1884 1885 2182 2181 13396 15308 15309 15301 13623 15535 15536 15528 13614 13621 15534 15527 15530 15537 13625 15538 15312 15539 15540 
1852 1853 2150 2149 1885 1886 2183 2182 13403 15315 15316 15308 13630 15542 15543 15535 13621 13628 15541 15534 15537 15544 13632 15545 15319 15546 15547 
1853 1854 2151 2150 1886 1887 2184 2183 13410 15322 15323 15315 13637 15549 15550 15542 13628 13635 15548 15541 15544 15551 13639 15552 15326 15553 15554 
1854 1855 2152 2151 1887 1888 2185 2184 13417 15329 15330 15322 13644 15556 15557 15549 13635 13642 15555 15548 15551 15558 13646 15559 15333 15560 15561 
1855 1856 2153 2152 1888 1889 2186 2185 13424 15336 15337 15329 13651 15563 15564 15556 13642 13649 15562 15555 15558 15565 13653 15566 15340 15567 15568 
1856 1857 2154 2153 1889 1890 2187 2186 13431 15343 15344 15336 13658 15570 15571 15563 13649 13656 15569 15562 15565 15572 13660 15573 15347 15574 15575 
1857 1858 2155 2154 1890 1891 2188 2187 13438 15350 15351 15343 13665 15577 15578 15570 13656 13663 15576 15569 15572 15579 13667 15580 15354 15581 15582 
1858 1859 2156 2155 1891 1892 2189 2188 13445 15357 15358 15350 13672 15584 15585 15577 13663 13670 15583 15576 15579 15586 13674 15587 15361 15588 15589 
1859 1860 2157 2156 1892 1893 2190 2189 13452 15364 15365 15357 13679 15591 15592 15584 13670 13677 15590 15583 15586 15593 13681 15594 15368 15595 15596 
1860 1861 2158 2157 1893 1894 2191 2190 13459 15371 15372 15364 13686 15598 15599 15591 13677 13684 15597 15590 15593 15600 13688 15601 15375 15602 15603 
1861 1862 2159 2158 1894 1895 2192 2191 13466 15378 15379 15371 13693 15605 15606 15598 13684 13691 15604 15597 15600 15607 13695 15608 15382 15609 15610 
1862 1863 2160 2159 1895 1896 2193 2192 13473 15385 15386 15378 13700 15612 15613 15605 13691 13698 15611 15604 15607 15614 13702 15615 15389 15616 15617 
1863 1864 2161 2160 1896 1897 2194 2193 13480 15392 15393 15385 13707 15619 15620 15612 13698 13705 15618 15611 15614 15621 13709 15622 15396 15623 15624 
1864 1865 2162 2161 1897 1898 2195 2194 13487 15399 15400 15392 13714 15626 15627 15619 13705 13712 15625 15618 15621 15628 13716 15629 15403 15630 15631 
1865 1866 2163 2162 1898 1899 2196 2195 13494 15406 15407 15399 13721 15633 15634 15626 13712 13719 15632 15625 15628 15635 13723 15636 15410 15637 15638 
1866 1867 2164 2163 1899 1900 2197 2196 13501 15413 15414 15406 13728 15640 15641 15633 13719 13726 15639 15632 15635 15642 13730 15643 15417 15644 15645 
1867 1868 2165 2164 1900 1901 2198 2197 13508 15420 15421 15413 13735 15647 15648 15640 13726 13733 15646 15639 15642 15649 13737 15650 15424 15651 15652 
1868 1869 2166 2165 1901 1902 2199 2198 13515 15427 15428 15420 13742 15654 15655 15647 13733 13740 15653 15646 15649 15656 13744 15657 15431 15658 15659 
1869 1870 2167 2166 1902 1903 2200 2199 13522 15434 15435 15427 13749 15661 15662 15654 13740 13747 15660 15653 15656 15663 13751 15664 15438 15665 15666 
1870 1871 2168 2167 1903 1904 2201 2200 13529 15441 15442 15434 13756 15668 15669 15661 13747 13754 15667 15660 15663 15670 13758 15671 15445 15672 15673 
1871 1872 2169 2168 1904 1905 2202 2201 13536 15448 15449 15441 13763 15675 15676 15668 13754 13761 15674 15667 15670 15677 13765 15678 15452 15679 15680 
1872 1873 2170 2169 1905 1906 2203 2202 13543 15455 15456 15448 13770 15682 15683 15675 13761 13768 15681 15674 15677 15684 13772 15685 15459 15686 15687 
1873 1874 2171 2170 1906 1907 2204 2203 13550 15462 15463 15455 13777 15689 15690 15682 13768 13775 15688 15681 15684 15691 13779 15692 15466 15693 15694 
1874 1875 2172 2171 1907 1908 2205 2204 13557 15469 15470 15462 13784 15696 15697 15689 13775 13782 15695 15688 15691 15698 13786 15699 15473 15700 15701 
1875 1876 2173 2172 1908 1909 2206 2205 13564 15476 15477 15469 13791 15703 15704 15696 13782 13789 15702 15695 15698 15705 13793 15706 15480 15707 15708 
1876 1877 2174 2173 1909 1910 2207 2206 13571 15483 15484 15476 13798 15710 15711 15703 13789 13796 15709 15702 15705 15712 13800 15713 15487 15714 15715 
1877 1878 2175 2174 1910 1911 2208 2207 13578 15490 15491 15483 13805 15717 15718 15710 13796 13803 15716 15709 15712 15719 13807 15720 15494 15721 15722 
1878 1879 2176 2175 1911 1912 2209 2208 13585 15497 15498 15490 13812 15724 15725 15717 13803 13810 15723 15716 15719 15726 13814 15727 15501 15728 15729 
1879 1880 2177 2176 1912 1913 2210 2209 13592 15504 15505 15497 13819 15731 15732 15724 13810 13817 15730 15723 15726 15733 13821 15734 15508 15735 15736 
1881 1882 2179 2178 1914 1915 2212 2211 13600 15512 15513 15514 13827 15739 15740 15741 13825 13824 15737 15738 15744 15742 13830 15743 15518 15745 15746 
1882 1883 2180 2179 1915 1916 2213 2212 13609 15521 15522 15512 13836 15748 15749 15739 13824 13834 15747 15737 15742 15750 13838 15751 15525 15752 15753 
1883 1884 2181 2180 1916 1917 2214 2213 13616 15528 15529 15521 13843 15755 15756 15748 13834 13841 15754 15747 15750 15757 13845 15758 15532 15759 15760 
1884 1885 2182 2181 1917 1918 2215 2214 13623 15535 15536 15528 13850 15762 15763 15755 13841 13848 15761 15754 15757 15764 13852 15765 15539 15766 15767 
1885 1886 2183 2182 1918 1919 2216 2215 13630 15542 15543 15535 13857 15769 15770 15762 13848 13855 15768 15761 15764 15771 13859 15772 15546 15773 15774 
1886 1887 2184 2183 1919 1920 2217 2216 13637 15549 15550 15542 13864 15776 15777 15769 13855 13862 15775 15768 15771 15778 13866 15779 15553 15780 15781 
1887 1888 2185 2184 1920 1921 2218 2217 13644 15556 15557 15549 13871 15783 15784 15776 13862 13869 15782 15775 15778 15785 13873 15786 15560 15787 15788 
1888 1889 2186 2185 1921 1922 2219 2218 13651 15563 15564 15556 13878 15790 15791 15783 13869 13876 15789 15782 15785 15792 13880 15793 15567 15794 15795 
1889 1890 2187 2186 1922 1923 2220 2219 13658 15570 15571 15563 13885 15797 15798 15790 13876 13883 15796 15789 15792 15799 13887 15800 15574 15801 15802 
1890 1891 2188 2187 1923 1924 2221 2220 13665 15577 15578 15570 13892 15804 15805 15797 13883 13890 15803 15796 15799 15806 13894 15807 15581 15808 15809 
1891 1892 2189 2188 1924 1925 2222 2221 13672 15584 15585 15577 13899 15811 15812 15804 13890 13897 15810 15803 15806 15813 13901 15814 15588 15815 15816 
1892 1893 2190 2189 1925 1926 2223 2222 13679 15591 15592 15584 13906 15818 15819 15811 13897 13904 15817 15810 15813 15820 13908 15821 15595 15822 15823 
1893 1894 2191 2190 1926 1927 2224 2223 13686 15598 15599 15591 13913 15825 15826 15818 13904 13911 15824 15817 15820 15827 13915 15828 15602 15829 15830 
1894 1895 2192 2191 1927 1928 2225 2224 13693 15605 15606 15598 13920 15832 15833 15825 13911 13918 15831 15824 15827 15834 13922 15835 15609 15836 15837 
1895 1896 2193 2192 1928 1929 2226 2225 13700 15612 15613 15605 13927 15839 15840 15832 13918 13925 15838 15831 15834 15841 13929 15842 15616 15843 15844 
1896 1897 2194 2193 1929 1930 2227 2226 13707 15619 15620 15612 13934 15846 15847 15839 13925 13932 15845 15838 15841 15848 13936 15849 15623 15850 15851 
1897 1898 2195 2194 1930 1931 2228 2227 13714 15626 15627 15619 13941 15853 15854 15846 13932 13939 15852 15845 15848 15855 13943 15856 15630 15857 15858 
1898 1899 2196 2195 1931 1932 2229 2228 13721 15633 15634 15626 13948 15860 15861 15853 13939 13946 15859 15852 15855 15862 13950 15863 15637 15864 15865 
1899 1900 2197 2196 1932 1933 2230 2229 13728 15640 15641 15633 13955 15867 15868 15860 13946 13953 15866 15859 15862 15869 13957 15870 15644 15871 15872 
1900 1901 2198 2197 1933 1934 2231 2230 13735 15647 15648 15640 13962 15874 15875 15867 13953 13960 15873 15866 15869 15876 13964 15877 15651 15878 15879 
1901 1902 2199 2198 1934 1935 2232 2231 13742 15654 15655 15647 13969 15881 15882 15874 13960 13967 15880 15873 15876 15883 13971 15884 15658 15885 15886 
1902 1903 2200 2199 1935 1936 2233 2232 13749 15661 15662 15654 13976 15888 15889 15881 13967 13974 15887 15880 15883 15890 13978 15891 15665 15892 15893 
1903 1904 2201 2200 1936 1937 2234 2233 13756 15668 15669 15661 13983 15895 15896 15888 13974 13981 15894 15887 15890 15897 13985 15898 15672 15899 15900 
1904 1905 2202 2201 1937 1938 2235 2234 13763 15675 15676 15668 13990 15902 15903 15895 13981 13988 15901 15894 15897 15904 13992 15905 15679 15906 15907 
1905 1906 2203 2202 1938 1939 2236 2235 13770 15682 15683 15675 13997 15909 15910 15902 13988 13995 15908 15901 15904 15911 13999 15912 15686 15913 15914 
1906 1907 2204 2203 1939 1940 2237 2236 13777 15689 15690 15682 14004 15916 15917 15909 13995 14002 15915 15908 15911 15918 14006 15919 15693 15920 15921 
1907 1908 2205 2204 1940 1941 2238 2237 13784 15696 15697 15689 14011 15923 15924 15916 14002 14009 15922 15915 15918 15925 14013 15926 15700 15927 15928 
1908 1909 2206 2205 1941 1942 2239 2238 13791 15703 15704 15696 14018 15930 15931 15923 14009 14016 15929 15922 15925 15932 14020 15933 15707 15934 15935 
1909 1910 2207 2206 1942 1943 2240 2239 13798 15710 15711 15703 14025 15937 15938 15930 14016 14023 15936 15929 15932 15939 14027 15940 15714 15941 15942 
1910 1911 2208 2207 1943 1944 2241 2240 13805 15717 15718 15710 14032 15944 15945 15937 14023 14030 15943 15936 15939 15946 14034 15947 15721 15948 15949 
1911 1912 2209 2208 1944 1945 2242 2241 13812 15724 15725 15717 14039 15951 15952 15944 14030 14037 15950 15943 15946 15953 14041 15954 15728 15955 15956 
1912 1913 2210 2209 1945 1946 2243 2242 13819 15731 15732 15724 14046 15958 15959 15951 14037 14044 15957 15950 15953 15960 14048 15961 15735 15962 15963 
1914 1915 2212 2211 1947 1948 2245 2244 13827 15739 15740 15741 14054 15966 15967 15968 14052 14051 15964 15965 15971 15969 14057 15970 15745 15972 15973 
1915 1916 2213 2212 1948 1949 2246 2245 13836 15748 15749 15739 14063 15975 15976 15966 14051 14061 15974 15964 15969 15977 14065 15978 15752 15979 15980 
1916 1917 2214 2213 1949 1950 2247 2246 13843 15755 15756 15748 14070 15982 15983 15975 14061 14068 15981 15974 15977 15984 14072 15985 15759 15986 15987 
1917 1918 2215 2214 1950 1951 2248 2247 13850 15762 15763 15755 14077 15989 15990 15982 14068 14075 15988 15981 15984 15991 14079 15992 15766 15993 15994 
1918 1919 2216 2215 1951 1952 2249 2248 13857 15769 15770 15762 14084 15996 15997 15989 14075 14082 15995 15988 15991 15998 14086 15999 15773 16000 16001 
1919 1920 2217 2216 1952 1953 2250 2249 13864 15776 15777 15769 14091 16003 16004 15996 14082 14089 16002 15995 15998 16005 14093 16006 15780 16007 16008 
1920 1921 2218 2217 1953 1954 2251 2250 13871 15783 15784 15776 14098 16010 16011 16003 14089 14096 16009 16002 16005 16012 14100 16013 15787 16014 16015 
1921 1922 2219 2218 1954 1955 2252 2251 13878 15790 15791 15783 14105 16017 16018 16010 14096 14103 16016 16009 16012 16019 14107 16020 15794 16021 16022 
1922 1923 2220 2219 1955 1956 2253 2252 13885 15797 15798 15790 14112 16024 16025 16017 14103 14110 16023 16016 16019 16026 14114 16027 15801 16028 16029 
1923 1924 2221 2220 1956 1957 2254 2253 13892 15804 15805 15797 14119 16031 16032 16024 14110 14117 16030 16023 16026 16033 14121 16034 15808 16035 16036 
1924 1925 2222 2221 1957 1958 2255 2254 13899 15811 15812 15804 14126 16038 16039 16031 14117 14124 16037 16030 16033 16040 14128 16041 15815 16042 16043 
1925 1926 2223 2222 1958 1959 2256 2255 13906 15818 15819 15811 14133 16045 16046 16038 14124 14131 16044 16037 16040 16047 14135 16048 15822 16049 16050 
1926 1927 2224 2223 1959 1960 2257 2256 13913 15825 15826 15818 14140 16052 16053 16045 14131 14138 16051 16044 16047 16054 14142 16055 15829 16056 16057 
1927 1928 2225 2224 1960 1961 2258 2257 13920 15832 15833 15825 14147 16059 16060 16052 14138 14145 16058 16051 16054 16061 14149 16062 15836 16063 16064 
1928 1929 2226 2225 1961 1962 2259 2258 13927 15839 15840 15832 14154 16066 16067 16059 14145 14152 16065 16058 16061 16068 14156 16069 15843 16070 16071 
1929 1930 2227 2226 1962 1963 2260 2259 13934 15846 15847 15839 14161 16073 16074 16066 14152 14159 16072 16065 16068 16075 14163 16076 15850 16077 16078 
1930 1931 2228 2227 1963 1964 2261 2260 13941 15853 15854 15846 14168 16080 16081 16073 14159 14166 16079 16072 16075 16082 14170 16083 15857 16084 16085 
1931 1932 2229 2228 1964 1965 2262 2261 13948 15860 15861 15853 14175 16087 16088 16080 14166 14173 16086 16079 16082 16089 14177 16090 15864 16091 16092 
1932 1933 2230 2229 1965 1966 2263 2262 13955 15867 15868 15860 14182 16094 16095 16087 14173 14180 16093 16086 16089 16096 14184 16097 15871 16098 16099 
1933 1934 2231 2230 1966 1967 2264 2263 13962 15874 15875 15867 14189 16101 16102 16094 14180 14187 16100 16093 16096 16103 14191 16104 15878 16105 16106 
1934 1935 2232 2231 1967 1968 2265 2264 13969 15881 15882 15874 14196 16108 16109 16101 14187 14194 16107 16100 16103 16110 14198 16111 15885 16112 16113 
1935 1936 2233 2232 1968 1969 2266 2265 13976 15888 15889 15881 14203 16115 16116 16108 14194 14201 16114 16107 16110 16117 14205 16118 15892 16119 16120 
1936 1937 2234 2233 1969 1970 2267 2266 13983 15895 15896 15888 14210 16122 16123 16115 14201 14208 16121 16114 16117 16124 14212 16125 15899 16126 16127 
1937 1938 2235 2234 1970 1971 2268 2267 13990 15902 15903 15895 14217 16129 16130 16122 14208 14215 16128 16121 16124 16131 14219 16132 15906 16133 16134 
1938 1939 2236 2235 1971 1972 2269 2268 13997 15909 15910 15902 14224 16136 16137 16129 14215 14222 16135 16128 16131 16138 14226 16139 15913 16140 16141 
1939 1940 2237 2236 1972 1973 2270 2269 14004 15916 15917 15909 14231 16143 16144 16136 14222 14229 16142 16135 16138 16145 14233 16146 15920 16147 16148 
1940 1941 2238 2237 1973 1974 2271 2270 14011 15923 15924 15916 14238 16150 16151 16143 14229 14236 16149 16142 16145 16152 14240 16153 15927 16154 16155 
1941 1942 2239 2238 1974 1975 2272 2271 14018 15930 15931 15923 14245 16157 16158 16150 14236 14243 16156 16149 16152 16159 14247 16160 15934 16161 16162 
1942 1943 2240 2239 1975 1976 2273 2272 14025 15937 15938 15930 14252 16164 16165 16157 14243 14250 16163 16156 16159 16166 14254 16167 15941 16168 16169 
1943 1944 2241 2240 1976 1977 2274 2273 14032 15944 15945 15937 14259 16171 16172 16164 14250 14257 16170 16163 16166 16173 14261 16174 15948 16175 16176 
1944 1945 2242 2241 1977 1978 2275 2274 14039 15951 15952 15944 14266 16178 16179 16171 14257 14264 16177 16170 16173 16180 14268 16181 15955 16182 16183 
1945 1946 2243 2242 1978 1979 2276 2275 14046 15958 15959 15951 14273 16185 16186 16178 14264 14271 16184 16177 16180 16187 14275 16188 15962 16189 16190 
1947 1948 2245 2244 1980 1981 2278 2277 14054 15966 15967 15968 14281 16193 16194 16195 14279 14278 16191 16192 16198 16196 14284 16197 15972 16199 16200 
1948 1949 2246 2245 1981 1982 2279 2278 14063 15975 15976 15966 14290 16202 16203 16193 14278 14288 16201 16191 16196 16204 14292 16205 15979 16206 16207 
1949 1950 2247 2246 1982 1983 2280 2279 14070 15982 15983 15975 14297 16209 16210 16202 14288 14295 16208 16201 16204 16211 14299 16212 15986 16213 16214 
1950 1951 2248 2247 1983 1984 2281 2280 14077 15989 15990 15982 14304 16216 16217 16209 14295 14302 16215 16208 16211 16218 14306 16219 15993 16220 16221 
1951 1952 2249 2248 1984 1985 2282 2281 14084 15996 15997 15989 14311 16223 16224 16216 14302 14309 16222 16215 16218 16225 14313 16226 16000 16227 16228 
1952 1953 2250 2249 1985 1986 2283 2282 14091 16003 16004 15996 14318 16230 16231 16223 14309 14316 16229 16222 16225 16232 14320 16233 16007 16234 16235 
1953 1954 2251 2250 1986 1987 2284 2283 14098 16010 16011 16003 14325 16237 16238 16230 14316 14323 16236 16229 16232 16239 14327 16240 16014 16241 16242 
1954 1955 2252 2251 1987 1988 2285 2284 14105 16017 16018 16010 14332 16244 16245 16237 14323 14330 16243 16236 16239 16246 14334 16247 16021 16248 16249 
1955 1956 2253 2252 1988 1989 2286 2285 14112 16024 16025 16017 14339 16251 16252 16244 14330 14337 16250 16243 16246 16253 14341 16254 16028 16255 16256 
1956 1957 2254 2253 1989 1990 2287 2286 14119 16031 16032 16024 14346 16258 16259 16251 14337 14344 16257 16250 16253 16260 14348 16261 16035 16262 16263 
1957 1958 2255 2254 1990 1991 2288 2287 14126 16038 16039 16031 14353 16265 16266 16258 14344 14351 16264 16257 16260 16267 14355 16268 16042 16269 16270 
1958 1959 2256 2255 1991 1992 2289 2288 14133 16045 16046 16038 14360 16272 16273 16265 14351 14358 16271 16264 16267 16274 14362 16275 16049 16276 16277 
1959 1960 2257 2256 1992 1993 2290 2289 14140 16052 16053 16045 14367 16279 16280 16272 14358 14365 16278 16271 16274 16281 14369 16282 16056 16283 16284 
1960 1961 2258 2257 1993 1994 2291 2290 14147 16059 16060 16052 14374 16286 16287 16279 14365 14372 16285 16278 16281 16288 14376 16289 16063 16290 16291 
1961 1962 2259 2258 1994 1995 2292 2291 14154 16066 16067 16059 14381 16293 16294 16286 14372 14379 16292 16285 16288 16295 14383 16296 16070 16297 16298 
1962 1963 2260 2259 1995 1996 2293 2292 14161 16073 16074 16066 14388 16300 16301 16293 14379 14386 16299 16292 16295 16302 14390 16303 16077 16304 16305 
1963 1964 2261 2260 1996 1997 2294 2293 14168 16080 16081 16073 14395 16307 16308 16300 14386 14393 16306 16299 16302 16309 14397 16310 16084 16311 16312 
1964 1965 2262 2261 1997 1998 2295 2294 14175 16087 16088 16080 14402 16314 16315 16307 14393 14400 16313 16306 16309 16316 14404 16317 16091 16318 16319 
1965 1966 2263 2262 1998 1999 2296 2295 14182 16094 16095 16087 14409 16321 16322 16314 14400 14407 16320 16313 16316 16323 14411 16324 16098 16325 16326 
1966 1967 2264 2263 1999 2000 2297 2296 14189 16101 16102 16094 14416 16328 16329 16321 14407 14414 16327 16320 16323 16330 14418 16331 16105 16332 16333 
1967 1968 2265 2264 2000 2001 2298 2297 14196 16108 16109 16101 14423 16335 16336 16328 14414 14421 16334 16327 16330 16337 14425 16338 16112 16339 16340 
1968 1969 2266 2265 2001 2002 2299 2298 14203 16115 16116 16108 14430 16342 16343 16335 14421 14428 16341 16334 16337 16344 14432 16345 16119 16346 16347 
1969 1970 2267 2266 2002 2003 2300 2299 14210 16122 16123 16115 14437 16349 16350 16342 14428 14435 16348 16341 16344 16351 14439 16352 16126 16353 16354 
1970 1971 2268 2267 2003 2004 2301 2300 14217 16129 16130 16122 14444 16356 16357 16349 14435 14442 16355 16348 16351 16358 14446 16359 16133 16360 16361 
1971 1972 2269 2268 2004 2005 2302 2301 14224 16136 16137 16129 14451 16363 16364 16356 14442 14449 16362 16355 16358 16365 14453 16366 16140 16367 16368 
1972 1973 2270 2269 2005 2006 2303 2302 14231 16143 16144 16136 14458 16370 16371 16363 14449 14456 16369 16362 16365 16372 14460 16373 16147 16374 16375 
1973 1974 2271 2270 2006 2007 2304 2303 14238 16150 16151 16143 14465 16377 16378 16370 14456 14463 16376 16369 16372 16379 14467 16380 16154 16381 16382 
1974 1975 2272 2271 2007 2008 2305 2304 14245 16157 16158 16150 14472 16384 16385 16377 14463 14470 16383 16376 16379 16386 14474 16387 16161 16388 16389 
1975 1976 2273 2272 2008 2009 2306 2305 14252 16164 16165 16157 14479 16391 16392 16384 14470 14477 16390 16383 16386 16393 14481 16394 16168 16395 16396 
1976 1977 2274 2273 2009 2010 2307 2306 14259 16171 16172 16164 14486 16398 16399 16391 14477 14484 16397 16390 16393 16400 14488 16401 16175 16402 16403 
1977 1978 2275 2274 2010 2011 2308 2307 14266 16178 16179 16171 14493 16405 16406 16398 14484 14491 16404 16397 16400 16407 14495 16408 16182 16409 16410 
1978 1979 2276 2275 2011 2012 2309 2308 14273 16185 16186 16178 14500 16412 16413 16405 14491 14498 16411 16404 16407 16414 14502 16415 16189 16416 16417 
1980 1981 2278 2277 2013 2014 2311 2310 14281 16193 16194 16195 14508 16420 16421 16422 14506 14505 16418 16419 16425 16423 14511 16424 16199 16426 16427 
1981 1982 2279 2278 2014 2015 2312 2311 14290 16202 16203 16193 14517 16429 16430 16420 14505 14515 16428 16418 16423 16431 14519 16432 16206 16433 16434 
1982 1983 2280 2279 2015 2016 2313 2312 14297 16209 16210 16202 14524 16436 16437 16429 14515 14522 16435 16428 16431 16438 14526 16439 16213 16440 16441 
1983 1984 2281 2280 2016 2017 2314 2313 14304 16216 16217 16209 14531 16443 16444 16436 14522 14529 16442 16435 16438 16445 14533 16446 16220 16447 16448 
1984 1985 2282 2281 2017 2018 2315 2314 14311 16223 16224 16216 14538 16450 16451 16443 14529 14536 16449 16442 16445 16452 14540 16453 16227 16454 16455 
1985 1986 2283 2282 2018 2019 2316 2315 14318 16230 16231 16223 14545 16457 16458 16450 14536 14543 16456 16449 16452 16459 14547 16460 16234 16461 16462 
1986 1987 2284 2283 2019 2020 2317 2316 14325 16237 16238 16230 14552 16464 16465 16457 14543 14550 16463 16456 16459 16466 14554 16467 16241 16468 16469 
1987 1988 2285 2284 2020 2021 2318 2317 14332 16244 16245 16237 14559 16471 16472 16464 14550 14557 16470 16463 16466 16473 14561 16474 16248 16475 16476 
1988 1989 2286 2285 2021 2022 2319 2318 14339 16251 16252 16244 14566 16478 16479 16471 14557 14564 16477 16470 16473 16480 14568 16481 16255 16482 16483 
1989 1990 2287 2286 2022 2023 2320 2319 14346 16258 16259 16251 14573 16485 16486 16478 14564 14571 16484 16477 16480 16487 14575 16488 16262 16489 16490 
1990 1991 2288 2287 2023 2024 2321 2320 14353 16265 16266 16258 14580 16492 16493 16485 14571 14578 16491 16484 16487 16494 14582 16495 16269 16496 16497 
1991 1992 2289 2288 2024 2025 2322 2321 14360 16272 16273 16265 14587 16499 16500 16492 14578 14585 16498 16491 16494 16501 14589 16502 16276 16503 16504 
1992 1993 2290 2289 2025 2026 2323 2322 14367 16279 16280 16272 14594 16506 16507 16499 14585 14592 16505 16498 16501 16508 14596 16509 16283 16510 16511 
1993 1994 2291 2290 2026 2027 2324 2323 14374 16286 16287 16279 14601 16513 16514 16506 14592 14599 16512 16505 16508 16515 14603 16516 16290 16517 16518 
1994 1995 2292 2291 2027 2028 2325 2324 14381 16293 16294 16286 14608 16520 16521 16513 14599 14606 16519 16512 16515 16522 14610 16523 16297 16524 16525 
1995 1996 2293 2292 2028 2029 2326 2325 14388 16300 16301 16293 14615 16527 16528 16520 14606 14613 16526 16519 16522 16529 14617 16530 16304 16531 16532 
1996 1997 2294 2293 2029 2030 2327 2326 14395 16307 16308 16300 14622 16534 16535 16527 14613 14620 16533 16526 16529 16536 14624 16537 16311 16538 16539 
1997 1998 2295 2294 2030 2031 2328 2327 14402 16314 16315 16307 14629 16541 16542 16534 14620 14627 16540 16533 16536 16543 14631 16544 16318 16545 16546 
1998 1999 2296 2295 2031 2032 2329 2328 14409 16321 16322 16314 14636 16548 16549 16541 14627 14634 16547 16540 16543 16550 14638 16551 16325 16552 16553 
1999 2000 2297 2296 2032 2033 2330 2329 14416 16328 16329 16321 14643 16555 16556 16548 14634 14641 16554 16547 16550 16557 14645 16558 16332 16559 16560 
2000 2001 2298 2297 2033 2034 2331 2330 14423 16335 16336 16328 14650 16562 16563 16555 14641 14648 16561 16554 16557 16564 14652 16565 16339 16566 16567 
2001 2002 2299 2298 2034 2035 2332 2331 14430 16342 16343 16335 14657 16569 16570 16562 14648 14655 16568 16561 16564 16571 14659 16572 16346 16573 16574 
2002 2003 2300 2299 2035 2036 2333 2332 14437 16349 16350 16342 14664 16576 16577 16569 14655 14662 16575 16568 16571 16578 14666 16579 16353 16580 16581 
2003 2004 2301 2300 2036 2037 2334 2333 14444 16356 16357 16349 14671 16583 16584 16576 14662 14669 16582 16575 16578 16585 14673 16586 16360 16587 16588 
2004 2005 2302 2301 2037 2038 2335 2334 14451 16363 16364 16356 14678 16590 16591 16583 14669 14676 16589 16582 16585 16592 14680 16593 16367 16594 16595 
2005 2006 2303 2302 2038 2039 2336 2335 14458 16370 16371 16363 14685 16597 16598 16590 14676 14683 16596 16589 16592 16599 14687 16600 16374 16601 16602 
2006 2007 2304 2303 2039 2040 2337 2336 14465 16377 16378 16370 14692 16604 16605 16597 14683 14690 16603 16596 16599 16606 14694 16607 16381 16608 16609 
2007 2008 2305 2304 2040 2041 2338 2337 14472 16384 16385 16377 14699 16611 16612 16604 14690 14697 16610 16603 16606 16613 14701 16614 16388 16615 16616 
2008 2009 2306 2305 2041 2042 2339 2338 14479 16391 16392 16384 14706 16618 16619 16611 14697 14704 16617 16610 16613 16620 14708 16621 16395 16622 16623 
2009 2010 2307 2306 2042 2043 2340 2339 14486 16398 16399 16391 14713 16625 16626 16618 14704 14711 16624 16617 16620 16627 14715 16628 16402 16629 16630 
2010 2011 2308 2307 2043 2044 2341 2340 14493 16405 16406 16398 14720 16632 16633 16625 14711 14718 16631 16624 16627 16634 14722 16635 16409 16636 16637 
2011 2012 2309 2308 2044 2045 2342 2341 14500 16412 16413 16405 14727 16639 16640 16632 14718 14725 16638 16631 16634 16641 14729 16642 16416 16643 16644 
2013 2014 2311 2310 2046 2047 2344 2343 14508 16420 16421 16422 14735 16647 16648 16649 14733 14732 16645 16646 16652 16650 14738 16651 16426 16653 16654 
2014 2015 2312 2311 2047 2048 2345 2344 14517 16429 16430 16420 14744 16656 16657 16647 14732 14742 16655 16645 16650 16658 14746 16659 16433 16660 16661 
2015 2016 2313 2312 2048 2049 2346 2345 14524 16436 16437 16429 14751 16663 16664 16656 14742 14749 16662 16655 16658 16665 14753 16666 16440 16667 16668 
2016 2017 2314 2313 2049 2050 2347 2346 14531 16443 16444 16436 14758 16670 16671 16663 14749 14756 16669 16662 16665 16672 14760 16673 16447 16674 16675 
2017 2018 2315 2314 2050 2051 2348 2347 14538 16450 16451 16443 14765 16677 16678 16670 14756 14763 16676 16669 16672 16679 14767 16680 16454 16681 16682 
2018 2019 2316 2315 2051 2052 2349 2348 14545 16457 16458 16450 14772 16684 16685 16677 14763 14770 16683 16676 16679 16686 14774 16687 16461 16688 16689 
2019 2020 2317 2316 2052 2053 2350 2349 14552 16464 16465 16457 14779 16691 16692 16684 14770 14777 16690 16683 16686 16693 14781 16694 16468 16695 16696 
2020 2021 2318 2317 2053 2054 2351 2350 14559 16471 16472 16464 14786 16698 16699 16691 14777 14784 16697 16690 16693 16700 14788 16701 16475 16702 16703 
2021 2022 2319 2318 2054 2055 2352 2351 14566 16478 16479 16471 14793 16705 16706 16698 14784 14791 16704 16697 16700 16707 14795 16708 16482 16709 16710 
2022 2023 2320 2319 2055 2056 2353 2352 14573 16485 16486 16478 14800 16712 16713 16705 14791 14798 16711 16704 16707 16714 14802 16715 16489 16716 16717 
2023 2024 2321 2320 2056 2057 2354 2353 14580 16492 16493 16485 14807 16719 16720 16712 14798 14805 16718 16711 16714 16721 14809 16722 16496 16723 16724 
2024 2025 2322 2321 2057 2058 2355 2354 14587 16499 16500 16492 14814 16726 16727 16719 14805 14812 16725 16718 16721 16728 14816 16729 16503 16730 16731 
2025 2026 2323 2322 2058 2059 2356 2355 14594 16506 16507 16499 14821 16733 16734 16726 14812 14819 16732 16725 16728 16735 14823 16736 16510 16737 16738 
2026 2027 2324 2323 2059 2060 2357 2356 14601 16513 16514 16506 14828 16740 16741 16733 14819 14826 16739 16732 16735 16742 14830 16743 16517 16744 16745 
2027 2028 2325 2324 2060 2061 2358 2357 14608 16520 16521 16513 14835 16747 16748 16740 14826 14833 16746 16739 16742 16749 14837 16750 16524 16751 16752 
2028 2029 2326 2325 2061 2062 2359 2358 14615 16527 16528 16520 14842 16754 16755 16747 14833 14840 16753 16746 16749 16756 14844 16757 16531 16758 16759 
2029 2030 2327 2326 2062 2063 2360 2359 14622 16534 16535 16527 14849 16761 16762 16754 14840 14847 16760 16753 16756 16763 14851 16764 16538 16765 16766 
2030 2031 2328 2327 2063 2064 2361 2360 14629 16541 16542 16534 14856 16768 16769 16761 14847 14854 16767 16760 16763 16770 14858 16771 16545 16772 16773 
2031 2032 2329 2328 2064 2065 2362 2361 14636 16548 16549 16541 14863 16775 16776 16768 14854 14861 16774 16767 16770 16777 14865 16778 16552 16779 16780 
2032 2033 2330 2329 2065 2066 2363 2362 14643 16555 16556 16548 14870 16782 16783 16775 14861 14868 16781 16774 16777 16784 14872 16785 16559 16786 16787 
2033 2034 2331 2330 2066 2067 2364 2363 14650 16562 16563 16555 14877 16789 16790 16782 14868 14875 16788 16781 16784 16791 14879 16792 16566 16793 16794 
2034 2035 2332 2331 2067 2068 2365 2364 14657 16569 16570 16562 14884 16796 16797 16789 14875 14882 16795 16788 16791 16798 14886 16799 16573 16800 16801 
2035 2036 2333 2332 2068 2069 2366 2365 14664 16576 16577 16569 14891 16803 16804 16796 14882 14889 16802 16795 16798 16805 14893 16806 16580 16807 16808 
2036 2037 2334 2333 2069 2070 2367 2366 14671 16583 16584 16576 14898 16810 16811 16803 14889 14896 16809 16802 16805 16812 14900 16813 16587 16814 16815 
2037 2038 2335 2334 2070 2071 2368 2367 14678 16590 16591 16583 14905 16817 16818 16810 14896 14903 16816 16809 16812 16819 14907 16820 16594 16821 16822 
2038 2039 2336 2335 2071 2072 2369 2368 14685 16597 16598 16590 14912 16824 16825 16817 14903 14910 16823 16816 16819 16826 14914 16827 16601 16828 16829 
2039 2040 2337 2336 2072 2073 2370 2369 14692 16604 16605 16597 14919 16831 16832 16824 14910 14917 16830 16823 16826 16833 14921 16834 16608 16835 16836 
2040 2041 2338 2337 2073 2074 2371 2370 14699 16611 16612 16604 14926 16838 16839 16831 14917 14924 16837 16830 16833 16840 14928 16841 16615 16842 16843 
2041 2042 2339 2338 2074 2075 2372 2371 14706 16618 16619 16611 14933 16845 16846 16838 14924 14931 16844 16837 16840 16847 14935 16848 16622 16849 16850 
2042 2043 2340 2339 2075 2076 2373 2372 14713 16625 16626 16618 14940 16852 16853 16845 14931 14938 16851 16844 16847 16854 14942 16855 16629 16856 16857 
2043 2044 2341 2340 2076 2077 2374 2373 14720 16632 16633 16625 14947 16859 16860 16852 14938 14945 16858 16851 16854 16861 14949 16862 16636 16863 16864 
2044 2045 2342 2341 2077 2078 2375 2374 14727 16639 16640 16632 14954 16866 16867 16859 14945 14952 16865 16858 16861 16868 14956 16869 16643 16870 16871 
2079 2080 2377 2376 2112 2113 2410 2409 14960 16872 16873 16874 14965 16877 16878 16879 14963 14962 16875 16876 16883 16881 14969 16882 16880 16884 16885 
2080 2081 2378 2377 2113 2114 2411 2410 14974 16886 16887 16872 14977 16889 16890 16877 14962 14975 16888 16875 16881 16892 14980 16893 16891 16894 16895 
2081 2082 2379 2378 2114 2115 2412 2411 14984 16896 16897 16886 14987 16899 16900 16889 14975 14985 16898 16888 16892 16902 14990 16903 16901 16904 16905 
2082 2083 2380 2379 2115 2116 2413 2412 14994 16906 16907 16896 14997 16909 16910 16899 14985 14995 16908 16898 16902 16912 15000 16913 16911 16914 16915 
2083 2084 2381 2380 2116 2117 2414 2413 15004 16916 16917 16906 15007 16919 16920 16909 14995 15005 16918 16908 16912 16922 15010 16923 16921 16924 16925 
2084 2085 2382 2381 2117 2118 2415 2414 15014 16926 16927 16916 15017 16929 16930 16919 15005 15015 16928 16918 16922 16932 15020 16933 16931 16934 16935 
2085 2086 2383 2382 2118 2119 2416 2415 15024 16936 16937 16926 15027 16939 16940 16929 15015 15025 16938 16928 16932 16942 15030 16943 16941 16944 16945 
2086 2087 2384 2383 2119 2120 2417 2416 15034 16946 16947 16936 15037 16949 16950 16939 15025 15035 16948 16938 16942 16952 15040 16953 16951 16954 16955 
2087 2088 2385 2384 2120 2121 2418 2417 15044 16956 16957 16946 15047 16959 16960 16949 15035 15045 16958 16948 16952 16962 15050 16963 16961 16964 16965 
2088 2089 2386 2385 2121 2122 2419 2418 15054 16966 16967 16956 15057 16969 16970 16959 15045 15055 16968 16958 16962 16972 15060 16973 16971 16974 16975 
2089 2090 2387 2386 2122 2123 2420 2419 15064 16976 16977 16966 15067 16979 16980 16969 15055 15065 16978 16968 16972 16982 15070 16983 16981 16984 16985 
2090 2091 2388 2387 2123 2124 2421 2420 15074 16986 16987 16976 15077 16989 16990 16979 15065 15075 16988 16978 16982 16992 15080 16993 16991 16994 16995 
2091 2092 2389 2388 2124 2125 2422 2421 15084 16996 16997 16986 15087 16999 17000 16989 15075 15085 16998 16988 16992 17002 15090 17003 17001 17004 17005 
2092 2093 2390 2389 2125 2126 2423 2422 15094 17006 17007 16996 15097 17009 17010 16999 15085 15095 17008 16998 17002 17012 15100 17013 17011 17014 17015 
2093 2094 2391 2390 2126 2127 2424 2423 15104 17016 17017 17006 15107 17019 17020 17009 15095 15105 17018 17008 17012 17022 15110 17023 17021 17024 17025 
2094 2095 2392 2391 2127 2128 2425 2424 15114 17026 17027 17016 15117 17029 17030 17019 15105 15115 17028 17018 17022 17032 15120 17033 17031 17034 17035 
2095 2096 2393 2392 2128 2129 2426 2425 15124 17036 17037 17026 15127 17039 17040 17029 15115 15125 17038 17028 17032 17042 15130 17043 17041 17044 17045 
2096 2097 2394 2393 2129 2130 2427 2426 15134 17046 17047 17036 15137 17049 17050 17039 15125 15135 17048 17038 17042 17052 15140 17053 17051 17054 17055 
2097 2098 2395 2394 2130 2131 2428 2427 15144 17056 17057 17046 15147 17059 17060 17049 15135 15145 17058 17048 17052 17062 15150 17063 17061 17064 17065 
2098 2099 2396 2395 2131 2132 2429 2428 15154 17066 17067 17056 15157 17069 17070 17059 15145 15155 17068 17058 17062 17072 15160 17073 17071 17074 17075 
2099 2100 2397 2396 2132 2133 2430 2429 15164 17076 17077 17066 15167 17079 17080 17069 15155 15165 17078 17068 17072 17082 15170 17083 17081 17084 17085 
2100 2101 2398 2397 2133 2134 2431 2430 15174 17086 17087 17076 15177 17089 17090 17079 15165 15175 17088 17078 17082 17092 15180 17093 17091 17094 17095 
2101 2102 2399 2398 2134 2135 2432 2431 15184 17096 17097 17086 15187 17099 17100 17089 15175 15185 17098 17088 17092 17102 15190 17103 17101 17104 17105 
2102 2103 2400 2399 2135 2136 2433 2432 15194 17106 17107 17096 15197 17109 17110 17099 15185 15195 17108 17098 17102 17112 15200 17113 17111 17114 17115 
2103 2104 2401 2400 2136 2137 2434 2433 15204 17116 17117 17106 15207 17119 17120 17109 15195 15205 17118 17108 17112 17122 15210 17123 17121 17124 17125 
2104 2105 2402 2401 2137 2138 2435 2434 15214 17126 17127 17116 15217 17129 17130 17119 15205 15215 17128 17118 17122 17132 15220 17133 17131 17134 17135 
2105 2106 2403 2402 2138 2139 2436 2435 15224 17136 17137 17126 15227 17139 17140 17129 15215 15225 17138 17128 17132 17142 15230 17143 17141 17144 17145 
2106 2107 2404 2403 2139 2140 2437 2436 15234 17146 17147 17136 15237 17149 17150 17139 15225 15235 17148 17138 17142 17152 15240 17153 17151 17154 17155 
2107 2108 2405 2404 2140 2141 2438 2437 15244 17156 17157 17146 15247 17159 17160 17149 15235 15245 17158 17148 17152 17162 15250 17163 17161 17164 17165 
2108 2109 2406 2405 2141 2142 2439 2438 15254 17166 17167 17156 15257 17169 17170 17159 15245 15255 17168 17158 17162 17172 15260 17173 17171 17174 17175 
2109 2110 2407 2406 2142 2143 2440 2439 15264 17176 17177 17166 15267 17179 17180 17169 15255 15265 17178 17168 17172 17182 15270 17183 17181 17184 17185 
2110 2111 2408 2407 2143 2144 2441 2440 15274 17186 17187 17176 15277 17189 17190 17179 15265 15275 17188 17178 17182 17192 15280 17193 17191 17194 17195 
2112 2113 2410 2409 2145 2146 2443 2442 14965 16877 16878 16879 15286 17198 17199 17200 15284 15283 17196 17197 17203 17201 15289 17202 16884 17204 17205 
2113 2114 2411 2410 2146 2147 2444 2443 14977 16889 16890 16877 15295 17207 17208 17198 15283 15293 17206 17196 17201 17209 15297 17210 16894 17211 17212 
2114 2115 2412 2411 2147 2148 2445 2444 14987 16899 16900 16889 15302 17214 17215 17207 15293 15300 17213 17206 17209 17216 15304 17217 16904 17218 17219 
2115 2116 2413 2412 2148 2149 2446 2445 14997 16909 16910 16899 15309 17221 17222 17214 15300 15307 17220 17213 17216 17223 15311 17224 16914 17225 17226 
2116 2117 2414 2413 2149 2150 2447 2446 15007 16919 16920 16909 15316 17228 17229 17221 15307 15314 17227 17220 17223 17230 15318 17231 16924 17232 17233 
2117 2118 2415 2414 2150 2151 2448 2447 15017 16929 16930 16919 15323 17235 17236 17228 15314 15321 17234 17227 17230 17237 15325 17238 16934 17239 17240 
2118 2119 2416 2415 2151 2152 2449 2448 15027 16939 16940 16929 15330 17242 17243 17235 15321 15328 17241 17234 17237 17244 15332 17245 16944 17246 17247 
2119 2120 2417 2416 2152 2153 2450 2449 15037 16949 16950 16939 15337 17249 17250 17242 15328 15335 17248 17241 17244 17251 15339 17252 16954 17253 17254 
2120 2121 2418 2417 2153 2154 2451 2450 15047 16959 16960 16949 15344 17256 17257 17249 15335 15342 17255 17248 17251 17258 15346 17259 16964 17260 17261 
2121 2122 2419 2418 2154 2155 2452 2451 15057 16969 16970 16959 15351 17263 17264 17256 15342 15349 17262 17255 17258 17265 15353 17266 16974 17267 17268 
2122 2123 2420 2419 2155 2156 2453 2452 15067 16979 16980 16969 15358 17270 17271 17263 15349 15356 17269 17262 17265 17272 15360 17273 16984 17274 17275 
2123 2124 2421 2420 2156 2157 2454 2453 15077 16989 16990 16979 15365 17277 17278 17270 15356 15363 17276 17269 17272 17279 15367 17280 16994 17281 17282 
2124 2125 2422 2421 2157 2158 2455 2454 15087 16999 17000 16989 15372 17284 17285 17277 15363 15370 17283 17276 17279 17286 15374 17287 17004 17288 17289 
2125 2126 2423 2422 2158 2159 2456 2455 15097 17009 17010 16999 15379 17291 17292 17284 15370 15377 17290 17283 17286 17293 15381 17294 17014 17295 17296 
2126 2127 2424 2423 2159 2160 2457 2456 15107 17019 17020 17009 15386 17298 17299 17291 15377 15384 17297 17290 17293 17300 15388 17301 17024 17302 17303 
2127 2128 2425 2424 2160 2161 2458 2457 15117 17029 17030 17019 15393 17305 17306 17298 15384 15391 17304 17297 17300 17307 15395 17308 17034 17309 17310 
2128 2129 2426 2425 2161 2162 2459 2458 15127 17039 17040 17029 15400 17312 17313 17305 15391 15398 17311 17304 17307 17314 15402 17315 17044 17316 17317 
2129 2130 2427 2426 2162 2163 2460 2459 15137 17049 17050 17039 15407 17319 17320 17312 15398 15405 17318 17311 17314 17321 15409 17322 17054 17323 17324 
2130 2131 2428 2427 2163 2164 2461 2460 15147 17059 17060 17049 15414 17326 17327 17319 15405 15412 17325 17318 17321 17328 15416 17329 17064 17330 17331 
2131 2132 2429 2428 2164 2165 2462 2461 15157 17069 17070 17059 15421 17333 17334 17326 15412 15419 17332 17325 17328 17335 15423 17336 17074 17337 17338 
2132 2133 2430 2429 2165 2166 2463 2462 15167 17079 17080 17069 15428 17340 17341 17333 15419 15426 17339 17332 17335 17342 15430 17343 17084 17344 17345 
2133 2134 2431 2430 2166 2167 2464 2463 15177 17089 17090 17079 15435 17347 17348 17340 15426 15433 17346 17339 17342 17349 15437 17350 17094 17351 17352 
2134 2135 2432 2431 2167 2168 2465 2464 15187 17099 17100 17089 15442 17354 17355 17347 15433 15440 17353 17346 17349 17356 15444 17357 17104 17358 17359 
2135 2136 2433 2432 2168 2169 2466 2465 15197 17109 17110 17099 15449 17361 17362 17354 15440 15447 17360 17353 17356 17363 15451 17364 17114 17365 17366 
2136 2137 2434 2433 2169 2170 2467 2466 15207 17119 17120 17109 15456 17368 17369 17361 15447 15454 17367 17360 17363 17370 15458 17371 17124 17372 17373 
2137 2138 2435 2434 2170 2171 2468 2467 15217 17129 17130 17119 15463 17375 17376 17368 15454 15461 17374 17367 17370 17377 15465 17378 17134 17379 17380 
2138 2139 2436 2435 2171 2172 2469 2468 15227 17139 17140 17129 15470 17382 17383 17375 15461 15468 17381 17374 17377 17384 15472 17385 17144 17386 17387 
2139 2140 2437 2436 2172 2173 2470 2469 15237 17149 17150 17139 15477 17389 17390 17382 15468 15475 17388 17381 17384 17391 15479 17392 17154 17393 17394 
2140 2141 2438 2437 2173 2174 2471 2470 15247 17159 17160 17149 15484 17396 17397 17389 15475 15482 17395 17388 17391 17398 15486 17399 17164 17400 17401 
2141 2142 2439 2438 2174 2175 2472 2471 15257 17169 17170 17159 15491 17403 17404 17396 15482 15489 17402 17395 17398 17405 15493 17406 17174 17407 17408 
2142 2143 2440 2439 2175 2176 2473 2472 15267 17179 17180 17169 15498 17410 17411 17403 15489 15496 17409 17402 17405 17412 15500 17413 17184 17414 17415 
2143 2144 2441 2440 2176 2177 2474 2473 15277 17189 17190 17179 15505 17417 17418 17410 15496 15503 17416 17409 17412 17419 15507 17420 17194 17421 17422 
2145 2146 2443 2442 2178 2179 2476 2475 15286 17198 17199 17200 15513 17425 17426 17427 15511 15510 17423 17424 17430 17428 15516 17429 17204 17431 17432 
2146 2147 2444 2443 2179 2180 2477 2476 15295 17207 17208 17198 15522 17434 17435 17425 15510 15520 17433 17423 17428 17436 15524 17437 17211 17438 17439 
2147 2148 2445 2444 2180 2181 2478 2477 15302 17214 17215 17207 15529 17441 17442 17434 15520 15527 17440 17433 17436 17443 15531 17444 17218 17445 17446 
2148 2149 2446 2445 2181 2182 2479 2478 15309 17221 17222 17214 15536 17448 17449 17441 15527 15534 17447 17440 17443 17450 15538 17451 17225 17452 17453 
2149 2150 2447 2446 2182 2183 2480 2479 15316 17228 17229 17221 15543 17455 17456 17448 15534 15541 17454 17447 17450 17457 15545 17458 17232 17459 17460 
2150 2151 2448 2447 2183 2184 2481 2480 15323 17235 17236 17228 15550 17462 17463 17455 15541 15548 17461 17454 17457 17464 15552 17465 17239 17466 17467 
2151 2152 2449 2448 2184 2185 2482 2481 15330 17242 17243 17235 15557 17469 17470 17462 15548 15555 17468 17461 17464 17471 15559 17472 17246 17473 17474 
2152 2153 2450 2449 2185 2186 2483 2482 15337 17249 17250 17242 15564 17476 17477 17469 15555 15562 17475 17468 17471 17478 15566 17479 17253 17480 17481 
2153 2154 2451 2450 2186 2187 2484 2483 15344 17256 17257 17249 15571 17483 17484 17476 15562 15569 17482 17475 17478 17485 15573 17486 17260 17487 17488 
2154 2155 2452 2451 2187 2188 2485 2484 15351 17263 17264 17256 15578 17490 17491 17483 15569 15576 17489 17482 17485 17492 15580 17493 17267 17494 17495 
2155 2156 2453 2452 2188 2189 2486 2485 15358 17270 17271 17263 15585 17497 17498 17490 15576 15583 17496 17489 17492 17499 15587 17500 17274 17501 17502 
2156 2157 2454 2453 2189 2190 2487 2486 15365 17277 17278 17270 15592 17504 17505 17497 15583 15590 17503 17496 17499 17506 15594 17507 17281 17508 17509 
2157 2158 2455 2454 2190 2191 2488 2487 15372 17284 17285 17277 15599 17511 17512 17504 15590 15597 17510 17503 17506 17513 15601 17514 17288 17515 17516 
2158 2159 2456 2455 2191 2192 2489 2488 15379 17291 17292 17284 15606 17518 17519 17511 15597 15604 17517 17510 17513 17520 15608 17521 17295 17522 17523 
2159 2160 2457 2456 2192 2193 2490 2489 15386 17298 17299 17291 15613 17525 17526 17518 15604 15611 17524 17517 17520 17527 15615 17528 17302 17529 17530 
2160 2161 2458 2457 2193 2194 2491 2490 15393 17305 17306 17298 15620 17532 17533 17525 15611 15618 17531 17524 17527 17534 15622 17535 17309 17536 17537 
2161 2162 2459 2458 2194 2195 2492 2491 15400 17312 17313 17305 15627 17539 17540 17532 15618 15625 17538 17531 17534 17541 15629 17542 17316 17543 17544 
2162 2163 2460 2459 2195 2196 2493 2492 15407 17319 17320 17312 15634 17546 17547 17539 15625 15632 17545 17538 17541 17548 15636 17549 17323 17550 17551 
2163 2164 2461 2460 2196 2197 2494 2493 15414 17326 17327 17319 15641 17553 17554 17546 15632 15639 17552 17545 17548 17555 15643 17556 17330 17557 17558 
2164 2165 2462 2461 2197 2198 2495 2494 15421 17333 17334 17326 15648 17560 17561 17553 15639 15646 17559 17552 17555 17562 15650 17563 17337 17564 17565 
2165 2166 2463 2462 2198 2199 2496 2495 15428 17340 17341 17333 15655 17567 17568 17560 15646 15653 17566 17559 17562 17569 15657 17570 17344 17571 17572 
2166 2167 2464 2463 2199 2200 2497 2496 15435 17347 17348 17340 15662 17574 17575 17567 15653 15660 17573 17566 17569 17576 15664 17577 17351 17578 17579 
2167 2168 2465 2464 2200 2201 2498 2497 15442 17354 17355 17347 15669 17581 17582 17574 15660 15667 17580 17573 17576 17583 15671 17584 17358 17585 17586 
2168 2169 2466 2465 2201 2202 2499 2498 15449 17361 17362 17354 15676 17588 17589 17581 15667 15674 17587 17580 17583 17590 15678 17591 17365 17592 17593 
2169 2170 2467 2466 2202 2203 2500 2499 15456 17368 17369 17361 15683 17595 17596 17588 15674 15681 17594 17587 17590 17597 15685 17598 17372 17599 17600 
2170 2171 2468 2467 2203 2204 2501 2500 15463 17375 17376 17368 15690 17602 17603 17595 15681 15688 17601 17594 17597 17604 15692 17605 17379 17606 17607 
2171 2172 2469 2468 2204 2205 2502 2501 15470 17382 17383 17375 15697 17609 17610 17602 15688 15695 17608 17601 17604 17611 15699 17612 17386 17613 17614 
2172 2173 2470 2469 2205 2206 2503 2502 15477 17389 17390 17382 15704 17616 17617 17609 15695 15702 17615 17608 17611 17618 15706 17619 17393 17620 17621 
2173 2174 2471 2470 2206 2207 2504 2503 15484 17396 17397 17389 15711 17623 17624 17616 15702 15709 17622 17615 17618 17625 15713 17626 17400 17627 17628 
2174 2175 2472 2471 2207 2208 2505 2504 15491 17403 17404 17396 15718 17630 17631 17623 15709 15716 17629 17622 17625 17632 15720 17633 17407 17634 17635 
2175 2176 2473 2472 2208 2209 2506 2505 15498 17410 17411 17403 15725 17637 17638 17630 15716 15723 17636 17629 17632 17639 15727 17640 17414 17641 17642 
2176 2177 2474 2473 2209 2210 2507 2506 15505 17417 17418 17410 15732 17644 17645 17637 15723 15730 17643 17636 17639 17646 15734 17647 17421 17648 17649 
2178 2179 2476 2475 2211 2212 2509 2508 15513 17425 17426 17427 15740 17652 17653 17654 15738 15737 17650 17651 17657 17655 15743 17656 17431 17658 17659 
2179 2180 2477 2476 2212 2213 2510 2509 15522 17434 17435 17425 15749 17661 17662 17652 15737 15747 17660 17650 17655 17663 15751 17664 17438 17665 17666 
2180 2181 2478 2477 2213 2214 2511 2510 15529 17441 17442 17434 15756 17668 17669 17661 15747 15754 17667 17660 17663 17670 15758 17671 17445 17672 17673 
2181 2182 2479 2478 2214 2215 2512 2511 15536 17448 17449 17441 15763 17675 17676 17668 15754 15761 17674 17667 17670 17677 15765 17678 17452 17679 17680 
2182 2183 2480 2479 2215 2216 2513 2512 15543 17455 17456 17448 15770 17682 17683 17675 15761 15768 17681 17674 17677 17684 15772 17685 17459 17686 17687 
2183 2184 2481 2480 2216 2217 2514 2513 15550 17462 17463 17455 15777 17689 17690 17682 15768 15775 17688 17681 17684 17691 15779 17692 17466 17693 17694 
2184 2185 2482 2481 2217 2218 2515 2514 15557 17469 17470 17462 15784 17696 17697 17689 15775 15782 17695 17688 17691 17698 15786 17699 17473 17700 17701 
2185 2186 2483 2482 2218 2219 2516 2515 15564 17476 17477 17469 15791 17703 17704 17696 15782 15789 17702 17695 17698 17705 15793 17706 17480 17707 17708 
2186 2187 2484 2483 2219 2220 2517 2516 15571 17483 17484 17476 15798 17710 17711 17703 15789 15796 17709 17702 17705 17712 15800 17713 17487 17714 17715 
2187 2188 2485 2484 2220 2221 2518 2517 15578 17490 17491 17483 15805 17717 17718 17710 15796 15803 17716 17709 17712 17719 15807 17720 17494 17721 17722 
2188 2189 2486 2485 2221 2222 2519 2518 15585 17497 17498 17490 15812 17724 17725 17717 15803 15810 17723 17716 17719 17726 15814 17727 17501 17728 17729 
2189 2190 2487 2486 2222 2223 2520 2519 15592 17504 17505 17497 15819 17731 17732 17724 15810 15817 17730 17723 17726 17733 15821 17734 17508 17735 17736 
2190 2191 2488 2487 2223 2224 2521 2520 15599 17511 17512 17504 15826 17738 17739 17731 15817 15824 17737 17730 17733 17740 15828 17741 17515 17742 17743 
2191 2192 2489 2488 2224 2225 2522 2521 15606 17518 17519 17511 15833 17745 17746 17738 15824 15831 17744 17737 17740 17747 15835 17748 17522 17749 17750 
2192 2193 2490 2489 2225 2226 2523 2522 15613 17525 17526 17518 15840 17752 17753 17745 15831 15838 17751 17744 17747 17754 15842 17755 17529 17756 17757 
2193 2194 2491 2490 2226 2227 2524 2523 15620 17532 17533 17525 15847 17759 17760 17752 15838 15845 17758 17751 17754 17761 15849 17762 17536 17763 17764 
2194 2195 2492 2491 2227 2228 2525 2524 15627 17539 17540 17532 15854 17766 17767 17759 15845 15852 17765 17758 17761 17768 15856 17769 17543 17770 17771 
2195 2196 2493 2492 2228 2229 2526 2525 15634 17546 17547 17539 15861 17773 17774 17766 15852 15859 17772 17765 17768 17775 15863 17776 17550 17777 17778 
2196 2197 2494 2493 2229 2230 2527 2526 15641 17553 17554 17546 15868 17780 17781 17773 15859 15866 17779 17772 17775 17782 15870 17783 17557 17784 17785 
2197 2198 2495 2494 2230 2231 2528 2527 15648 17560 17561 17553 15875 17787 17788 17780 15866 15873 17786 17779 17782 17789 15877 17790 17564 17791 17792 
2198 2199 2496 2495 2231 2232 2529 2528 15655 17567 17568 17560 15882 17794 17795 17787 15873 15880 17793 17786 17789 17796 15884 17797 17571 17798 17799 
2199 2200 2497 2496 2232 2233 2530 2529 15662 17574 17575 17567 15889 17801 17802 17794 15880 15887 17800 17793 17796 17803 15891 17804 17578 17805 17806 
2200 2201 2498 2497 2233 2234 2531 2530 15669 17581 17582 17574 15896 17808 17809 17801 15887 15894 17807 17800 17803 17810 15898 17811 17585 17812 17813 
2201 2202 2499 2498 2234 2235 2532 2531 15676 17588 17589 17581 15903 17815 17816 17808 15894 15901 17814 17807 17810 17817 15905 17818 17592 17819 17820 
2202 2203 2500 2499 2235 2236 2533 2532 15683 17595 17596 17588 15910 17822 17823 17815 15901 15908 17821 17814 17817 17824 15912 17825 17599 17826 17827 
2203 2204 2501 2500 2236 2237 2534 2533 15690 17602 17603 17595 15917 17829 17830 17822 15908 15915 17828 17821 17824 17831 15919 17832 17606 17833 17834 
2204 2205 2502 2501 2237 2238 2535 2534 15697 17609 17610 17602 15924 17836 17837 17829 15915 15922 17835 17828 17831 17838 15926 17839 17613 17840 17841 
2205 2206 2503 2502 2238 2239 2536 2535 15704 17616 17617 17609 15931 17843 17844 17836 15922 15929 17842 17835 17838 17845 15933 17846 17620 17847 17848 
2206 2207 2504 2503 2239 2240 2537 2536 15711 17623 17624 17616 15938 17850 17851 17843 15929 15936 17849 17842 17845 17852 15940 17853 17627 17854 17855 
2207 2208 2505 2504 2240 2241 2538 2537 15718 17630 17631 17623 15945 17857 17858 17850 15936 15943 17856 17849 17852 17859 15947 17860 17634 17861 17862 
2208 2209 2506 2505 2241 2242 2539 2538 15725 17637 17638 17630 15952 17864 17865 17857 15943 15950 17863 17856 17859 17866 15954 17867 17641 17868 17869 
2209 2210 2507 2506 2242 2243 2540 2539 15732 17644 17645 17637 15959 17871 17872 17864 15950 15957 17870 17863 17866 17873 15961 17874 17648 17875 17876 
2211 2212 2509 2508 2244 2245 2542 2541 15740 17652 17653 17654 15967 17879 17880 17881 15965 15964 17877 17878 17884 17882 15970 17883 17658 17885 17886 
2212 2213 2510 2509 2245 2246 2543 2542 15749 17661 17662 17652 15976 17888 17889 17879 15964 15974 17887 17877 17882 17890 15978 17891 17665 17892 17893 
2213 2214 2511 2510 2246 2247 2544 2543 15756 17668 17669 17661 15983 17895 17896 17888 15974 15981 17894 17887 17890 17897 15985 17898 17672 17899 17900 
2214 2215 2512 2511 2247 2248 2545 2544 15763 17675 17676 17668 15990 17902 17903 17895 15981 15988 17901 17894 17897 17904 15992 17905 17679 17906 17907 
2215 2216 2513 2512 2248 2249 2546 2545 15770 17682 17683 17675 15997 17909 17910 17902 15988 15995 17908 17901 17904 17911 15999 17912 17686 17913 17914 
2216 2217 2514 2513 2249 2250 2547 2546 15777 17689 17690 17682 16004 17916 17917 17909 15995 16002 17915 17908 17911 17918 16006 17919 17693 17920 17921 
2217 2218 2515 2514 2250 2251 2548 2547 15784 17696 17697 17689 16011 17923 17924 17916 16002 16009 17922 17915 17918 17925 16013 17926 17700 17927 17928 
2218 2219 2516 2515 2251 2252 2549 2548 15791 17703 17704 17696 16018 17930 17931 17923 16009 16016 17929 17922 17925 17932 16020 17933 17707 17934 17935 
2219 2220 2517 2516 2252 2253 2550 2549 15798 17710 17711 17703 16025 17937 17938 17930 16016 16023 17936 17929 17932 17939 16027 17940 17714 17941 17942 
2220 2221 2518 2517 2253 2254 2551 2550 15805 17717 17718 17710 16032 17944 17945 17937 16023 16030 17943 17936 17939 17946 16034 17947 17721 17948 17949 
2221 2222 2519 2518 2254 2255 2552 2551 15812 17724 17725 17717 16039 17951 17952 17944 16030 16037 17950 17943 17946 17953 16041 17954 17728 17955 17956 
2222 2223 2520 2519 2255 2256 2553 2552 15819 17731 17732 17724 16046 17958 17959 17951 16037 16044 17957 17950 17953 17960 16048 17961 17735 17962 17963 
2223 2224 2521 2520 2256 2257 2554 2553 15826 17738 17739 17731 16053 17965 17966 17958 16044 16051 17964 17957 17960 17967 16055 17968 17742 17969 17970 
2224 2225 2522 2521 2257 2258 2555 2554 15833 17745 17746 17738 16060 17972 17973 17965 16051 16058 17971 17964 17967 17974 16062 17975 17749 17976 17977 
2225 2226 2523 2522 2258 2259 2556 2555 15840 17752 17753 17745 16067 17979 17980 17972 16058 16065 17978 17971 17974 17981 16069 17982 17756 17983 17984 
2226 2227 2524 2523 2259 2260 2557 2556 15847 17759 17760 17752 16074 17986 17987 17979 16065 16072 17985 17978 17981 17988 16076 17989 17763 17990 17991 
2227 2228 2525 2524 2260 2261 2558 2557 15854 17766 17767 17759 16081 17993 17994 17986 16072 16079 17992 17985 17988 17995 16083 17996 17770 17997 17998 
2228 2229 2526 2525 2261 2262 2559 2558 15861 17773 17774 17766 16088 18000 18001 17993 16079 16086 17999 17992 17995 18002 16090 18003 17777 18004 18005 
2229 2230 2527 2526 2262 2263 2560 2559 15868 17780 17781 17773 16095 18007 18008 18000 16086 16093 18006 17999 18002 18009 16097 18010 17784 18011 18012 
2230 2231 2528 2527 2263 2264 2561 2560 15875 17787 17788 17780 16102 18014 18015 18007 16093 16100 18013 18006 18009 18016 16104 18017 17791 18018 18019 
2231 2232 2529 2528 2264 2265 2562 2561 15882 17794 17795 17787 16109 18021 18022 18014 16100 16107 18020 18013 18016 18023 16111 18024 17798 18025 18026 
2232 2233 2530 2529 2265 2266 2563 2562 15889 17801 17802 17794 16116 18028 18029 18021 16107 16114 18027 18020 18023 18030 16118 18031 17805 18032 18033 
2233 2234 2531 2530 2266 2267 2564 2563 15896 17808 17809 17801 16123 18035 18036 18028 16114 16121 18034 18027 18030 18037 16125 18038 17812 18039 18040 
2234 2235 2532 2531 2267 2268 2565 2564 15903 17815 17816 17808 16130 18042 18043 18035 16121 16128 18041 18034 18037 18044 16132 18045 17819 18046 18047 
2235 2236 2533 2532 2268 2269 2566 2565 15910 17822 17823 17815 16137 18049 18050 18042 16128 16135 18048 18041 18044 18051 16139 18052 17826 18053 18054 
2236 2237 2534 2533 2269 2270 2567 2566 15917 17829 17830 17822 16144 18056 18057 18049 16135 16142 18055 18048 18051 18058 16146 18059 17833 18060 18061 
2237 2238 2535 2534 2270 2271 2568 2567 15924 17836 17837 17829 16151 18063 18064 18056 16142 16149 18062 18055 18058 18065 16153 18066 17840 18067 18068 
2238 2239 2536 2535 2271 2272 2569 2568 15931 17843 17844 17836 16158 18070 18071 18063 16149 16156 18069 18062 18065 18072 16160 18073 17847 18074 18075 
2239 2240 2537 2536 2272 2273 2570 2569 15938 17850 17851 17843 16165 18077 18078 18070 16156 16163 18076 18069 18072 18079 16167 18080 17854 18081 18082 
2240 2241 2538 2537 2273 2274 2571 2570 15945 17857 17858 17850 16172 18084 18085 18077 16163 16170 18083 18076 18079 18086 16174 18087 17861 18088 18089 
2241 2242 2539 2538 2274 2275 2572 2571 15952 17864 17865 17857 16179 18091 18092 18084 16170 16177 18090 18083 18086 18093 16181 18094 17868 18095 18096 
2242 2243 2540 2539 2275 2276 2573 2572 15959 17871 17872 17864 16186 18098 18099 18091 16177 16184 18097 18090 18093 18100 16188 18101 17875 18102 18103 
2244 2245 2542 2541 2277 2278 2575 2574 15967 17879 17880 17881 16194 18106 18107 18108 16192 16191 18104 18105 18111 18109 16197 18110 17885 18112 18113 
2245 2246 2543 2542 2278 2279 2576 2575 15976 17888 17889 17879 16203 18115 18116 18106 16191 16201 18114 18104 18109 18117 16205 18118 17892 18119 18120 
2246 2247 2544 2543 2279 2280 2577 2576 15983 17895 17896 17888 16210 18122 18123 18115 16201 16208 18121 18114 18117 18124 16212 18125 17899 18126 18127 
2247 2248 2545 2544 2280 2281 2578 2577 15990 17902 17903 17895 16217 18129 18130 18122 16208 16215 18128 18121 18124 18131 16219 18132 17906 18133 18134 
2248 2249 2546 2545 2281 2282 2579 2578 15997 17909 17910 17902 16224 18136 18137 18129 16215 16222 18135 18128 18131 18138 16226 18139 17913 18140 18141 
2249 2250 2547 2546 2282 2283 2580 2579 16004 17916 17917 17909 16231 18143 18144 18136 16222 16229 18142 18135 18138 18145 16233 18146 17920 18147 18148 
2250 2251 2548 2547 2283 2284 2581 2580 16011 17923 17924 17916 16238 18150 18151 18143 16229 16236 18149 18142 18145 18152 16240 18153 17927 18154 18155 
2251 2252 2549 2548 2284 2285 2582 2581 16018 17930 17931 17923 16245 18157 18158 18150 16236 16243 18156 18149 18152 18159 16247 18160 17934 18161 18162 
2252 2253 2550 2549 2285 2286 2583 2582 16025 17937 17938 17930 16252 18164 18165 18157 16243 16250 18163 18156 18159 18166 16254 18167 17941 18168 18169 
2253 2254 2551 2550 2286 2287 2584 2583 16032 17944 17945 17937 16259 18171 18172 18164 16250 16257 18170 18163 18166 18173 16261 18174 17948 18175 18176 
2254 2255 2552 2551 2287 2288 2585 2584 16039 17951 17952 17944 16266 18178 18179 18171 16257 16264 18177 18170 18173 18180 16268 18181 17955 18182 18183 
2255 2256 2553 2552 2288 2289 2586 2585 16046 17958 17959 17951 16273 18185 18186 18178 16264 16271 18184 18177 18180 18187 16275 18188 17962 18189 18190 
2256 2257 2554 2553 2289 2290 2587 2586 16053 17965 17966 17958 16280 18192 18193 18185 16271 16278 18191 18184 18187 18194 16282 18195 17969 18196 18197 
2257 2258 2555 2554 2290 2291 2588 2587 16060 17972 17973 17965 16287 18199 18200 18192 16278 16285 18198 18191 18194 18201 16289 18202 17976 18203 18204 
2258 2259 2556 2555 2291 2292 2589 2588 16067 17979 17980 17972 16294 18206 18207 18199 16285 16292 18205 18198 18201 18208 16296 18209 17983 18210 18211 
2259 2260 2557 2556 2292 2293 2590 2589 16074 17986 17987 17979 16301 18213 18214 18206 16292 16299 18212 18205 18208 18215 16303 18216 17990 18217 18218 
2260 2261 2558 2557 2293 2294 2591 2590 16081 17993 17994 17986 16308 18220 18221 18213 16299 16306 18219 18212 18215 18222 16310 18223 17997 18224 18225 
2261 2262 2559 2558 2294 2295 2592 2591 16088 18000 18001 17993 16315 18227 18228 18220 16306 16313 18226 18219 18222 18229 16317 18230 18004 18231 18232 
2262 2263 2560 2559 2295 2296 2593 2592 16095 18007 18008 18000 16322 18234 18235 18227 16313 16320 18233 18226 18229 18236 16324 18237 18011 18238 18239 
2263 2264 2561 2560 2296 2297 2594 2593 16102 18014 18015 18007 16329 18241 18242 18234 16320 16327 18240 18233 18236 18243 16331 18244 18018 18245 18246 
2264 2265 2562 2561 2297 2298 2595 2594 16109 18021 18022 18014 16336 18248 18249 18241 16327 16334 18247 18240 18243 18250 16338 18251 18025 18252 18253 
2265 2266 2563 2562 2298 2299 2596 2595 16116 18028 18029 18021 16343 18255 18256 18248 16334 16341 18254 18247 18250 18257 16345 18258 18032 18259 18260 
2266 2267 2564 2563 2299 2300 2597 2596 16123 18035 18036 18028 16350 18262 18263 18255 16341 16348 18261 18254 18257 18264 16352 18265 18039 18266 18267 
2267 2268 2565 2564 2300 2301 2598 2597 16130 18042 18043 18035 16357 18269 18270 18262 16348 16355 18268 18261 18264 18271 16359 18272 18046 18273 18274 
2268 2269 2566 2565 2301 2302 2599 2598 16137 18049 18050 18042 16364 18276 18277 18269 16355 16362 18275 18268 18271 18278 16366 18279 18053 18280 18281 
2269 2270 2567 2566 2302 2303 2600 2599 16144 18056 18057 18049 16371 18283 18284 18276 16362 16369 18282 18275 18278 18285 16373 18286 18060 18287 18288 
2270 2271 2568 2567 2303 2304 2601 2600 16151 18063 18064 18056 16378 18290 18291 18283 16369 16376 18289 18282 18285 18292 16380 18293 18067 18294 18295 
2271 2272 2569 2568 2304 2305 2602 2601 16158 18070 18071 18063 16385 18297 18298 18290 16376 16383 18296 18289 18292 18299 16387 18300 18074 18301 18302 
2272 2273 2570 2569 2305 2306 2603 2602 16165 18077 18078 18070 16392 18304 18305 18297 16383 16390 18303 18296 18299 18306 16394 18307 18081 18308 18309 
2273 2274 2571 2570 2306 2307 2604 2603 16172 18084 18085 18077 16399 18311 18312 18304 16390 16397 18310 18303 18306 18313 16401 18314 18088 18315 18316 
2274 2275 2572 2571 2307 2308 2605 2604 16179 18091 18092 18084 16406 18318 18319 18311 16397 16404 18317 18310 18313 18320 16408 18321 18095 18322 18323 
2275 2276 2573 2572 2308 2309 2606 2605 16186 18098 18099 18091 16413 18325 18326 18318 16404 16411 18324 18317 18320 18327 16415 18328 18102 18329 18330 
2277 2278 2575 2574 2310 2311 2608 2607 16194 18106 18107 18108 16421 18333 18334 18335 16419 16418 18331 18332 18338 18336 16424 18337 18112 18339 18340 
2278 2279 2576 2575 2311 2312 2609 2608 16203 18115 18116 18106 16430 18342 18343 18333 16418 16428 18341 18331 18336 18344 16432 18345 18119 18346 18347 
2279 2280 2577 2576 2312 2313 2610 2609 16210 18122 18123 18115 16437 18349 18350 18342 16428 16435 18348 18341 18344 18351 16439 18352 18126 18353 18354 
2280 2281 2578 2577 2313 2314 2611 2610 16217 18129 18130 18122 16444 18356 18357 18349 16435 16442 18355 18348 18351 18358 16446 18359 18133 18360 18361 
2281 2282 2579 2578 2314 2315 2612 2611 16224 18136 18137 18129 16451 18363 18364 18356 16442 16449 18362 18355 18358 18365 16453 18366 18140 18367 18368 
2282 2283 2580 2579 2315 2316 2613 2612 16231 18143 18144 18136 16458 18370 18371 18363 16449 16456 18369 18362 18365 18372 16460 18373 18147 18374 18375 
2283 2284 2581 2580 2316 2317 2614 2613 16238 18150 18151 18143 16465 18377 18378 18370 16456 16463 18376 18369 18372 18379 16467 18380 18154 18381 18382 
2284 2285 2582 2581 2317 2318 2615 2614 16245 18157 18158 18150 16472 18384 18385 18377 16463 16470 18383 18376 18379 18386 16474 18387 18161 18388 18389 
2285 2286 2583 2582 2318 2319 2616 2615 16252 18164 18165 18157 16479 18391 18392 18384 16470 16477 18390 18383 18386 18393 16481 18394 18168 18395 18396 
2286 2287 2584 2583 2319 2320 2617 2616 16259 18171 18172 18164 16486 18398 18399 18391 16477 16484 18397 18390 18393 18400 16488 18401 18175 18402 18403 
2287 2288 2585 2584 2320 2321 2618 2617 16266 18178 18179 18171 16493 18405 18406 18398 16484 16491 18404 18397 18400 18407 16495 18408 18182 18409 18410 
2288 2289 2586 2585 2321 2322 2619 2618 16273 18185 18186 18178 16500 18412 18413 18405 16491 16498 18411 18404 18407 18414 16502 18415 18189 18416 18417 
2289 2290 2587 2586 2322 2323 2620 2619 16280 18192 18193 18185 16507 18419 18420 18412 16498 16505 18418 18411 18414 18421 16509 18422 18196 18423 18424 
2290 2291 2588 2587 2323 2324 2621 2620 16287 18199 18200 18192 16514 18426 18427 18419 16505 16512 18425 18418 18421 18428 16516 18429 18203 18430 18431 
2291 2292 2589 2588 2324 2325 2622 2621 16294 18206 18207 18199 16521 18433 18434 18426 16512 16519 18432 18425 18428 18435 16523 18436 18210 18437 18438 
2292 2293 2590 2589 2325 2326 2623 2622 16301 18213 18214 18206 16528 18440 18441 18433 16519 16526 18439 18432 18435 18442 16530 18443 18217 18444 18445 
2293 2294 2591 2590 2326 2327 2624 2623 16308 18220 18221 18213 16535 18447 18448 18440 16526 16533 18446 18439 18442 18449 16537 18450 18224 18451 18452 
2294 2295 2592 2591 2327 2328 2625 2624 16315 18227 18228 18220 16542 18454 18455 18447 16533 16540 18453 18446 18449 18456 16544 18457 18231 18458 18459 
2295 2296 2593 2592 2328 2329 2626 2625 16322 18234 18235 18227 16549 18461 18462 18454 16540 16547 18460 18453 18456 18463 16551 18464 18238 18465 18466 
2296 2297 2594 2593 2329 2330 2627 2626 16329 18241 18242 18234 16556 18468 18469 18461 16547 16554 18467 18460 18463 18470 16558 18471 18245 18472 18473 
2297 2298 2595 2594 2330 2331 2628 2627 16336 18248 18249 18241 16563 18475 18476 18468 16554 16561 18474 18467 18470 18477 16565 18478 18252 18479 18480 
2298 2299 2596 2595 2331 2332 2629 2628 16343 18255 18256 18248 16570 18482 18483 18475 16561 16568 18481 18474 18477 18484 16572 18485 18259 18486 18487 
2299 2300 2597 2596 2332 2333 2630 2629 16350 18262 18263 18255 16577 18489 18490 18482 16568 16575 18488 18481 18484 18491 16579 18492 18266 18493 18494 
2300 2301 2598 2597 2333 2334 2631 2630 16357 18269 18270 18262 16584 18496 18497 18489 16575 16582 18495 18488 18491 18498 16586 18499 18273 18500 18501 
2301 2302 2599 2598 2334 2335 2632 2631 16364 18276 18277 18269 16591 18503 18504 18496 16582 16589 18502 18495 18498 18505 16593 18506 18280 18507 18508 
2302 2303 2600 2599 2335 2336 2633 2632 16371 18283 18284 18276 16598 18510 18511 18503 16589 16596 18509 18502 18505 18512 16600 18513 18287 18514 18515 
2303 2304 2601 2600 2336 2337 2634 2633 16378 18290 18291 18283 16605 18517 18518 18510 16596 16603 18516 18509 18512 18519 16607 18520 18294 18521 18522 
2304 2305 2602 2601 2337 2338 2635 2634 16385 18297 18298 18290 16612 18524 18525 18517 16603 16610 18523 18516 18519 18526 16614 18527 18301 18528 18529 
2305 2306 2603 2602 2338 2339 2636 2635 16392 18304 18305 18297 16619 18531 18532 18524 16610 16617 18530 18523 18526 18533 16621 18534 18308 18535 18536 
2306 2307 2604 2603 2339 2340 2637 2636 16399 18311 18312 18304 16626 18538 18539 18531 16617 16624 18537 18530 18533 18540 16628 18541 18315 18542 18543 
2307 2308 2605 2604 2340 2341 2638 2637 16406 18318 18319 18311 16633 18545 18546 18538 16624 16631 18544 18537 18540 18547 16635 18548 18322 18549 18550 
2308 2309 2606 2605 2341 2342 2639 2638 16413 18325 18326 18318 16640 18552 18553 18545 16631 16638 18551 18544 18547 18554 16642 18555 18329 18556 18557 
2310 2311 2608 2607 2343 2344 2641 2640 16421 18333 18334 18335 16648 18560 18561 18562 16646 16645 18558 18559 18565 18563 16651 18564 18339 18566 18567 
2311 2312 2609 2608 2344 2345 2642 2641 16430 18342 18343 18333 16657 18569 18570 18560 16645 16655 18568 18558 18563 18571 16659 18572 18346 18573 18574 
2312 2313 2610 2609 2345 2346 2643 2642 16437 18349 18350 18342 16664 18576 18577 18569 16655 16662 18575 18568 18571 18578 16666 18579 18353 18580 18581 
2313 2314 2611 2610 2346 2347 2644 2643 16444 18356 18357 18349 16671 18583 18584 18576 16662 16669 18582 18575 18578 18585 16673 18586 18360 18587 18588 
2314 2315 2612 2611 2347 2348 2645 2644 16451 18363 18364 18356 16678 18590 18591 18583 16669 16676 18589 18582 18585 18592 16680 18593 18367 18594 18595 
2315 2316 2613 2612 2348 2349 2646 2645 16458 18370 18371 18363 16685 18597 18598 18590 16676 16683 18596 18589 18592 18599 16687 18600 18374 18601 18602 
2316 2317 2614 2613 2349 2350 2647 2646 16465 18377 18378 18370 16692 18604 18605 18597 16683 16690 18603 18596 18599 18606 16694 18607 18381 18608 18609 
2317 2318 2615 2614 2350 2351 2648 2647 16472 18384 18385 18377 16699 18611 18612 18604 16690 16697 18610 18603 18606 18613 16701 18614 18388 18615 18616 
2318 2319 2616 2615 2351 2352 2649 2648 16479 18391 18392 18384 16706 18618 18619 18611 16697 16704 18617 18610 18613 18620 16708 18621 18395 18622 18623 
2319 2320 2617 2616 2352 2353 2650 2649 16486 18398 18399 18391 16713 18625 18626 18618 16704 16711 18624 18617 18620 18627 16715 18628 18402 18629 18630 
2320 2321 2618 2617 2353 2354 2651 2650 16493 18405 18406 18398 16720 18632 18633 18625 16711 16718 18631 18624 18627 18634 16722 18635 18409 18636 18637 
2321 2322 2619 2618 2354 2355 2652 2651 16500 18412 18413 18405 16727 18639 18640 18632 16718 16725 18638 18631 18634 18641 16729 18642 18416 18643 18644 
2322 2323 2620 2619 2355 2356 2653 2652 16507 18419 18420 18412 16734 18646 18647 18639 16725 16732 18645 18638 18641 18648 16736 18649 18423 18650 18651 
2323 2324 2621 2620 2356 2357 2654 2653 16514 18426 18427 18419 16741 18653 18654 18646 16732 16739 18652 18645 18648 18655 16743 18656 18430 18657 18658 
2324 2325 2622 2621 2357 2358 2655 2654 16521 18433 18434 18426 16748 18660 18661 18653 16739 16746 18659 18652 18655 18662 16750 18663 18437 18664 18665 
2325 2326 2623 2622 2358 2359 2656 2655 16528 18440 18441 18433 16755 18667 18668 18660 16746 16753 18666 18659 18662 18669 16757 18670 18444 18671 18672 
2326 2327 2624 2623 2359 2360 2657 2656 16535 18447 18448 18440 16762 18674 18675 18667 16753 16760 18673 18666 18669 18676 16764 18677 18451 18678 18679 
2327 2328 2625 2624 2360 2361 2658 2657 16542 18454 18455 18447 16769 18681 18682 18674 16760 16767 18680 18673 18676 18683 16771 18684 18458 18685 18686 
2328 2329 2626 2625 2361 2362 2659 2658 16549 18461 18462 18454 16776 18688 18689 18681 16767 16774 18687 18680 18683 18690 16778 18691 18465 18692 18693 
2329 2330 2627 2626 2362 2363 2660 2659 16556 18468 18469 18461 16783 18695 18696 18688 16774 16781 18694 18687 18690 18697 16785 18698 18472 18699 18700 
2330 2331 2628 2627 2363 2364 2661 2660 16563 18475 18476 18468 16790 18702 18703 18695 16781 16788 18701 18694 18697 18704 16792 18705 18479 18706 18707 
2331 2332 2629 2628 2364 2365 2662 2661 16570 18482 18483 18475 16797 18709 18710 18702 16788 16795 18708 18701 18704 18711 16799 18712 18486 18713 18714 
2332 2333 2630 2629 2365 2366 2663 2662 16577 18489 18490 18482 16804 18716 18717 18709 16795 16802 18715 18708 18711 18718 16806 18719 18493 18720 18721 
2333 2334 2631 2630 2366 2367 2664 2663 16584 18496 18497 18489 16811 18723 18724 18716 16802 16809 18722 18715 18718 18725 16813 18726 18500 18727 18728 
2334 2335 2632 2631 2367 2368 2665 2664 16591 18503 18504 18496 16818 18730 18731 18723 16809 16816 18729 18722 18725 18732 16820 18733 18507 18734 18735 
2335 2336 2633 2632 2368 2369 2666 2665 16598 18510 18511 18503 16825 18737 18738 18730 16816 16823 18736 18729 18732 18739 16827 18740 18514 18741 18742 
2336 2337 2634 2633 2369 2370 2667 2666 16605 18517 18518 18510 16832 18744 18745 18737 16823 16830 18743 18736 18739 18746 16834 18747 18521 18748 18749 
2337 2338 2635 2634 2370 2371 2668 2667 16612 18524 18525 18517 16839 18751 18752 18744 16830 16837 18750 18743 18746 18753 16841 18754 18528 18755 18756 
2338 2339 2636 2635 2371 2372 2669 2668 16619 18531 18532 18524 16846 18758 18759 18751 16837 16844 18757 18750 18753 18760 16848 18761 18535 18762 18763 
2339 2340 2637 2636 2372 2373 2670 2669 16626 18538 18539 18531 16853 18765 18766 18758 16844 16851 18764 18757 18760 18767 16855 18768 18542 18769 18770 
2340 2341 2638 2637 2373 2374 2671 2670 16633 18545 18546 18538 16860 18772 18773 18765 16851 16858 18771 18764 18767 18774 16862 18775 18549 18776 18777 
2341 2342 2639 2638 2374 2375 2672 2671 16640 18552 18553 18545 16867 18779 18780 18772 16858 16865 18778 18771 18774 18781 16869 18782 18556 18783 18784 
CELL_TYPES 2048
29 29 29 29 29 29 29 29 29 29 29 29 29 29 29 29 29 29 29 29 29 29 29 29 29 29 29 29 29 29 29 29 29 29 29 29 29 29 29 29 29 29 29 29 29 29 29 29 29 29 29 29 29 29 29 29 29 29 29 29 29 29 29 29 29 29 29 29 29 29 29 29 29 29 29 29 29 29 29 29 29 29 29 29 29 29 29 29 29 29 29 29 29 29 29 29 29 29 29 29 29 29 29 29 29 29 29 29 29 29 29 29 29 29 29 29 29 29 29 29 29 29 29 29 29 29 29 29 29 29 29 29 29 29 29 29 29 29 29 29 29 29 29 29 29 29 29 29 29 29 29 29 29 29 29 29 29 29 29 29 29 29 29 29 29 29 29 29 29 29 29 29 29 29 29 29 29 29 29 29 29 29 29 29 29 29 29 29 29 29 29 29 29 29 29 29 29 29 29 29 29 29 29 29 29 29 29 29 29 29 29 29 29 29 29 29 29 29 29 29 29 29 29 29 29 29 29 29 29 29 29 29 29 29 29 29 29 29 29 29 29 29 29 29 29 29 29 29 29 29 29 29 29 29 29 29 29 29 29 29 29 29 29 29 29 29 29 29 29 29 29 29 29 29 29 29 29 29 29 29 29 29 29 29 29 29 29 29 29 29 29 29 29 29 29 29 29 29 29 29 29 29 29 29 29 29 29 29 29 29 29 29 29 29 29 29 29 29 29 29 29 29 29 29 29 29 29 29 29 29 29 29 29 29 29 29 29 29 29 29 29 29 29 29 29 29 29 29 29 29 29 29 29 29 29 29 29 29 29 29 29 29 29 29 29 29 29 29 29 29 29 29 29 29 29 29 29 29 29 29 29 29 29 29 29 29 29 29 29 29 29 29 29 29 29 29 29 29 29 29 29 29 29 29 29 29 29 29 29 29 29 29 29 29 29 29 29 29 29 29 29 29 29 29 29 29 29 29 29 29 29 29 29 29 29 29 29 29 29 29 29 29 29 29 29 29 29 29 29 29 29 29 29 29 29 29 29 29 29 29 29 29 29 29 29 29 29 29 29 29 29 29 29 29 29 29 29 29 29 29 29 29 29 29 29 29 29 29 29 29 29 29 29 29 29 29 29 29 29 29 29 29 29 29 29 29 29 29 29 29 29 29 29 29 29 29 29 29 29 29 29 29 29 29 29 29 29 29 29 29 29 29 29 29 29 29 29 29 29 29 29 29 29 29 29 29 29 29 29 29 29 29 29 29 29 29 29 29 29 29 29 29 29 29 29 29 29 29 29 29 29 29 29 29 29 29 29 29 29 29 29 29 29 29 29 29 29 29 29 29 29 29 29 29 29 29 29 29 29 29 29 29 29 29 29 29 29 29 29 29 29 29 29 29 29 29 29 29 29 29 29 29 29 29 29 29 29 29 29 29 29 29 29 29 29 29 29 29 29 29 29 29 29 29 29 29 29 29 29 29 29 29 29 29 29 29 29 29 29 29 29 29 29 29 29 29 29 29 29 29 29 29 29 29 29 29 29 29 29 29 29 29 29 29 29 29 29 29 29 29 29 29 29 29 29 29 29 29 29 29 29 29 29 29 29 29 29 29 29 29 29 29 29 29 29 29 29 29 29 29 29 29 29 29 29 29 29 29 29 29 29 29 29 29 29 29 29 29 29 29 29 29 29 29 29 29 29 29 29 29 29 29 29 29 29 29 29 29 29 29 29 29 29 29 29 29 29 29 29 29 29 29 29 29 29 29 29 29 29 29 29 29 29 29 29 29 29 29 29 29 29 29 29 29 29 29 29 29 29 29 29 29 29 29 29 29 29 29 29 29 29 29 29 29 29 29 29 29 29 29 29 29 29 29 29 29 29 29 29 29 29 29 29 29 29 29 29 29 29 29 29 29 29 29 29 29 29 29 29 29 29 29 29 29 29 29 29 29 29 29 29 29 29 29 29 29 29 29 29 29 29 29 29 29 29 29 29 29 29 29 29 29 29 29 29 29 29 29 29 29 29 29 29 29 29 29 29 29 29 29 29 29 29 29 29 29 29 29 29 29 29 29 29 29 29 29 29 29 29 29 29 29 29 29 29 29 29 29 29 29 29 29 29 29 29 29 29 29 29 29 29 29 29 29 29 29 29 29 29 29 29 29 29 29 29 29 29 29 29 29 29 29 29 29 29 29 29 29 29 29 29 29 29 29 29 29 29 29 29 29 29 29 29 29 29 29 29 29 29 29 29 29 29 29 29 29 29 29 29 29 29 29 29 29 29 29 29 29 29 29 29 29 29 29 29 29 29 29 29 29 29 29 29 29 29 29 29 29 29 29 29 29 29 29 29 29 29 29 29 29 29 29 29 29 29 29 29 29 29 29 29 29 29 29 29 29 29 29 29 29 29 29 29 29 29 29 29 29 29 29 29 29 29 29 29 29 29 29 29 29 29 29 29 29 29 29 29 29 29 29 29 29 29 29 29 29 29 29 29 29 29 29 29 29 29 29 29 29 29 29 29 29 29 29 29 29 29 29 29 29 29 29 29 29 29 29 29 29 29 29 29 29 29 29 29 29 29 29 29 29 29 29 29 29 29 29 29 29 29 29 29 29 29 29 29 29 29 29 29 29 29 29 29 29 29 29 29 29 29 29 29 29 29 29 29 29 29 29 29 29 29 29 29 29 29 29 29 29 29 29 29 29 29 29 29 29 29 29 29 29 29 29 29 29 29 29 29 29 29 29 29 29 29 29 29 29 29 29 29 29 29 29 29 29 29 29 29 29 29 29 29 29 29 29 29 29 29 29 29 29 29 29 29 29 29 29 29 29 29 29 29 29 29 29 29 29 29 29 29 29 29 29 29 29 29 29 29 29 29 29 29 29 29 29 29 29 29 29 29 29 29 29 29 29 29 29 29 29 29 29 29 29 29 29 29 29 29 29 29 29 29 29 29 29 29 29 29 29 29 29 29 29 29 29 29 29 29 29 29 29 29 29 29 29 29 29 29 29 29 29 29 29 29 29 29 29 29 29 29 29 29 29 29 29 29 29 29 29 29 29 29 29 29 29 29 29 29 29 29 29 29 29 29 29 29 29 29 29 29 29 29 29 29 29 29 29 29 29 29 29 29 29 29 29 29 29 29 29 29 29 29 29 29 29 29 29 29 29 29 29 29 29 29 29 29 29 29 29 29 29 29 29 29 29 29 29 29 29 29 29 29 29 29 29 29 29 29 29 29 29 29 29 29 29 29 29 29 29 29 29 29 29 29 29 29 29 29 29 29 29 29 29 29 29 29 29 29 29 29 29 29 29 29 29 29 29 29 29 29 29 29 29 29 29 29 29 29 29 29 29 29 29 29 29 29 29 29 29 29 29 29 29 29 29 29 29 29 29 29 29 29 29 29 29 29 29 29 29 29 29 29 29 29 29 29 29 29 29 29 29 29 29 29 29 29 29 29 29 29 29 29 29 29 29 29 29 29 29 29 29 29 29 29 29 29 29 29 29 29 29 29 29 29 29 29 29 29 29 29 29 29 29 29 29 29 29 29 29 29 29 29 29 29 29 29 29 29 29 29 29 29 29 29 29 29 29 29 29 29 29 29 29 29 29 29 29 29 29 29 29 29 29 29 29 29 29 29 29 29 29 29 29 29 29 29 29 29 29 29 29 29 29 29 29 29 29 29 29 29 29 29 29 29 29 29 29 29 29 29 29 29 29 29 29 29 29 29 29 29 29 29 29 29 29 29 29 29 29 29 29 29 29 29 29 29 29 29 29 29 29 29 29 29 29 29 29 29 29 29 29 29 29 29 29 29 29 29 29 29 29 29 29 29 29 29 29 29 29 29 29 29 29 29 29 29 29 29 29 29 29 29 29 29 29 29 29 29 29 29 29 29 29 29 29 29 29 29 29 29 29 29 29 29 29 29 29 29 29 29 29 29 29 29 29 29 29 29 29 29 29 29 29 29 29 29 29 29 29 29 29 29 29 29 29 29 29 29 29 29 29 29 29 29 29 29 29 29 29 29 29 29 29 29 29 29 29 29 29 29 29 29 29 29 29 29 29 29 29 29 29 29 29 29 29 29 29 29 29 29 29 29 29 29 29 29 29 29 29 29 29 29 29 29 29 29 29 29 29 29 29 29 29 29 29 29 29 29 29 29 29 29 29 29 29 29 29 29 29 29 29 29 29 29 29 29 29 29 29 29 29 29 29 29 29 29 29 29 29 29 29 29 29 29 29 29 29 29 29 29 29 29 29 29 29 29 29 29 29 29 29 29 29 29 29 29 29 29 29 29 29 29 29 29 29 29 29 29 29 29 29 29 29 29 29 29 29 29 29 29 29 29 29 29 29 29 29 29 29 29 29 29 29 29 29 29 29 29 29 29 29 29 29 29 29 29 29 29 29 29 29 29 29 29 29 29 29 29 29 29 29 29 29 29 29 29 29 29 29 29 29 29 29 29 29 29 29 29 29 29 29 29 29 29 29 29 29 29 29 29 29 29 29 29 29 29 29 29 29 29 29 29 29 29 29 29 29 29 29 29 29 29 29 29 29 29 29 29 29 29 29 29 29 29 29 29 29 29 29 29 29 29 29 29 29 29 29 29 29 29 29 29 29 29 29 29 29 29 29 

POINT_DATA 18785
SCALARS weights float 1
LOOKUP_TABLE default
0.072338 0.144676 0.144676 0.144676 0.144676 0.144676 0.144676 0.144676 0.144676 0.144676 0.144676 0.144676 0.144676 0.144676 0.144676 0.144676 0.144676 0.144676 0.144676 0.144676 0.144676 0.144676 0.144676 0.144676 0.144676 0.144676 0.144676 0.144676 0.144676 0.144676 0.144676 0.144676 0.072338 0.144676 0.289352 0.289352 0.289352 0.289352 0.289352 0.289352 0.289352 0.289352 0.289352 0.289352 0.289352 0.289352 0.289352 0.289352 0.289352 0.289352 0.289352 0.289352 0.289352 0.289352 0.289352 0.289352 0.289352 0.289352 0.289352 0.289352 0.289352 0.289352 0.289352 0.289352 0.289352 0.144676 0.144676 0.289352 0.289352 0.289352 0.289352 0.289352 0.289352 0.289352 0.289352 0.289352 0.289352 0.289352 0.289352 0.289352 0.289352 0.289352 0.289352 0.289352 0.289352 0.289352 0.289352 0.289352 0.289352 0.289352 0.289352 0.289352 0.289352 0.289352 0.289352 0.289352 0.289352 0.289352 0.144676 0.144676 0.289352 0.289352 0.289352 0.289352 0.289352 0.289352 0.289352 0.289352 0.289352 0.289352 0.289352 0.289352 0.289352 0.289352 0.289352 0.289352 0.289352 0.289352 0.289352 0.289352 0.289352 0.289352 0.289352 0.289352 0.289352 0.289352 0.289352 0.289352 0.289352 0.289352 0.289352 0.144676 0.144676 0.289352 0.289352 0.289352 0.289352 0.289352 0.289352 0.289352 0.289352 0.289352 0.289352 0.289352 0.289352 0.289352 0.289352 0.289352 0.289352 0.289352 0.289352 0.289352 0.289352 0.289352 0.289352 0.289352 0.289352 0.289352 0.289352 0.289352 0.289352 0.289352 0.289352 0.289352 0.144676 0.144676 0.289352 0.289352 0.289352 0.289352 0.289352 0.289352 0.289352 0.289352 0.289352 0.289352 0.289352 0.289352 0.289352 0.289352 0.289352 0.289352 0.289352 0.289352 0.289352 0.289352 0.289352 0.289352 0.289352 0.289352 0.289352 0.289352 0.289352 0.289352 0.289352 0.289352 0.289352 0.144676 0.144676 0.289352 0.289352 0.289352 0.289352 0.289352 0.289352 0.289352 0.289352 0.289352 0.289352 0.289352 0.289352 0.289352 0.289352 0.289352 0.289352 0.289352 0.289352 0.289352 0.289352 0.289352 0.289352 0.289352 0.289352 0.289352 0.289352 0.289352 0.289352 0.289352 0.289352 0.289352 0.144676 0.144676 0.289352 0.289352 0.289352 0.289352 0.289352 0.289352 0.289352 0.289352 0.289352 0.289352 0.289352 0.289352 0.289352 0.289352 0.289352 0.289352 0.289352 0.289352 0.289352 0.289352 0.289352 0.289352 0.289352 0.289352 0.289352 0.289352 0.289352 0.289352 0.289352 0.289352 0.289352 0.144676 0.072338 0.144676 0.144676 0.144676 0.144676 0.144676 0.144676 0.144676 0.144676 0.144676 0.144676 0.144676 0.144676 0.144676 0.144676 0.144676 0.144676 0.144676 0.144676 0.144676 0.144676 0.144676 0.144676 0.144676 0.144676 0.144676 0.144676 0.144676 0.144676 0.144676 0.144676 0.144676 0.072338 0.144676 0.289352 0.289352 0.289352 0.289352 0.289352 0.289352 0.289352 0.289352 0.289352 0.289352 0.289352 0.289352 0.289352 0.289352 0.289352 0.289352 0.289352 0.289352 0.289352 0.289352 0.289352 0.289352 0.289352 0.289352 0.289352 0.289352 0.289352 0.289352 0.289352 0.289352 0.289352 0.144676 0.289352 0.578704 0.578704 0.578704 0.578704 0.578704 0.578704 0.578704 0.578704 0.578704 0.578704 0.578704 0.578704 0.578704 0.578704 0.578704 0.578704 0.578704 0.578704 0.578703 0.578704 0.578704 0.578704 0.578704 0.578704 0.578704 0.578704 0.578704 0.578703 0.578703 0.578704 0.578704 0.289352 0.289352 0.578704 0.578704 0.578704 0.578704 0.578704 0.578704 0.578704 0.578704 0.578704 0.578704 0.578704 0.578704 0.578704 0.578704 0.578704 0.578704 0.578704 0.578704 0.578703 0.578704 0.578704 0.578704 0.578704 0.578704 0.578704 0.578704 0.578704 0.578703 0.578703 0.578704 0.578704 0.289352 0.289352 0.578704 0.578704 0.578704 0.578704 0.578704 0.578704 0.578704 0.578704 0.578704 0.578704 0.578704 0.578704 0.578704 0.578704 0.578704 0.578704 0.578704 0.578704 0.578703 0.578704 0.578704 0.578704 0.578704 0.578704 0.578704 0.578704 0.578704 0.578703 0.578703 0.578704 0.578704 0.289352 0.289352 0.578704 0.578704 0.578704 0.578704 0.578704 0.578704 0.578704 0.578704 0.578704 0.578704 0.578704 0.578704 0.578704 0.578704 0.578704 0.578704 0.578704 0.578704 0.578703 0.578704 0.578704 0.578704 0.578704 0.578704 0.578703 0.578704 0.578704 0.578703 0.578703 0.578704 0.578704 0.289352 0.289352 0.578704 0.578704 0.578704 0.578704 0.578704 0.578704 0.578704 0.578704 0.578704 0.578704 0.578704 0.578704 0.578704 0.578704 0.578704 0.578704 0.578704 0.578704 0.578703 0.578704 0.578704 0.578704 0.578704 0.578704 0.578704 0.578704 0.578704 0.578703 0.578703 0.578704 0.578704 0.289352 0.289352 0.578704 0.578704 0.578704 0.578704 0.578704 0.578704 0.578704 0.578704 0.578704 0.578704 0.578704 0.578704 0.578704 0.578704 0.578704 0.578704 0.578704 0.578704 0.578704 0.578704 0.578704 0.578704 0.578704 0.578704 0.578704 0.578704 0.578704 0.578703 0.578703 0.578704 0.578704 0.289352 0.289352 0.578704 0.578704 0.578704 0.578704 0.578704 0.578704 0.578704 0.578704 0.578704 0.578704 0.578704 0.578704 0.578704 0.578704 0.578704 0.578704 0.578704 0.578704 0.578703 0.578704 0.578704 0.578704 0.578704 0.578704 0.578704 0.578704 0.578704 0.578703 0.578703 0.578704 0.578704 0.289352 0.144676 0.289352 0.289352 0.289352 0.289352 0.289352 0.289352 0.289352 0.289352 0.289352 0.289352 0.289352 0.289352 0.289352 0.289352 0.289352 0.289352 0.289352 0.289352 0.289352 0.289352 0.289352 0.289352 0.289352 0.289352 0.289352 0.289352 0.289352 0.289351 0.289352 0.289352 0.289352 0.144676 0.144676 0.289352 0.289352 0.289352 0.289352 0.289352 0.289352 0.289352 0.289352 0.289352 0.289352 0.289352 0.289352 0.289352 0.289352 0.289352 0.289352 0.289352 0.289352 0.289352 0.289352 0.289352 0.289352 0.289352 0.289352 0.289352 0.289352 0.289352 0.289352 0.289352 0.289352 0.289352 0.144676 0.289352 0.578704 0.578704 0.578704 0.578704 0.578704 0.578704 0.578704 0.578704 0.578704 0.578704 0.578704 0.578704 0.578704 0.578704 0.578704 0.578704 0.578704 0.578704 0.578704 0.578704 0.578704 0.578704 0.578704 0.578704 0.578704 0.578704 0.578704 0.578703 0.578703 0.578704 0.578704 0.289352 0.289352 0.578704 0.578704 0.578704 0.578704 0.578704 0.578704 0.578704 0.578704 0.578704 0.578704 0.578704 0.578704 0.578704 0.578704 0.578704 0.578704 0.578704 0.578704 0.578704 0.578704 0.578704 0.578704 0.578704 0.578704 0.578704 0.578704 0.578704 0.578703 0.578703 0.578704 0.578704 0.289352 0.289352 0.578704 0.578704 0.578704 0.578704 0.578704 0.578704 0.578704 0.578704 0.578704 0.578704 0.578704 0.578704 0.578704 0.578704 0.578704 0.578704 0.578704 0.578704 0.578703 0.578704 0.578704 0.578704 0.578704 0.578704 0.578704 0.578704 0.578704 0.578703 0.578703 0.578704 0.578704 0.289352 0.289352 0.578704 0.578704 0.578704 0.578704 0.578704 0.578704 0.578704 0.578704 0.578704 0.578704 0.578704 0.578704 0.578704 0.578704 0.578704 0.578704 0.578704 0.578704 0.578703 0.578704 0.578704 0.578704 0.578704 0.578704 0.578704 0.578704 0.578704 0.578703 0.578703 0.578704 0.578704 0.289352 0.289352 0.578704 0.578704 0.578704 0.578704 0.578704 0.578704 0.578704 0.578704 0.578704 0.578704 0.578704 0.578704 0.578704 0.578704 0.578704 0.578704 0.578704 0.578704 0.578704 0.578704 0.578704 0.578704 0.578704 0.578704 0.578704 0.578704 0.578704 0.578703 0.578703 0.578704 0.578704 0.289352 0.289352 0.578704 0.578704 0.578704 0.578704 0.578704 0.578704 0.578704 0.578704 0.578704 0.578704 0.578704 0.578704 0.578704 0.578704 0.578704 0.578704 0.578704 0.578704 0.578704 0.578704 0.578704 0.578704 0.578704 0.578704 0.578704 0.578704 0.578704 0.578703 0.578703 0.578704 0.578704 0.289352 0.289352 0.578704 0.578704 0.578704 0.578704 0.578704 0.578704 0.578704 0.578704 0.578704 0.578704 0.578704 0.578704 0.578704 0.578704 0.578704 0.578704 0.578704 0.578704 0.578703 0.578704 0.578704 0.578704 0.578704 0.578704 0.578704 0.578704 0.578704 0.578703 0.578703 0.578704 0.578704 0.289352 0.144676 0.289352 0.289352 0.289352 0.289352 0.289352 0.289352 0.289352 0.289352 0.289352 0.289352 0.289352 0.289352 0.289352 0.289352 0.289352 0.289352 0.289352 0.289352 0.289352 0.289352 0.289352 0.289352 0.289352 0.289352 0.289352 0.289352 0.289352 0.289352 0.289352 0.289352 0.289352 0.144676 0.144676 0.289352 0.289352 0.289352 0.289352 0.289352 0.289352 0.289352 0.289352 0.289352 0.289352 0.289352 0.289352 0.289352 0.289352 0.289352 0.289352 0.289352 0.289352 0.289352 0.289352 0.289352 0.289352 0.289352 0.289352 0.289352 0.289352 0.289352 0.289351 0.289352 0.289352 0.289352 0.144676 0.289352 0.578704 0.578704 0.578704 0.578704 0.578704 0.578704 0.578704 0.578704 0.578704 0.578703 0.578704 0.578704 0.578704 0.578704 0.578704 0.578704 0.578704 0.578703 0.578703 0.578703 0.578704 0.578703 0.578704 0.578703 0.578703 0.578704 0.578704 0.578703 0.578703 0.578703 0.578704 0.289352 0.289352 0.578704 0.578704 0.578704 0.578704 0.578704 0.578704 0.578704 0.578704 0.578704 0.578703 0.578704 0.578704 0.578704 0.578704 0.578703 0.578704 0.578704 0.578703 0.578703 0.578703 0.578704 0.578703 0.578704 0.578703 0.578703 0.578704 0.578704 0.578703 0.578703 0.578703 0.578704 0.289352 0.289352 0.578704 0.578704 0.578704 0.578704 0.578704 0.578704 0.578704 0.578704 0.578704 0.578703 0.578703 0.578704 0.578704 0.578704 0.578704 0.578704 0.578703 0.578703 0.578703 0.578703 0.578704 0.578703 0.578704 0.578703 0.578703 0.578704 0.578704 0.578703 0.578703 0.578703 0.578704 0.289352 0.289352 0.578704 0.578704 0.578704 0.578703 0.578704 0.578704 0.578704 0.578704 0.578704 0.578703 0.578703 0.578703 0.578704 0.578703 0.578703 0.578704 0.578703 0.578703 0.578703 0.578703 0.578704 0.578703 0.578703 0.578703 0.578703 0.578704 0.578704 0.578703 0.578703 0.578703 0.578703 0.289352 0.289352 0.578704 0.578704 0.578704 0.578704 0.578704 0.578704 0.578704 0.578704 0.578704 0.578703 0.578704 0.578704 0.578704 0.578704 0.578703 0.578704 0.578703 0.578703 0.578703 0.578703 0.578704 0.578703 0.578703 0.578703 0.578703 0.578704 0.578704 0.578703 0.578703 0.578703 0.578704 0.289352 0.289352 0.578704 0.578704 0.578704 0.578704 0.578704 0.578704 0.578704 0.578704 0.578704 0.578703 0.578704 0.578704 0.578704 0.578704 0.578704 0.578704 0.578704 0.578703 0.578703 0.578703 0.578704 0.578703 0.578704 0.578704 0.578703 0.578704 0.578704 0.578703 0.578703 0.578703 0.578704 0.289352 0.289352 0.578704 0.578704 0.578704 0.578704 0.578704 0.578704 0.578704 0.578704 0.578704 0.578703 0.578703 0.578704 0.578704 0.578704 0.578703 0.578704 0.578703 0.578703 0.578703 0.578703 0.578704 0.578703 0.578703 0.578703 0.578703 0.578704 0.578704 0.578703 0.578703 0.578703 0.578704 0.289352 0.144676 0.289352 0.289352 0.289352 0.289352 0.289352 0.289352 0.289352 0.289352 0.289352 0.289352 0.289352 0.289352 0.289352 0.289352 0.289352 0.289352 0.289352 0.289352 0.289352 0.289352 0.289352 0.289352 0.289352 0.289352 0.289352 0.289352 0.289352 0.289351 0.289352 0.289352 0.289352 0.144676 0.144676 0.289352 0.289352 0.289352 0.289352 0.289352 0.289352 0.289352 0.289352 0.289352 0.289352 0.289352 0.289352 0.289352 0.289352 0.289352 0.289352 0.289352 0.289352 0.289352 0.289352 0.289352 0.289352 0.289352 0.289352 0.289352 0.289352 0.289352 0.289352 0.289352 0.289352 0.289352 0.144676 0.289352 0.578704 0.578704 0.578704 0.578704 0.578704 0.578704 0.578704 0.578704 0.578704 0.578704 0.578704 0.578704 0.578704 0.578704 0.578704 0.578704 0.578704 0.578704 0.578703 0.578704 0.578704 0.578704 0.578704 0.578704 0.578704 0.578704 0.578704 0.578703 0.578703 0.578704 0.578704 0.289352 0.289352 0.578704 0.578704 0.578704 0.578704 0.578704 0.578704 0.578704 0.578704 0.578704 0.578704 0.578704 0.578704 0.578704 0.578704 0.578704 0.578704 0.578704 0.578704 0.578703 0.578704 0.578704 0.578704 0.578704 0.578704 0.578704 0.578704 0.578704 0.578703 0.578703 0.578704 0.578704 0.289352 0.289352 0.578704 0.578704 0.578704 0.578704 0.578704 0.578704 0.578704 0.578704 0.578704 0.578704 0.578704 0.578704 0.578704 0.578704 0.578704 0.578704 0.578704 0.578704 0.578703 0.578704 0.578704 0.578704 0.578704 0.578704 0.578704 0.578704 0.578704 0.578703 0.578703 0.578704 0.578704 0.289352 0.289352 0.578704 0.578704 0.578704 0.578704 0.578704 0.578704 0.578704 0.578704 0.578704 0.578704 0.578704 0.578704 0.578704 0.578704 0.578704 0.578704 0.578704 0.578704 0.578703 0.578704 0.578704 0.578704 0.578704 0.578704 0.578704 0.578704 0.578704 0.578703 0.578703 0.578704 0.578704 0.289352 0.289352 0.578704 0.578704 0.578704 0.578704 0.578704 0.578704 0.578704 0.578704 0.578704 0.578704 0.578704 0.578704 0.578704 0.578704 0.578704 0.578704 0.578704 0.578704 0.578703 0.578704 0.578704 0.578704 0.578704 0.578704 0.578703 0.578704 0.578704 0.578703 0.578703 0.578704 0.578704 0.289352 0.289352 0.578704 0.578704 0.578704 0.578704 0.578704 0.578704 0.578704 0.578704 0.578704 0.578704 0.578704 0.578704 0.578704 0.578704 0.578704 0.578704 0.578704 0.578704 0.578703 0.578704 0.578704 0.578704 0.578704 0.578704 0.578704 0.578704 0.578704 0.578703 0.578703 0.578704 0.578704 0.289352 0.289352 0.578704 0.578704 0.578704 0.578704 0.578704 0.578704 0.578704 0.578704 0.578704 0.578704 0.578704 0.578704 0.578704 0.578704 0.578704 0.578704 0.578704 0.578704 0.578703 0.578704 0.578704 0.578704 0.578704 0.578704 0.578704 0.578704 0.578704 0.578703 0.578703 0.578704 0.578704 0.289352 0.144676 0.289352 0.289352 0.289352 0.289352 0.289352 0.289352 0.289352 0.289352 0.289352 0.289352 0.289352 0.289352 0.289352 0.289352 0.289352 0.289352 0.289352 0.289352 0.289352 0.289352 0.289352 0.289352 0.289352 0.289352 0.289352 0.289352 0.289352 0.289351 0.289352 0.289352 0.289352 0.144676 0.144676 0.289352 0.289352 0.289352 0.289352 0.289352 0.289352 0.289352 0.289352 0.289352 0.289352 0.289352 0.289352 0.289352 0.289352 0.289352 0.289352 0.289352 0.289352 0.289352 0.289352 0.289352 0.289352 0.289352 0.289352 0.289352 0.289352 0.289352 0.289352 0.289352 0.289352 0.289352 0.144676 0.289352 0.578704 0.578704 0.578704 0.578704 0.578704 0.578704 0.578704 0.578704 0.578704 0.578704 0.578704 0.578704 0.578704 0.578704 0.578704 0.578704 0.578704 0.578704 0.578704 0.578704 0.578704 0.578704 0.578704 0.578704 0.578704 0.578704 0.578704 0.578703 0.578704 0.578704 0.578704 0.289352 0.289352 0.578704 0.578704 0.578704 0.578704 0.578704 0.578704 0.578704 0.578704 0.578704 0.578704 0.578704 0.578704 0.578704 0.578704 0.578704 0.578704 0.578704 0.578704 0.578704 0.578704 0.578704 0.578704 0.578704 0.578704 0.578704 0.578704 0.578704 0.578703 0.578703 0.578704 0.578704 0.289352 0.289352 0.578704 0.578704 0.578704 0.578704 0.578704 0.578704 0.578704 0.578704 0.578704 0.578704 0.578704 0.578704 0.578704 0.578704 0.578704 0.578704 0.578704 0.578704 0.578704 0.578704 0.578704 0.578704 0.578704 0.578704 0.578704 0.578704 0.578704 0.578703 0.578703 0.578704 0.578704 0.289352 0.289352 0.578704 0.578704 0.578704 0.578704 0.578704 0.578704 0.578704 0.578704 0.578704 0.578704 0.578704 0.578704 0.578704 0.578704 0.578704 0.578704 0.578704 0.578704 0.578704 0.578704 0.578704 0.578704 0.578704 0.578704 0.578704 0.578704 0.578704 0.578703 0.578703 0.578704 0.578704 0.289352 0.289352 0.578704 0.578704 0.578704 0.578704 0.578704 0.578704 0.578704 0.578704 0.578704 0.578704 0.578704 0.578704 0.578704 0.578704 0.578704 0.578704 0.578704 0.578704 0.578704 0.578704 0.578704 0.578704 0.578704 0.578704 0.578704 0.578704 0.578704 0.578703 0.578703 0.578704 0.578704 0.289352 0.289352 0.578704 0.578704 0.578704 0.578704 0.578704 0.578704 0.578704 0.578704 0.578704 0.578704 0.578704 0.578704 0.578704 0.578704 0.578704 0.578704 0.578704 0.578704 0.578704 0.578704 0.578704 0.578704 0.578704 0.578704 0.578704 0.578704 0.578704 0.578703 0.578703 0.578704 0.578704 0.289352 0.289352 0.578704 0.578704 0.578704 0.578704 0.578704 0.578704 0.578704 0.578704 0.578704 0.578704 0.578704 0.578704 0.578704 0.578704 0.578704 0.578704 0.578704 0.578704 0.578704 0.578704 0.578704 0.578704 0.578704 0.578704 0.578704 0.578704 0.578704 0.578703 0.578703 0.578704 0.578704 0.289352 0.144676 0.289352 0.289352 0.289352 0.289352 0.289352 0.289352 0.289352 0.289352 0.289352 0.289352 0.289352 0.289352 0.289352 0.289352 0.289352 0.289352 0.289352 0.289352 0.289352 0.289352 0.289352 0.289352 0.289352 0.289352 0.289352 0.289352 0.289352 0.289352 0.289352 0.289352 0.289352 0.144676 0.144676 0.289352 0.289352 0.289352 0.289352 0.289352 0.289352 0.289352 0.289352 0.289352 0.289352 0.289352 0.289352 0.289352 0.289352 0.289352 0.289352 0.289352 0.289352 0.289352 0.289352 0.289352 0.289352 0.289352 0.289352 0.289352 0.289352 0.289352 0.289351 0.289352 0.289352 0.289352 0.144676 0.289352 0.578704 0.578704 0.578704 0.578704 0.578704 0.578704 0.578704 0.578704 0.578704 0.578703 0.578704 0.578704 0.578704 0.578704 0.578704 0.578704 0.578704 0.578703 0.578703 0.578703 0.578704 0.578703 0.578704 0.578704 0.578703 0.578704 0.578704 0.578703 0.578703 0.578703 0.578704 0.289352 0.289352 0.578704 0.578704 0.578704 0.578704 0.578704 0.578704 0.578704 0.578704 0.578704 0.578704 0.578704 0.578704 0.578704 0.578704 0.578704 0.578704 0.578703 0.578703 0.578703 0.578703 0.578704 0.578704 0.578704 0.578704 0.578703 0.578704 0.578704 0.578703 0.578703 0.578703 0.578704 0.289352 0.289352 0.578704 0.578704 0.578704 0.578704 0.578704 0.578704 0.578704 0.578704 0.578704 0.578703 0.578704 0.578704 0.578704 0.578704 0.578704 0.578704 0.578703 0.578703 0.578703 0.578703 0.578704 0.578703 0.578704 0.578703 0.578703 0.578704 0.578704 0.578703 0.578703 0.578703 0.578704 0.289352 0.289352 0.578704 0.578704 0.578704 0.578704 0.578704 0.578704 0.578704 0.578704 0.578703 0.578703 0.578703 0.578704 0.578704 0.578703 0.578703 0.578704 0.578703 0.578703 0.578703 0.578703 0.578704 0.578703 0.578703 0.578703 0.578703 0.578704 0.578704 0.578703 0.578703 0.578703 0.578704 0.289352 0.289352 0.578704 0.578704 0.578704 0.578704 0.578704 0.578704 0.578704 0.578704 0.578704 0.578703 0.578704 0.578704 0.578704 0.578704 0.578703 0.578704 0.578703 0.578703 0.578703 0.578703 0.578704 0.578704 0.578704 0.578703 0.578703 0.578704 0.578704 0.578703 0.578703 0.578703 0.578704 0.289352 0.289352 0.578704 0.578704 0.578704 0.578704 0.578704 0.578704 0.578704 0.578704 0.578704 0.578704 0.578704 0.578704 0.578704 0.578704 0.578704 0.578704 0.578704 0.578703 0.578703 0.578704 0.578704 0.578704 0.578704 0.578704 0.578703 0.578704 0.578704 0.578703 0.578703 0.578703 0.578704 0.289352 0.289352 0.578704 0.578704 0.578704 0.578704 0.578704 0.578704 0.578704 0.578704 0.578704 0.578703 0.578704 0.578704 0.578704 0.578704 0.578704 0.578704 0.578704 0.578703 0.578703 0.578703 0.578704 0.578703 0.578704 0.578703 0.578703 0.578704 0.578704 0.578703 0.578703 0.578703 0.578704 0.289352 0.144676 0.289352 0.289352 0.289352 0.289352 0.289352 0.289352 0.289352 0.289352 0.289352 0.289352 0.289352 0.289352 0.289352 0.289352 0.289352 0.289352 0.289352 0.289352 0.289352 0.289352 0.289352 0.289352 0.289352 0.289352 0.289352 0.289352 0.289352 0.289351 0.289352 0.289352 0.289352 0.144676 0.144676 0.289352 0.289352 0.289352 0.289352 0.289352 0.289352 0.289352 0.289352 0.289352 0.289352 0.289352 0.289352 0.289352 0.289352 0.289352 0.289352 0.289352 0.289352 0.289352 0.289352 0.289352 0.289352 0.289352 0.289352 0.289352 0.289352 0.289352 0.289352 0.289352 0.289352 0.289352 0.144676 0.289352 0.578704 0.578704 0.578704 0.578704 0.578704 0.578704 0.578704 0.578704 0.578704 0.578704 0.578704 0.578704 0.578704 0.578704 0.578704 0.578704 0.578704 0.578704 0.578703 0.578704 0.578704 0.578704 0.578704 0.578704 0.578704 0.578704 0.578704 0.578703 0.578703 0.578704 0.578704 0.289352 0.289352 0.578704 0.578704 0.578704 0.578704 0.578704 0.578704 0.578704 0.578704 0.578704 0.578704 0.578704 0.578704 0.578704 0.578704 0.578704 0.578704 0.578704 0.578704 0.578703 0.578704 0.578704 0.578704 0.578704 0.578704 0.578703 0.578704 0.578704 0.578703 0.578703 0.578704 0.578704 0.289352 0.289352 0.578704 0.578704 0.578704 0.578704 0.578704 0.578704 0.578704 0.578704 0.578704 0.578704 0.578704 0.578704 0.578704 0.578704 0.578704 0.578704 0.578704 0.578704 0.578703 0.578704 0.578704 0.578704 0.578704 0.578704 0.578703 0.578704 0.578704 0.578703 0.578703 0.578704 0.578704 0.289352 0.289352 0.578704 0.578704 0.578704 0.578704 0.578704 0.578704 0.578704 0.578704 0.578704 0.578704 0.578704 0.578704 0.578704 0.578704 0.578704 0.578704 0.578704 0.578703 0.578703 0.578704 0.578704 0.578704 0.578704 0.578704 0.578703 0.578704 0.578704 0.578703 0.578703 0.578704 0.578704 0.289352 0.289352 0.578704 0.578704 0.578704 0.578704 0.578704 0.578704 0.578704 0.578704 0.578704 0.578704 0.578704 0.578704 0.578704 0.578704 0.578704 0.578704 0.578704 0.578703 0.578703 0.578704 0.578704 0.578704 0.578704 0.578704 0.578704 0.578704 0.578704 0.578703 0.578703 0.578704 0.578704 0.289352 0.289352 0.578704 0.578704 0.578704 0.578704 0.578704 0.578704 0.578704 0.578704 0.578704 0.578704 0.578704 0.578704 0.578704 0.578704 0.578704 0.578704 0.578704 0.578704 0.578703 0.578704 0.578704 0.578704 0.578704 0.578704 0.578704 0.578704 0.578704 0.578703 0.578703 0.578704 0.578704 0.289352 0.289352 0.578704 0.578704 0.578704 0.578704 0.578704 0.578704 0.578704 0.578704 0.578704 0.578704 0.578704 0.578704 0.578704 0.578704 0.578704 0.578704 0.578704 0.578703 0.578703 0.578704 0.578704 0.578704 0.578704 0.578704 0.578703 0.578704 0.578704 0.578703 0.578703 0.578704 0.578704 0.289352 0.144676 0.289352 0.289352 0.289352 0.289352 0.289352 0.289352 0.289352 0.289352 0.289352 0.289352 0.289352 0.289352 0.289352 0.289352 0.289352 0.289352 0.289352 0.289352 0.289352 0.289352 0.289352 0.289352 0.289352 0.289352 0.289352 0.289352 0.289352 0.289351 0.289352 0.289352 0.289352 0.144676 0.072338 0.144676 0.144676 0.144676 0.144676 0.144676 0.144676 0.144676 0.144676 0.144676 0.144676 0.144676 0.144676 0.144676 0.144676 0.144676 0.144676 0.144676 0.144676 0.144676 0.144676 0.144676 0.144676 0.144676 0.144676 0.144676 0.144676 0.144676 0.144676 0.144676 0.144676 0.144676 0.072338 0.144676 0.289352 0.289352 0.289352 0.289352 0.289352 0.289352 0.289352 0.289352 0.289352 0.289352 0.289352 0.289352 0.289352 0.289352 0.289352 0.289352 0.289352 0.289352 0.289352 0.289352 0.289352 0.289352 0.289352 0.289352 0.289352 0.289352 0.289352 0.289351 0.289352 0.289352 0.289352 0.144676 0.144676 0.289352 0.289352 0.289352 0.289352 0.289352 0.289352 0.289352 0.289352 0.289352 0.289352 0.289352 0.289352 0.289352 0.289352 0.289352 0.289352 0.289352 0.289352 0.289352 0.289352 0.289352 0.289352 0.289352 0.289352 0.289352 0.289352 0.289352 0.289351 0.289352 0.289352 0.289352 0.144676 0.144676 0.289352 0.289352 0.289352 0.289352 0.289352 0.289352 0.289352 0.289352 0.289352 0.289352 0.289352 0.289352 0.289352 0.289352 0.289352 0.289352 0.289352 0.289352 0.289352 0.289352 0.289352 0.289352 0.289352 0.289352 0.289352 0.289352 0.289352 0.289351 0.289352 0.289352 0.289352 0.144676 0.144676 0.289352 0.289352 0.289352 0.289352 0.289352 0.289352 0.289352 0.289352 0.289352 0.289352 0.289352 0.289352 0.289352 0.289352 0.289352 0.289352 0.289352 0.289352 0.289352 0.289352 0.289352 0.289352 0.289352 0.289352 0.289352 0.289352 0.289352 0.289351 0.289352 0.289352 0.289352 0.144676 0.144676 0.289352 0.289352 0.289352 0.289352 0.289352 0.289352 0.289352 0.289352 0.289352 0.289352 0.289352 0.289352 0.289352 0.289352 0.289352 0.289352 0.289352 0.289352 0.289352 0.289352 0.289352 0.289352 0.289352 0.289352 0.289352 0.289352 0.289352 0.289351 0.289352 0.289352 0.289352 0.144676 0.144676 0.289352 0.289352 0.289352 0.289352 0.289352 0.289352 0.289352 0.289352 0.289352 0.289352 0.289352 0.289352 0.289352 0.289352 0.289352 0.289352 0.289352 0.289352 0.289352 0.289352 0.289352 0.289352 0.289352 0.289352 0.289352 0.289352 0.289352 0.289352 0.289352 0.289352 0.289352 0.144676 0.144676 0.289352 0.289352 0.289352 0.289352 0.289352 0.289352 0.289352 0.289352 0.289352 0.289352 0.289352 0.289352 0.289352 0.289352 0.289352 0.289352 0.289352 0.289352 0.289352 0.289352 0.289352 0.289352 0.289352 0.289352 0.289352 0.289352 0.289352 0.289351 0.289352 0.289352 0.289352 0.144676 0.0723379 0.144676 0.144676 0.144676 0.144676 0.144676 0.144676 0.144676 0.144676 0.144676 0.144676 0.144676 0.144676 0.144676 0.144676 0.144676 0.144676 0.144676 0.144676 0.144676 0.144676 0.144676 0.144676 0.144676 0.144676 0.144676 0.144676 0.144676 0.144676 0.144676 0.144676 0.144676 0.072338 0.072338 0.144676 0.144676 0.072338 0.072338 0.144676 0.289352 0.144676 0.144676 0.289352 0.289352 0.144676 0.072338 0.072338 0.144676 0.144676 0.072338 0.144676 0.072338 0.072338 0.144676 0.144676 0.144676 0.289352 0.144676 0.289352 0.289352 0.072338 0.072338 0.144676 0.144676 0.144676 0.072338 0.072338 0.144676 0.144676 0.144676 0.289352 0.144676 0.289352 0.289352 0.072338 0.072338 0.144676 0.144676 0.144676 0.072338 0.072338 0.144676 0.144676 0.144676 0.289352 0.144676 0.289352 0.289352 0.072338 0.072338 0.144676 0.144676 0.144676 0.072338 0.072338 0.144676 0.144676 0.144676 0.289352 0.144676 0.289352 0.289352 0.072338 0.072338 0.144676 0.144676 0.144676 0.072338 0.072338 0.144676 0.144676 0.144676 0.289352 0.144676 0.289352 0.289352 0.072338 0.072338 0.144676 0.144676 0.144676 0.072338 0.072338 0.144676 0.144676 0.144676 0.289352 0.144676 0.289352 0.289352 0.072338 0.072338 0.144676 0.144676 0.144676 0.072338 0.072338 0.144676 0.144676 0.144676 0.289352 0.144676 0.289352 0.289352 0.072338 0.072338 0.144676 0.144676 0.144676 0.072338 0.072338 0.144676 0.144676 0.144676 0.289352 0.144676 0.289352 0.289352 0.072338 0.072338 0.144676 0.144676 0.144676 0.072338 0.072338 0.144676 0.144676 0.144676 0.289352 0.144676 0.289352 0.289352 0.072338 0.072338 0.144676 0.144676 0.144676 0.072338 0.072338 0.144676 0.144676 0.144676 0.289352 0.144676 0.289352 0.289352 0.072338 0.072338 0.144676 0.144676 0.144676 0.072338 0.072338 0.144676 0.144676 0.144676 0.289352 0.144676 0.289352 0.289352 0.072338 0.072338 0.144676 0.144676 0.144676 0.072338 0.072338 0.144676 0.144676 0.144676 0.289352 0.144676 0.289352 0.289352 0.072338 0.072338 0.144676 0.144676 0.144676 0.072338 0.072338 0.144676 0.144676 0.144676 0.289352 0.144676 0.289352 0.289352 0.072338 0.072338 0.144676 0.144676 0.144676 0.072338 0.072338 0.144676 0.144676 0.144676 0.289352 0.144676 0.289352 0.289352 0.072338 0.072338 0.144676 0.144676 0.144676 0.072338 0.072338 0.144676 0.144676 0.144676 0.289352 0.144676 0.289352 0.289352 0.072338 0.072338 0.144676 0.144676 0.144676 0.072338 0.072338 0.144676 0.144676 0.144676 0.289352 0.144676 0.289352 0.289352 0.072338 0.072338 0.144676 0.144676 0.144676 0.072338 0.072338 0.144676 0.144676 0.144676 0.289352 0.144676 0.289352 0.289352 0.072338 0.072338 0.144676 0.144676 0.144676 0.072338 0.072338 0.144676 0.144676 0.144676 0.289352 0.144676 0.289352 0.289352 0.072338 0.072338 0.144676 0.144676 0.144676 0.072338 0.0723379 0.144676 0.144676 0.144676 0.289352 0.144676 0.289352 0.289352 0.0723379 0.0723379 0.144676 0.144676 0.144676 0.0723379 0.072338 0.144676 0.144676 0.144676 0.289352 0.144676 0.289352 0.289352 0.072338 0.072338 0.144676 0.144676 0.144676 0.072338 0.072338 0.144676 0.144676 0.144676 0.289352 0.144676 0.289352 0.289352 0.072338 0.072338 0.144676 0.144676 0.144676 0.072338 0.072338 0.144676 0.144676 0.144676 0.289352 0.144676 0.289352 0.289352 0.072338 0.072338 0.144676 0.144676 0.144676 0.072338 0.072338 0.144676 0.144676 0.144676 0.289352 0.144676 0.289352 0.289352 0.072338 0.072338 0.144676 0.144676 0.144676 0.072338 0.0723379 0.144676 0.144676 0.144676 0.289352 0.144676 0.289352 0.289352 0.0723379 0.0723379 0.144676 0.144676 0.144676 0.0723379 0.072338 0.144676 0.144676 0.144676 0.289352 0.144676 0.289352 0.289352 0.072338 0.072338 0.144676 0.144676 0.144676 0.072338 0.0723381 0.144676 0.144676 0.144676 0.289352 0.144676 0.289352 0.289352 0.0723381 0.0723381 0.144676 0.144676 0.144676 0.0723381 0.0723379 0.144676 0.144676 0.144676 0.289352 0.144676 0.289352 0.289352 0.0723379 0.0723379 0.144676 0.144676 0.144676 0.0723379 0.0723379 0.144676 0.144676 0.144676 0.289352 0.144676 0.289352 0.289351 0.0723379 0.0723379 0.144676 0.144676 0.144676 0.0723379 0.072338 0.144676 0.144676 0.144676 0.289352 0.144676 0.289352 0.289352 0.072338 0.072338 0.144676 0.144676 0.144676 0.072338 0.0723379 0.144676 0.144676 0.144676 0.289352 0.144676 0.289352 0.289352 0.0723379 0.0723379 0.144676 0.144676 0.144676 0.0723379 0.072338 0.072338 0.144676 0.072338 0.144676 0.144676 0.144676 0.289352 0.072338 0.072338 0.072338 0.144676 0.144676 0.072338 0.072338 0.144676 0.289352 0.144676 0.144676 0.289352 0.289352 0.144676 0.072338 0.144676 0.144676 0.072338 0.144676 0.072338 0.144676 0.289352 0.144676 0.289352 0.289352 0.072338 0.144676 0.144676 0.144676 0.072338 0.144676 0.289352 0.144676 0.289352 0.289352 0.072338 0.144676 0.144676 0.144676 0.072338 0.144676 0.289352 0.144676 0.289352 0.289352 0.072338 0.144676 0.144676 0.144676 0.072338 0.144676 0.289352 0.144676 0.289352 0.289352 0.072338 0.144676 0.144676 0.144676 0.072338 0.144676 0.289352 0.144676 0.289352 0.289352 0.072338 0.144676 0.144676 0.144676 0.072338 0.144676 0.289352 0.144676 0.289352 0.289352 0.072338 0.144676 0.144676 0.144676 0.072338 0.144676 0.289352 0.144676 0.289352 0.289352 0.072338 0.144676 0.144676 0.144676 0.072338 0.144676 0.289352 0.144676 0.289352 0.289352 0.072338 0.144676 0.144676 0.144676 0.072338 0.144676 0.289352 0.144676 0.289352 0.289352 0.072338 0.144676 0.144676 0.144676 0.072338 0.144676 0.289352 0.144676 0.289352 0.289352 0.072338 0.144676 0.144676 0.144676 0.072338 0.144676 0.289352 0.144676 0.289352 0.289352 0.072338 0.144676 0.144676 0.144676 0.072338 0.144676 0.289352 0.144676 0.289352 0.289352 0.072338 0.144676 0.144676 0.144676 0.072338 0.144676 0.289352 0.144676 0.289352 0.289352 0.072338 0.144676 0.144676 0.144676 0.072338 0.144676 0.289352 0.144676 0.289352 0.289352 0.072338 0.144676 0.144676 0.144676 0.072338 0.144676 0.289352 0.144676 0.289352 0.289352 0.072338 0.144676 0.144676 0.144676 0.072338 0.144676 0.289352 0.144676 0.289352 0.289352 0.072338 0.144676 0.144676 0.144676 0.072338 0.144676 0.289352 0.144676 0.289352 0.289352 0.072338 0.144676 0.144676 0.144676 0.072338 0.144676 0.289352 0.144676 0.289352 0.289352 0.072338 0.144676 0.144676 0.144676 0.072338 0.144676 0.289352 0.144676 0.289352 0.289352 0.0723379 0.144676 0.144676 0.144676 0.0723379 0.144676 0.289352 0.144676 0.289352 0.289352 0.072338 0.144676 0.144676 0.144676 0.072338 0.144676 0.289352 0.144676 0.289352 0.289352 0.072338 0.144676 0.144676 0.144676 0.072338 0.144676 0.289352 0.144676 0.289352 0.289352 0.072338 0.144676 0.144676 0.144676 0.072338 0.144676 0.289352 0.144676 0.289352 0.289352 0.072338 0.144676 0.144676 0.144676 0.072338 0.144676 0.289352 0.144676 0.289352 0.289352 0.0723379 0.144676 0.144676 0.144676 0.0723379 0.144676 0.289352 0.144676 0.289352 0.289352 0.072338 0.144676 0.144676 0.144676 0.072338 0.144676 0.289352 0.144676 0.289352 0.289352 0.0723381 0.144676 0.144676 0.144676 0.0723381 0.144676 0.289352 0.144676 0.289352 0.289352 0.0723379 0.144676 0.144676 0.144676 0.0723379 0.144676 0.289352 0.144676 0.289352 0.289351 0.0723379 0.144676 0.144676 0.144676 0.0723379 0.144676 0.289352 0.144676 0.289352 0.289352 0.072338 0.144676 0.144676 0.144676 0.072338 0.144676 0.289352 0.144676 0.289352 0.289352 0.0723379 0.144676 0.144676 0.144676 0.0723379 0.072338 0.144676 0.144676 0.144676 0.289352 0.072338 0.072338 0.144676 0.144676 0.072338 0.072338 0.144676 0.289352 0.144676 0.144676 0.289352 0.289352 0.144676 0.072338 0.144676 0.144676 0.072338 0.144676 0.072338 0.144676 0.289352 0.144676 0.289352 0.289352 0.072338 0.144676 0.144676 0.144676 0.072338 0.144676 0.289352 0.144676 0.289352 0.289352 0.072338 0.144676 0.144676 0.144676 0.072338 0.144676 0.289352 0.144676 0.289352 0.289352 0.072338 0.144676 0.144676 0.144676 0.072338 0.144676 0.289352 0.144676 0.289352 0.289352 0.072338 0.144676 0.144676 0.144676 0.072338 0.144676 0.289352 0.144676 0.289352 0.289352 0.072338 0.144676 0.144676 0.144676 0.072338 0.144676 0.289352 0.144676 0.289352 0.289352 0.072338 0.144676 0.144676 0.144676 0.072338 0.144676 0.289352 0.144676 0.289352 0.289352 0.072338 0.144676 0.144676 0.144676 0.072338 0.144676 0.289352 0.144676 0.289352 0.289352 0.072338 0.144676 0.144676 0.144676 0.072338 0.144676 0.289352 0.144676 0.289352 0.289352 0.072338 0.144676 0.144676 0.144676 0.072338 0.144676 0.289352 0.144676 0.289352 0.289352 0.072338 0.144676 0.144676 0.144676 0.072338 0.144676 0.289352 0.144676 0.289352 0.289352 0.072338 0.144676 0.144676 0.144676 0.072338 0.144676 0.289352 0.144676 0.289352 0.289352 0.072338 0.144676 0.144676 0.144676 0.072338 0.144676 0.289352 0.144676 0.289352 0.289352 0.072338 0.144676 0.144676 0.144676 0.072338 0.144676 0.289352 0.144676 0.289352 0.289352 0.072338 0.144676 0.144676 0.144676 0.072338 0.144676 0.289352 0.144676 0.289352 0.289352 0.072338 0.144676 0.144676 0.144676 0.072338 0.144676 0.289352 0.144676 0.289352 0.289352 0.072338 0.144676 0.144676 0.144676 0.072338 0.144676 0.289352 0.144676 0.289352 0.289352 0.072338 0.144676 0.144676 0.144676 0.072338 0.144676 0.289352 0.144676 0.289352 0.289352 0.072338 0.144676 0.144676 0.144676 0.072338 0.144676 0.289352 0.144676 0.289352 0.289352 0.0723379 0.144676 0.144676 0.144676 0.0723379 0.144676 0.289352 0.144676 0.289352 0.289352 0.072338 0.144676 0.144676 0.144676 0.072338 0.144676 0.289352 0.144676 0.289352 0.289352 0.072338 0.144676 0.144676 0.144676 0.072338 0.144676 0.289352 0.144676 0.289352 0.289352 0.072338 0.144676 0.144676 0.144676 0.072338 0.144676 0.289352 0.144676 0.289352 0.289352 0.072338 0.144676 0.144676 0.144676 0.072338 0.144676 0.289352 0.144676 0.289352 0.289352 0.0723379 0.144676 0.144676 0.144676 0.0723379 0.144676 0.289352 0.144676 0.289352 0.289352 0.072338 0.144676 0.144676 0.144676 0.072338 0.144676 0.289352 0.144676 0.289352 0.289352 0.0723381 0.144676 0.144676 0.144676 0.0723381 0.144676 0.289352 0.144676 0.289352 0.289352 0.0723379 0.144676 0.144676 0.144676 0.0723379 0.144676 0.289352 0.144676 0.289352 0.289351 0.0723379 0.144676 0.144676 0.144676 0.0723379 0.144676 0.289352 0.144676 0.289352 0.289352 0.072338 0.144676 0.144676 0.144676 0.072338 0.144676 0.289352 0.144676 0.289352 0.289352 0.0723379 0.144676 0.144676 0.144676 0.0723379 0.072338 0.144676 0.144676 0.144676 0.289352 0.072338 0.072338 0.144676 0.144676 0.072338 0.072338 0.144676 0.289352 0.144676 0.144676 0.289352 0.289352 0.144676 0.072338 0.144676 0.144676 0.072338 0.144676 0.072338 0.144676 0.289352 0.144676 0.289352 0.289352 0.072338 0.144676 0.144676 0.144676 0.072338 0.144676 0.289352 0.144676 0.289352 0.289352 0.072338 0.144676 0.144676 0.144676 0.072338 0.144676 0.289352 0.144676 0.289352 0.289352 0.072338 0.144676 0.144676 0.144676 0.072338 0.144676 0.289352 0.144676 0.289352 0.289352 0.072338 0.144676 0.144676 0.144676 0.072338 0.144676 0.289352 0.144676 0.289352 0.289352 0.072338 0.144676 0.144676 0.144676 0.072338 0.144676 0.289352 0.144676 0.289352 0.289352 0.072338 0.144676 0.144676 0.144676 0.072338 0.144676 0.289352 0.144676 0.289352 0.289352 0.072338 0.144676 0.144676 0.144676 0.072338 0.144676 0.289352 0.144676 0.289352 0.289352 0.072338 0.144676 0.144676 0.144676 0.072338 0.144676 0.289352 0.144676 0.289352 0.289352 0.072338 0.144676 0.144676 0.144676 0.072338 0.144676 0.289352 0.144676 0.289352 0.289352 0.072338 0.144676 0.144676 0.144676 0.072338 0.144676 0.289352 0.144676 0.289352 0.289352 0.072338 0.144676 0.144676 0.144676 0.072338 0.144676 0.289352 0.144676 0.289352 0.289352 0.072338 0.144676 0.144676 0.144676 0.072338 0.144676 0.289352 0.144676 0.289352 0.289352 0.072338 0.144676 0.144676 0.144676 0.072338 0.144676 0.289352 0.144676 0.289352 0.289352 0.0723379 0.144676 0.144676 0.144676 0.0723379 0.144676 0.289352 0.144676 0.289352 0.289352 0.072338 0.144676 0.144676 0.144676 0.072338 0.144676 0.289352 0.144676 0.289352 0.289352 0.072338 0.144676 0.144676 0.144676 0.072338 0.144676 0.289352 0.144676 0.289352 0.289352 0.072338 0.144676 0.144676 0.144676 0.072338 0.144676 0.289352 0.144676 0.289352 0.289352 0.0723379 0.144676 0.144676 0.144676 0.0723379 0.144676 0.289352 0.144676 0.289352 0.289352 0.0723379 0.144676 0.144676 0.144676 0.0723379 0.144676 0.289352 0.144676 0.289352 0.289352 0.072338 0.144676 0.144676 0.144676 0.072338 0.144676 0.289352 0.144676 0.289352 0.289352 0.072338 0.144676 0.144676 0.144676 0.072338 0.144676 0.289352 0.144676 0.289352 0.289352 0.0723379 0.144676 0.144676 0.144676 0.0723379 0.144676 0.289352 0.144676 0.289352 0.289352 0.072338 0.144676 0.144676 0.144676 0.072338 0.144676 0.289352 0.144676 0.289352 0.289352 0.0723379 0.144676 0.144676 0.144676 0.0723379 0.144676 0.289352 0.144676 0.289352 0.289352 0.072338 0.144676 0.144676 0.144676 0.072338 0.144676 0.289352 0.144676 0.289352 0.289352 0.0723381 0.144676 0.144676 0.144676 0.0723381 0.144676 0.289352 0.144676 0.289352 0.289352 0.0723379 0.144676 0.144676 0.144676 0.0723379 0.144676 0.289352 0.144676 0.289352 0.289351 0.0723379 0.144676 0.144676 0.144676 0.0723379 0.144676 0.289352 0.144676 0.289352 0.289352 0.072338 0.144676 0.144676 0.144676 0.072338 0.144676 0.289352 0.144676 0.289352 0.289352 0.0723379 0.144676 0.144676 0.144676 0.0723379 0.072338 0.144676 0.144676 0.144676 0.289352 0.072338 0.072338 0.144676 0.144676 0.072338 0.072338 0.144676 0.289352 0.144676 0.144676 0.289352 0.289352 0.144676 0.072338 0.144676 0.144676 0.072338 0.144676 0.072338 0.144676 0.289352 0.144676 0.289352 0.289352 0.072338 0.144676 0.144676 0.144676 0.072338 0.144676 0.289352 0.144676 0.289352 0.289352 0.072338 0.144676 0.144676 0.144676 0.072338 0.144676 0.289352 0.144676 0.289352 0.289352 0.072338 0.144676 0.144676 0.144676 0.072338 0.144676 0.289352 0.144676 0.289352 0.289352 0.072338 0.144676 0.144676 0.144676 0.072338 0.144676 0.289352 0.144676 0.289352 0.289352 0.072338 0.144676 0.144676 0.144676 0.072338 0.144676 0.289352 0.144676 0.289352 0.289352 0.072338 0.144676 0.144676 0.144676 0.072338 0.144676 0.289352 0.144676 0.289352 0.289352 0.072338 0.144676 0.144676 0.144676 0.072338 0.144676 0.289352 0.144676 0.289352 0.289352 0.072338 0.144676 0.144676 0.144676 0.072338 0.144676 0.289352 0.144676 0.289352 0.289352 0.072338 0.144676 0.144676 0.144676 0.072338 0.144676 0.289352 0.144676 0.289352 0.289352 0.072338 0.144676 0.144676 0.144676 0.072338 0.144676 0.289352 0.144676 0.289352 0.289352 0.072338 0.144676 0.144676 0.144676 0.072338 0.144676 0.289352 0.144676 0.289352 0.289352 0.072338 0.144676 0.144676 0.144676 0.072338 0.144676 0.289352 0.144676 0.289352 0.289352 0.072338 0.144676 0.144676 0.144676 0.072338 0.144676 0.289352 0.144676 0.289352 0.289352 0.0723379 0.144676 0.144676 0.144676 0.0723379 0.144676 0.289352 0.144676 0.289352 0.289352 0.072338 0.144676 0.144676 0.144676 0.072338 0.144676 0.289352 0.144676 0.289352 0.289352 0.072338 0.144676 0.144676 0.144676 0.072338 0.144676 0.289352 0.144676 0.289352 0.289352 0.072338 0.144676 0.144676 0.144676 0.072338 0.144676 0.289352 0.144676 0.289352 0.289352 0.072338 0.144676 0.144676 0.144676 0.072338 0.144676 0.289352 0.144676 0.289352 0.289352 0.0723379 0.144676 0.144676 0.144676 0.0723379 0.144676 0.289352 0.144676 0.289352 0.289352 0.072338 0.144676 0.144676 0.144676 0.072338 0.144676 0.289352 0.144676 0.289352 0.289352 0.072338 0.144676 0.144676 0.144676 0.072338 0.144676 0.289352 0.144676 0.289352 0.289352 0.0723379 0.144676 0.144676 0.144676 0.0723379 0.144676 0.289352 0.144676 0.289352 0.289352 0.072338 0.144676 0.144676 0.144676 0.072338 0.144676 0.289352 0.144676 0.289352 0.289352 0.0723379 0.144676 0.144676 0.144676 0.0723379 0.144676 0.289352 0.144676 0.289352 0.289352 0.072338 0.144676 0.144676 0.144676 0.072338 0.144676 0.289352 0.144676 0.289352 0.289352 0.0723381 0.144676 0.144676 0.144676 0.0723381 0.144676 0.289352 0.144676 0.289352 0.289352 0.0723379 0.144676 0.144676 0.144676 0.0723379 0.144676 0.289352 0.144676 0.289352 0.289351 0.0723379 0.144676 0.144676 0.144676 0.0723379 0.144676 0.289352 0.144676 0.289352 0.289352 0.072338 0.144676 0.144676 0.144676 0.072338 0.144676 0.289352 0.144676 0.289352 0.289352 0.0723379 0.144676 0.144676 0.144676 0.0723379 0.072338 0.144676 0.144676 0.144676 0.289352 0.072338 0.072338 0.144676 0.144676 0.072338 0.072338 0.144676 0.289352 0.144676 0.144676 0.289352 0.289352 0.144676 0.072338 0.144676 0.144676 0.072338 0.144676 0.072338 0.144676 0.289352 0.144676 0.289352 0.289352 0.072338 0.144676 0.144676 0.144676 0.072338 0.144676 0.289352 0.144676 0.289352 0.289352 0.072338 0.144676 0.144676 0.144676 0.072338 0.144676 0.289352 0.144676 0.289352 0.289352 0.072338 0.144676 0.144676 0.144676 0.072338 0.144676 0.289352 0.144676 0.289352 0.289352 0.072338 0.144676 0.144676 0.144676 0.072338 0.144676 0.289352 0.144676 0.289352 0.289352 0.072338 0.144676 0.144676 0.144676 0.072338 0.144676 0.289352 0.144676 0.289352 0.289352 0.072338 0.144676 0.144676 0.144676 0.072338 0.144676 0.289352 0.144676 0.289352 0.289352 0.072338 0.144676 0.144676 0.144676 0.072338 0.144676 0.289352 0.144676 0.289352 0.289352 0.072338 0.144676 0.144676 0.144676 0.072338 0.144676 0.289352 0.144676 0.289352 0.289352 0.072338 0.144676 0.144676 0.144676 0.072338 0.144676 0.289352 0.144676 0.289352 0.289352 0.072338 0.144676 0.144676 0.144676 0.072338 0.144676 0.289352 0.144676 0.289352 0.289352 0.072338 0.144676 0.144676 0.144676 0.072338 0.144676 0.289352 0.144676 0.289352 0.289352 0.072338 0.144676 0.144676 0.144676 0.072338 0.144676 0.289352 0.144676 0.289352 0.289352 0.072338 0.144676 0.144676 0.144676 0.072338 0.144676 0.289352 0.144676 0.289352 0.289352 0.072338 0.144676 0.144676 0.144676 0.072338 0.144676 0.289352 0.144676 0.289352 0.289352 0.072338 0.144676 0.144676 0.144676 0.072338 0.144676 0.289352 0.144676 0.289352 0.289352 0.072338 0.144676 0.144676 0.144676 0.072338 0.144676 0.289352 0.144676 0.289352 0.289352 0.072338 0.144676 0.144676 0.144676 0.072338 0.144676 0.289352 0.144676 0.289352 0.289352 0.072338 0.144676 0.144676 0.144676 0.072338 0.144676 0.289352 0.144676 0.289352 0.289352 0.0723379 0.144676 0.144676 0.144676 0.0723379 0.144676 0.289352 0.144676 0.289352 0.289352 0.072338 0.144676 0.144676 0.144676 0.072338 0.144676 0.289352 0.144676 0.289352 0.289352 0.072338 0.144676 0.144676 0.144676 0.072338 0.144676 0.289352 0.144676 0.289352 0.289352 0.072338 0.144676 0.144676 0.144676 0.072338 0.144676 0.289352 0.144676 0.289352 0.289352 0.072338 0.144676 0.144676 0.144676 0.072338 0.144676 0.289352 0.144676 0.289352 0.289352 0.0723379 0.144676 0.144676 0.144676 0.0723379 0.144676 0.289352 0.144676 0.289352 0.289352 0.072338 0.144676 0.144676 0.144676 0.072338 0.144676 0.289352 0.144676 0.289352 0.289352 0.0723381 0.144676 0.144676 0.144676 0.0723381 0.144676 0.289352 0.144676 0.289352 0.289352 0.0723379 0.144676 0.144676 0.144676 0.0723379 0.144676 0.289352 0.144676 0.289352 0.289351 0.0723379 0.144676 0.144676 0.144676 0.0723379 0.144676 0.289352 0.144676 0.289352 0.289352 0.072338 0.144676 0.144676 0.144676 0.072338 0.144676 0.289352 0.144676 0.289352 0.289352 0.072338 0.144676 0.144676 0.144676 0.072338 0.072338 0.144676 0.144676 0.144676 0.289352 0.072338 0.072338 0.144676 0.144676 0.072338 0.072338 0.144676 0.289352 0.144676 0.144676 0.289352 0.289352 0.144676 0.072338 0.144676 0.144676 0.072338 0.144676 0.072338 0.144676 0.289352 0.144676 0.289352 0.289352 0.072338 0.144676 0.144676 0.144676 0.072338 0.144676 0.289352 0.144676 0.289352 0.289352 0.072338 0.144676 0.144676 0.144676 0.072338 0.144676 0.289352 0.144676 0.289352 0.289352 0.072338 0.144676 0.144676 0.144676 0.072338 0.144676 0.289352 0.144676 0.289352 0.289352 0.072338 0.144676 0.144676 0.144676 0.072338 0.144676 0.289352 0.144676 0.289352 0.289352 0.072338 0.144676 0.144676 0.144676 0.072338 0.144676 0.289352 0.144676 0.289352 0.289352 0.072338 0.144676 0.144676 0.144676 0.072338 0.144676 0.289352 0.144676 0.289352 0.289352 0.072338 0.144676 0.144676 0.144676 0.072338 0.144676 0.289352 0.144676 0.289352 0.289352 0.072338 0.144676 0.144676 0.144676 0.072338 0.144676 0.289352 0.144676 0.289352 0.289352 0.072338 0.144676 0.144676 0.144676 0.072338 0.144676 0.289352 0.144676 0.289352 0.289352 0.072338 0.144676 0.144676 0.144676 0.072338 0.144676 0.289352 0.144676 0.289352 0.289352 0.072338 0.144676 0.144676 0.144676 0.072338 0.144676 0.289352 0.144676 0.289352 0.289352 0.072338 0.144676 0.144676 0.144676 0.072338 0.144676 0.289352 0.144676 0.289352 0.289352 0.072338 0.144676 0.144676 0.144676 0.072338 0.144676 0.289352 0.144676 0.289352 0.289352 0.072338 0.144676 0.144676 0.144676 0.072338 0.144676 0.289352 0.144676 0.289352 0.289352 0.072338 0.144676 0.144676 0.144676 0.072338 0.144676 0.289352 0.144676 0.289352 0.289352 0.072338 0.144676 0.144676 0.144676 0.072338 0.144676 0.289352 0.144676 0.289352 0.289352 0.072338 0.144676 0.144676 0.144676 0.072338 0.144676 0.289352 0.144676 0.289352 0.289352 0.072338 0.144676 0.144676 0.144676 0.072338 0.144676 0.289352 0.144676 0.289352 0.289352 0.0723379 0.144676 0.144676 0.144676 0.0723379 0.144676 0.289352 0.144676 0.289352 0.289352 0.072338 0.144676 0.144676 0.144676 0.072338 0.144676 0.289352 0.144676 0.289352 0.289352 0.072338 0.144676 0.144676 0.144676 0.072338 0.144676 0.289352 0.144676 0.289352 0.289352 0.072338 0.144676 0.144676 0.144676 0.072338 0.144676 0.289352 0.144676 0.289352 0.289352 0.072338 0.144676 0.144676 0.144676 0.072338 0.144676 0.289352 0.144676 0.289352 0.289352 0.072338 0.144676 0.144676 0.144676 0.072338 0.144676 0.289352 0.144676 0.289352 0.289352 0.072338 0.144676 0.144676 0.144676 0.072338 0.144676 0.289352 0.144676 0.289352 0.289352 0.0723381 0.144676 0.144676 0.144676 0.0723381 0.144676 0.289352 0.144676 0.289352 0.289352 0.0723379 0.144676 0.144676 0.144676 0.0723379 0.144676 0.289352 0.144676 0.289352 0.289351 0.0723379 0.144676 0.144676 0.144676 0.0723379 0.144676 0.289352 0.144676 0.289352 0.289352 0.072338 0.144676 0.144676 0.144676 0.072338 0.144676 0.289352 0.144676 0.289352 0.289352 0.072338 0.144676 0.144676 0.144676 0.072338 0.072338 0.144676 0.144676 0.144676 0.289352 0.072338 0.072338 0.144676 0.144676 0.072338 0.072338 0.144676 0.289352 0.144676 0.072338 0.144676 0.144676 0.072338 0.072338 0.144676 0.144676 0.072338 0.072338 0.072338 0.144676 0.289352 0.072338 0.144676 0.144676 0.072338 0.144676 0.144676 0.072338 0.072338 0.144676 0.289352 0.072338 0.144676 0.144676 0.072338 0.144676 0.144676 0.072338 0.072338 0.144676 0.289352 0.072338 0.144676 0.144676 0.072338 0.144676 0.144676 0.072338 0.072338 0.144676 0.289352 0.072338 0.144676 0.144676 0.072338 0.144676 0.144676 0.072338 0.072338 0.144676 0.289352 0.072338 0.144676 0.144676 0.072338 0.144676 0.144676 0.072338 0.072338 0.144676 0.289352 0.072338 0.144676 0.144676 0.072338 0.144676 0.144676 0.072338 0.072338 0.144676 0.289352 0.072338 0.144676 0.144676 0.072338 0.144676 0.144676 0.072338 0.072338 0.144676 0.289352 0.072338 0.144676 0.144676 0.072338 0.144676 0.144676 0.072338 0.072338 0.144676 0.289352 0.0723379 0.144676 0.144676 0.0723379 0.144676 0.144676 0.0723379 0.0723379 0.144676 0.289352 0.072338 0.144676 0.144676 0.072338 0.144676 0.144676 0.072338 0.072338 0.144676 0.289352 0.072338 0.144676 0.144676 0.072338 0.144676 0.144676 0.072338 0.072338 0.144676 0.289352 0.072338 0.144676 0.144676 0.072338 0.144676 0.144676 0.072338 0.072338 0.144676 0.289352 0.072338 0.144676 0.144676 0.072338 0.144676 0.144676 0.072338 0.072338 0.144676 0.289352 0.0723379 0.144676 0.144676 0.0723379 0.144676 0.144676 0.0723379 0.0723379 0.144676 0.289352 0.072338 0.144676 0.144676 0.072338 0.144676 0.144676 0.072338 0.072338 0.144676 0.289352 0.072338 0.144676 0.144676 0.072338 0.144676 0.144676 0.072338 0.072338 0.144676 0.289352 0.072338 0.144676 0.144676 0.072338 0.144676 0.144676 0.072338 0.072338 0.144676 0.289352 0.0723379 0.144676 0.144676 0.0723379 0.144676 0.144676 0.0723379 0.0723379 0.144676 0.289352 0.0723379 0.144676 0.144676 0.0723379 0.144676 0.144676 0.0723379 0.0723379 0.144676 0.289352 0.072338 0.144676 0.144676 0.072338 0.144676 0.144676 0.072338 0.072338 0.144676 0.289352 0.072338 0.144676 0.144676 0.072338 0.144676 0.144676 0.072338 0.072338 0.144676 0.289352 0.0723379 0.144676 0.144676 0.0723379 0.144676 0.144676 0.0723379 0.0723379 0.144676 0.289352 0.072338 0.144676 0.144676 0.072338 0.144676 0.144676 0.072338 0.072338 0.144676 0.289352 0.0723379 0.144676 0.144676 0.0723379 0.144676 0.144676 0.0723379 0.0723379 0.144676 0.289352 0.072338 0.144676 0.144676 0.072338 0.144676 0.144676 0.072338 0.072338 0.144676 0.289352 0.0723381 0.144676 0.144676 0.0723381 0.144676 0.144676 0.0723381 0.0723381 0.144676 0.289351 0.0723379 0.144676 0.144676 0.0723379 0.144676 0.144676 0.0723379 0.0723379 0.144676 0.289352 0.0723378 0.144676 0.144676 0.0723378 0.144676 0.144676 0.0723378 0.0723378 0.144676 0.289352 0.072338 0.144676 0.144676 0.072338 0.144676 0.144676 0.072338 0.072338 0.144676 0.289352 0.0723379 0.144676 0.144676 0.0723379 0.144676 0.144676 0.0723379 0.0723379 0.072338 0.144676 0.072338 0.072338 0.144676 0.072338 0.072338 0.144676 0.072338 0.072338 0.144676 0.144676 0.072338 0.289352 0.144676 0.289352 0.289352 0.144676 0.072338 0.144676 0.144676 0.072338 0.144676 0.072338 0.144676 0.144676 0.289352 0.289352 0.289352 0.072338 0.144676 0.144676 0.144676 0.072338 0.144676 0.144676 0.289352 0.289352 0.289352 0.072338 0.144676 0.144676 0.144676 0.072338 0.144676 0.144676 0.289352 0.289352 0.289352 0.072338 0.144676 0.144676 0.144676 0.072338 0.144676 0.144676 0.289352 0.289352 0.289352 0.072338 0.144676 0.144676 0.144676 0.072338 0.144676 0.144676 0.289352 0.289352 0.289352 0.072338 0.144676 0.144676 0.144676 0.072338 0.144676 0.144676 0.289352 0.289352 0.289352 0.072338 0.144676 0.144676 0.144676 0.072338 0.144676 0.144676 0.289352 0.289352 0.289352 0.072338 0.144676 0.144676 0.144676 0.072338 0.144676 0.144676 0.289352 0.289352 0.289352 0.072338 0.144676 0.144676 0.144676 0.072338 0.144676 0.144676 0.289352 0.289352 0.289352 0.0723379 0.144676 0.144676 0.144676 0.0723379 0.144676 0.144676 0.289352 0.289352 0.289352 0.0723379 0.144676 0.144676 0.144676 0.0723379 0.144676 0.144676 0.289352 0.289352 0.289352 0.072338 0.144676 0.144676 0.144676 0.072338 0.144676 0.144676 0.289352 0.289352 0.289352 0.072338 0.144676 0.144676 0.144676 0.072338 0.144676 0.144676 0.289352 0.289352 0.289352 0.072338 0.144676 0.144676 0.144676 0.072338 0.144676 0.144676 0.289352 0.289352 0.289352 0.0723379 0.144676 0.144676 0.144676 0.0723379 0.144676 0.144676 0.289352 0.289352 0.289352 0.072338 0.144676 0.144676 0.144676 0.072338 0.144676 0.144676 0.289352 0.289352 0.289352 0.072338 0.144676 0.144676 0.144676 0.072338 0.144676 0.144676 0.289352 0.289352 0.289352 0.0723379 0.144676 0.144676 0.144676 0.0723379 0.144676 0.144676 0.289352 0.289352 0.289352 0.0723379 0.144676 0.144676 0.144676 0.0723379 0.144676 0.144676 0.289352 0.289352 0.289352 0.0723379 0.144676 0.144676 0.144676 0.0723379 0.144676 0.144676 0.289352 0.289352 0.289352 0.072338 0.144676 0.144676 0.144676 0.072338 0.144676 0.144676 0.289352 0.289352 0.289352 0.072338 0.144676 0.144676 0.144676 0.072338 0.144676 0.144676 0.289352 0.289352 0.289352 0.0723379 0.144676 0.144676 0.144676 0.0723379 0.144676 0.144676 0.289352 0.289352 0.289352 0.072338 0.144676 0.144676 0.144676 0.072338 0.144676 0.144676 0.289352 0.289352 0.289352 0.0723379 0.144676 0.144676 0.144676 0.0723379 0.144676 0.144676 0.289352 0.289352 0.289352 0.0723379 0.144676 0.144676 0.144676 0.0723379 0.144676 0.144676 0.289352 0.289352 0.289352 0.0723381 0.144676 0.144676 0.144676 0.0723381 0.144676 0.144676 0.289352 0.289352 0.289352 0.0723379 0.144676 0.144676 0.144676 0.0723379 0.144676 0.144676 0.289352 0.289352 0.289351 0.0723378 0.144676 0.144676 0.144676 0.0723378 0.144676 0.144676 0.289352 0.289352 0.289352 0.072338 0.144676 0.144676 0.144676 0.072338 0.144676 0.144676 0.289352 0.289352 0.289352 0.0723379 0.144676 0.144676 0.144676 0.0723379 0.072338 0.144676 0.144676 0.144676 0.289352 0.072338 0.072338 0.144676 0.144676 0.072338 0.289352 0.144676 0.289352 0.289352 0.144676 0.144676 0.144676 0.072338 0.144676 0.072338 0.289352 0.289352 0.289352 0.144676 0.144676 0.144676 0.072338 0.289352 0.289352 0.289352 0.144676 0.144676 0.144676 0.072338 0.289352 0.289352 0.289352 0.144676 0.144676 0.144676 0.072338 0.289352 0.289352 0.289352 0.144676 0.144676 0.144676 0.072338 0.289352 0.289352 0.289352 0.144676 0.144676 0.144676 0.072338 0.289352 0.289352 0.289352 0.144676 0.144676 0.144676 0.072338 0.289352 0.289352 0.289352 0.144676 0.144676 0.144676 0.072338 0.289352 0.289352 0.289352 0.144676 0.144676 0.144676 0.072338 0.289352 0.289352 0.289352 0.144676 0.144676 0.144676 0.0723379 0.289352 0.289352 0.289352 0.144676 0.144676 0.144676 0.0723379 0.289352 0.289352 0.289352 0.144676 0.144676 0.144676 0.072338 0.289352 0.289352 0.289352 0.144676 0.144676 0.144676 0.072338 0.289352 0.289352 0.289352 0.144676 0.144676 0.144676 0.072338 0.289352 0.289352 0.289352 0.144676 0.144676 0.144676 0.0723379 0.289352 0.289352 0.289352 0.144676 0.144676 0.144676 0.072338 0.289352 0.289352 0.289352 0.144676 0.144676 0.144676 0.072338 0.289352 0.289352 0.289352 0.144676 0.144676 0.144676 0.0723379 0.289352 0.289352 0.289352 0.144676 0.144676 0.144676 0.0723379 0.289352 0.289352 0.289352 0.144676 0.144676 0.144676 0.0723379 0.289352 0.289352 0.289352 0.144676 0.144676 0.144676 0.072338 0.289352 0.289352 0.289352 0.144676 0.144676 0.144676 0.0723379 0.289352 0.289352 0.289352 0.144676 0.144676 0.144676 0.0723379 0.289352 0.289352 0.289352 0.144676 0.144676 0.144676 0.072338 0.289352 0.289352 0.289352 0.144676 0.144676 0.144676 0.0723379 0.289352 0.289352 0.289352 0.144676 0.144676 0.144676 0.0723379 0.289352 0.289352 0.289352 0.144676 0.144676 0.144676 0.0723381 0.289352 0.289351 0.289352 0.144676 0.144676 0.144676 0.0723379 0.289352 0.289352 0.289351 0.144676 0.144676 0.144676 0.0723378 0.289352 0.289352 0.289352 0.144676 0.144676 0.144676 0.072338 0.289352 0.289352 0.289352 0.144676 0.144676 0.144676 0.0723379 0.144676 0.144676 0.289352 0.072338 0.144676 0.144676 0.072338 0.289352 0.144676 0.289352 0.289352 0.144676 0.144676 0.144676 0.072338 0.144676 0.072338 0.289352 0.289352 0.289352 0.144676 0.144676 0.144676 0.072338 0.289352 0.289352 0.289352 0.144676 0.144676 0.144676 0.072338 0.289352 0.289352 0.289352 0.144676 0.144676 0.144676 0.072338 0.289352 0.289352 0.289352 0.144676 0.144676 0.144676 0.072338 0.289352 0.289352 0.289352 0.144676 0.144676 0.144676 0.072338 0.289352 0.289352 0.289352 0.144676 0.144676 0.144676 0.072338 0.289352 0.289352 0.289352 0.144676 0.144676 0.144676 0.072338 0.289352 0.289352 0.289352 0.144676 0.144676 0.144676 0.072338 0.289352 0.289352 0.289352 0.144676 0.144676 0.144676 0.0723379 0.289352 0.289352 0.289352 0.144676 0.144676 0.144676 0.0723379 0.289352 0.289352 0.289352 0.144676 0.144676 0.144676 0.072338 0.289352 0.289352 0.289352 0.144676 0.144676 0.144676 0.072338 0.289352 0.289352 0.289352 0.144676 0.144676 0.144676 0.072338 0.289352 0.289352 0.289352 0.144676 0.144676 0.144676 0.0723379 0.289352 0.289352 0.289352 0.144676 0.144676 0.144676 0.072338 0.289352 0.289352 0.289352 0.144676 0.144676 0.144676 0.072338 0.289352 0.289352 0.289352 0.144676 0.144676 0.144676 0.0723379 0.289352 0.289352 0.289352 0.144676 0.144676 0.144676 0.0723379 0.289352 0.289352 0.289352 0.144676 0.144676 0.144676 0.0723379 0.289352 0.289352 0.289352 0.144676 0.144676 0.144676 0.072338 0.289352 0.289352 0.289352 0.144676 0.144676 0.144676 0.072338 0.289352 0.289352 0.289352 0.144676 0.144676 0.144676 0.0723379 0.289352 0.289352 0.289352 0.144676 0.144676 0.144676 0.072338 0.289352 0.289352 0.289352 0.144676 0.144676 0.144676 0.0723379 0.289352 0.289352 0.289352 0.144676 0.144676 0.144676 0.0723379 0.289352 0.289352 0.289352 0.144676 0.144676 0.144676 0.0723381 0.289352 0.289351 0.289352 0.144676 0.144676 0.144676 0.0723379 0.289352 0.289352 0.289351 0.144676 0.144676 0.144676 0.0723378 0.289352 0.289352 0.289352 0.144676 0.144676 0.144676 0.072338 0.289352 0.289352 0.289352 0.144676 0.144676 0.144676 0.0723379 0.144676 0.144676 0.289352 0.072338 0.144676 0.144676 0.072338 0.289352 0.144676 0.289352 0.289352 0.144676 0.144676 0.144676 0.072338 0.144676 0.072338 0.289352 0.289352 0.289352 0.144676 0.144676 0.144676 0.072338 0.289352 0.289352 0.289352 0.144676 0.144676 0.144676 0.072338 0.289352 0.289352 0.289352 0.144676 0.144676 0.144676 0.0723379 0.289352 0.289352 0.289352 0.144676 0.144676 0.144676 0.072338 0.289352 0.289352 0.289352 0.144676 0.144676 0.144676 0.072338 0.289352 0.289352 0.289352 0.144676 0.144676 0.144676 0.0723379 0.289352 0.289352 0.289352 0.144676 0.144676 0.144676 0.0723379 0.289352 0.289352 0.289352 0.144676 0.144676 0.144676 0.072338 0.289352 0.289352 0.289352 0.144676 0.144676 0.144676 0.0723379 0.289352 0.289352 0.289352 0.144676 0.144676 0.144676 0.0723379 0.289352 0.289352 0.289352 0.144676 0.144676 0.144676 0.072338 0.289352 0.289352 0.289352 0.144676 0.144676 0.144676 0.0723379 0.289352 0.289352 0.289352 0.144676 0.144676 0.144676 0.072338 0.289352 0.289352 0.289352 0.144676 0.144676 0.144676 0.0723379 0.289352 0.289352 0.289352 0.144676 0.144676 0.144676 0.072338 0.289352 0.289352 0.289352 0.144676 0.144676 0.144676 0.072338 0.289352 0.289352 0.289352 0.144676 0.144676 0.144676 0.0723379 0.289352 0.289352 0.289352 0.144676 0.144676 0.144676 0.0723379 0.289352 0.289352 0.289352 0.144676 0.144676 0.144676 0.0723379 0.289352 0.289352 0.289352 0.144676 0.144676 0.144676 0.072338 0.289352 0.289352 0.289352 0.144676 0.144676 0.144676 0.0723379 0.289352 0.289352 0.289352 0.144676 0.144676 0.144676 0.0723379 0.289352 0.289352 0.289352 0.144676 0.144676 0.144676 0.072338 0.289352 0.289352 0.289352 0.144676 0.144676 0.144676 0.0723379 0.289352 0.289352 0.289352 0.144676 0.144676 0.144676 0.0723379 0.289352 0.289352 0.289352 0.144676 0.144676 0.144676 0.072338 0.289352 0.289351 0.289352 0.144676 0.144676 0.144676 0.0723379 0.289352 0.289352 0.289351 0.144676 0.144676 0.144676 0.0723378 0.289352 0.289352 0.289352 0.144676 0.144676 0.144676 0.072338 0.289352 0.289352 0.289352 0.144676 0.144676 0.144676 0.0723379 0.144676 0.144676 0.289352 0.072338 0.144676 0.144676 0.072338 0.289352 0.144676 0.289352 0.289352 0.144676 0.144676 0.144676 0.072338 0.144676 0.072338 0.289352 0.289352 0.289352 0.144676 0.144676 0.144676 0.072338 0.289352 0.289352 0.289352 0.144676 0.144676 0.144676 0.072338 0.289352 0.289352 0.289352 0.144676 0.144676 0.144676 0.0723379 0.289352 0.289352 0.289352 0.144676 0.144676 0.144676 0.072338 0.289352 0.289352 0.289352 0.144676 0.144676 0.144676 0.072338 0.289352 0.289352 0.289352 0.144676 0.144676 0.144676 0.0723379 0.289352 0.289352 0.289352 0.144676 0.144676 0.144676 0.072338 0.289352 0.289352 0.289352 0.144676 0.144676 0.144676 0.072338 0.289352 0.289352 0.289352 0.144676 0.144676 0.144676 0.0723379 0.289352 0.289352 0.289352 0.144676 0.144676 0.144676 0.0723379 0.289352 0.289352 0.289352 0.144676 0.144676 0.144676 0.072338 0.289352 0.289352 0.289352 0.144676 0.144676 0.144676 0.0723379 0.289352 0.289352 0.289352 0.144676 0.144676 0.144676 0.072338 0.289352 0.289352 0.289352 0.144676 0.144676 0.144676 0.0723379 0.289352 0.289352 0.289352 0.144676 0.144676 0.144676 0.072338 0.289352 0.289352 0.289352 0.144676 0.144676 0.144676 0.072338 0.289352 0.289352 0.289352 0.144676 0.144676 0.144676 0.0723379 0.289352 0.289352 0.289352 0.144676 0.144676 0.144676 0.0723379 0.289352 0.289352 0.289352 0.144676 0.144676 0.144676 0.0723379 0.289352 0.289352 0.289352 0.144676 0.144676 0.144676 0.072338 0.289352 0.289352 0.289352 0.144676 0.144676 0.144676 0.0723379 0.289352 0.289352 0.289352 0.144676 0.144676 0.144676 0.0723379 0.289352 0.289352 0.289352 0.144676 0.144676 0.144676 0.072338 0.289352 0.289352 0.289352 0.144676 0.144676 0.144676 0.0723379 0.289352 0.289352 0.289352 0.144676 0.144676 0.144676 0.0723379 0.289352 0.289352 0.289352 0.144676 0.144676 0.144676 0.072338 0.289352 0.289351 0.289352 0.144676 0.144676 0.144676 0.0723379 0.289352 0.289352 0.289351 0.144676 0.144676 0.144676 0.0723378 0.289352 0.289352 0.289352 0.144676 0.144676 0.144676 0.072338 0.289352 0.289352 0.289352 0.144676 0.144676 0.144676 0.0723379 0.144676 0.144676 0.289352 0.072338 0.144676 0.144676 0.072338 0.289352 0.144676 0.289352 0.289352 0.144676 0.144676 0.144676 0.072338 0.144676 0.072338 0.289352 0.289352 0.289352 0.144676 0.144676 0.144676 0.072338 0.289352 0.289352 0.289352 0.144676 0.144676 0.144676 0.072338 0.289352 0.289352 0.289352 0.144676 0.144676 0.144676 0.072338 0.289352 0.289352 0.289352 0.144676 0.144676 0.144676 0.072338 0.289352 0.289352 0.289352 0.144676 0.144676 0.144676 0.072338 0.289352 0.289352 0.289352 0.144676 0.144676 0.144676 0.072338 0.289352 0.289352 0.289352 0.144676 0.144676 0.144676 0.072338 0.289352 0.289352 0.289352 0.144676 0.144676 0.144676 0.072338 0.289352 0.289352 0.289352 0.144676 0.144676 0.144676 0.0723379 0.289352 0.289352 0.289352 0.144676 0.144676 0.144676 0.0723379 0.289352 0.289352 0.289352 0.144676 0.144676 0.144676 0.072338 0.289352 0.289352 0.289352 0.144676 0.144676 0.144676 0.072338 0.289352 0.289352 0.289352 0.144676 0.144676 0.144676 0.072338 0.289352 0.289352 0.289352 0.144676 0.144676 0.144676 0.0723379 0.289352 0.289352 0.289352 0.144676 0.144676 0.144676 0.072338 0.289352 0.289352 0.289352 0.144676 0.144676 0.144676 0.072338 0.289352 0.289352 0.289352 0.144676 0.144676 0.144676 0.0723379 0.289352 0.289352 0.289352 0.144676 0.144676 0.144676 0.0723379 0.289352 0.289352 0.289352 0.144676 0.144676 0.144676 0.0723379 0.289352 0.289352 0.289352 0.144676 0.144676 0.144676 0.072338 0.289352 0.289352 0.289352 0.144676 0.144676 0.144676 0.0723379 0.289352 0.289352 0.289352 0.144676 0.144676 0.144676 0.0723379 0.289352 0.289352 0.289352 0.144676 0.144676 0.144676 0.072338 0.289352 0.289352 0.289352 0.144676 0.144676 0.144676 0.0723379 0.289352 0.289352 0.289352 0.144676 0.144676 0.144676 0.072338 0.289352 0.289352 0.289352 0.144676 0.144676 0.144676 0.0723381 0.289352 0.289351 0.289352 0.144676 0.144676 0.144676 0.0723379 0.289352 0.289352 0.289351 0.144676 0.144676 0.144676 0.0723378 0.289352 0.289352 0.289352 0.144676 0.144676 0.144676 0.072338 0.289352 0.289352 0.289352 0.144676 0.144676 0.144676 0.0723379 0.144676 0.144676 0.289352 0.072338 0.144676 0.144676 0.072338 0.289352 0.144676 0.289352 0.289352 0.144676 0.144676 0.144676 0.072338 0.144676 0.072338 0.289352 0.289352 0.289352 0.144676 0.144676 0.144676 0.072338 0.289352 0.289352 0.289352 0.144676 0.144676 0.144676 0.072338 0.289352 0.289352 0.289352 0.144676 0.144676 0.144676 0.072338 0.289352 0.289352 0.289352 0.144676 0.144676 0.144676 0.072338 0.289352 0.289352 0.289352 0.144676 0.144676 0.144676 0.072338 0.289352 0.289352 0.289352 0.144676 0.144676 0.144676 0.072338 0.289352 0.289352 0.289352 0.144676 0.144676 0.144676 0.072338 0.289352 0.289352 0.289352 0.144676 0.144676 0.144676 0.072338 0.289352 0.289352 0.289352 0.144676 0.144676 0.144676 0.072338 0.289352 0.289352 0.289352 0.144676 0.144676 0.144676 0.0723379 0.289352 0.289352 0.289352 0.144676 0.144676 0.144676 0.072338 0.289352 0.289352 0.289352 0.144676 0.144676 0.144676 0.072338 0.289352 0.289352 0.289352 0.144676 0.144676 0.144676 0.072338 0.289352 0.289352 0.289352 0.144676 0.144676 0.144676 0.0723379 0.289352 0.289352 0.289352 0.144676 0.144676 0.144676 0.072338 0.289352 0.289352 0.289352 0.144676 0.144676 0.144676 0.072338 0.289352 0.289352 0.289352 0.144676 0.144676 0.144676 0.0723379 0.289352 0.289352 0.289352 0.144676 0.144676 0.144676 0.0723379 0.289352 0.289352 0.289352 0.144676 0.144676 0.144676 0.0723379 0.289352 0.289352 0.289352 0.144676 0.144676 0.144676 0.072338 0.289352 0.289352 0.289352 0.144676 0.144676 0.144676 0.072338 0.289352 0.289352 0.289352 0.144676 0.144676 0.144676 0.0723379 0.289352 0.289352 0.289352 0.144676 0.144676 0.144676 0.072338 0.289352 0.289352 0.289352 0.144676 0.144676 0.144676 0.0723379 0.289352 0.289352 0.289352 0.144676 0.144676 0.144676 0.072338 0.289352 0.289352 0.289352 0.144676 0.144676 0.144676 0.0723381 0.289352 0.289351 0.289352 0.144676 0.144676 0.144676 0.0723379 0.289352 0.289352 0.289351 0.144676 0.144676 0.144676 0.0723378 0.289352 0.289352 0.289352 0.144676 0.144676 0.144676 0.072338 0.289352 0.289352 0.289352 0.144676 0.144676 0.144676 0.0723379 0.144676 0.144676 0.289352 0.072338 0.144676 0.144676 0.072338 0.289352 0.144676 0.144676 0.144676 0.072338 0.144676 0.144676 0.072338 0.072338 0.072338 0.289352 0.144676 0.144676 0.144676 0.144676 0.072338 0.072338 0.289352 0.144676 0.144676 0.144676 0.144676 0.072338 0.072338 0.289352 0.144676 0.144676 0.144676 0.144676 0.0723379 0.0723379 0.289352 0.144676 0.144676 0.144676 0.144676 0.0723379 0.0723379 0.289352 0.144676 0.144676 0.144676 0.144676 0.072338 0.072338 0.289352 0.144676 0.144676 0.144676 0.144676 0.072338 0.072338 0.289352 0.144676 0.144676 0.144676 0.144676 0.0723379 0.0723379 0.289352 0.144676 0.144676 0.144676 0.144676 0.072338 0.072338 0.289352 0.144676 0.144676 0.144676 0.144676 0.0723379 0.0723379 0.289352 0.144676 0.144676 0.144676 0.144676 0.0723379 0.0723379 0.289352 0.144676 0.144676 0.144676 0.144676 0.0723379 0.0723379 0.289352 0.144676 0.144676 0.144676 0.144676 0.0723379 0.0723379 0.289352 0.144676 0.144676 0.144676 0.144676 0.072338 0.072338 0.289352 0.144676 0.144676 0.144676 0.144676 0.0723379 0.0723379 0.289352 0.144676 0.144676 0.144676 0.144676 0.072338 0.072338 0.289352 0.144676 0.144676 0.144676 0.144676 0.0723379 0.0723379 0.289352 0.144676 0.144676 0.144676 0.144676 0.0723379 0.0723379 0.289352 0.144676 0.144676 0.144676 0.144676 0.0723379 0.0723379 0.289352 0.144676 0.144676 0.144676 0.144676 0.0723379 0.0723379 0.289352 0.144676 0.144676 0.144676 0.144676 0.072338 0.072338 0.289352 0.144676 0.144676 0.144676 0.144676 0.0723379 0.0723379 0.289352 0.144676 0.144676 0.144676 0.144676 0.0723379 0.0723379 0.289352 0.144676 0.144676 0.144676 0.144676 0.072338 0.072338 0.289352 0.144676 0.144676 0.144676 0.144676 0.0723379 0.0723379 0.289352 0.144676 0.144676 0.144676 0.144676 0.0723379 0.0723379 0.289352 0.144676 0.144676 0.144676 0.144676 0.072338 0.072338 0.289352 0.144676 0.144676 0.144676 0.144676 0.0723379 0.0723379 0.289352 0.144676 0.144676 0.144676 0.144676 0.0723378 0.0723378 0.289352 0.144676 0.144676 0.144676 0.144676 0.072338 0.072338 0.289352 0.144676 0.144676 0.144676 0.144676 0.0723379 0.0723379 0.144676 0.072338 0.144676 0.072338 0.144676 0.072338 0.072338 0.144676 0.144676 0.072338 0.289352 0.144676 0.289352 0.289352 0.144676 0.072338 0.144676 0.144676 0.072338 0.144676 0.072338 0.144676 0.144676 0.289352 0.289352 0.289352 0.072338 0.144676 0.144676 0.144676 0.072338 0.144676 0.144676 0.289352 0.289352 0.289352 0.072338 0.144676 0.144676 0.144676 0.072338 0.144676 0.144676 0.289352 0.289352 0.289352 0.072338 0.144676 0.144676 0.144676 0.072338 0.144676 0.144676 0.289352 0.289352 0.289352 0.072338 0.144676 0.144676 0.144676 0.072338 0.144676 0.144676 0.289352 0.289352 0.289352 0.072338 0.144676 0.144676 0.144676 0.072338 0.144676 0.144676 0.289352 0.289352 0.289352 0.072338 0.144676 0.144676 0.144676 0.072338 0.144676 0.144676 0.289352 0.289352 0.289352 0.072338 0.144676 0.144676 0.144676 0.072338 0.144676 0.144676 0.289352 0.289352 0.289352 0.072338 0.144676 0.144676 0.144676 0.072338 0.144676 0.144676 0.289352 0.289352 0.289352 0.072338 0.144676 0.144676 0.144676 0.072338 0.144676 0.144676 0.289352 0.289352 0.289352 0.072338 0.144676 0.144676 0.144676 0.072338 0.144676 0.144676 0.289352 0.289352 0.289352 0.072338 0.144676 0.144676 0.144676 0.072338 0.144676 0.144676 0.289352 0.289352 0.289352 0.072338 0.144676 0.144676 0.144676 0.072338 0.144676 0.144676 0.289352 0.289352 0.289352 0.072338 0.144676 0.144676 0.144676 0.072338 0.144676 0.144676 0.289352 0.289352 0.289352 0.072338 0.144676 0.144676 0.144676 0.072338 0.144676 0.144676 0.289352 0.289352 0.289352 0.072338 0.144676 0.144676 0.144676 0.072338 0.144676 0.144676 0.289352 0.289352 0.289352 0.072338 0.144676 0.144676 0.144676 0.072338 0.144676 0.144676 0.289352 0.289352 0.289352 0.072338 0.144676 0.144676 0.144676 0.072338 0.144676 0.144676 0.289352 0.289352 0.289352 0.072338 0.144676 0.144676 0.144676 0.072338 0.144676 0.144676 0.289352 0.289352 0.289352 0.072338 0.144676 0.144676 0.144676 0.072338 0.144676 0.144676 0.289352 0.289352 0.289352 0.072338 0.144676 0.144676 0.144676 0.072338 0.144676 0.144676 0.289352 0.289352 0.289352 0.072338 0.144676 0.144676 0.144676 0.072338 0.144676 0.144676 0.289352 0.289352 0.289352 0.072338 0.144676 0.144676 0.144676 0.072338 0.144676 0.144676 0.289352 0.289352 0.289352 0.072338 0.144676 0.144676 0.144676 0.072338 0.144676 0.144676 0.289352 0.289352 0.289352 0.072338 0.144676 0.144676 0.144676 0.072338 0.144676 0.144676 0.289352 0.289352 0.289352 0.072338 0.144676 0.144676 0.144676 0.072338 0.144676 0.144676 0.289352 0.289352 0.289352 0.0723381 0.144676 0.144676 0.144676 0.0723381 0.144676 0.144676 0.289351 0.289352 0.289352 0.072338 0.144676 0.144676 0.144676 0.072338 0.144676 0.144676 0.289352 0.289352 0.289351 0.0723379 0.144676 0.144676 0.144676 0.0723379 0.144676 0.144676 0.289352 0.289352 0.289352 0.072338 0.144676 0.144676 0.144676 0.072338 0.144676 0.144676 0.289352 0.289352 0.289352 0.072338 0.144676 0.144676 0.144676 0.072338 0.072338 0.144676 0.144676 0.144676 0.289352 0.072338 0.072338 0.144676 0.144676 0.072338 0.289352 0.144676 0.289352 0.289352 0.144676 0.144676 0.144676 0.072338 0.144676 0.072338 0.289352 0.289352 0.289352 0.144676 0.144676 0.144676 0.072338 0.289352 0.289352 0.289352 0.144676 0.144676 0.144676 0.072338 0.289352 0.289352 0.289352 0.144676 0.144676 0.144676 0.072338 0.289352 0.289352 0.289352 0.144676 0.144676 0.144676 0.072338 0.289352 0.289352 0.289352 0.144676 0.144676 0.144676 0.072338 0.289352 0.289352 0.289352 0.144676 0.144676 0.144676 0.072338 0.289352 0.289352 0.289352 0.144676 0.144676 0.144676 0.072338 0.289352 0.289352 0.289352 0.144676 0.144676 0.144676 0.072338 0.289352 0.289352 0.289352 0.144676 0.144676 0.144676 0.072338 0.289352 0.289352 0.289352 0.144676 0.144676 0.144676 0.072338 0.289352 0.289352 0.289352 0.144676 0.144676 0.144676 0.072338 0.289352 0.289352 0.289352 0.144676 0.144676 0.144676 0.072338 0.289352 0.289352 0.289352 0.144676 0.144676 0.144676 0.072338 0.289352 0.289352 0.289352 0.144676 0.144676 0.144676 0.072338 0.289352 0.289352 0.289352 0.144676 0.144676 0.144676 0.072338 0.289352 0.289352 0.289352 0.144676 0.144676 0.144676 0.072338 0.289352 0.289352 0.289352 0.144676 0.144676 0.144676 0.072338 0.289352 0.289352 0.289352 0.144676 0.144676 0.144676 0.072338 0.289352 0.289352 0.289352 0.144676 0.144676 0.144676 0.072338 0.289352 0.289352 0.289352 0.144676 0.144676 0.144676 0.072338 0.289352 0.289352 0.289352 0.144676 0.144676 0.144676 0.072338 0.289352 0.289352 0.289352 0.144676 0.144676 0.144676 0.072338 0.289352 0.289352 0.289352 0.144676 0.144676 0.144676 0.072338 0.289352 0.289352 0.289352 0.144676 0.144676 0.144676 0.072338 0.289352 0.289352 0.289352 0.144676 0.144676 0.144676 0.072338 0.289352 0.289352 0.289352 0.144676 0.144676 0.144676 0.0723381 0.289351 0.289352 0.289352 0.144676 0.144676 0.144676 0.072338 0.289352 0.289352 0.289351 0.144676 0.144676 0.144676 0.0723379 0.289352 0.289352 0.289352 0.144676 0.144676 0.144676 0.072338 0.289352 0.289352 0.289352 0.144676 0.144676 0.144676 0.072338 0.144676 0.144676 0.289352 0.072338 0.144676 0.144676 0.072338 0.289352 0.144676 0.289352 0.289352 0.144676 0.144676 0.144676 0.072338 0.144676 0.072338 0.289352 0.289352 0.289352 0.144676 0.144676 0.144676 0.072338 0.289352 0.289352 0.289352 0.144676 0.144676 0.144676 0.072338 0.289352 0.289352 0.289352 0.144676 0.144676 0.144676 0.072338 0.289352 0.289352 0.289352 0.144676 0.144676 0.144676 0.072338 0.289352 0.289352 0.289352 0.144676 0.144676 0.144676 0.072338 0.289352 0.289352 0.289352 0.144676 0.144676 0.144676 0.072338 0.289352 0.289352 0.289352 0.144676 0.144676 0.144676 0.072338 0.289352 0.289352 0.289352 0.144676 0.144676 0.144676 0.072338 0.289352 0.289352 0.289352 0.144676 0.144676 0.144676 0.072338 0.289352 0.289352 0.289352 0.144676 0.144676 0.144676 0.072338 0.289352 0.289352 0.289352 0.144676 0.144676 0.144676 0.072338 0.289352 0.289352 0.289352 0.144676 0.144676 0.144676 0.072338 0.289352 0.289352 0.289352 0.144676 0.144676 0.144676 0.072338 0.289352 0.289352 0.289352 0.144676 0.144676 0.144676 0.072338 0.289352 0.289352 0.289352 0.144676 0.144676 0.144676 0.072338 0.289352 0.289352 0.289352 0.144676 0.144676 0.144676 0.072338 0.289352 0.289352 0.289352 0.144676 0.144676 0.144676 0.072338 0.289352 0.289352 0.289352 0.144676 0.144676 0.144676 0.072338 0.289352 0.289352 0.289352 0.144676 0.144676 0.144676 0.072338 0.289352 0.289352 0.289352 0.144676 0.144676 0.144676 0.072338 0.289352 0.289352 0.289352 0.144676 0.144676 0.144676 0.072338 0.289352 0.289352 0.289352 0.144676 0.144676 0.144676 0.072338 0.289352 0.289352 0.289352 0.144676 0.144676 0.144676 0.072338 0.289352 0.289352 0.289352 0.144676 0.144676 0.144676 0.072338 0.289352 0.289352 0.289352 0.144676 0.144676 0.144676 0.072338 0.289352 0.289352 0.289352 0.144676 0.144676 0.144676 0.0723381 0.289351 0.289352 0.289352 0.144676 0.144676 0.144676 0.072338 0.289352 0.289352 0.289351 0.144676 0.144676 0.144676 0.0723379 0.289352 0.289352 0.289352 0.144676 0.144676 0.144676 0.072338 0.289352 0.289352 0.289352 0.144676 0.144676 0.144676 0.072338 0.144676 0.144676 0.289352 0.072338 0.144676 0.144676 0.072338 0.289352 0.144676 0.289352 0.289352 0.144676 0.144676 0.144676 0.072338 0.144676 0.072338 0.289352 0.289352 0.289352 0.144676 0.144676 0.144676 0.072338 0.289352 0.289352 0.289352 0.144676 0.144676 0.144676 0.072338 0.289352 0.289352 0.289352 0.144676 0.144676 0.144676 0.072338 0.289352 0.289352 0.289352 0.144676 0.144676 0.144676 0.072338 0.289352 0.289352 0.289352 0.144676 0.144676 0.144676 0.072338 0.289352 0.289352 0.289352 0.144676 0.144676 0.144676 0.072338 0.289352 0.289352 0.289352 0.144676 0.144676 0.144676 0.072338 0.289352 0.289352 0.289352 0.144676 0.144676 0.144676 0.072338 0.289352 0.289352 0.289352 0.144676 0.144676 0.144676 0.072338 0.289352 0.289352 0.289352 0.144676 0.144676 0.144676 0.072338 0.289352 0.289352 0.289352 0.144676 0.144676 0.144676 0.072338 0.289352 0.289352 0.289352 0.144676 0.144676 0.144676 0.072338 0.289352 0.289352 0.289352 0.144676 0.144676 0.144676 0.072338 0.289352 0.289352 0.289352 0.144676 0.144676 0.144676 0.072338 0.289352 0.289352 0.289352 0.144676 0.144676 0.144676 0.072338 0.289352 0.289352 0.289352 0.144676 0.144676 0.144676 0.072338 0.289352 0.289352 0.289352 0.144676 0.144676 0.144676 0.072338 0.289352 0.289352 0.289352 0.144676 0.144676 0.144676 0.072338 0.289352 0.289352 0.289352 0.144676 0.144676 0.144676 0.0723379 0.289352 0.289352 0.289352 0.144676 0.144676 0.144676 0.072338 0.289352 0.289352 0.289352 0.144676 0.144676 0.144676 0.072338 0.289352 0.289352 0.289352 0.144676 0.144676 0.144676 0.072338 0.289352 0.289352 0.289352 0.144676 0.144676 0.144676 0.072338 0.289352 0.289352 0.289352 0.144676 0.144676 0.144676 0.072338 0.289352 0.289352 0.289352 0.144676 0.144676 0.144676 0.072338 0.289352 0.289352 0.289352 0.144676 0.144676 0.144676 0.0723381 0.289351 0.289352 0.289352 0.144676 0.144676 0.144676 0.072338 0.289352 0.289352 0.289351 0.144676 0.144676 0.144676 0.0723379 0.289352 0.289352 0.289352 0.144676 0.144676 0.144676 0.072338 0.289352 0.289352 0.289352 0.144676 0.144676 0.144676 0.072338 0.144676 0.144676 0.289352 0.072338 0.144676 0.144676 0.072338 0.289352 0.144676 0.289352 0.289352 0.144676 0.144676 0.144676 0.072338 0.144676 0.072338 0.289352 0.289352 0.289352 0.144676 0.144676 0.144676 0.072338 0.289352 0.289352 0.289352 0.144676 0.144676 0.144676 0.072338 0.289352 0.289352 0.289352 0.144676 0.144676 0.144676 0.072338 0.289352 0.289352 0.289352 0.144676 0.144676 0.144676 0.072338 0.289352 0.289352 0.289352 0.144676 0.144676 0.144676 0.072338 0.289352 0.289352 0.289352 0.144676 0.144676 0.144676 0.072338 0.289352 0.289352 0.289352 0.144676 0.144676 0.144676 0.072338 0.289352 0.289352 0.289352 0.144676 0.144676 0.144676 0.072338 0.289352 0.289352 0.289352 0.144676 0.144676 0.144676 0.072338 0.289352 0.289352 0.289352 0.144676 0.144676 0.144676 0.072338 0.289352 0.289352 0.289352 0.144676 0.144676 0.144676 0.072338 0.289352 0.289352 0.289352 0.144676 0.144676 0.144676 0.072338 0.289352 0.289352 0.289352 0.144676 0.144676 0.144676 0.072338 0.289352 0.289352 0.289352 0.144676 0.144676 0.144676 0.072338 0.289352 0.289352 0.289352 0.144676 0.144676 0.144676 0.072338 0.289352 0.289352 0.289352 0.144676 0.144676 0.144676 0.072338 0.289352 0.289352 0.289352 0.144676 0.144676 0.144676 0.072338 0.289352 0.289352 0.289352 0.144676 0.144676 0.144676 0.072338 0.289352 0.289352 0.289352 0.144676 0.144676 0.144676 0.0723379 0.289352 0.289352 0.289352 0.144676 0.144676 0.144676 0.072338 0.289352 0.289352 0.289352 0.144676 0.144676 0.144676 0.072338 0.289352 0.289352 0.289352 0.144676 0.144676 0.144676 0.072338 0.289352 0.289352 0.289352 0.144676 0.144676 0.144676 0.072338 0.289352 0.289352 0.289352 0.144676 0.144676 0.144676 0.0723379 0.289352 0.289352 0.289352 0.144676 0.144676 0.144676 0.072338 0.289352 0.289352 0.289352 0.144676 0.144676 0.144676 0.0723381 0.289351 0.289352 0.289352 0.144676 0.144676 0.144676 0.072338 0.289352 0.289352 0.289351 0.144676 0.144676 0.144676 0.0723379 0.289352 0.289352 0.289352 0.144676 0.144676 0.144676 0.072338 0.289352 0.289352 0.289352 0.144676 0.144676 0.144676 0.072338 0.144676 0.144676 0.289352 0.072338 0.144676 0.144676 0.072338 0.289352 0.144676 0.289352 0.289352 0.144676 0.144676 0.144676 0.072338 0.144676 0.072338 0.289352 0.289352 0.289352 0.144676 0.144676 0.144676 0.072338 0.289352 0.289352 0.289352 0.144676 0.144676 0.144676 0.072338 0.289352 0.289352 0.289352 0.144676 0.144676 0.144676 0.072338 0.289352 0.289352 0.289352 0.144676 0.144676 0.144676 0.072338 0.289352 0.289352 0.289352 0.144676 0.144676 0.144676 0.072338 0.289352 0.289352 0.289352 0.144676 0.144676 0.144676 0.072338 0.289352 0.289352 0.289352 0.144676 0.144676 0.144676 0.072338 0.289352 0.289352 0.289352 0.144676 0.144676 0.144676 0.072338 0.289352 0.289352 0.289352 0.144676 0.144676 0.144676 0.072338 0.289352 0.289352 0.289352 0.144676 0.144676 0.144676 0.072338 0.289352 0.289352 0.289352 0.144676 0.144676 0.144676 0.072338 0.289352 0.289352 0.289352 0.144676 0.144676 0.144676 0.072338 0.289352 0.289352 0.289352 0.144676 0.144676 0.144676 0.072338 0.289352 0.289352 0.289352 0.144676 0.144676 0.144676 0.072338 0.289352 0.289352 0.289352 0.144676 0.144676 0.144676 0.072338 0.289352 0.289352 0.289352 0.144676 0.144676 0.144676 0.072338 0.289352 0.289352 0.289352 0.144676 0.144676 0.144676 0.072338 0.289352 0.289352 0.289352 0.144676 0.144676 0.144676 0.072338 0.289352 0.289352 0.289352 0.144676 0.144676 0.144676 0.072338 0.289352 0.289352 0.289352 0.144676 0.144676 0.144676 0.072338 0.289352 0.289352 0.289352 0.144676 0.144676 0.144676 0.072338 0.289352 0.289352 0.289352 0.144676 0.144676 0.144676 0.072338 0.289352 0.289352 0.289352 0.144676 0.144676 0.144676 0.072338 0.289352 0.289352 0.289352 0.144676 0.144676 0.144676 0.072338 0.289352 0.289352 0.289352 0.144676 0.144676 0.144676 0.072338 0.289352 0.289352 0.289352 0.144676 0.144676 0.144676 0.0723381 0.289351 0.289352 0.289352 0.144676 0.144676 0.144676 0.072338 0.289352 0.289352 0.289351 0.144676 0.144676 0.144676 0.0723379 0.289352 0.289352 0.289352 0.144676 0.144676 0.144676 0.072338 0.289352 0.289352 0.289352 0.144676 0.144676 0.144676 0.072338 0.144676 0.144676 0.289352 0.072338 0.144676 0.144676 0.072338 0.289352 0.144676 0.289352 0.289352 0.144676 0.144676 0.144676 0.072338 0.144676 0.072338 0.289352 0.289352 0.289352 0.144676 0.144676 0.144676 0.072338 0.289352 0.289352 0.289352 0.144676 0.144676 0.144676 0.072338 0.289352 0.289352 0.289352 0.144676 0.144676 0.144676 0.072338 0.289352 0.289352 0.289352 0.144676 0.144676 0.144676 0.072338 0.289352 0.289352 0.289352 0.144676 0.144676 0.144676 0.072338 0.289352 0.289352 0.289352 0.144676 0.144676 0.144676 0.072338 0.289352 0.289352 0.289352 0.144676 0.144676 0.144676 0.072338 0.289352 0.289352 0.289352 0.144676 0.144676 0.144676 0.072338 0.289352 0.289352 0.289352 0.144676 0.144676 0.144676 0.072338 0.289352 0.289352 0.289352 0.144676 0.144676 0.144676 0.072338 0.289352 0.289352 0.289352 0.144676 0.144676 0.144676 0.072338 0.289352 0.289352 0.289352 0.144676 0.144676 0.144676 0.072338 0.289352 0.289352 0.289352 0.144676 0.144676 0.144676 0.072338 0.289352 0.289352 0.289352 0.144676 0.144676 0.144676 0.072338 0.289352 0.289352 0.289352 0.144676 0.144676 0.144676 0.072338 0.289352 0.289352 0.289352 0.144676 0.144676 0.144676 0.072338 0.289352 0.289352 0.289352 0.144676 0.144676 0.144676 0.072338 0.289352 0.289352 0.289352 0.144676 0.144676 0.144676 0.072338 0.289352 0.289352 0.289352 0.144676 0.144676 0.144676 0.072338 0.289352 0.289352 0.289352 0.144676 0.144676 0.144676 0.072338 0.289352 0.289352 0.289352 0.144676 0.144676 0.144676 0.072338 0.289352 0.289352 0.289352 0.144676 0.144676 0.144676 0.072338 0.289352 0.289352 0.289352 0.144676 0.144676 0.144676 0.072338 0.289352 0.289352 0.289352 0.144676 0.144676 0.144676 0.072338 0.289352 0.289352 0.289352 0.144676 0.144676 0.144676 0.072338 0.289352 0.289352 0.289352 0.144676 0.144676 0.144676 0.0723381 0.289351 0.289352 0.289352 0.144676 0.144676 0.144676 0.072338 0.289352 0.289352 0.289351 0.144676 0.144676 0.144676 0.0723379 0.289352 0.289352 0.289352 0.144676 0.144676 0.144676 0.072338 0.289352 0.289352 0.289352 0.144676 0.144676 0.144676 0.072338 0.144676 0.144676 0.289352 0.072338 0.144676 0.144676 0.072338 0.289352 0.144676 0.144676 0.144676 0.072338 0.144676 0.144676 0.072338 0.072338 0.072338 0.289352 0.144676 0.144676 0.144676 0.144676 0.072338 0.072338 0.289352 0.144676 0.144676 0.144676 0.144676 0.072338 0.072338 0.289352 0.144676 0.144676 0.144676 0.144676 0.072338 0.072338 0.289352 0.144676 0.144676 0.144676 0.144676 0.072338 0.072338 0.289352 0.144676 0.144676 0.144676 0.144676 0.072338 0.072338 0.289352 0.144676 0.144676 0.144676 0.144676 0.072338 0.072338 0.289352 0.144676 0.144676 0.144676 0.144676 0.072338 0.072338 0.289352 0.144676 0.144676 0.144676 0.144676 0.072338 0.072338 0.289352 0.144676 0.144676 0.144676 0.144676 0.072338 0.072338 0.289352 0.144676 0.144676 0.144676 0.144676 0.072338 0.072338 0.289352 0.144676 0.144676 0.144676 0.144676 0.072338 0.072338 0.289352 0.144676 0.144676 0.144676 0.144676 0.072338 0.072338 0.289352 0.144676 0.144676 0.144676 0.144676 0.072338 0.072338 0.289352 0.144676 0.144676 0.144676 0.144676 0.0723379 0.0723379 0.289352 0.144676 0.144676 0.144676 0.144676 0.072338 0.072338 0.289352 0.144676 0.144676 0.144676 0.144676 0.072338 0.072338 0.289352 0.144676 0.144676 0.144676 0.144676 0.072338 0.072338 0.289352 0.144676 0.144676 0.144676 0.144676 0.0723379 0.0723379 0.289352 0.144676 0.144676 0.144676 0.144676 0.0723379 0.0723379 0.289352 0.144676 0.144676 0.144676 0.144676 0.072338 0.072338 0.289352 0.144676 0.144676 0.144676 0.144676 0.072338 0.072338 0.289352 0.144676 0.144676 0.144676 0.144676 0.072338 0.072338 0.289352 0.144676 0.144676 0.144676 0.144676 0.072338 0.072338 0.289352 0.144676 0.144676 0.144676 0.144676 0.0723379 0.0723379 0.289352 0.144676 0.144676 0.144676 0.144676 0.072338 0.072338 0.289352 0.144676 0.144676 0.144676 0.144676 0.0723381 0.0723381 0.289351 0.144676 0.144676 0.144676 0.144676 0.0723379 0.0723379 0.289352 0.144676 0.144676 0.144676 0.144676 0.0723379 0.0723379 0.289352 0.144676 0.144676 0.144676 0.144676 0.072338 0.072338 0.289352 0.144676 0.144676 0.144676 0.144676 0.0723379 0.0723379 0.144676 0.072338 0.144676 0.072338 0.144676 0.072338 0.072338 0.144676 0.144676 0.0723379 0.289352 0.144676 0.289352 0.289352 0.144676 0.0723379 0.144676 0.144676 0.0723379 0.144676 0.0723379 0.144676 0.144676 0.289352 0.289352 0.289352 0.0723379 0.144676 0.144676 0.144676 0.0723379 0.144676 0.144676 0.289352 0.289352 0.289352 0.0723379 0.144676 0.144676 0.144676 0.0723379 0.144676 0.144676 0.289352 0.289352 0.289352 0.0723379 0.144676 0.144676 0.144676 0.0723379 0.144676 0.144676 0.289352 0.289352 0.289352 0.0723379 0.144676 0.144676 0.144676 0.0723379 0.144676 0.144676 0.289352 0.289352 0.289352 0.0723379 0.144676 0.144676 0.144676 0.0723379 0.144676 0.144676 0.289352 0.289352 0.289352 0.0723379 0.144676 0.144676 0.144676 0.0723379 0.144676 0.144676 0.289352 0.289352 0.289352 0.0723379 0.144676 0.144676 0.144676 0.0723379 0.144676 0.144676 0.289352 0.289352 0.289352 0.0723379 0.144676 0.144676 0.144676 0.0723379 0.144676 0.144676 0.289352 0.289351 0.289352 0.0723379 0.144676 0.144676 0.144676 0.0723379 0.144676 0.144676 0.289352 0.289352 0.289352 0.0723379 0.144676 0.144676 0.144676 0.0723379 0.144676 0.144676 0.289352 0.289352 0.289352 0.0723379 0.144676 0.144676 0.144676 0.0723379 0.144676 0.144676 0.289352 0.289352 0.289352 0.0723379 0.144676 0.144676 0.144676 0.0723379 0.144676 0.144676 0.289352 0.289352 0.289352 0.0723379 0.144676 0.144676 0.144676 0.0723379 0.144676 0.144676 0.289352 0.289352 0.289352 0.0723379 0.144676 0.144676 0.144676 0.0723379 0.144676 0.144676 0.289352 0.289352 0.289352 0.0723379 0.144676 0.144676 0.144676 0.0723379 0.144676 0.144676 0.289352 0.289352 0.289352 0.0723379 0.144676 0.144676 0.144676 0.0723379 0.144676 0.144676 0.289352 0.289351 0.289352 0.0723379 0.144676 0.144676 0.144676 0.0723379 0.144676 0.144676 0.289352 0.289351 0.289352 0.0723379 0.144676 0.144676 0.144676 0.0723379 0.144676 0.144676 0.289352 0.289351 0.289352 0.0723378 0.144676 0.144676 0.144676 0.0723378 0.144676 0.144676 0.289352 0.289352 0.289352 0.0723379 0.144676 0.144676 0.144676 0.0723379 0.144676 0.144676 0.289352 0.289351 0.289352 0.0723379 0.144676 0.144676 0.144676 0.0723379 0.144676 0.144676 0.289352 0.289352 0.289352 0.0723379 0.144676 0.144676 0.144676 0.0723379 0.144676 0.144676 0.289352 0.289351 0.289352 0.0723379 0.144676 0.144676 0.144676 0.0723379 0.144676 0.144676 0.289352 0.289351 0.289352 0.0723378 0.144676 0.144676 0.144676 0.0723378 0.144676 0.144676 0.289352 0.289352 0.289352 0.0723379 0.144676 0.144676 0.144676 0.0723379 0.144676 0.144676 0.289352 0.289352 0.289352 0.072338 0.144676 0.144676 0.144676 0.072338 0.144676 0.144676 0.289352 0.289351 0.289352 0.0723378 0.144676 0.144676 0.144676 0.0723378 0.144676 0.144676 0.289352 0.289351 0.289351 0.0723378 0.144676 0.144676 0.144676 0.0723378 0.144676 0.144676 0.289352 0.289351 0.289352 0.0723379 0.144676 0.144676 0.144676 0.0723379 0.144676 0.144676 0.289352 0.289352 0.289352 0.0723379 0.144676 0.144676 0.144676 0.0723379 0.0723379 0.144676 0.144676 0.144676 0.289352 0.0723379 0.0723379 0.144676 0.144676 0.0723379 0.289352 0.144676 0.289352 0.289352 0.144676 0.144676 0.144676 0.0723379 0.144676 0.0723379 0.289352 0.289352 0.289352 0.144676 0.144676 0.144676 0.0723379 0.289352 0.289352 0.289352 0.144676 0.144676 0.144676 0.0723379 0.289352 0.289352 0.289352 0.144676 0.144676 0.144676 0.0723379 0.289352 0.289352 0.289352 0.144676 0.144676 0.144676 0.0723379 0.289352 0.289352 0.289352 0.144676 0.144676 0.144676 0.0723379 0.289352 0.289352 0.289352 0.144676 0.144676 0.144676 0.0723379 0.289352 0.289352 0.289352 0.144676 0.144676 0.144676 0.0723379 0.289352 0.289352 0.289352 0.144676 0.144676 0.144676 0.0723379 0.289352 0.289351 0.289352 0.144676 0.144676 0.144676 0.0723379 0.289352 0.289352 0.289352 0.144676 0.144676 0.144676 0.0723379 0.289352 0.289352 0.289352 0.144676 0.144676 0.144676 0.0723379 0.289352 0.289352 0.289352 0.144676 0.144676 0.144676 0.0723379 0.289352 0.289352 0.289352 0.144676 0.144676 0.144676 0.0723379 0.289352 0.289352 0.289352 0.144676 0.144676 0.144676 0.0723379 0.289352 0.289352 0.289352 0.144676 0.144676 0.144676 0.0723379 0.289352 0.289352 0.289352 0.144676 0.144676 0.144676 0.0723379 0.289352 0.289351 0.289352 0.144676 0.144676 0.144676 0.0723379 0.289352 0.289351 0.289352 0.144676 0.144676 0.144676 0.0723379 0.289352 0.289351 0.289352 0.144676 0.144676 0.144676 0.0723378 0.289352 0.289352 0.289352 0.144676 0.144676 0.144676 0.0723379 0.289352 0.289351 0.289352 0.144676 0.144676 0.144676 0.0723379 0.289352 0.289352 0.289352 0.144676 0.144676 0.144676 0.0723379 0.289352 0.289351 0.289352 0.144676 0.144676 0.144676 0.0723379 0.289352 0.289351 0.289352 0.144676 0.144676 0.144676 0.0723378 0.289352 0.289352 0.289352 0.144676 0.144676 0.144676 0.0723379 0.289352 0.289352 0.289352 0.144676 0.144676 0.144676 0.072338 0.289352 0.289351 0.289352 0.144676 0.144676 0.144676 0.0723378 0.289352 0.289351 0.289351 0.144676 0.144676 0.144676 0.0723378 0.289352 0.289351 0.289352 0.144676 0.144676 0.144676 0.0723379 0.289352 0.289352 0.289352 0.144676 0.144676 0.144676 0.0723378 0.144676 0.144676 0.289352 0.0723379 0.144676 0.144676 0.0723379 0.289352 0.144676 0.289352 0.289352 0.144676 0.144676 0.144676 0.0723379 0.144676 0.0723379 0.289352 0.289352 0.289352 0.144676 0.144676 0.144676 0.0723379 0.289352 0.289352 0.289352 0.144676 0.144676 0.144676 0.0723379 0.289352 0.289352 0.289352 0.144676 0.144676 0.144676 0.0723379 0.289352 0.289352 0.289352 0.144676 0.144676 0.144676 0.0723379 0.289352 0.289352 0.289352 0.144676 0.144676 0.144676 0.0723379 0.289352 0.289352 0.289352 0.144676 0.144676 0.144676 0.0723379 0.289352 0.289352 0.289352 0.144676 0.144676 0.144676 0.0723379 0.289352 0.289352 0.289352 0.144676 0.144676 0.144676 0.0723379 0.289352 0.289351 0.289352 0.144676 0.144676 0.144676 0.0723379 0.289352 0.289352 0.289352 0.144676 0.144676 0.144676 0.0723379 0.289352 0.289352 0.289352 0.144676 0.144676 0.144676 0.0723379 0.289352 0.289352 0.289352 0.144676 0.144676 0.144676 0.0723379 0.289352 0.289351 0.289352 0.144676 0.144676 0.144676 0.0723379 0.289352 0.289351 0.289352 0.144676 0.144676 0.144676 0.0723378 0.289352 0.289352 0.289352 0.144676 0.144676 0.144676 0.0723379 0.289352 0.289352 0.289352 0.144676 0.144676 0.144676 0.0723379 0.289352 0.289351 0.289352 0.144676 0.144676 0.144676 0.0723379 0.289352 0.289351 0.289352 0.144676 0.144676 0.144676 0.0723379 0.289352 0.289351 0.289352 0.144676 0.144676 0.144676 0.0723378 0.289352 0.289352 0.289352 0.144676 0.144676 0.144676 0.0723379 0.289352 0.289351 0.289352 0.144676 0.144676 0.144676 0.0723379 0.289352 0.289351 0.289352 0.144676 0.144676 0.144676 0.0723379 0.289352 0.289351 0.289352 0.144676 0.144676 0.144676 0.0723379 0.289352 0.289351 0.289352 0.144676 0.144676 0.144676 0.0723378 0.289352 0.289352 0.289352 0.144676 0.144676 0.144676 0.0723379 0.289352 0.289352 0.289352 0.144676 0.144676 0.144676 0.072338 0.289352 0.289351 0.289352 0.144676 0.144676 0.144676 0.0723378 0.289352 0.289351 0.289351 0.144676 0.144676 0.144676 0.0723378 0.289352 0.289351 0.289352 0.144676 0.144676 0.144676 0.0723379 0.289352 0.289352 0.289352 0.144676 0.144676 0.144676 0.0723378 0.144676 0.144676 0.289352 0.0723379 0.144676 0.144676 0.0723379 0.289352 0.144676 0.289352 0.289352 0.144676 0.144676 0.144676 0.0723379 0.144676 0.0723379 0.289352 0.289352 0.289352 0.144676 0.144676 0.144676 0.0723379 0.289352 0.289352 0.289352 0.144676 0.144676 0.144676 0.0723379 0.289352 0.289352 0.289352 0.144676 0.144676 0.144676 0.0723379 0.289352 0.289352 0.289352 0.144676 0.144676 0.144676 0.0723379 0.289352 0.289352 0.289352 0.144676 0.144676 0.144676 0.0723379 0.289352 0.289352 0.289352 0.144676 0.144676 0.144676 0.0723379 0.289352 0.289352 0.289352 0.144676 0.144676 0.144676 0.0723379 0.289352 0.289352 0.289352 0.144676 0.144676 0.144676 0.0723379 0.289352 0.289351 0.289352 0.144676 0.144676 0.144676 0.0723379 0.289352 0.289351 0.289352 0.144676 0.144676 0.144676 0.0723379 0.289352 0.289352 0.289352 0.144676 0.144676 0.144676 0.0723379 0.289352 0.289352 0.289352 0.144676 0.144676 0.144676 0.0723379 0.289352 0.289351 0.289352 0.144676 0.144676 0.144676 0.0723379 0.289352 0.289351 0.289352 0.144676 0.144676 0.144676 0.0723378 0.289352 0.289352 0.289352 0.144676 0.144676 0.144676 0.0723379 0.289352 0.289351 0.289352 0.144676 0.144676 0.144676 0.0723379 0.289352 0.289351 0.289352 0.144676 0.144676 0.144676 0.0723379 0.289352 0.289351 0.289352 0.144676 0.144676 0.144676 0.0723379 0.289352 0.289351 0.289352 0.144676 0.144676 0.144676 0.0723378 0.289352 0.289352 0.289352 0.144676 0.144676 0.144676 0.0723379 0.289352 0.289351 0.289352 0.144676 0.144676 0.144676 0.0723379 0.289352 0.289351 0.289352 0.144676 0.144676 0.144676 0.0723378 0.289352 0.289351 0.289352 0.144676 0.144676 0.144676 0.0723379 0.289352 0.289351 0.289352 0.144676 0.144676 0.144676 0.0723378 0.289352 0.289352 0.289352 0.144676 0.144676 0.144676 0.0723379 0.289352 0.289352 0.289352 0.144676 0.144676 0.144676 0.072338 0.289352 0.289351 0.289352 0.144676 0.144676 0.144676 0.0723378 0.289352 0.289351 0.289351 0.144676 0.144676 0.144676 0.0723378 0.289352 0.289351 0.289352 0.144676 0.144676 0.144676 0.0723379 0.289352 0.289352 0.289352 0.144676 0.144676 0.144676 0.0723378 0.144676 0.144676 0.289352 0.0723379 0.144676 0.144676 0.0723379 0.289352 0.144676 0.289352 0.289352 0.144676 0.144676 0.144676 0.0723379 0.144676 0.0723379 0.289352 0.289352 0.289352 0.144676 0.144676 0.144676 0.0723379 0.289352 0.289352 0.289352 0.144676 0.144676 0.144676 0.0723379 0.289352 0.289352 0.289352 0.144676 0.144676 0.144676 0.0723379 0.289352 0.289352 0.289352 0.144676 0.144676 0.144676 0.0723379 0.289352 0.289352 0.289352 0.144676 0.144676 0.144676 0.0723379 0.289352 0.289352 0.289352 0.144676 0.144676 0.144676 0.0723379 0.289352 0.289352 0.289352 0.144676 0.144676 0.144676 0.0723379 0.289352 0.289352 0.289352 0.144676 0.144676 0.144676 0.0723379 0.289352 0.289351 0.289352 0.144676 0.144676 0.144676 0.0723379 0.289352 0.289352 0.289352 0.144676 0.144676 0.144676 0.0723379 0.289352 0.289352 0.289352 0.144676 0.144676 0.144676 0.0723379 0.289352 0.289352 0.289352 0.144676 0.144676 0.144676 0.0723379 0.289352 0.289352 0.289352 0.144676 0.144676 0.144676 0.0723379 0.289352 0.289351 0.289352 0.144676 0.144676 0.144676 0.0723378 0.289352 0.289352 0.289352 0.144676 0.144676 0.144676 0.0723379 0.289352 0.289351 0.289352 0.144676 0.144676 0.144676 0.0723379 0.289352 0.289351 0.289352 0.144676 0.144676 0.144676 0.0723379 0.289352 0.289351 0.289352 0.144676 0.144676 0.144676 0.0723379 0.289352 0.289351 0.289352 0.144676 0.144676 0.144676 0.0723378 0.289352 0.289352 0.289352 0.144676 0.144676 0.144676 0.0723379 0.289352 0.289351 0.289352 0.144676 0.144676 0.144676 0.0723379 0.289352 0.289352 0.289352 0.144676 0.144676 0.144676 0.0723378 0.289352 0.289351 0.289352 0.144676 0.144676 0.144676 0.0723379 0.289352 0.289351 0.289352 0.144676 0.144676 0.144676 0.0723378 0.289352 0.289352 0.289352 0.144676 0.144676 0.144676 0.0723379 0.289352 0.289352 0.289352 0.144676 0.144676 0.144676 0.072338 0.289352 0.289351 0.289352 0.144676 0.144676 0.144676 0.0723378 0.289352 0.289351 0.289351 0.144676 0.144676 0.144676 0.0723378 0.289352 0.289351 0.289352 0.144676 0.144676 0.144676 0.0723379 0.289352 0.289352 0.289352 0.144676 0.144676 0.144676 0.0723378 0.144676 0.144676 0.289352 0.0723379 0.144676 0.144676 0.0723379 0.289352 0.144676 0.289352 0.289352 0.144676 0.144676 0.144676 0.0723379 0.144676 0.0723379 0.289352 0.289352 0.289352 0.144676 0.144676 0.144676 0.0723379 0.289352 0.289352 0.289352 0.144676 0.144676 0.144676 0.0723379 0.289352 0.289352 0.289352 0.144676 0.144676 0.144676 0.0723379 0.289352 0.289352 0.289352 0.144676 0.144676 0.144676 0.0723379 0.289352 0.289352 0.289352 0.144676 0.144676 0.144676 0.0723379 0.289352 0.289352 0.289352 0.144676 0.144676 0.144676 0.0723379 0.289352 0.289352 0.289352 0.144676 0.144676 0.144676 0.0723379 0.289352 0.289352 0.289352 0.144676 0.144676 0.144676 0.0723379 0.289352 0.289351 0.289352 0.144676 0.144676 0.144676 0.0723379 0.289352 0.289352 0.289352 0.144676 0.144676 0.144676 0.0723379 0.289352 0.289352 0.289352 0.144676 0.144676 0.144676 0.0723379 0.289352 0.289352 0.289352 0.144676 0.144676 0.144676 0.0723379 0.289352 0.289352 0.289352 0.144676 0.144676 0.144676 0.0723379 0.289352 0.289352 0.289352 0.144676 0.144676 0.144676 0.0723379 0.289352 0.289352 0.289352 0.144676 0.144676 0.144676 0.0723379 0.289352 0.289352 0.289352 0.144676 0.144676 0.144676 0.0723379 0.289352 0.289351 0.289352 0.144676 0.144676 0.144676 0.0723379 0.289352 0.289351 0.289352 0.144676 0.144676 0.144676 0.0723379 0.289352 0.289352 0.289352 0.144676 0.144676 0.144676 0.0723378 0.289352 0.289352 0.289352 0.144676 0.144676 0.144676 0.0723379 0.289352 0.289351 0.289352 0.144676 0.144676 0.144676 0.0723379 0.289352 0.289352 0.289352 0.144676 0.144676 0.144676 0.0723379 0.289352 0.289352 0.289352 0.144676 0.144676 0.144676 0.0723379 0.289352 0.289351 0.289352 0.144676 0.144676 0.144676 0.0723378 0.289352 0.289352 0.289352 0.144676 0.144676 0.144676 0.0723379 0.289352 0.289352 0.289352 0.144676 0.144676 0.144676 0.072338 0.289352 0.289351 0.289352 0.144676 0.144676 0.144676 0.0723378 0.289352 0.289351 0.289351 0.144676 0.144676 0.144676 0.0723378 0.289352 0.289351 0.289352 0.144676 0.144676 0.144676 0.0723379 0.289352 0.289352 0.289352 0.144676 0.144676 0.144676 0.0723379 0.144676 0.144676 0.289352 0.0723379 0.144676 0.144676 0.0723379 0.289352 0.144676 0.289352 0.289352 0.144676 0.144676 0.144676 0.0723379 0.144676 0.0723379 0.289352 0.289352 0.289352 0.144676 0.144676 0.144676 0.0723379 0.289352 0.289352 0.289352 0.144676 0.144676 0.144676 0.0723379 0.289352 0.289352 0.289352 0.144676 0.144676 0.144676 0.0723379 0.289352 0.289352 0.289352 0.144676 0.144676 0.144676 0.0723379 0.289352 0.289352 0.289352 0.144676 0.144676 0.144676 0.0723379 0.289352 0.289352 0.289352 0.144676 0.144676 0.144676 0.0723379 0.289352 0.289352 0.289352 0.144676 0.144676 0.144676 0.0723379 0.289352 0.289352 0.289352 0.144676 0.144676 0.144676 0.0723379 0.289352 0.289351 0.289352 0.144676 0.144676 0.144676 0.0723379 0.289352 0.289352 0.289352 0.144676 0.144676 0.144676 0.0723379 0.289352 0.289352 0.289352 0.144676 0.144676 0.144676 0.0723379 0.289352 0.289352 0.289352 0.144676 0.144676 0.144676 0.0723379 0.289352 0.289352 0.289352 0.144676 0.144676 0.144676 0.0723379 0.289352 0.289351 0.289352 0.144676 0.144676 0.144676 0.0723379 0.289352 0.289352 0.289352 0.144676 0.144676 0.144676 0.0723379 0.289352 0.289351 0.289352 0.144676 0.144676 0.144676 0.0723379 0.289352 0.289351 0.289352 0.144676 0.144676 0.144676 0.0723379 0.289352 0.289351 0.289352 0.144676 0.144676 0.144676 0.0723379 0.289352 0.289351 0.289352 0.144676 0.144676 0.144676 0.0723378 0.289352 0.289352 0.289352 0.144676 0.144676 0.144676 0.0723379 0.289352 0.289351 0.289352 0.144676 0.144676 0.144676 0.0723379 0.289352 0.289352 0.289352 0.144676 0.144676 0.144676 0.0723379 0.289352 0.289351 0.289352 0.144676 0.144676 0.144676 0.0723379 0.289352 0.289351 0.289352 0.144676 0.144676 0.144676 0.0723378 0.289352 0.289352 0.289352 0.144676 0.144676 0.144676 0.0723379 0.289352 0.289352 0.289352 0.144676 0.144676 0.144676 0.072338 0.289352 0.289351 0.289352 0.144676 0.144676 0.144676 0.0723378 0.289352 0.289351 0.289351 0.144676 0.144676 0.144676 0.0723378 0.289352 0.289351 0.289352 0.144676 0.144676 0.144676 0.0723379 0.289352 0.289352 0.289352 0.144676 0.144676 0.144676 0.0723379 0.144676 0.144676 0.289352 0.0723379 0.144676 0.144676 0.0723379 0.289352 0.144676 0.144676 0.144676 0.0723379 0.144676 0.144676 0.0723379 0.0723379 0.0723379 0.289352 0.144676 0.144676 0.144676 0.144676 0.0723379 0.0723379 0.289352 0.144676 0.144676 0.144676 0.144676 0.0723379 0.0723379 0.289352 0.144676 0.144676 0.144676 0.144676 0.0723379 0.0723379 0.289352 0.144676 0.144676 0.144676 0.144676 0.0723379 0.0723379 0.289352 0.144676 0.144676 0.144676 0.144676 0.0723379 0.0723379 0.289352 0.144676 0.144676 0.144676 0.144676 0.0723379 0.0723379 0.289352 0.144676 0.144676 0.144676 0.144676 0.0723379 0.0723379 0.289352 0.144676 0.144676 0.144676 0.144676 0.0723379 0.0723379 0.289352 0.144676 0.144676 0.144676 0.144676 0.0723379 0.0723379 0.289352 0.144676 0.144676 0.144676 0.144676 0.0723379 0.0723379 0.289352 0.144676 0.144676 0.144676 0.144676 0.0723379 0.0723379 0.289352 0.144676 0.144676 0.144676 0.144676 0.0723379 0.0723379 0.289352 0.144676 0.144676 0.144676 0.144676 0.0723379 0.0723379 0.289352 0.144676 0.144676 0.144676 0.144676 0.0723378 0.0723378 0.289352 0.144676 0.144676 0.144676 0.144676 0.0723379 0.0723379 0.289352 0.144676 0.144676 0.144676 0.144676 0.0723379 0.0723379 0.289352 0.144676 0.144676 0.144676 0.144676 0.0723379 0.0723379 0.289352 0.144676 0.144676 0.144676 0.144676 0.0723378 0.0723378 0.289352 0.144676 0.144676 0.144676 0.144676 0.0723378 0.0723378 0.289352 0.144676 0.144676 0.144676 0.144676 0.0723379 0.0723379 0.289352 0.144676 0.144676 0.144676 0.144676 0.0723379 0.0723379 0.289352 0.144676 0.144676 0.144676 0.144676 0.0723378 0.0723378 0.289352 0.144676 0.144676 0.144676 0.144676 0.0723379 0.0723379 0.289352 0.144676 0.144676 0.144676 0.144676 0.0723378 0.0723378 0.289352 0.144676 0.144676 0.144676 0.144676 0.0723379 0.0723379 0.289352 0.144676 0.144676 0.144676 0.144676 0.072338 0.072338 0.289351 0.144676 0.144676 0.144676 0.144676 0.0723378 0.0723378 0.289352 0.144676 0.144676 0.144676 0.144676 0.0723378 0.0723378 0.289352 0.144676 0.144676 0.144676 0.144676 0.0723379 0.0723379 0.289352 0.144676 0.144676 0.144676 0.144676 0.0723378 0.0723378 0.144676 0.0723379 0.144676 0.0723379 0.144676 0.0723379 0.0723379 0.144676 0.144676 0.0723381 0.289352 0.144676 0.289352 0.289352 0.144676 0.0723381 0.144676 0.144676 0.0723381 0.144676 0.0723381 0.144676 0.144676 0.289352 0.289352 0.289352 0.0723381 0.144676 0.144676 0.144676 0.0723381 0.144676 0.144676 0.289352 0.289352 0.289352 0.0723381 0.144676 0.144676 0.144676 0.0723381 0.144676 0.144676 0.289352 0.289352 0.289352 0.0723381 0.144676 0.144676 0.144676 0.0723381 0.144676 0.144676 0.289352 0.289352 0.289352 0.0723381 0.144676 0.144676 0.144676 0.0723381 0.144676 0.144676 0.289352 0.289352 0.289352 0.0723381 0.144676 0.144676 0.144676 0.0723381 0.144676 0.144676 0.289352 0.289352 0.289352 0.0723381 0.144676 0.144676 0.144676 0.0723381 0.144676 0.144676 0.289352 0.289352 0.289352 0.0723381 0.144676 0.144676 0.144676 0.0723381 0.144676 0.144676 0.289352 0.289352 0.289352 0.0723381 0.144676 0.144676 0.144676 0.0723381 0.144676 0.144676 0.289352 0.289352 0.289352 0.072338 0.144676 0.144676 0.144676 0.072338 0.144676 0.144676 0.289352 0.289352 0.289352 0.072338 0.144676 0.144676 0.144676 0.072338 0.144676 0.144676 0.289352 0.289352 0.289352 0.0723381 0.144676 0.144676 0.144676 0.0723381 0.144676 0.144676 0.289352 0.289352 0.289352 0.0723381 0.144676 0.144676 0.144676 0.0723381 0.144676 0.144676 0.289352 0.289352 0.289352 0.0723381 0.144676 0.144676 0.144676 0.0723381 0.144676 0.144676 0.289352 0.289352 0.289352 0.072338 0.144676 0.144676 0.144676 0.072338 0.144676 0.144676 0.289352 0.289352 0.289352 0.0723381 0.144676 0.144676 0.144676 0.0723381 0.144676 0.144676 0.289352 0.289352 0.289352 0.0723381 0.144676 0.144676 0.144676 0.0723381 0.144676 0.144676 0.289352 0.289352 0.289352 0.072338 0.144676 0.144676 0.144676 0.072338 0.144676 0.144676 0.289352 0.289352 0.289352 0.072338 0.144676 0.144676 0.144676 0.072338 0.144676 0.144676 0.289352 0.289352 0.289352 0.072338 0.144676 0.144676 0.144676 0.072338 0.144676 0.144676 0.289352 0.289352 0.289352 0.0723381 0.144676 0.144676 0.144676 0.0723381 0.144676 0.144676 0.289352 0.289352 0.289352 0.0723381 0.144676 0.144676 0.144676 0.0723381 0.144676 0.144676 0.289352 0.289352 0.289352 0.072338 0.144676 0.144676 0.144676 0.072338 0.144676 0.144676 0.289352 0.289352 0.289352 0.0723381 0.144676 0.144676 0.144676 0.0723381 0.144676 0.144676 0.289352 0.289352 0.289352 0.072338 0.144676 0.144676 0.144676 0.072338 0.144676 0.144676 0.289352 0.289352 0.289352 0.0723381 0.144676 0.144676 0.144676 0.0723381 0.144676 0.144676 0.289352 0.289352 0.289352 0.0723382 0.144676 0.144676 0.144676 0.0723382 0.144676 0.144676 0.289352 0.289352 0.289352 0.072338 0.144676 0.144676 0.144676 0.072338 0.144676 0.144676 0.289352 0.289352 0.289351 0.0723379 0.144676 0.144676 0.144676 0.0723379 0.144676 0.144676 0.289352 0.289352 0.289352 0.0723381 0.144676 0.144676 0.144676 0.0723381 0.144676 0.144676 0.289352 0.289352 0.289352 0.072338 0.144676 0.144676 0.144676 0.072338 0.0723381 0.144676 0.144676 0.144676 0.289352 0.0723381 0.0723381 0.144676 0.144676 0.0723381 0.289352 0.144676 0.289352 0.289352 0.144676 0.144676 0.144676 0.0723381 0.144676 0.0723381 0.289352 0.289352 0.289352 0.144676 0.144676 0.144676 0.0723381 0.289352 0.289352 0.289352 0.144676 0.144676 0.144676 0.0723381 0.289352 0.289352 0.289352 0.144676 0.144676 0.144676 0.0723381 0.289352 0.289352 0.289352 0.144676 0.144676 0.144676 0.0723381 0.289352 0.289352 0.289352 0.144676 0.144676 0.144676 0.0723381 0.289352 0.289352 0.289352 0.144676 0.144676 0.144676 0.0723381 0.289352 0.289352 0.289352 0.144676 0.144676 0.144676 0.0723381 0.289352 0.289352 0.289352 0.144676 0.144676 0.144676 0.0723381 0.289352 0.289352 0.289352 0.144676 0.144676 0.144676 0.0723381 0.289352 0.289352 0.289352 0.144676 0.144676 0.144676 0.072338 0.289352 0.289352 0.289352 0.144676 0.144676 0.144676 0.0723381 0.289352 0.289352 0.289352 0.144676 0.144676 0.144676 0.0723381 0.289352 0.289352 0.289352 0.144676 0.144676 0.144676 0.0723381 0.289352 0.289352 0.289352 0.144676 0.144676 0.144676 0.072338 0.289352 0.289352 0.289352 0.144676 0.144676 0.144676 0.0723381 0.289352 0.289352 0.289352 0.144676 0.144676 0.144676 0.0723381 0.289352 0.289352 0.289352 0.144676 0.144676 0.144676 0.072338 0.289352 0.289352 0.289352 0.144676 0.144676 0.144676 0.072338 0.289352 0.289352 0.289352 0.144676 0.144676 0.144676 0.072338 0.289352 0.289352 0.289352 0.144676 0.144676 0.144676 0.0723381 0.289352 0.289352 0.289352 0.144676 0.144676 0.144676 0.072338 0.289352 0.289352 0.289352 0.144676 0.144676 0.144676 0.072338 0.289352 0.289352 0.289352 0.144676 0.144676 0.144676 0.0723381 0.289352 0.289352 0.289352 0.144676 0.144676 0.144676 0.072338 0.289352 0.289352 0.289352 0.144676 0.144676 0.144676 0.0723381 0.289352 0.289352 0.289352 0.144676 0.144676 0.144676 0.0723381 0.289352 0.289352 0.289352 0.144676 0.144676 0.144676 0.072338 0.289352 0.289352 0.289351 0.144676 0.144676 0.144676 0.0723379 0.289352 0.289352 0.289352 0.144676 0.144676 0.144676 0.0723381 0.289352 0.289352 0.289352 0.144676 0.144676 0.144676 0.072338 0.144676 0.144676 0.289352 0.0723381 0.144676 0.144676 0.0723381 0.289352 0.144676 0.289352 0.289352 0.144676 0.144676 0.144676 0.0723381 0.144676 0.0723381 0.289352 0.289352 0.289352 0.144676 0.144676 0.144676 0.0723381 0.289352 0.289352 0.289352 0.144676 0.144676 0.144676 0.0723381 0.289352 0.289352 0.289352 0.144676 0.144676 0.144676 0.0723381 0.289352 0.289352 0.289352 0.144676 0.144676 0.144676 0.0723381 0.289352 0.289352 0.289352 0.144676 0.144676 0.144676 0.0723381 0.289352 0.289352 0.289352 0.144676 0.144676 0.144676 0.0723381 0.289352 0.289352 0.289352 0.144676 0.144676 0.144676 0.0723381 0.289352 0.289352 0.289352 0.144676 0.144676 0.144676 0.0723381 0.289352 0.289352 0.289352 0.144676 0.144676 0.144676 0.072338 0.289352 0.289352 0.289352 0.144676 0.144676 0.144676 0.072338 0.289352 0.289352 0.289352 0.144676 0.144676 0.144676 0.0723381 0.289352 0.289352 0.289352 0.144676 0.144676 0.144676 0.0723381 0.289352 0.289352 0.289352 0.144676 0.144676 0.144676 0.0723381 0.289352 0.289352 0.289352 0.144676 0.144676 0.144676 0.072338 0.289352 0.289352 0.289352 0.144676 0.144676 0.144676 0.0723381 0.289352 0.289352 0.289352 0.144676 0.144676 0.144676 0.0723381 0.289352 0.289352 0.289352 0.144676 0.144676 0.144676 0.072338 0.289352 0.289352 0.289352 0.144676 0.144676 0.144676 0.072338 0.289352 0.289352 0.289352 0.144676 0.144676 0.144676 0.072338 0.289352 0.289352 0.289352 0.144676 0.144676 0.144676 0.0723381 0.289352 0.289352 0.289352 0.144676 0.144676 0.144676 0.0723381 0.289352 0.289352 0.289352 0.144676 0.144676 0.144676 0.072338 0.289352 0.289352 0.289352 0.144676 0.144676 0.144676 0.0723381 0.289352 0.289352 0.289352 0.144676 0.144676 0.144676 0.072338 0.289352 0.289352 0.289352 0.144676 0.144676 0.144676 0.0723381 0.289352 0.289352 0.289352 0.144676 0.144676 0.144676 0.0723382 0.289352 0.289352 0.289352 0.144676 0.144676 0.144676 0.072338 0.289352 0.289352 0.289351 0.144676 0.144676 0.144676 0.0723379 0.289352 0.289352 0.289352 0.144676 0.144676 0.144676 0.0723381 0.289352 0.289352 0.289352 0.144676 0.144676 0.144676 0.072338 0.144676 0.144676 0.289352 0.0723381 0.144676 0.144676 0.0723381 0.289352 0.144676 0.289352 0.289352 0.144676 0.144676 0.144676 0.0723381 0.144676 0.0723381 0.289352 0.289352 0.289352 0.144676 0.144676 0.144676 0.0723381 0.289352 0.289352 0.289352 0.144676 0.144676 0.144676 0.0723381 0.289352 0.289352 0.289352 0.144676 0.144676 0.144676 0.072338 0.289352 0.289352 0.289352 0.144676 0.144676 0.144676 0.072338 0.289352 0.289352 0.289352 0.144676 0.144676 0.144676 0.0723381 0.289352 0.289352 0.289352 0.144676 0.144676 0.144676 0.0723381 0.289352 0.289352 0.289352 0.144676 0.144676 0.144676 0.072338 0.289352 0.289352 0.289352 0.144676 0.144676 0.144676 0.0723381 0.289352 0.289352 0.289352 0.144676 0.144676 0.144676 0.072338 0.289352 0.289352 0.289352 0.144676 0.144676 0.144676 0.072338 0.289352 0.289352 0.289352 0.144676 0.144676 0.144676 0.0723381 0.289352 0.289352 0.289352 0.144676 0.144676 0.144676 0.0723381 0.289352 0.289352 0.289352 0.144676 0.144676 0.144676 0.0723381 0.289352 0.289352 0.289352 0.144676 0.144676 0.144676 0.072338 0.289352 0.289352 0.289352 0.144676 0.144676 0.144676 0.0723381 0.289352 0.289352 0.289352 0.144676 0.144676 0.144676 0.0723381 0.289352 0.289352 0.289352 0.144676 0.144676 0.144676 0.072338 0.289352 0.289352 0.289352 0.144676 0.144676 0.144676 0.072338 0.289352 0.289352 0.289352 0.144676 0.144676 0.144676 0.072338 0.289352 0.289352 0.289352 0.144676 0.144676 0.144676 0.0723381 0.289352 0.289352 0.289352 0.144676 0.144676 0.144676 0.072338 0.289352 0.289352 0.289352 0.144676 0.144676 0.144676 0.072338 0.289352 0.289352 0.289352 0.144676 0.144676 0.144676 0.0723381 0.289352 0.289352 0.289352 0.144676 0.144676 0.144676 0.072338 0.289352 0.289352 0.289352 0.144676 0.144676 0.144676 0.072338 0.289352 0.289352 0.289352 0.144676 0.144676 0.144676 0.0723381 0.289352 0.289352 0.289352 0.144676 0.144676 0.144676 0.072338 0.289352 0.289352 0.289351 0.144676 0.144676 0.144676 0.0723379 0.289352 0.289352 0.289352 0.144676 0.144676 0.144676 0.0723381 0.289352 0.289352 0.289352 0.144676 0.144676 0.144676 0.072338 0.144676 0.144676 0.289352 0.0723381 0.144676 0.144676 0.0723381 0.289352 0.144676 0.289352 0.289352 0.144676 0.144676 0.144676 0.0723381 0.144676 0.0723381 0.289352 0.289352 0.289352 0.144676 0.144676 0.144676 0.0723381 0.289352 0.289352 0.289352 0.144676 0.144676 0.144676 0.0723381 0.289352 0.289352 0.289352 0.144676 0.144676 0.144676 0.072338 0.289352 0.289352 0.289352 0.144676 0.144676 0.144676 0.0723381 0.289352 0.289352 0.289352 0.144676 0.144676 0.144676 0.0723381 0.289352 0.289352 0.289352 0.144676 0.144676 0.144676 0.0723381 0.289352 0.289352 0.289352 0.144676 0.144676 0.144676 0.0723381 0.289352 0.289352 0.289352 0.144676 0.144676 0.144676 0.0723381 0.289352 0.289352 0.289352 0.144676 0.144676 0.144676 0.072338 0.289352 0.289352 0.289352 0.144676 0.144676 0.144676 0.072338 0.289352 0.289352 0.289352 0.144676 0.144676 0.144676 0.0723381 0.289352 0.289352 0.289352 0.144676 0.144676 0.144676 0.0723381 0.289352 0.289352 0.289352 0.144676 0.144676 0.144676 0.0723381 0.289352 0.289352 0.289352 0.144676 0.144676 0.144676 0.072338 0.289352 0.289352 0.289352 0.144676 0.144676 0.144676 0.0723381 0.289352 0.289352 0.289352 0.144676 0.144676 0.144676 0.0723381 0.289352 0.289352 0.289352 0.144676 0.144676 0.144676 0.072338 0.289352 0.289352 0.289352 0.144676 0.144676 0.144676 0.072338 0.289352 0.289352 0.289352 0.144676 0.144676 0.144676 0.072338 0.289352 0.289352 0.289352 0.144676 0.144676 0.144676 0.0723381 0.289352 0.289352 0.289352 0.144676 0.144676 0.144676 0.072338 0.289352 0.289352 0.289352 0.144676 0.144676 0.144676 0.072338 0.289352 0.289352 0.289352 0.144676 0.144676 0.144676 0.0723381 0.289352 0.289352 0.289352 0.144676 0.144676 0.144676 0.072338 0.289352 0.289352 0.289352 0.144676 0.144676 0.144676 0.0723381 0.289352 0.289352 0.289352 0.144676 0.144676 0.144676 0.0723381 0.289352 0.289352 0.289352 0.144676 0.144676 0.144676 0.072338 0.289352 0.289352 0.289351 0.144676 0.144676 0.144676 0.0723379 0.289352 0.289352 0.289352 0.144676 0.144676 0.144676 0.0723381 0.289352 0.289352 0.289352 0.144676 0.144676 0.144676 0.072338 0.144676 0.144676 0.289352 0.0723381 0.144676 0.144676 0.0723381 0.289352 0.144676 0.289352 0.289352 0.144676 0.144676 0.144676 0.0723381 0.144676 0.0723381 0.289352 0.289352 0.289352 0.144676 0.144676 0.144676 0.0723381 0.289352 0.289352 0.289352 0.144676 0.144676 0.144676 0.0723381 0.289352 0.289352 0.289352 0.144676 0.144676 0.144676 0.0723381 0.289352 0.289352 0.289352 0.144676 0.144676 0.144676 0.0723381 0.289352 0.289352 0.289352 0.144676 0.144676 0.144676 0.0723381 0.289352 0.289352 0.289352 0.144676 0.144676 0.144676 0.0723381 0.289352 0.289352 0.289352 0.144676 0.144676 0.144676 0.0723381 0.289352 0.289352 0.289352 0.144676 0.144676 0.144676 0.0723381 0.289352 0.289352 0.289352 0.144676 0.144676 0.144676 0.072338 0.289352 0.289352 0.289352 0.144676 0.144676 0.144676 0.072338 0.289352 0.289352 0.289352 0.144676 0.144676 0.144676 0.0723381 0.289352 0.289352 0.289352 0.144676 0.144676 0.144676 0.0723381 0.289352 0.289352 0.289352 0.144676 0.144676 0.144676 0.0723381 0.289352 0.289352 0.289352 0.144676 0.144676 0.144676 0.072338 0.289352 0.289352 0.289352 0.144676 0.144676 0.144676 0.0723381 0.289352 0.289352 0.289352 0.144676 0.144676 0.144676 0.0723381 0.289352 0.289352 0.289352 0.144676 0.144676 0.144676 0.072338 0.289352 0.289352 0.289352 0.144676 0.144676 0.144676 0.072338 0.289352 0.289352 0.289352 0.144676 0.144676 0.144676 0.072338 0.289352 0.289352 0.289352 0.144676 0.144676 0.144676 0.0723381 0.289352 0.289352 0.289352 0.144676 0.144676 0.144676 0.0723381 0.289352 0.289352 0.289352 0.144676 0.144676 0.144676 0.072338 0.289352 0.289352 0.289352 0.144676 0.144676 0.144676 0.0723381 0.289352 0.289352 0.289352 0.144676 0.144676 0.144676 0.072338 0.289352 0.289352 0.289352 0.144676 0.144676 0.144676 0.0723381 0.289352 0.289352 0.289352 0.144676 0.144676 0.144676 0.0723382 0.289352 0.289352 0.289352 0.144676 0.144676 0.144676 0.072338 0.289352 0.289352 0.289351 0.144676 0.144676 0.144676 0.0723379 0.289352 0.289352 0.289352 0.144676 0.144676 0.144676 0.0723381 0.289352 0.289352 0.289352 0.144676 0.144676 0.144676 0.072338 0.144676 0.144676 0.289352 0.0723381 0.144676 0.144676 0.0723381 0.289352 0.144676 0.289352 0.289352 0.144676 0.144676 0.144676 0.0723381 0.144676 0.0723381 0.289352 0.289352 0.289352 0.144676 0.144676 0.144676 0.0723381 0.289352 0.289352 0.289352 0.144676 0.144676 0.144676 0.0723381 0.289352 0.289352 0.289352 0.144676 0.144676 0.144676 0.0723381 0.289352 0.289352 0.289352 0.144676 0.144676 0.144676 0.0723381 0.289352 0.289352 0.289352 0.144676 0.144676 0.144676 0.0723381 0.289352 0.289352 0.289352 0.144676 0.144676 0.144676 0.0723381 0.289352 0.289352 0.289352 0.144676 0.144676 0.144676 0.0723381 0.289352 0.289352 0.289352 0.144676 0.144676 0.144676 0.0723381 0.289352 0.289352 0.289352 0.144676 0.144676 0.144676 0.072338 0.289352 0.289352 0.289352 0.144676 0.144676 0.144676 0.0723381 0.289352 0.289352 0.289352 0.144676 0.144676 0.144676 0.0723381 0.289352 0.289352 0.289352 0.144676 0.144676 0.144676 0.0723381 0.289352 0.289352 0.289352 0.144676 0.144676 0.144676 0.0723381 0.289352 0.289352 0.289352 0.144676 0.144676 0.144676 0.072338 0.289352 0.289352 0.289352 0.144676 0.144676 0.144676 0.0723381 0.289352 0.289352 0.289352 0.144676 0.144676 0.144676 0.0723381 0.289352 0.289352 0.289352 0.144676 0.144676 0.144676 0.0723381 0.289352 0.289352 0.289352 0.144676 0.144676 0.144676 0.072338 0.289352 0.289352 0.289352 0.144676 0.144676 0.144676 0.072338 0.289352 0.289352 0.289352 0.144676 0.144676 0.144676 0.0723381 0.289352 0.289352 0.289352 0.144676 0.144676 0.144676 0.0723381 0.289352 0.289352 0.289352 0.144676 0.144676 0.144676 0.072338 0.289352 0.289352 0.289352 0.144676 0.144676 0.144676 0.0723381 0.289352 0.289352 0.289352 0.144676 0.144676 0.144676 0.072338 0.289352 0.289352 0.289352 0.144676 0.144676 0.144676 0.072338 0.289352 0.289352 0.289352 0.144676 0.144676 0.144676 0.0723382 0.289352 0.289352 0.289352 0.144676 0.144676 0.144676 0.072338 0.289352 0.289352 0.289351 0.144676 0.144676 0.144676 0.0723379 0.289352 0.289352 0.289352 0.144676 0.144676 0.144676 0.0723381 0.289352 0.289352 0.289352 0.144676 0.144676 0.144676 0.072338 0.144676 0.144676 0.289352 0.0723381 0.144676 0.144676 0.0723381 0.289352 0.144676 0.144676 0.144676 0.0723381 0.144676 0.144676 0.0723381 0.0723381 0.0723381 0.289352 0.144676 0.144676 0.144676 0.144676 0.0723381 0.0723381 0.289352 0.144676 0.144676 0.144676 0.144676 0.0723381 0.0723381 0.289352 0.144676 0.144676 0.144676 0.144676 0.072338 0.072338 0.289352 0.144676 0.144676 0.144676 0.144676 0.072338 0.072338 0.289352 0.144676 0.144676 0.144676 0.144676 0.0723381 0.0723381 0.289352 0.144676 0.144676 0.144676 0.144676 0.0723381 0.0723381 0.289352 0.144676 0.144676 0.144676 0.144676 0.072338 0.072338 0.289352 0.144676 0.144676 0.144676 0.144676 0.0723381 0.0723381 0.289352 0.144676 0.144676 0.144676 0.144676 0.072338 0.072338 0.289352 0.144676 0.144676 0.144676 0.144676 0.072338 0.072338 0.289352 0.144676 0.144676 0.144676 0.144676 0.0723381 0.0723381 0.289352 0.144676 0.144676 0.144676 0.144676 0.0723381 0.0723381 0.289352 0.144676 0.144676 0.144676 0.144676 0.0723381 0.0723381 0.289352 0.144676 0.144676 0.144676 0.144676 0.072338 0.072338 0.289352 0.144676 0.144676 0.144676 0.144676 0.0723381 0.0723381 0.289352 0.144676 0.144676 0.144676 0.144676 0.0723381 0.0723381 0.289352 0.144676 0.144676 0.144676 0.144676 0.072338 0.072338 0.289352 0.144676 0.144676 0.144676 0.144676 0.072338 0.072338 0.289352 0.144676 0.144676 0.144676 0.144676 0.072338 0.072338 0.289352 0.144676 0.144676 0.144676 0.144676 0.0723381 0.0723381 0.289352 0.144676 0.144676 0.144676 0.144676 0.072338 0.072338 0.289352 0.144676 0.144676 0.144676 0.144676 0.072338 0.072338 0.289352 0.144676 0.144676 0.144676 0.144676 0.0723381 0.0723381 0.289352 0.144676 0.144676 0.144676 0.144676 0.072338 0.072338 0.289352 0.144676 0.144676 0.144676 0.144676 0.072338 0.072338 0.289352 0.144676 0.144676 0.144676 0.144676 0.0723381 0.0723381 0.289352 0.144676 0.144676 0.144676 0.144676 0.072338 0.072338 0.289352 0.144676 0.144676 0.144676 0.144676 0.0723379 0.0723379 0.289352 0.144676 0.144676 0.144676 0.144676 0.0723381 0.0723381 0.289352 0.144676 0.144676 0.144676 0.144676 0.072338 0.072338 0.144676 0.0723381 0.144676 0.0723381 0.144676 0.0723381 0.0723381 0.144676 0.144676 0.0723379 0.289352 0.144676 0.289352 0.289352 0.144676 0.0723379 0.144676 0.144676 0.0723379 0.144676 0.0723379 0.144676 0.144676 0.289352 0.289352 0.289352 0.0723379 0.144676 0.144676 0.144676 0.0723379 0.144676 0.144676 0.289352 0.289352 0.289352 0.0723379 0.144676 0.144676 0.144676 0.0723379 0.144676 0.144676 0.289352 0.289352 0.289352 0.0723379 0.144676 0.144676 0.144676 0.0723379 0.144676 0.144676 0.289352 0.289352 0.289352 0.0723379 0.144676 0.144676 0.144676 0.0723379 0.144676 0.144676 0.289352 0.289352 0.289352 0.0723379 0.144676 0.144676 0.144676 0.0723379 0.144676 0.144676 0.289352 0.289352 0.289352 0.0723379 0.144676 0.144676 0.144676 0.0723379 0.144676 0.144676 0.289352 0.289352 0.289352 0.0723379 0.144676 0.144676 0.144676 0.0723379 0.144676 0.144676 0.289352 0.289352 0.289352 0.0723379 0.144676 0.144676 0.144676 0.0723379 0.144676 0.144676 0.289352 0.289352 0.289352 0.0723379 0.144676 0.144676 0.144676 0.0723379 0.144676 0.144676 0.289352 0.289352 0.289352 0.0723379 0.144676 0.144676 0.144676 0.0723379 0.144676 0.144676 0.289352 0.289352 0.289352 0.0723379 0.144676 0.144676 0.144676 0.0723379 0.144676 0.144676 0.289352 0.289352 0.289352 0.0723379 0.144676 0.144676 0.144676 0.0723379 0.144676 0.144676 0.289352 0.289352 0.289352 0.072338 0.144676 0.144676 0.144676 0.072338 0.144676 0.144676 0.289352 0.289352 0.289352 0.0723379 0.144676 0.144676 0.144676 0.0723379 0.144676 0.144676 0.289352 0.289352 0.289352 0.0723379 0.144676 0.144676 0.144676 0.0723379 0.144676 0.144676 0.289352 0.289352 0.289352 0.0723379 0.144676 0.144676 0.144676 0.0723379 0.144676 0.144676 0.289352 0.289352 0.289352 0.0723379 0.144676 0.144676 0.144676 0.0723379 0.144676 0.144676 0.289352 0.289352 0.289352 0.0723379 0.144676 0.144676 0.144676 0.0723379 0.144676 0.144676 0.289352 0.289352 0.289352 0.0723379 0.144676 0.144676 0.144676 0.0723379 0.144676 0.144676 0.289352 0.289352 0.289352 0.0723379 0.144676 0.144676 0.144676 0.0723379 0.144676 0.144676 0.289352 0.289352 0.289352 0.0723379 0.144676 0.144676 0.144676 0.0723379 0.144676 0.144676 0.289352 0.289352 0.289352 0.0723379 0.144676 0.144676 0.144676 0.0723379 0.144676 0.144676 0.289352 0.289352 0.289352 0.072338 0.144676 0.144676 0.144676 0.072338 0.144676 0.144676 0.289352 0.289352 0.289352 0.0723379 0.144676 0.144676 0.144676 0.0723379 0.144676 0.144676 0.289352 0.289352 0.289352 0.0723379 0.144676 0.144676 0.144676 0.0723379 0.144676 0.144676 0.289352 0.289352 0.289352 0.072338 0.144676 0.144676 0.144676 0.072338 0.144676 0.144676 0.289351 0.289351 0.289352 0.0723379 0.144676 0.144676 0.144676 0.0723379 0.144676 0.144676 0.289352 0.289352 0.289351 0.0723378 0.144676 0.144676 0.144676 0.0723378 0.144676 0.144676 0.289352 0.289352 0.289352 0.0723379 0.144676 0.144676 0.144676 0.0723379 0.144676 0.144676 0.289352 0.289352 0.289352 0.0723379 0.144676 0.144676 0.144676 0.0723379 0.072338 0.144676 0.144676 0.144676 0.289352 0.072338 0.072338 0.144676 0.144676 0.072338 0.289352 0.144676 0.289352 0.289352 0.144676 0.144676 0.144676 0.0723379 0.144676 0.0723379 0.289352 0.289352 0.289352 0.144676 0.144676 0.144676 0.0723379 0.289352 0.289352 0.289352 0.144676 0.144676 0.144676 0.0723379 0.289352 0.289352 0.289352 0.144676 0.144676 0.144676 0.0723379 0.289352 0.289352 0.289352 0.144676 0.144676 0.144676 0.0723379 0.289352 0.289352 0.289352 0.144676 0.144676 0.144676 0.0723379 0.289352 0.289352 0.289352 0.144676 0.144676 0.144676 0.0723379 0.289352 0.289352 0.289352 0.144676 0.144676 0.144676 0.0723379 0.289352 0.289352 0.289352 0.144676 0.144676 0.144676 0.0723379 0.289352 0.289352 0.289352 0.144676 0.144676 0.144676 0.0723379 0.289352 0.289352 0.289352 0.144676 0.144676 0.144676 0.0723379 0.289352 0.289352 0.289352 0.144676 0.144676 0.144676 0.0723379 0.289352 0.289352 0.289352 0.144676 0.144676 0.144676 0.0723379 0.289352 0.289352 0.289352 0.144676 0.144676 0.144676 0.072338 0.289352 0.289352 0.289352 0.144676 0.144676 0.144676 0.0723379 0.289352 0.289352 0.289352 0.144676 0.144676 0.144676 0.0723379 0.289352 0.289352 0.289352 0.144676 0.144676 0.144676 0.0723379 0.289352 0.289352 0.289352 0.144676 0.144676 0.144676 0.0723379 0.289352 0.289352 0.289352 0.144676 0.144676 0.144676 0.0723379 0.289352 0.289352 0.289352 0.144676 0.144676 0.144676 0.0723379 0.289352 0.289352 0.289352 0.144676 0.144676 0.144676 0.0723379 0.289352 0.289352 0.289352 0.144676 0.144676 0.144676 0.0723379 0.289352 0.289352 0.289352 0.144676 0.144676 0.144676 0.0723379 0.289352 0.289352 0.289352 0.144676 0.144676 0.144676 0.072338 0.289352 0.289352 0.289352 0.144676 0.144676 0.144676 0.0723379 0.289352 0.289352 0.289352 0.144676 0.144676 0.144676 0.0723379 0.289352 0.289352 0.289352 0.144676 0.144676 0.144676 0.072338 0.289351 0.289351 0.289352 0.144676 0.144676 0.144676 0.0723379 0.289352 0.289351 0.289351 0.144676 0.144676 0.144676 0.0723378 0.289352 0.289352 0.289352 0.144676 0.144676 0.144676 0.0723379 0.289352 0.289352 0.289352 0.144676 0.144676 0.144676 0.0723379 0.144676 0.144676 0.289352 0.072338 0.144676 0.144676 0.072338 0.289352 0.144676 0.289352 0.289352 0.144676 0.144676 0.144676 0.0723379 0.144676 0.0723379 0.289352 0.289352 0.289352 0.144676 0.144676 0.144676 0.0723379 0.289352 0.289352 0.289352 0.144676 0.144676 0.144676 0.072338 0.289352 0.289352 0.289352 0.144676 0.144676 0.144676 0.0723379 0.289352 0.289352 0.289352 0.144676 0.144676 0.144676 0.0723379 0.289352 0.289352 0.289352 0.144676 0.144676 0.144676 0.0723379 0.289352 0.289352 0.289352 0.144676 0.144676 0.144676 0.0723379 0.289352 0.289352 0.289352 0.144676 0.144676 0.144676 0.0723379 0.289352 0.289352 0.289352 0.144676 0.144676 0.144676 0.0723379 0.289352 0.289352 0.289352 0.144676 0.144676 0.144676 0.0723379 0.289352 0.289352 0.289352 0.144676 0.144676 0.144676 0.0723379 0.289352 0.289352 0.289352 0.144676 0.144676 0.144676 0.0723379 0.289352 0.289352 0.289352 0.144676 0.144676 0.144676 0.0723379 0.289352 0.289352 0.289352 0.144676 0.144676 0.144676 0.072338 0.289352 0.289352 0.289352 0.144676 0.144676 0.144676 0.0723379 0.289352 0.289352 0.289352 0.144676 0.144676 0.144676 0.072338 0.289352 0.289352 0.289352 0.144676 0.144676 0.144676 0.0723379 0.289352 0.289352 0.289352 0.144676 0.144676 0.144676 0.0723379 0.289352 0.289352 0.289352 0.144676 0.144676 0.144676 0.0723379 0.289352 0.289352 0.289352 0.144676 0.144676 0.144676 0.0723379 0.289352 0.289352 0.289352 0.144676 0.144676 0.144676 0.072338 0.289352 0.289352 0.289352 0.144676 0.144676 0.144676 0.0723379 0.289352 0.289352 0.289352 0.144676 0.144676 0.144676 0.0723379 0.289352 0.289352 0.289352 0.144676 0.144676 0.144676 0.072338 0.289352 0.289352 0.289352 0.144676 0.144676 0.144676 0.0723379 0.289352 0.289352 0.289352 0.144676 0.144676 0.144676 0.0723379 0.289352 0.289352 0.289352 0.144676 0.144676 0.144676 0.072338 0.289351 0.289351 0.289352 0.144676 0.144676 0.144676 0.0723379 0.289352 0.289351 0.289351 0.144676 0.144676 0.144676 0.0723378 0.289352 0.289352 0.289352 0.144676 0.144676 0.144676 0.0723379 0.289352 0.289352 0.289352 0.144676 0.144676 0.144676 0.0723379 0.144676 0.144676 0.289352 0.072338 0.144676 0.144676 0.072338 0.289352 0.144676 0.289352 0.289352 0.144676 0.144676 0.144676 0.0723379 0.144676 0.0723379 0.289352 0.289352 0.289352 0.144676 0.144676 0.144676 0.0723379 0.289352 0.289352 0.289352 0.144676 0.144676 0.144676 0.0723379 0.289352 0.289352 0.289352 0.144676 0.144676 0.144676 0.0723379 0.289352 0.289352 0.289352 0.144676 0.144676 0.144676 0.0723379 0.289352 0.289352 0.289352 0.144676 0.144676 0.144676 0.0723379 0.289352 0.289352 0.289352 0.144676 0.144676 0.144676 0.0723379 0.289352 0.289352 0.289352 0.144676 0.144676 0.144676 0.0723379 0.289352 0.289352 0.289352 0.144676 0.144676 0.144676 0.0723379 0.289352 0.289352 0.289352 0.144676 0.144676 0.144676 0.0723379 0.289352 0.289352 0.289352 0.144676 0.144676 0.144676 0.0723379 0.289352 0.289352 0.289352 0.144676 0.144676 0.144676 0.0723379 0.289352 0.289352 0.289352 0.144676 0.144676 0.144676 0.0723379 0.289352 0.289352 0.289352 0.144676 0.144676 0.144676 0.0723379 0.289352 0.289352 0.289352 0.144676 0.144676 0.144676 0.0723379 0.289352 0.289352 0.289352 0.144676 0.144676 0.144676 0.0723379 0.289352 0.289352 0.289352 0.144676 0.144676 0.144676 0.0723379 0.289352 0.289352 0.289352 0.144676 0.144676 0.144676 0.0723379 0.289352 0.289352 0.289352 0.144676 0.144676 0.144676 0.0723379 0.289352 0.289352 0.289352 0.144676 0.144676 0.144676 0.0723379 0.289352 0.289352 0.289352 0.144676 0.144676 0.144676 0.0723379 0.289352 0.289352 0.289352 0.144676 0.144676 0.144676 0.0723379 0.289352 0.289352 0.289352 0.144676 0.144676 0.144676 0.0723379 0.289352 0.289352 0.289352 0.144676 0.144676 0.144676 0.0723379 0.289352 0.289352 0.289352 0.144676 0.144676 0.144676 0.0723379 0.289352 0.289352 0.289352 0.144676 0.144676 0.144676 0.0723379 0.289352 0.289352 0.289352 0.144676 0.144676 0.144676 0.072338 0.289351 0.289351 0.289352 0.144676 0.144676 0.144676 0.0723379 0.289352 0.289351 0.289351 0.144676 0.144676 0.144676 0.0723378 0.289352 0.289352 0.289352 0.144676 0.144676 0.144676 0.0723379 0.289352 0.289352 0.289352 0.144676 0.144676 0.144676 0.0723379 0.144676 0.144676 0.289352 0.072338 0.144676 0.144676 0.072338 0.289352 0.144676 0.289352 0.289352 0.144676 0.144676 0.144676 0.0723379 0.144676 0.0723379 0.289352 0.289352 0.289352 0.144676 0.144676 0.144676 0.0723379 0.289352 0.289352 0.289352 0.144676 0.144676 0.144676 0.0723379 0.289352 0.289352 0.289352 0.144676 0.144676 0.144676 0.0723379 0.289352 0.289352 0.289352 0.144676 0.144676 0.144676 0.0723379 0.289352 0.289352 0.289352 0.144676 0.144676 0.144676 0.0723379 0.289352 0.289352 0.289352 0.144676 0.144676 0.144676 0.0723379 0.289352 0.289352 0.289352 0.144676 0.144676 0.144676 0.0723379 0.289352 0.289352 0.289352 0.144676 0.144676 0.144676 0.0723379 0.289352 0.289352 0.289352 0.144676 0.144676 0.144676 0.0723379 0.289352 0.289352 0.289352 0.144676 0.144676 0.144676 0.0723379 0.289352 0.289352 0.289352 0.144676 0.144676 0.144676 0.0723379 0.289352 0.289352 0.289352 0.144676 0.144676 0.144676 0.0723379 0.289352 0.289352 0.289352 0.144676 0.144676 0.144676 0.0723379 0.289352 0.289352 0.289352 0.144676 0.144676 0.144676 0.0723379 0.289352 0.289352 0.289352 0.144676 0.144676 0.144676 0.0723379 0.289352 0.289352 0.289352 0.144676 0.144676 0.144676 0.0723379 0.289352 0.289352 0.289352 0.144676 0.144676 0.144676 0.0723379 0.289352 0.289352 0.289352 0.144676 0.144676 0.144676 0.0723379 0.289352 0.289352 0.289352 0.144676 0.144676 0.144676 0.0723379 0.289352 0.289352 0.289352 0.144676 0.144676 0.144676 0.0723379 0.289352 0.289352 0.289352 0.144676 0.144676 0.144676 0.0723379 0.289352 0.289352 0.289352 0.144676 0.144676 0.144676 0.0723379 0.289352 0.289352 0.289352 0.144676 0.144676 0.144676 0.0723379 0.289352 0.289352 0.289352 0.144676 0.144676 0.144676 0.0723379 0.289352 0.289352 0.289352 0.144676 0.144676 0.144676 0.0723379 0.289352 0.289352 0.289352 0.144676 0.144676 0.144676 0.072338 0.289351 0.289351 0.289352 0.144676 0.144676 0.144676 0.0723379 0.289352 0.289351 0.289351 0.144676 0.144676 0.144676 0.0723378 0.289352 0.289352 0.289352 0.144676 0.144676 0.144676 0.0723379 0.289352 0.289352 0.289352 0.144676 0.144676 0.144676 0.0723379 0.144676 0.144676 0.289352 0.072338 0.144676 0.144676 0.072338 0.289352 0.144676 0.289352 0.289352 0.144676 0.144676 0.144676 0.0723379 0.144676 0.0723379 0.289352 0.289352 0.289352 0.144676 0.144676 0.144676 0.0723379 0.289352 0.289352 0.289352 0.144676 0.144676 0.144676 0.0723379 0.289352 0.289352 0.289352 0.144676 0.144676 0.144676 0.0723379 0.289352 0.289352 0.289352 0.144676 0.144676 0.144676 0.0723379 0.289352 0.289352 0.289352 0.144676 0.144676 0.144676 0.0723379 0.289352 0.289352 0.289352 0.144676 0.144676 0.144676 0.0723379 0.289352 0.289352 0.289352 0.144676 0.144676 0.144676 0.0723379 0.289352 0.289352 0.289352 0.144676 0.144676 0.144676 0.0723379 0.289352 0.289352 0.289352 0.144676 0.144676 0.144676 0.0723379 0.289352 0.289352 0.289352 0.144676 0.144676 0.144676 0.0723379 0.289352 0.289352 0.289352 0.144676 0.144676 0.144676 0.0723379 0.289352 0.289352 0.289352 0.144676 0.144676 0.144676 0.0723379 0.289352 0.289352 0.289352 0.144676 0.144676 0.144676 0.072338 0.289352 0.289352 0.289352 0.144676 0.144676 0.144676 0.0723379 0.289352 0.289352 0.289352 0.144676 0.144676 0.144676 0.0723379 0.289352 0.289352 0.289352 0.144676 0.144676 0.144676 0.0723379 0.289352 0.289352 0.289352 0.144676 0.144676 0.144676 0.0723379 0.289352 0.289352 0.289352 0.144676 0.144676 0.144676 0.0723379 0.289352 0.289352 0.289352 0.144676 0.144676 0.144676 0.0723379 0.289352 0.289352 0.289352 0.144676 0.144676 0.144676 0.0723379 0.289352 0.289352 0.289352 0.144676 0.144676 0.144676 0.0723379 0.289352 0.289352 0.289352 0.144676 0.144676 0.144676 0.0723379 0.289352 0.289352 0.289352 0.144676 0.144676 0.144676 0.0723379 0.289352 0.289352 0.289352 0.144676 0.144676 0.144676 0.0723379 0.289352 0.289352 0.289352 0.144676 0.144676 0.144676 0.0723379 0.289352 0.289352 0.289352 0.144676 0.144676 0.144676 0.072338 0.289351 0.289351 0.289352 0.144676 0.144676 0.144676 0.0723379 0.289352 0.289351 0.289351 0.144676 0.144676 0.144676 0.0723378 0.289352 0.289352 0.289352 0.144676 0.144676 0.144676 0.0723379 0.289352 0.289352 0.289352 0.144676 0.144676 0.144676 0.0723379 0.144676 0.144676 0.289352 0.072338 0.144676 0.144676 0.072338 0.289352 0.144676 0.289352 0.289352 0.144676 0.144676 0.144676 0.0723379 0.144676 0.0723379 0.289352 0.289352 0.289352 0.144676 0.144676 0.144676 0.0723379 0.289352 0.289352 0.289352 0.144676 0.144676 0.144676 0.0723379 0.289352 0.289352 0.289352 0.144676 0.144676 0.144676 0.0723379 0.289352 0.289352 0.289352 0.144676 0.144676 0.144676 0.0723379 0.289352 0.289352 0.289352 0.144676 0.144676 0.144676 0.0723379 0.289352 0.289352 0.289352 0.144676 0.144676 0.144676 0.0723379 0.289352 0.289352 0.289352 0.144676 0.144676 0.144676 0.0723379 0.289352 0.289352 0.289352 0.144676 0.144676 0.144676 0.0723379 0.289352 0.289352 0.289352 0.144676 0.144676 0.144676 0.0723379 0.289352 0.289352 0.289352 0.144676 0.144676 0.144676 0.0723379 0.289352 0.289352 0.289352 0.144676 0.144676 0.144676 0.0723379 0.289352 0.289352 0.289352 0.144676 0.144676 0.144676 0.0723379 0.289352 0.289352 0.289352 0.144676 0.144676 0.144676 0.072338 0.289352 0.289352 0.289352 0.144676 0.144676 0.144676 0.0723379 0.289352 0.289352 0.289352 0.144676 0.144676 0.144676 0.0723379 0.289352 0.289352 0.289352 0.144676 0.144676 0.144676 0.0723379 0.289352 0.289352 0.289352 0.144676 0.144676 0.144676 0.0723379 0.289352 0.289352 0.289352 0.144676 0.144676 0.144676 0.0723379 0.289352 0.289352 0.289352 0.144676 0.144676 0.144676 0.0723379 0.289352 0.289352 0.289352 0.144676 0.144676 0.144676 0.072338 0.289352 0.289352 0.289352 0.144676 0.144676 0.144676 0.0723379 0.289352 0.289352 0.289352 0.144676 0.144676 0.144676 0.0723379 0.289352 0.289352 0.289352 0.144676 0.144676 0.144676 0.072338 0.289352 0.289352 0.289352 0.144676 0.144676 0.144676 0.0723379 0.289352 0.289352 0.289352 0.144676 0.144676 0.144676 0.0723379 0.289352 0.289352 0.289352 0.144676 0.144676 0.144676 0.072338 0.289351 0.289351 0.289352 0.144676 0.144676 0.144676 0.0723379 0.289352 0.289351 0.289351 0.144676 0.144676 0.144676 0.0723378 0.289352 0.289352 0.289352 0.144676 0.144676 0.144676 0.0723379 0.289352 0.289352 0.289352 0.144676 0.144676 0.144676 0.0723379 0.144676 0.144676 0.289352 0.072338 0.144676 0.144676 0.072338 0.289352 0.144676 0.144676 0.144676 0.0723379 0.144676 0.144676 0.0723379 0.0723379 0.0723379 0.289352 0.144676 0.144676 0.144676 0.144676 0.0723379 0.0723379 0.289352 0.144676 0.144676 0.144676 0.144676 0.0723379 0.0723379 0.289352 0.144676 0.144676 0.144676 0.144676 0.0723379 0.0723379 0.289352 0.144676 0.144676 0.144676 0.144676 0.0723379 0.0723379 0.289352 0.144676 0.144676 0.144676 0.144676 0.0723379 0.0723379 0.289352 0.144676 0.144676 0.144676 0.144676 0.0723379 0.0723379 0.289352 0.144676 0.144676 0.144676 0.144676 0.0723379 0.0723379 0.289352 0.144676 0.144676 0.144676 0.144676 0.0723379 0.0723379 0.289352 0.144676 0.144676 0.144676 0.144676 0.0723379 0.0723379 0.289352 0.144676 0.144676 0.144676 0.144676 0.0723379 0.0723379 0.289352 0.144676 0.144676 0.144676 0.144676 0.0723379 0.0723379 0.289352 0.144676 0.144676 0.144676 0.144676 0.0723379 0.0723379 0.289352 0.144676 0.144676 0.144676 0.144676 0.0723379 0.0723379 0.289352 0.144676 0.144676 0.144676 0.144676 0.0723379 0.0723379 0.289352 0.144676 0.144676 0.144676 0.144676 0.0723379 0.0723379 0.289352 0.144676 0.144676 0.144676 0.144676 0.0723379 0.0723379 0.289352 0.144676 0.144676 0.144676 0.144676 0.0723379 0.0723379 0.289352 0.144676 0.144676 0.144676 0.144676 0.0723379 0.0723379 0.289352 0.144676 0.144676 0.144676 0.144676 0.0723379 0.0723379 0.289352 0.144676 0.144676 0.144676 0.144676 0.0723379 0.0723379 0.289352 0.144676 0.144676 0.144676 0.144676 0.0723379 0.0723379 0.289352 0.144676 0.144676 0.144676 0.144676 0.0723379 0.0723379 0.289352 0.144676 0.144676 0.144676 0.144676 0.0723379 0.0723379 0.289352 0.144676 0.144676 0.144676 0.144676 0.0723379 0.0723379 0.289352 0.144676 0.144676 0.144676 0.144676 0.0723379 0.0723379 0.289352 0.144676 0.144676 0.144676 0.144676 0.072338 0.072338 0.289351 0.144676 0.144676 0.144676 0.144676 0.0723379 0.0723379 0.289352 0.144676 0.144676 0.144676 0.144676 0.0723378 0.0723378 0.289352 0.144676 0.144676 0.144676 0.144676 0.0723379 0.0723379 0.289352 0.144676 0.144676 0.144676 0.144676 0.0723379 0.0723379 0.144676 0.0723379 0.144676 0.0723379 0.144676 0.0723379 0.0723379 0.144676 0.144676 0.072338 0.289352 0.144676 0.289352 0.289352 0.144676 0.072338 0.144676 0.144676 0.072338 0.144676 0.072338 0.144676 0.144676 0.289352 0.289352 0.289352 0.072338 0.144676 0.144676 0.144676 0.072338 0.144676 0.144676 0.289352 0.289352 0.289352 0.072338 0.144676 0.144676 0.144676 0.072338 0.144676 0.144676 0.289352 0.289352 0.289352 0.072338 0.144676 0.144676 0.144676 0.072338 0.144676 0.144676 0.289352 0.289352 0.289352 0.072338 0.144676 0.144676 0.144676 0.072338 0.144676 0.144676 0.289352 0.289352 0.289352 0.072338 0.144676 0.144676 0.144676 0.072338 0.144676 0.144676 0.289352 0.289352 0.289352 0.072338 0.144676 0.144676 0.144676 0.072338 0.144676 0.144676 0.289352 0.289352 0.289352 0.072338 0.144676 0.144676 0.144676 0.072338 0.144676 0.144676 0.289352 0.289352 0.289352 0.072338 0.144676 0.144676 0.144676 0.072338 0.144676 0.144676 0.289352 0.289352 0.289352 0.072338 0.144676 0.144676 0.144676 0.072338 0.144676 0.144676 0.289352 0.289352 0.289352 0.072338 0.144676 0.144676 0.144676 0.072338 0.144676 0.144676 0.289352 0.289352 0.289352 0.072338 0.144676 0.144676 0.144676 0.072338 0.144676 0.144676 0.289352 0.289352 0.289352 0.072338 0.144676 0.144676 0.144676 0.072338 0.144676 0.144676 0.289352 0.289352 0.289352 0.072338 0.144676 0.144676 0.144676 0.072338 0.144676 0.144676 0.289352 0.289352 0.289352 0.0723379 0.144676 0.144676 0.144676 0.0723379 0.144676 0.144676 0.289352 0.289352 0.289352 0.072338 0.144676 0.144676 0.144676 0.072338 0.144676 0.144676 0.289352 0.289352 0.289352 0.072338 0.144676 0.144676 0.144676 0.072338 0.144676 0.144676 0.289352 0.289352 0.289352 0.072338 0.144676 0.144676 0.144676 0.072338 0.144676 0.144676 0.289352 0.289352 0.289352 0.0723379 0.144676 0.144676 0.144676 0.0723379 0.144676 0.144676 0.289352 0.289352 0.289352 0.0723379 0.144676 0.144676 0.144676 0.0723379 0.144676 0.144676 0.289352 0.289352 0.289352 0.072338 0.144676 0.144676 0.144676 0.072338 0.144676 0.144676 0.289352 0.289352 0.289352 0.072338 0.144676 0.144676 0.144676 0.072338 0.144676 0.144676 0.289352 0.289352 0.289352 0.0723379 0.144676 0.144676 0.144676 0.0723379 0.144676 0.144676 0.289352 0.289352 0.289352 0.072338 0.144676 0.144676 0.144676 0.072338 0.144676 0.144676 0.289352 0.289352 0.289352 0.0723379 0.144676 0.144676 0.144676 0.0723379 0.144676 0.144676 0.289352 0.289352 0.289352 0.072338 0.144676 0.144676 0.144676 0.072338 0.144676 0.144676 0.289352 0.289352 0.289352 0.0723381 0.144676 0.144676 0.144676 0.0723381 0.144676 0.144676 0.289352 0.289352 0.289352 0.0723379 0.144676 0.144676 0.144676 0.0723379 0.144676 0.144676 0.289352 0.289352 0.289351 0.0723379 0.144676 0.144676 0.144676 0.0723379 0.144676 0.144676 0.289352 0.289352 0.289352 0.072338 0.144676 0.144676 0.144676 0.072338 0.144676 0.144676 0.289352 0.289352 0.289352 0.0723379 0.144676 0.144676 0.144676 0.0723379 0.072338 0.144676 0.144676 0.144676 0.289352 0.072338 0.072338 0.144676 0.144676 0.072338 0.289352 0.144676 0.289352 0.289352 0.144676 0.144676 0.144676 0.072338 0.144676 0.072338 0.289352 0.289352 0.289352 0.144676 0.144676 0.144676 0.072338 0.289352 0.289352 0.289352 0.144676 0.144676 0.144676 0.072338 0.289352 0.289352 0.289352 0.144676 0.144676 0.144676 0.072338 0.289352 0.289352 0.289352 0.144676 0.144676 0.144676 0.072338 0.289352 0.289352 0.289352 0.144676 0.144676 0.144676 0.072338 0.289352 0.289352 0.289352 0.144676 0.144676 0.144676 0.072338 0.289352 0.289352 0.289352 0.144676 0.144676 0.144676 0.072338 0.289352 0.289352 0.289352 0.144676 0.144676 0.144676 0.072338 0.289352 0.289352 0.289352 0.144676 0.144676 0.144676 0.072338 0.289352 0.289352 0.289352 0.144676 0.144676 0.144676 0.0723379 0.289352 0.289352 0.289352 0.144676 0.144676 0.144676 0.072338 0.289352 0.289352 0.289352 0.144676 0.144676 0.144676 0.072338 0.289352 0.289352 0.289352 0.144676 0.144676 0.144676 0.072338 0.289352 0.289352 0.289352 0.144676 0.144676 0.144676 0.0723379 0.289352 0.289352 0.289352 0.144676 0.144676 0.144676 0.072338 0.289352 0.289352 0.289352 0.144676 0.144676 0.144676 0.072338 0.289352 0.289352 0.289352 0.144676 0.144676 0.144676 0.0723379 0.289352 0.289352 0.289352 0.144676 0.144676 0.144676 0.0723379 0.289352 0.289352 0.289352 0.144676 0.144676 0.144676 0.0723379 0.289352 0.289352 0.289352 0.144676 0.144676 0.144676 0.072338 0.289352 0.289352 0.289352 0.144676 0.144676 0.144676 0.072338 0.289352 0.289352 0.289352 0.144676 0.144676 0.144676 0.0723379 0.289352 0.289352 0.289352 0.144676 0.144676 0.144676 0.072338 0.289352 0.289352 0.289352 0.144676 0.144676 0.144676 0.0723379 0.289352 0.289352 0.289352 0.144676 0.144676 0.144676 0.072338 0.289352 0.289352 0.289352 0.144676 0.144676 0.144676 0.0723381 0.289351 0.289352 0.289352 0.144676 0.144676 0.144676 0.0723379 0.289352 0.289352 0.289351 0.144676 0.144676 0.144676 0.0723378 0.289352 0.289352 0.289352 0.144676 0.144676 0.144676 0.072338 0.289352 0.289352 0.289352 0.144676 0.144676 0.144676 0.0723379 0.144676 0.144676 0.289352 0.072338 0.144676 0.144676 0.072338 0.289352 0.144676 0.289352 0.289352 0.144676 0.144676 0.144676 0.072338 0.144676 0.072338 0.289352 0.289352 0.289352 0.144676 0.144676 0.144676 0.072338 0.289352 0.289352 0.289352 0.144676 0.144676 0.144676 0.072338 0.289352 0.289352 0.289352 0.144676 0.144676 0.144676 0.072338 0.289352 0.289352 0.289352 0.144676 0.144676 0.144676 0.072338 0.289352 0.289352 0.289352 0.144676 0.144676 0.144676 0.072338 0.289352 0.289352 0.289352 0.144676 0.144676 0.144676 0.072338 0.289352 0.289352 0.289352 0.144676 0.144676 0.144676 0.072338 0.289352 0.289352 0.289352 0.144676 0.144676 0.144676 0.072338 0.289352 0.289352 0.289352 0.144676 0.144676 0.144676 0.072338 0.289352 0.289352 0.289352 0.144676 0.144676 0.144676 0.072338 0.289352 0.289352 0.289352 0.144676 0.144676 0.144676 0.072338 0.289352 0.289352 0.289352 0.144676 0.144676 0.144676 0.072338 0.289352 0.289352 0.289352 0.144676 0.144676 0.144676 0.072338 0.289352 0.289352 0.289352 0.144676 0.144676 0.144676 0.0723379 0.289352 0.289352 0.289352 0.144676 0.144676 0.144676 0.072338 0.289352 0.289352 0.289352 0.144676 0.144676 0.144676 0.072338 0.289352 0.289352 0.289352 0.144676 0.144676 0.144676 0.0723379 0.289352 0.289352 0.289352 0.144676 0.144676 0.144676 0.0723379 0.289352 0.289352 0.289352 0.144676 0.144676 0.144676 0.0723379 0.289352 0.289352 0.289352 0.144676 0.144676 0.144676 0.072338 0.289352 0.289352 0.289352 0.144676 0.144676 0.144676 0.072338 0.289352 0.289352 0.289352 0.144676 0.144676 0.144676 0.072338 0.289352 0.289352 0.289352 0.144676 0.144676 0.144676 0.072338 0.289352 0.289352 0.289352 0.144676 0.144676 0.144676 0.0723379 0.289352 0.289352 0.289352 0.144676 0.144676 0.144676 0.072338 0.289352 0.289352 0.289352 0.144676 0.144676 0.144676 0.0723381 0.289352 0.289352 0.289352 0.144676 0.144676 0.144676 0.0723379 0.289352 0.289352 0.289351 0.144676 0.144676 0.144676 0.0723378 0.289352 0.289352 0.289352 0.144676 0.144676 0.144676 0.072338 0.289352 0.289352 0.289352 0.144676 0.144676 0.144676 0.0723379 0.144676 0.144676 0.289352 0.072338 0.144676 0.144676 0.072338 0.289352 0.144676 0.289352 0.289352 0.144676 0.144676 0.144676 0.072338 0.144676 0.072338 0.289352 0.289352 0.289352 0.144676 0.144676 0.144676 0.072338 0.289352 0.289352 0.289352 0.144676 0.144676 0.144676 0.072338 0.289352 0.289352 0.289352 0.144676 0.144676 0.144676 0.072338 0.289352 0.289352 0.289352 0.144676 0.144676 0.144676 0.072338 0.289352 0.289352 0.289352 0.144676 0.144676 0.144676 0.072338 0.289352 0.289352 0.289352 0.144676 0.144676 0.144676 0.072338 0.289352 0.289352 0.289352 0.144676 0.144676 0.144676 0.072338 0.289352 0.289352 0.289352 0.144676 0.144676 0.144676 0.072338 0.289352 0.289352 0.289352 0.144676 0.144676 0.144676 0.0723379 0.289352 0.289352 0.289352 0.144676 0.144676 0.144676 0.0723379 0.289352 0.289352 0.289352 0.144676 0.144676 0.144676 0.072338 0.289352 0.289352 0.289352 0.144676 0.144676 0.144676 0.072338 0.289352 0.289352 0.289352 0.144676 0.144676 0.144676 0.072338 0.289352 0.289352 0.289352 0.144676 0.144676 0.144676 0.0723379 0.289352 0.289352 0.289352 0.144676 0.144676 0.144676 0.072338 0.289352 0.289352 0.289352 0.144676 0.144676 0.144676 0.072338 0.289352 0.289352 0.289352 0.144676 0.144676 0.144676 0.0723379 0.289352 0.289352 0.289352 0.144676 0.144676 0.144676 0.0723379 0.289352 0.289352 0.289352 0.144676 0.144676 0.144676 0.0723379 0.289352 0.289352 0.289352 0.144676 0.144676 0.144676 0.072338 0.289352 0.289352 0.289352 0.144676 0.144676 0.144676 0.072338 0.289352 0.289352 0.289352 0.144676 0.144676 0.144676 0.0723379 0.289352 0.289352 0.289352 0.144676 0.144676 0.144676 0.072338 0.289352 0.289352 0.289352 0.144676 0.144676 0.144676 0.0723379 0.289352 0.289352 0.289352 0.144676 0.144676 0.144676 0.072338 0.289352 0.289352 0.289352 0.144676 0.144676 0.144676 0.0723381 0.289351 0.289352 0.289352 0.144676 0.144676 0.144676 0.0723379 0.289352 0.289352 0.289351 0.144676 0.144676 0.144676 0.0723378 0.289352 0.289352 0.289352 0.144676 0.144676 0.144676 0.072338 0.289352 0.289352 0.289352 0.144676 0.144676 0.144676 0.0723379 0.144676 0.144676 0.289352 0.072338 0.144676 0.144676 0.072338 0.289352 0.144676 0.289352 0.289352 0.144676 0.144676 0.144676 0.072338 0.144676 0.072338 0.289352 0.289352 0.289352 0.144676 0.144676 0.144676 0.072338 0.289352 0.289352 0.289352 0.144676 0.144676 0.144676 0.072338 0.289352 0.289352 0.289352 0.144676 0.144676 0.144676 0.072338 0.289352 0.289352 0.289352 0.144676 0.144676 0.144676 0.072338 0.289352 0.289352 0.289352 0.144676 0.144676 0.144676 0.072338 0.289352 0.289352 0.289352 0.144676 0.144676 0.144676 0.072338 0.289352 0.289352 0.289352 0.144676 0.144676 0.144676 0.072338 0.289352 0.289352 0.289352 0.144676 0.144676 0.144676 0.072338 0.289352 0.289352 0.289352 0.144676 0.144676 0.144676 0.0723379 0.289352 0.289352 0.289352 0.144676 0.144676 0.144676 0.0723379 0.289352 0.289352 0.289352 0.144676 0.144676 0.144676 0.072338 0.289352 0.289352 0.289352 0.144676 0.144676 0.144676 0.072338 0.289352 0.289352 0.289352 0.144676 0.144676 0.144676 0.072338 0.289352 0.289352 0.289352 0.144676 0.144676 0.144676 0.0723379 0.289352 0.289352 0.289352 0.144676 0.144676 0.144676 0.072338 0.289352 0.289352 0.289352 0.144676 0.144676 0.144676 0.072338 0.289352 0.289352 0.289352 0.144676 0.144676 0.144676 0.0723379 0.289352 0.289352 0.289352 0.144676 0.144676 0.144676 0.0723379 0.289352 0.289352 0.289352 0.144676 0.144676 0.144676 0.0723379 0.289352 0.289352 0.289352 0.144676 0.144676 0.144676 0.072338 0.289352 0.289352 0.289352 0.144676 0.144676 0.144676 0.0723379 0.289352 0.289352 0.289352 0.144676 0.144676 0.144676 0.0723379 0.289352 0.289352 0.289352 0.144676 0.144676 0.144676 0.072338 0.289352 0.289352 0.289352 0.144676 0.144676 0.144676 0.0723379 0.289352 0.289352 0.289352 0.144676 0.144676 0.144676 0.072338 0.289352 0.289352 0.289352 0.144676 0.144676 0.144676 0.0723381 0.289351 0.289352 0.289352 0.144676 0.144676 0.144676 0.0723379 0.289352 0.289352 0.289351 0.144676 0.144676 0.144676 0.0723378 0.289352 0.289352 0.289352 0.144676 0.144676 0.144676 0.072338 0.289352 0.289352 0.289352 0.144676 0.144676 0.144676 0.0723379 0.144676 0.144676 0.289352 0.072338 0.144676 0.144676 0.072338 0.289352 0.144676 0.289352 0.289352 0.144676 0.144676 0.144676 0.072338 0.144676 0.072338 0.289352 0.289352 0.289352 0.144676 0.144676 0.144676 0.072338 0.289352 0.289352 0.289352 0.144676 0.144676 0.144676 0.072338 0.289352 0.289352 0.289352 0.144676 0.144676 0.144676 0.072338 0.289352 0.289352 0.289352 0.144676 0.144676 0.144676 0.072338 0.289352 0.289352 0.289352 0.144676 0.144676 0.144676 0.072338 0.289352 0.289352 0.289352 0.144676 0.144676 0.144676 0.072338 0.289352 0.289352 0.289352 0.144676 0.144676 0.144676 0.072338 0.289352 0.289352 0.289352 0.144676 0.144676 0.144676 0.072338 0.289352 0.289352 0.289352 0.144676 0.144676 0.144676 0.072338 0.289352 0.289352 0.289352 0.144676 0.144676 0.144676 0.072338 0.289352 0.289352 0.289352 0.144676 0.144676 0.144676 0.072338 0.289352 0.289352 0.289352 0.144676 0.144676 0.144676 0.072338 0.289352 0.289352 0.289352 0.144676 0.144676 0.144676 0.072338 0.289352 0.289352 0.289352 0.144676 0.144676 0.144676 0.0723379 0.289352 0.289352 0.289352 0.144676 0.144676 0.144676 0.072338 0.289352 0.289352 0.289352 0.144676 0.144676 0.144676 0.072338 0.289352 0.289352 0.289352 0.144676 0.144676 0.144676 0.0723379 0.289352 0.289352 0.289352 0.144676 0.144676 0.144676 0.0723379 0.289352 0.289352 0.289352 0.144676 0.144676 0.144676 0.0723379 0.289352 0.289352 0.289352 0.144676 0.144676 0.144676 0.072338 0.289352 0.289352 0.289352 0.144676 0.144676 0.144676 0.072338 0.289352 0.289352 0.289352 0.144676 0.144676 0.144676 0.072338 0.289352 0.289352 0.289352 0.144676 0.144676 0.144676 0.072338 0.289352 0.289352 0.289352 0.144676 0.144676 0.144676 0.0723379 0.289352 0.289352 0.289352 0.144676 0.144676 0.144676 0.072338 0.289352 0.289352 0.289352 0.144676 0.144676 0.144676 0.0723381 0.289352 0.289352 0.289352 0.144676 0.144676 0.144676 0.0723379 0.289352 0.289352 0.289351 0.144676 0.144676 0.144676 0.0723378 0.289352 0.289352 0.289352 0.144676 0.144676 0.144676 0.072338 0.289352 0.289352 0.289352 0.144676 0.144676 0.144676 0.0723379 0.144676 0.144676 0.289352 0.072338 0.144676 0.144676 0.072338 0.289352 0.144676 0.289352 0.289352 0.144676 0.144676 0.144676 0.072338 0.144676 0.072338 0.289352 0.289352 0.289352 0.144676 0.144676 0.144676 0.072338 0.289352 0.289352 0.289352 0.144676 0.144676 0.144676 0.072338 0.289352 0.289352 0.289352 0.144676 0.144676 0.144676 0.072338 0.289352 0.289352 0.289352 0.144676 0.144676 0.144676 0.072338 0.289352 0.289352 0.289352 0.144676 0.144676 0.144676 0.072338 0.289352 0.289352 0.289352 0.144676 0.144676 0.144676 0.072338 0.289352 0.289352 0.289352 0.144676 0.144676 0.144676 0.072338 0.289352 0.289352 0.289352 0.144676 0.144676 0.144676 0.072338 0.289352 0.289352 0.289352 0.144676 0.144676 0.144676 0.072338 0.289352 0.289352 0.289352 0.144676 0.144676 0.144676 0.072338 0.289352 0.289352 0.289352 0.144676 0.144676 0.144676 0.072338 0.289352 0.289352 0.289352 0.144676 0.144676 0.144676 0.072338 0.289352 0.289352 0.289352 0.144676 0.144676 0.144676 0.072338 0.289352 0.289352 0.289352 0.144676 0.144676 0.144676 0.0723379 0.289352 0.289352 0.289352 0.144676 0.144676 0.144676 0.072338 0.289352 0.289352 0.289352 0.144676 0.144676 0.144676 0.072338 0.289352 0.289352 0.289352 0.144676 0.144676 0.144676 0.072338 0.289352 0.289352 0.289352 0.144676 0.144676 0.144676 0.0723379 0.289352 0.289352 0.289352 0.144676 0.144676 0.144676 0.0723379 0.289352 0.289352 0.289352 0.144676 0.144676 0.144676 0.072338 0.289352 0.289352 0.289352 0.144676 0.144676 0.144676 0.072338 0.289352 0.289352 0.289352 0.144676 0.144676 0.144676 0.072338 0.289352 0.289352 0.289352 0.144676 0.144676 0.144676 0.072338 0.289352 0.289352 0.289352 0.144676 0.144676 0.144676 0.0723379 0.289352 0.289352 0.289352 0.144676 0.144676 0.144676 0.072338 0.289352 0.289352 0.289352 0.144676 0.144676 0.144676 0.0723381 0.289352 0.289352 0.289352 0.144676 0.144676 0.144676 0.0723379 0.289352 0.289352 0.289351 0.144676 0.144676 0.144676 0.0723379 0.289352 0.289352 0.289352 0.144676 0.144676 0.144676 0.072338 0.289352 0.289352 0.289352 0.144676 0.144676 0.144676 0.0723379 0.144676 0.144676 0.289352 0.072338 0.144676 0.144676 0.072338 0.289352 0.144676 0.144676 0.144676 0.072338 0.144676 0.144676 0.072338 0.072338 0.072338 0.289352 0.144676 0.144676 0.144676 0.144676 0.072338 0.072338 0.289352 0.144676 0.144676 0.144676 0.144676 0.072338 0.072338 0.289352 0.144676 0.144676 0.144676 0.144676 0.072338 0.072338 0.289352 0.144676 0.144676 0.144676 0.144676 0.072338 0.072338 0.289352 0.144676 0.144676 0.144676 0.144676 0.072338 0.072338 0.289352 0.144676 0.144676 0.144676 0.144676 0.072338 0.072338 0.289352 0.144676 0.144676 0.144676 0.144676 0.072338 0.072338 0.289352 0.144676 0.144676 0.144676 0.144676 0.072338 0.072338 0.289352 0.144676 0.144676 0.144676 0.144676 0.0723379 0.0723379 0.289352 0.144676 0.144676 0.144676 0.144676 0.0723379 0.0723379 0.289352 0.144676 0.144676 0.144676 0.144676 0.072338 0.072338 0.289352 0.144676 0.144676 0.144676 0.144676 0.072338 0.072338 0.289352 0.144676 0.144676 0.144676 0.144676 0.072338 0.072338 0.289352 0.144676 0.144676 0.144676 0.144676 0.0723379 0.0723379 0.289352 0.144676 0.144676 0.144676 0.144676 0.072338 0.072338 0.289352 0.144676 0.144676 0.144676 0.144676 0.072338 0.072338 0.289352 0.144676 0.144676 0.144676 0.144676 0.0723379 0.0723379 0.289352 0.144676 0.144676 0.144676 0.144676 0.0723379 0.0723379 0.289352 0.144676 0.144676 0.144676 0.144676 0.0723379 0.0723379 0.289352 0.144676 0.144676 0.144676 0.144676 0.072338 0.072338 0.289352 0.144676 0.144676 0.144676 0.144676 0.0723379 0.0723379 0.289352 0.144676 0.144676 0.144676 0.144676 0.0723379 0.0723379 0.289352 0.144676 0.144676 0.144676 0.144676 0.072338 0.072338 0.289352 0.144676 0.144676 0.144676 0.144676 0.0723379 0.0723379 0.289352 0.144676 0.144676 0.144676 0.144676 0.072338 0.072338 0.289352 0.144676 0.144676 0.144676 0.144676 0.0723381 0.0723381 0.289351 0.144676 0.144676 0.144676 0.144676 0.0723379 0.0723379 0.289352 0.144676 0.144676 0.144676 0.144676 0.0723378 0.0723378 0.289352 0.144676 0.144676 0.144676 0.144676 0.072338 0.072338 0.289352 0.144676 0.144676 0.144676 0.144676 0.0723379 0.0723379 0.144676 0.072338 0.144676 0.072338 0.144676 0.072338 0.072338 0.144676 0.072338 0.072338 0.144676 0.072338 0.289352 0.144676 0.144676 0.072338 0.144676 0.072338 0.072338 0.144676 0.072338 0.144676 0.072338 0.144676 0.289352 0.144676 0.072338 0.144676 0.072338 0.144676 0.072338 0.144676 0.072338 0.144676 0.289352 0.144676 0.072338 0.144676 0.072338 0.144676 0.072338 0.144676 0.0723379 0.144676 0.289352 0.144676 0.0723379 0.144676 0.0723379 0.144676 0.0723379 0.144676 0.072338 0.144676 0.289352 0.144676 0.072338 0.144676 0.072338 0.144676 0.072338 0.144676 0.072338 0.144676 0.289352 0.144676 0.072338 0.144676 0.072338 0.144676 0.072338 0.144676 0.072338 0.144676 0.289352 0.144676 0.072338 0.144676 0.072338 0.144676 0.072338 0.144676 0.072338 0.144676 0.289352 0.144676 0.072338 0.144676 0.072338 0.144676 0.072338 0.144676 0.072338 0.144676 0.289352 0.144676 0.072338 0.144676 0.072338 0.144676 0.072338 0.144676 0.0723379 0.144676 0.289352 0.144676 0.0723379 0.144676 0.0723379 0.144676 0.0723379 0.144676 0.0723379 0.144676 0.289352 0.144676 0.0723379 0.144676 0.0723379 0.144676 0.0723379 0.144676 0.072338 0.144676 0.289352 0.144676 0.072338 0.144676 0.072338 0.144676 0.072338 0.144676 0.072338 0.144676 0.289352 0.144676 0.072338 0.144676 0.072338 0.144676 0.072338 0.144676 0.072338 0.144676 0.289352 0.144676 0.072338 0.144676 0.072338 0.144676 0.072338 0.144676 0.0723379 0.144676 0.289352 0.144676 0.0723379 0.144676 0.0723379 0.144676 0.0723379 0.144676 0.072338 0.144676 0.289352 0.144676 0.072338 0.144676 0.072338 0.144676 0.072338 0.144676 0.072338 0.144676 0.289352 0.144676 0.072338 0.144676 0.072338 0.144676 0.072338 0.144676 0.0723379 0.144676 0.289352 0.144676 0.0723379 0.144676 0.0723379 0.144676 0.0723379 0.144676 0.0723379 0.144676 0.289352 0.144676 0.0723379 0.144676 0.0723379 0.144676 0.0723379 0.144676 0.0723379 0.144676 0.289352 0.144676 0.0723379 0.144676 0.0723379 0.144676 0.0723379 0.144676 0.072338 0.144676 0.289352 0.144676 0.072338 0.144676 0.072338 0.144676 0.072338 0.144676 0.072338 0.144676 0.289352 0.144676 0.072338 0.144676 0.072338 0.144676 0.072338 0.144676 0.0723379 0.144676 0.289352 0.144676 0.0723379 0.144676 0.0723379 0.144676 0.0723379 0.144676 0.072338 0.144676 0.289352 0.144676 0.072338 0.144676 0.072338 0.144676 0.072338 0.144676 0.0723379 0.144676 0.289352 0.144676 0.0723379 0.144676 0.0723379 0.144676 0.0723379 0.144676 0.0723379 0.144676 0.289352 0.144676 0.0723379 0.144676 0.0723379 0.144676 0.0723379 0.144676 0.0723381 0.144676 0.289352 0.144676 0.0723381 0.144676 0.0723381 0.144676 0.0723381 0.144676 0.0723379 0.144676 0.289351 0.144676 0.0723379 0.144676 0.0723379 0.144676 0.0723379 0.144676 0.0723378 0.144676 0.289352 0.144676 0.0723378 0.144676 0.0723378 0.144676 0.0723378 0.144676 0.072338 0.144676 0.289352 0.144676 0.072338 0.144676 0.072338 0.144676 0.072338 0.144676 0.0723379 0.144676 0.289352 0.144676 0.0723379 0.144676 0.0723379 0.144676 0.0723379 0.072338 0.072338 0.072338 0.144676 0.144676 0.072338 0.072338 0.072338 0.144676 0.072338 0.144676 0.072338 0.289352 0.144676 0.144676 0.144676 0.072338 0.072338 0.144676 0.072338 0.144676 0.289352 0.144676 0.144676 0.072338 0.144676 0.072338 0.144676 0.289352 0.144676 0.144676 0.072338 0.144676 0.072338 0.144676 0.289352 0.144676 0.144676 0.0723379 0.144676 0.0723379 0.144676 0.289352 0.144676 0.144676 0.072338 0.144676 0.072338 0.144676 0.289352 0.144676 0.144676 0.072338 0.144676 0.072338 0.144676 0.289352 0.144676 0.144676 0.072338 0.144676 0.072338 0.144676 0.289352 0.144676 0.144676 0.072338 0.144676 0.072338 0.144676 0.289352 0.144676 0.144676 0.072338 0.144676 0.072338 0.144676 0.289352 0.144676 0.144676 0.0723379 0.144676 0.0723379 0.144676 0.289352 0.144676 0.144676 0.0723379 0.144676 0.0723379 0.144676 0.289352 0.144676 0.144676 0.072338 0.144676 0.072338 0.144676 0.289352 0.144676 0.144676 0.072338 0.144676 0.072338 0.144676 0.289352 0.144676 0.144676 0.072338 0.144676 0.072338 0.144676 0.289352 0.144676 0.144676 0.0723379 0.144676 0.0723379 0.144676 0.289352 0.144676 0.144676 0.072338 0.144676 0.072338 0.144676 0.289352 0.144676 0.144676 0.072338 0.144676 0.072338 0.144676 0.289352 0.144676 0.144676 0.0723379 0.144676 0.0723379 0.144676 0.289352 0.144676 0.144676 0.0723379 0.144676 0.0723379 0.144676 0.289352 0.144676 0.144676 0.0723379 0.144676 0.0723379 0.144676 0.289352 0.144676 0.144676 0.072338 0.144676 0.072338 0.144676 0.289352 0.144676 0.144676 0.0723379 0.144676 0.0723379 0.144676 0.289352 0.144676 0.144676 0.0723379 0.144676 0.0723379 0.144676 0.289352 0.144676 0.144676 0.072338 0.144676 0.072338 0.144676 0.289352 0.144676 0.144676 0.0723379 0.144676 0.0723379 0.144676 0.289352 0.144676 0.144676 0.0723379 0.144676 0.0723379 0.144676 0.289352 0.144676 0.144676 0.0723381 0.144676 0.0723381 0.144676 0.289351 0.144676 0.144676 0.0723379 0.144676 0.0723379 0.144676 0.289352 0.144676 0.144676 0.0723378 0.144676 0.0723378 0.144676 0.289352 0.144676 0.144676 0.072338 0.144676 0.072338 0.144676 0.289352 0.144676 0.144676 0.0723379 0.144676 0.0723379 0.072338 0.144676 0.144676 0.072338 0.072338 0.144676 0.072338 0.144676 0.072338 0.289352 0.144676 0.144676 0.144676 0.072338 0.072338 0.144676 0.072338 0.144676 0.289352 0.144676 0.144676 0.072338 0.144676 0.072338 0.144676 0.289352 0.144676 0.144676 0.072338 0.144676 0.072338 0.144676 0.289352 0.144676 0.144676 0.072338 0.144676 0.072338 0.144676 0.289352 0.144676 0.144676 0.072338 0.144676 0.072338 0.144676 0.289352 0.144676 0.144676 0.072338 0.144676 0.072338 0.144676 0.289352 0.144676 0.144676 0.072338 0.144676 0.072338 0.144676 0.289352 0.144676 0.144676 0.072338 0.144676 0.072338 0.144676 0.289352 0.144676 0.144676 0.072338 0.144676 0.072338 0.144676 0.289352 0.144676 0.144676 0.0723379 0.144676 0.0723379 0.144676 0.289352 0.144676 0.144676 0.0723379 0.144676 0.0723379 0.144676 0.289352 0.144676 0.144676 0.072338 0.144676 0.072338 0.144676 0.289352 0.144676 0.144676 0.072338 0.144676 0.072338 0.144676 0.289352 0.144676 0.144676 0.072338 0.144676 0.072338 0.144676 0.289352 0.144676 0.144676 0.0723379 0.144676 0.0723379 0.144676 0.289352 0.144676 0.144676 0.072338 0.144676 0.072338 0.144676 0.289352 0.144676 0.144676 0.072338 0.144676 0.072338 0.144676 0.289352 0.144676 0.144676 0.0723379 0.144676 0.0723379 0.144676 0.289352 0.144676 0.144676 0.0723379 0.144676 0.0723379 0.144676 0.289352 0.144676 0.144676 0.0723379 0.144676 0.0723379 0.144676 0.289352 0.144676 0.144676 0.072338 0.144676 0.072338 0.144676 0.289352 0.144676 0.144676 0.0723379 0.144676 0.0723379 0.144676 0.289352 0.144676 0.144676 0.0723379 0.144676 0.0723379 0.144676 0.289352 0.144676 0.144676 0.072338 0.144676 0.072338 0.144676 0.289352 0.144676 0.144676 0.0723379 0.144676 0.0723379 0.144676 0.289352 0.144676 0.144676 0.0723379 0.144676 0.0723379 0.144676 0.289352 0.144676 0.144676 0.0723381 0.144676 0.0723381 0.144676 0.289351 0.144676 0.144676 0.0723379 0.144676 0.0723379 0.144676 0.289352 0.144676 0.144676 0.0723378 0.144676 0.0723378 0.144676 0.289352 0.144676 0.144676 0.072338 0.144676 0.072338 0.144676 0.289352 0.144676 0.144676 0.0723379 0.144676 0.0723379 0.072338 0.144676 0.144676 0.072338 0.072338 0.144676 0.072338 0.144676 0.072338 0.289352 0.144676 0.144676 0.144676 0.072338 0.072338 0.144676 0.072338 0.144676 0.289352 0.144676 0.144676 0.072338 0.144676 0.072338 0.144676 0.289352 0.144676 0.144676 0.072338 0.144676 0.072338 0.144676 0.289352 0.144676 0.144676 0.0723379 0.144676 0.0723379 0.144676 0.289352 0.144676 0.144676 0.0723379 0.144676 0.0723379 0.144676 0.289352 0.144676 0.144676 0.072338 0.144676 0.072338 0.144676 0.289352 0.144676 0.144676 0.072338 0.144676 0.072338 0.144676 0.289352 0.144676 0.144676 0.0723379 0.144676 0.0723379 0.144676 0.289352 0.144676 0.144676 0.0723379 0.144676 0.0723379 0.144676 0.289352 0.144676 0.144676 0.0723379 0.144676 0.0723379 0.144676 0.289352 0.144676 0.144676 0.0723379 0.144676 0.0723379 0.144676 0.289352 0.144676 0.144676 0.072338 0.144676 0.072338 0.144676 0.289352 0.144676 0.144676 0.072338 0.144676 0.072338 0.144676 0.289352 0.144676 0.144676 0.072338 0.144676 0.072338 0.144676 0.289352 0.144676 0.144676 0.0723379 0.144676 0.0723379 0.144676 0.289352 0.144676 0.144676 0.072338 0.144676 0.072338 0.144676 0.289352 0.144676 0.144676 0.072338 0.144676 0.072338 0.144676 0.289352 0.144676 0.144676 0.0723379 0.144676 0.0723379 0.144676 0.289352 0.144676 0.144676 0.0723379 0.144676 0.0723379 0.144676 0.289352 0.144676 0.144676 0.0723379 0.144676 0.0723379 0.144676 0.289352 0.144676 0.144676 0.072338 0.144676 0.072338 0.144676 0.289352 0.144676 0.144676 0.0723379 0.144676 0.0723379 0.144676 0.289352 0.144676 0.144676 0.0723379 0.144676 0.0723379 0.144676 0.289352 0.144676 0.144676 0.072338 0.144676 0.072338 0.144676 0.289352 0.144676 0.144676 0.0723379 0.144676 0.0723379 0.144676 0.289352 0.144676 0.144676 0.0723379 0.144676 0.0723379 0.144676 0.289352 0.144676 0.144676 0.072338 0.144676 0.072338 0.144676 0.289351 0.144676 0.144676 0.0723379 0.144676 0.0723379 0.144676 0.289352 0.144676 0.144676 0.0723378 0.144676 0.0723378 0.144676 0.289352 0.144676 0.144676 0.072338 0.144676 0.072338 0.144676 0.289352 0.144676 0.144676 0.0723379 0.144676 0.0723379 0.072338 0.144676 0.144676 0.072338 0.072338 0.144676 0.072338 0.144676 0.072338 0.289352 0.144676 0.144676 0.144676 0.072338 0.072338 0.144676 0.072338 0.144676 0.289352 0.144676 0.144676 0.072338 0.144676 0.072338 0.144676 0.289352 0.144676 0.144676 0.072338 0.144676 0.072338 0.144676 0.289352 0.144676 0.144676 0.0723379 0.144676 0.0723379 0.144676 0.289352 0.144676 0.144676 0.0723379 0.144676 0.0723379 0.144676 0.289352 0.144676 0.144676 0.072338 0.144676 0.072338 0.144676 0.289352 0.144676 0.144676 0.072338 0.144676 0.072338 0.144676 0.289352 0.144676 0.144676 0.0723379 0.144676 0.0723379 0.144676 0.289352 0.144676 0.144676 0.072338 0.144676 0.072338 0.144676 0.289352 0.144676 0.144676 0.0723379 0.144676 0.0723379 0.144676 0.289352 0.144676 0.144676 0.0723379 0.144676 0.0723379 0.144676 0.289352 0.144676 0.144676 0.072338 0.144676 0.072338 0.144676 0.289352 0.144676 0.144676 0.072338 0.144676 0.072338 0.144676 0.289352 0.144676 0.144676 0.072338 0.144676 0.072338 0.144676 0.289352 0.144676 0.144676 0.0723379 0.144676 0.0723379 0.144676 0.289352 0.144676 0.144676 0.072338 0.144676 0.072338 0.144676 0.289352 0.144676 0.144676 0.072338 0.144676 0.072338 0.144676 0.289352 0.144676 0.144676 0.0723379 0.144676 0.0723379 0.144676 0.289352 0.144676 0.144676 0.0723379 0.144676 0.0723379 0.144676 0.289352 0.144676 0.144676 0.0723379 0.144676 0.0723379 0.144676 0.289352 0.144676 0.144676 0.072338 0.144676 0.072338 0.144676 0.289352 0.144676 0.144676 0.0723379 0.144676 0.0723379 0.144676 0.289352 0.144676 0.144676 0.0723379 0.144676 0.0723379 0.144676 0.289352 0.144676 0.144676 0.072338 0.144676 0.072338 0.144676 0.289352 0.144676 0.144676 0.0723379 0.144676 0.0723379 0.144676 0.289352 0.144676 0.144676 0.0723379 0.144676 0.0723379 0.144676 0.289352 0.144676 0.144676 0.072338 0.144676 0.072338 0.144676 0.289351 0.144676 0.144676 0.0723379 0.144676 0.0723379 0.144676 0.289352 0.144676 0.144676 0.0723378 0.144676 0.0723378 0.144676 0.289352 0.144676 0.144676 0.072338 0.144676 0.072338 0.144676 0.289352 0.144676 0.144676 0.0723379 0.144676 0.0723379 0.072338 0.144676 0.144676 0.072338 0.072338 0.144676 0.072338 0.144676 0.072338 0.289352 0.144676 0.144676 0.144676 0.072338 0.072338 0.144676 0.072338 0.144676 0.289352 0.144676 0.144676 0.072338 0.144676 0.072338 0.144676 0.289352 0.144676 0.144676 0.072338 0.144676 0.072338 0.144676 0.289352 0.144676 0.144676 0.072338 0.144676 0.072338 0.144676 0.289352 0.144676 0.144676 0.072338 0.144676 0.072338 0.144676 0.289352 0.144676 0.144676 0.072338 0.144676 0.072338 0.144676 0.289352 0.144676 0.144676 0.072338 0.144676 0.072338 0.144676 0.289352 0.144676 0.144676 0.072338 0.144676 0.072338 0.144676 0.289352 0.144676 0.144676 0.072338 0.144676 0.072338 0.144676 0.289352 0.144676 0.144676 0.0723379 0.144676 0.0723379 0.144676 0.289352 0.144676 0.144676 0.072338 0.144676 0.072338 0.144676 0.289352 0.144676 0.144676 0.072338 0.144676 0.072338 0.144676 0.289352 0.144676 0.144676 0.072338 0.144676 0.072338 0.144676 0.289352 0.144676 0.144676 0.072338 0.144676 0.072338 0.144676 0.289352 0.144676 0.144676 0.0723379 0.144676 0.0723379 0.144676 0.289352 0.144676 0.144676 0.072338 0.144676 0.072338 0.144676 0.289352 0.144676 0.144676 0.072338 0.144676 0.072338 0.144676 0.289352 0.144676 0.144676 0.0723379 0.144676 0.0723379 0.144676 0.289352 0.144676 0.144676 0.0723379 0.144676 0.0723379 0.144676 0.289352 0.144676 0.144676 0.0723379 0.144676 0.0723379 0.144676 0.289352 0.144676 0.144676 0.072338 0.144676 0.072338 0.144676 0.289352 0.144676 0.144676 0.072338 0.144676 0.072338 0.144676 0.289352 0.144676 0.144676 0.0723379 0.144676 0.0723379 0.144676 0.289352 0.144676 0.144676 0.072338 0.144676 0.072338 0.144676 0.289352 0.144676 0.144676 0.0723379 0.144676 0.0723379 0.144676 0.289352 0.144676 0.144676 0.072338 0.144676 0.072338 0.144676 0.289352 0.144676 0.144676 0.0723381 0.144676 0.0723381 0.144676 0.289352 0.144676 0.144676 0.0723379 0.144676 0.0723379 0.144676 0.289352 0.144676 0.144676 0.0723378 0.144676 0.0723378 0.144676 0.289352 0.144676 0.144676 0.072338 0.144676 0.072338 0.144676 0.289352 0.144676 0.144676 0.0723379 0.144676 0.0723379 0.072338 0.144676 0.144676 0.072338 0.072338 0.144676 0.072338 0.144676 0.072338 0.289352 0.144676 0.144676 0.144676 0.072338 0.072338 0.144676 0.072338 0.144676 0.289352 0.144676 0.144676 0.072338 0.144676 0.072338 0.144676 0.289352 0.144676 0.144676 0.072338 0.144676 0.072338 0.144676 0.289352 0.144676 0.144676 0.072338 0.144676 0.072338 0.144676 0.289352 0.144676 0.144676 0.072338 0.144676 0.072338 0.144676 0.289352 0.144676 0.144676 0.072338 0.144676 0.072338 0.144676 0.289352 0.144676 0.144676 0.072338 0.144676 0.072338 0.144676 0.289352 0.144676 0.144676 0.072338 0.144676 0.072338 0.144676 0.289352 0.144676 0.144676 0.072338 0.144676 0.072338 0.144676 0.289352 0.144676 0.144676 0.0723379 0.144676 0.0723379 0.144676 0.289352 0.144676 0.144676 0.0723379 0.144676 0.0723379 0.144676 0.289352 0.144676 0.144676 0.072338 0.144676 0.072338 0.144676 0.289352 0.144676 0.144676 0.072338 0.144676 0.072338 0.144676 0.289352 0.144676 0.144676 0.072338 0.144676 0.072338 0.144676 0.289352 0.144676 0.144676 0.0723379 0.144676 0.0723379 0.144676 0.289352 0.144676 0.144676 0.072338 0.144676 0.072338 0.144676 0.289352 0.144676 0.144676 0.072338 0.144676 0.072338 0.144676 0.289352 0.144676 0.144676 0.072338 0.144676 0.072338 0.144676 0.289352 0.144676 0.144676 0.0723379 0.144676 0.0723379 0.144676 0.289352 0.144676 0.144676 0.0723379 0.144676 0.0723379 0.144676 0.289352 0.144676 0.144676 0.072338 0.144676 0.072338 0.144676 0.289352 0.144676 0.144676 0.072338 0.144676 0.072338 0.144676 0.289352 0.144676 0.144676 0.0723379 0.144676 0.0723379 0.144676 0.289352 0.144676 0.144676 0.072338 0.144676 0.072338 0.144676 0.289352 0.144676 0.144676 0.0723379 0.144676 0.0723379 0.144676 0.289352 0.144676 0.144676 0.072338 0.144676 0.072338 0.144676 0.289352 0.144676 0.144676 0.0723381 0.144676 0.0723381 0.144676 0.289351 0.144676 0.144676 0.0723379 0.144676 0.0723379 0.144676 0.289352 0.144676 0.144676 0.0723378 0.144676 0.0723378 0.144676 0.289352 0.144676 0.144676 0.072338 0.144676 0.072338 0.144676 0.289352 0.144676 0.144676 0.0723379 0.144676 0.0723379 0.072338 0.144676 0.144676 0.072338 0.072338 0.144676 0.072338 0.144676 0.0723379 0.144676 0.0723379 0.0723379 0.144676 0.0723379 0.0723379 0.0723379 0.0723379 0.144676 0.144676 0.0723379 0.144676 0.0723379 0.0723379 0.0723379 0.144676 0.144676 0.072338 0.144676 0.072338 0.072338 0.072338 0.144676 0.144676 0.0723379 0.144676 0.0723379 0.0723379 0.0723379 0.144676 0.144676 0.0723379 0.144676 0.0723379 0.0723379 0.0723379 0.144676 0.144676 0.072338 0.144676 0.072338 0.072338 0.072338 0.144676 0.144676 0.0723379 0.144676 0.0723379 0.0723379 0.0723379 0.144676 0.144676 0.0723379 0.144676 0.0723379 0.0723379 0.0723379 0.144676 0.144676 0.072338 0.144676 0.072338 0.072338 0.072338 0.144676 0.144676 0.0723379 0.144676 0.0723379 0.0723379 0.0723379 0.144676 0.144676 0.0723379 0.144676 0.0723379 0.0723379 0.0723379 0.144676 0.144676 0.0723379 0.144676 0.0723379 0.0723379 0.0723379 0.144676 0.144676 0.0723379 0.144676 0.0723379 0.0723379 0.0723379 0.144676 0.144676 0.072338 0.144676 0.072338 0.072338 0.072338 0.144676 0.144676 0.0723379 0.144676 0.0723379 0.0723379 0.0723379 0.144676 0.144676 0.072338 0.144676 0.072338 0.072338 0.072338 0.144676 0.144676 0.0723379 0.144676 0.0723379 0.0723379 0.0723379 0.144676 0.144676 0.0723379 0.144676 0.0723379 0.0723379 0.0723379 0.144676 0.144676 0.0723379 0.144676 0.0723379 0.0723379 0.0723379 0.144676 0.144676 0.0723379 0.144676 0.0723379 0.0723379 0.0723379 0.144676 0.144676 0.072338 0.144676 0.072338 0.072338 0.072338 0.144676 0.144676 0.0723379 0.144676 0.0723379 0.0723379 0.0723379 0.144676 0.144676 0.0723379 0.144676 0.0723379 0.0723379 0.0723379 0.144676 0.144676 0.072338 0.144676 0.072338 0.072338 0.072338 0.144676 0.144676 0.0723379 0.144676 0.0723379 0.0723379 0.0723379 0.144676 0.144676 0.0723379 0.144676 0.0723379 0.0723379 0.0723379 0.144676 0.144676 0.072338 0.144676 0.072338 0.072338 0.072338 0.144676 0.144676 0.0723379 0.144676 0.0723379 0.0723379 0.0723379 0.144676 0.144676 0.0723378 0.144676 0.0723378 0.0723378 0.0723378 0.144676 0.144676 0.072338 0.144676 0.072338 0.072338 0.072338 0.144676 0.144676 0.0723379 0.144676 0.0723379 0.0723379 0.0723379 0.072338 0.072338 0.072338 0.072338 0.072338 0.072338 0.072338 
VECTORS u float
0 0 0  -0.0507794 -0.0079148 -0.049161  -0.0799613 -0.0208899 -0.0661371  -0.111286 -0.050246 -0.0683882  -0.146608 -0.0905068 -0.0645349  -0.184588 -0.138474 -0.0585253  -0.224233 -0.192408 -0.0520949  -0.265027 -0.251389 -0.0459709  -0.306751 -0.314867 -0.0404322  -0.349355 -0.382494 -0.0355189  -0.392822 -0.453973 -0.0311639  -0.437158 -0.528984 -0.027323  -0.482377 -0.607283 -0.0238948  -0.528441 -0.68856 -0.0208321  -0.57532 -0.772549 -0.0180831  -0.622948 -0.858979 -0.0155978  -0.671244 -0.947601 -0.0133543  -0.720122 -1.03816 -0.0113385  -0.769514 -1.13045 -0.00950861  -0.819318 -1.22423 -0.00787997  -0.869422 -1.31933 -0.00640392  -0.919743 -1.41554 -0.0051105  -0.97021 -1.5127 -0.00395155  -1.02072 -1.61062 -0.00295997  -1.0712 -1.70919 -0.00210905  -1.12159 -1.80823 -0.00138927  -1.17186 -1.90765 -0.000793934  -1.22195 -2.0073 -0.000338793  -1.27182 -2.10707 -2.26498e-05  -1.32146 -2.20689 0.000184536  -1.37084 -2.30661 0.000248194  -1.42002 -2.4062 0.000216007  -1.46912 -2.50559 0.000193119  0 0 0  -0.0292726 0.000839353 -0.0350268  -0.0492188 -0.0167852 -0.0462003  -0.0699703 -0.0487216 -0.0483558  -0.0951666 -0.0921753 -0.0462689  -0.124556 -0.143942 -0.0423927  -0.15723 -0.201926 -0.0379512  -0.19237 -0.264955 -0.03356  -0.229456 -0.332376 -0.0294812  -0.268188 -0.403737 -0.0258217  -0.308397 -0.478711 -0.0225611  -0.349985 -0.556973 -0.0196819  -0.39287 -0.638251 -0.017117  -0.436953 -0.722258 -0.0148313  -0.482161 -0.808712 -0.0127928  -0.528377 -0.897347 -0.0109587  -0.575503 -0.987927 -0.00931525  -0.623423 -1.08022 -0.00783777  -0.672021 -1.17401 -0.00651264  -0.721181 -1.26908 -0.00531721  -0.770787 -1.36528 -0.00426888  -0.820722 -1.46241 -0.00334287  -0.870902 -1.5603 -0.00253272  -0.921215 -1.65882 -0.00182986  -0.971582 -1.75785 -0.00123334  -1.02192 -1.85721 -0.000754356  -1.07218 -1.95683 -0.000362635  -1.1223 -2.05659 -7.22408e-05  -1.17224 -2.15641 0.000113249  -1.22196 -2.25618 0.000217438  -1.27144 -2.35584 0.000253201  -1.32067 -2.45534 0.000225544  -1.36973 -2.55468 0.000248194  0 0 0  -0.0148783 0.00379443 -0.0221293  -0.0248385 -0.0155318 -0.0293021  -0.0373377 -0.0498627 -0.0308597  -0.0539604 -0.0956083 -0.0297253  -0.074976 -0.150058 -0.0273433  -0.100015 -0.21121 -0.0244737  -0.128501 -0.277693 -0.0215502  -0.159907 -0.348664 -0.0187938  -0.193819 -0.423525 -0.016294  -0.229933 -0.501864 -0.0140655  -0.268043 -0.583303 -0.0120988  -0.307969 -0.66754 -0.0103638  -0.349544 -0.754264 -0.00884175  -0.392599 -0.843195 -0.0074904  -0.437003 -0.934085 -0.00628853  -0.482592 -1.02667 -0.00522399  -0.529209 -1.12076 -0.00428033  -0.576726 -1.21612 -0.00343609  -0.624986 -1.31256 -0.00269628  -0.673858 -1.40993 -0.00205779  -0.723189 -1.50805 -0.00149632  -0.772892 -1.60678 -0.00101972  -0.822832 -1.70598 -0.000618696  -0.872903 -1.80554 -0.000291586  -0.923048 -1.90534 -3.17097e-05  -0.973156 -2.00527 0.000153065  -1.02319 -2.10526 0.000279427  -1.07306 -2.2052 0.000338078  -1.12275 -2.30506 0.000344276  -1.17221 -2.40476 0.000304222  -1.22144 -2.50427 0.000251055  -1.27043 -2.60356 0.000269651  0 0 0  -0.00428712 0.00223657 -0.00961447  -0.00602382 -0.0182106 -0.0133674  -0.0102222 -0.054259 -0.014452  -0.0184939 -0.101918 -0.0140538  -0.0313315 -0.158544 -0.0128837  -0.0486928 -0.222205 -0.0113575  -0.0702527 -0.291548 -0.00974488  -0.095554 -0.365575 -0.00820208  -0.124155 -0.443555 -0.0067997  -0.155704 -0.524987 -0.00556898  -0.189887 -0.609402 -0.00450158  -0.226445 -0.69645 -0.00359082  -0.265135 -0.785784 -0.00281096  -0.305717 -0.877131 -0.00213385  -0.348007 -0.970217 -0.00156784  -0.39179 -1.06479 -0.00108266  -0.436885 -1.16064 -0.000668287  -0.483099 -1.25757 -0.000326395  -0.530269 -1.3554 -3.38554e-05  -0.578214 -1.45396 0.000204802  -0.626799 -1.55309 0.000390053  -0.675866 -1.65268 0.000536442  -0.725299 -1.75261 0.000640392  -0.774971 -1.85274 0.000703096  -0.82478 -1.953 0.000725985  -0.874645 -2.05331 0.000711441  -0.924476 -2.15355 0.000673294  -0.974221 -2.25371 0.000589609  -1.02381 -2.35368 0.000494003  -1.07321 -2.45348 0.000364542  -1.1224 -2.55301 0.000247478  -1.17129 -2.65222 0.000184774  0 0 0  0.00456405 -0.00177282 0.00238609  0.0102368 -0.0244678 0.00177073  0.0140314 -0.06224 0.00116849  0.0139637 -0.111547 0.000983477  0.00910676 -0.169959 0.0011518  -0.000733197 -0.235727 0.00151515  -0.0153643 -0.307453 0.0019424  -0.0344597 -0.384097 0.00235748  -0.0575801 -0.464863 0.00270224  -0.0843366 -0.549068 0.00296807  -0.114356 -0.63622 0.00314999  -0.147303 -0.725891 0.00324798  -0.182867 -0.817702 0.00328326  -0.22077 -0.911334 0.00326729  -0.260744 -1.00652 0.0032022  -0.302536 -1.103 0.00311184  -0.345923 -1.20056 0.00298023  -0.390689 -1.29901 0.00283599  -0.436617 -1.39817 0.00267768  -0.483515 -1.49788 0.00250268  -0.531215 -1.59801 0.00232363  -0.579555 -1.69845 0.00213242  -0.628387 -1.79909 0.00193143  -0.677564 -1.8998 0.00173545  -0.726971 -2.00053 0.00152779  -0.776504 -2.1012 0.00130153  -0.826091 -2.20172 0.00108242  -0.875639 -2.30207 0.000865459  -0.925087 -2.4022 0.000653267  -0.974387 -2.50205 0.000439167  -1.02349 -2.60162 0.000241518  -1.07231 -2.70081 6.27041e-05  0 0 0  0.0127459 -0.00778449 0.0138443  0.0259489 -0.0339882 0.0159943  0.0377114 -0.0737802 0.0159693  0.0455968 -0.124581 0.0154343  0.0484496 -0.184537 0.0148103  0.0458822 -0.252085 0.0141761  0.0379759 -0.3259 0.0135396  0.0249919 -0.404871 0.0129015  0.00735724 -0.488108 0.0122323  -0.014564 -0.574845 0.0115442  -0.0403383 -0.664515 0.0108387  -0.0695721 -0.756603 0.0101275  -0.101906 -0.850713 0.00941563  -0.136998 -0.946497 0.00870419  -0.17455 -1.04365 0.00800467  -0.214244 -1.14192 0.00732446  -0.255819 -1.24108 0.00666523  -0.299035 -1.34096 0.00603127  -0.343631 -1.44137 0.0054214  -0.389403 -1.54217 0.00483775  -0.436156 -1.64325 0.00428033  -0.483678 -1.74447 0.00373936  -0.53184 -1.84576 0.00323367  -0.580461 -1.94701 0.0027585  -0.62942 -2.04816 0.00231767  -0.678598 -2.14917 0.00189567  -0.72788 -2.24995 0.00151086  -0.7772 -2.35048 0.00115418  -0.826472 -2.45071 0.000830889  -0.875652 -2.55063 0.000509739  -0.924664 -2.6502 0.000212431  -0.973426 -2.74942 -4.98295e-05  0 0 0  0.021168 -0.0162778 0.0244787  0.0428335 -0.0468883 0.029048  0.0626863 -0.0887092 0.0298762  0.078239 -0.14087 0.0293052  0.0884055 -0.202229 0.0281026  0.0927797 -0.271447 0.0266268  0.0913267 -0.3472 0.025017  0.0842652 -0.428321 0.0233741  0.0719571 -0.513831 0.0217278  0.0547997 -0.602907 0.0201099  0.0332383 -0.694895 0.0185311  0.00771117 -0.789227 0.0170164  -0.0213804 -0.885455 0.0155494  -0.0536377 -0.983211 0.0141501  -0.0887314 -1.08218 0.0128148  -0.126293 -1.1821 0.0115414  -0.166029 -1.28274 0.0103548  -0.207633 -1.38392 0.00921035  -0.250875 -1.48547 0.00814342  -0.295474 -1.58726 0.00714874  -0.341222 -1.68918 0.00620413  -0.387923 -1.7911 0.0053463  -0.435384 -1.89295 0.00452352  -0.48344 -1.99467 0.00377965  -0.531925 -2.09618 0.00309515  -0.580725 -2.19746 0.00248051  -0.629705 -2.29842 0.00191069  -0.678779 -2.39907 0.00141835  -0.727863 -2.49938 0.000975847  -0.776887 -2.59931 0.000574827  -0.825821 -2.69887 0.000199795  -0.874578 -2.79812 -0.000120163  0 0 0  0.0313532 -0.0285977 0.0333946  0.0628358 -0.0631783 0.0408447  0.0904576 -0.10654 0.0430505  0.113258 -0.160029 0.0426922  0.130388 -0.222905 0.0410583  0.141376 -0.293862 0.0388129  0.146101 -0.371563 0.0362971  0.144715 -0.454803 0.0336986  0.137513 -0.542507 0.0311038  0.124944 -0.633787 0.0285718  0.107465 -0.727929 0.0261412  0.0855201 -0.824337 0.0238113  0.0595907 -0.922513 0.0216064  0.0300899 -1.02209 0.0195212  -0.00257838 -1.12269 0.017556  -0.0380335 -1.22409 0.0157094  -0.0759404 -1.32605 0.0139747  -0.11598 -1.42838 0.0123534  -0.157857 -1.53094 0.0108294  -0.201299 -1.63357 0.00942135  -0.246064 -1.73619 0.00811458  -0.291941 -1.83869 0.00690007  -0.338705 -1.94099 0.00578642  -0.386192 -2.04306 0.0047648  -0.434229 -2.14482 0.00383949  -0.482669 -2.24624 0.00302219  -0.53136 -2.34732 0.00228572  -0.580231 -2.448 0.0016489  -0.629146 -2.54827 0.00110078  -0.678046 -2.64818 0.000643492  -0.726887 -2.74771 0.00023675  -0.775659 -2.84694 -0.000114202  0 0 0  0.0483796 -0.0461264 0.0411053  0.0869767 -0.0816258 0.0526736  0.12171 -0.126481 0.0560629  0.151667 -0.181694 0.0557389  0.175679 -0.246467 0.053592  0.19313 -0.319485 0.0505729  0.2038 -0.399336 0.0471749  0.207806 -0.484776 0.043648  0.205449 -0.574673 0.0401392  0.197203 -0.668086 0.0367491  0.183551 -0.76428 0.0334892  0.164993 -0.862603 0.0303822  0.142028 -0.962553 0.0274668  0.115144 -1.06375 0.0247133  0.0847547 -1.16582 0.0221457  0.0513041 -1.26853 0.0197287  0.0151241 -1.37161 0.017477  -0.0234232 -1.47491 0.0153825  -0.0640097 -1.57829 0.0134144  -0.106347 -1.68159 0.0115988  -0.150194 -1.78474 0.009902  -0.195265 -1.88765 0.00837207  -0.241384 -1.99025 0.00696635  -0.288377 -2.09251 0.00566578  -0.335992 -2.19435 0.00451899  -0.384132 -2.29578 0.0034883  -0.432634 -2.39681 0.00256395  -0.48134 -2.49736 0.00180578  -0.530174 -2.5975 0.00116873  -0.579033 -2.69724 0.000648022  -0.627854 -2.79665 0.000235796  -0.676628 -2.89585 -8.24928e-05  0 0 0  -0.0375814 -0.0259433 -0.0319157  -0.0768709 -0.0426655 -0.0487385  -0.116226 -0.0690039 -0.052547  -0.155416 -0.105421 -0.0504165  -0.194747 -0.150056 -0.0459359  -0.234453 -0.201431 -0.0408127  -0.274712 -0.258532 -0.0358379  -0.315668 -0.320643 -0.0313456  -0.35745 -0.387243 -0.027384  -0.400114 -0.457914 -0.0239229  -0.443709 -0.532292 -0.0208957  -0.48823 -0.610065 -0.0182316  -0.533662 -0.690892 -0.0158587  -0.579964 -0.774498 -0.0137479  -0.627054 -0.860603 -0.0118635  -0.674861 -0.948943 -0.0101502  -0.723289 -1.03926 -0.00861454  -0.772264 -1.13133 -0.00722122  -0.821663 -1.22494 -0.00598168  -0.871421 -1.31988 -0.00487185  -0.921418 -1.41595 -0.00388694  -0.97158 -1.51299 -0.00302362  -1.02183 -1.61083 -0.00227189  -1.07207 -1.70932 -0.00163269  -1.12226 -1.80832 -0.00109267  -1.17234 -1.90769 -0.000648499  -1.22226 -2.00731 -0.000318289  -1.272 -2.10707 -6.58035e-05  -1.32153 -2.20688 8.10623e-05  -1.37087 -2.30661 0.000132084  -1.42004 -2.40623 0.000119925  -1.46912 -2.50564 0.000111341  0 0 0  -0.0175814 -0.0102597 -0.0226443  -0.0456422 -0.0322192 -0.0350087  -0.0737296 -0.0638775 -0.0380232  -0.102875 -0.105298 -0.0367067  -0.133925 -0.154746 -0.0335631  -0.166925 -0.210706 -0.0298436  -0.201722 -0.272107 -0.0261798  -0.238157 -0.338247 -0.0228195  -0.276135 -0.408621 -0.0198557  -0.315594 -0.482795 -0.017261  -0.356466 -0.56042 -0.0149853  -0.398674 -0.641157 -0.012996  -0.442143 -0.724713 -0.0112374  -0.486774 -0.810775 -0.00967073  -0.532468 -0.899077 -0.00827265  -0.579113 -0.989371 -0.00702357  -0.626591 -1.08141 -0.00590134  -0.674775 -1.17498 -0.00489688  -0.723554 -1.26988 -0.00399852  -0.772802 -1.3659 -0.00320411  -0.822424 -1.46289 -0.00251126  -0.872312 -1.56067 -0.00188828  -0.922359 -1.65909 -0.00137496  -0.972488 -1.75803 -0.000925064  -1.02262 -1.85735 -0.000557184  -1.0727 -1.95693 -0.000272989  -1.12265 -2.05666 -5.91278e-05  -1.17246 -2.15645 8.36849e-05  -1.22206 -2.25621 0.000156403  -1.27147 -2.35587 0.000172138  -1.32069 -2.45537 0.000158548  -1.36978 -2.55471 0.000137568  0 0 0  -0.00860244 -0.00542127 -0.0145535  -0.0235045 -0.0282952 -0.0226803  -0.0408065 -0.0632224 -0.0248201  -0.060406 -0.10794 -0.0240259  -0.0828851 -0.160802 -0.0219612  -0.10838 -0.220318 -0.0194595  -0.136727 -0.285356 -0.0169594  -0.167683 -0.355103 -0.0146368  -0.201013 -0.428968 -0.012589  -0.236506 -0.506484 -0.0108001  -0.274001 -0.587248 -0.00924206  -0.313335 -0.670907 -0.00788951  -0.354351 -0.757143 -0.00670362  -0.3969 -0.845658 -0.00566268  -0.440815 -0.936171 -0.00474524  -0.485961 -1.02845 -0.00393939  -0.532178 -1.12225 -0.00320888  -0.579305 -1.21736 -0.00258064  -0.627203 -1.3136 -0.00201774  -0.675741 -1.41079 -0.00153208  -0.724782 -1.50875 -0.00111866  -0.774205 -1.60734 -0.000752449  -0.823897 -1.70643 -0.000450373  -0.873754 -1.8059 -0.00020647  -0.923695 -1.90561 -1.35899e-05  -0.973634 -2.00549 0.000123501  -1.0235 -2.10542 0.000216961  -1.07326 -2.20533 0.000262022  -1.12285 -2.30516 0.000259638  -1.17225 -2.40485 0.000229836  -1.22144 -2.50433 0.00018549  -1.27045 -2.60358 0.000141382  0 0 0  -0.00219849 -0.00584793 -0.00677681  -0.00675094 -0.029688 -0.0109236  -0.0138351 -0.066644 -0.0122378  -0.0240979 -0.113812 -0.011924  -0.0380455 -0.169293 -0.0108101  -0.0558367 -0.231633 -0.00940037  -0.0773584 -0.299683 -0.00794959  -0.102354 -0.372566 -0.0066061  -0.130532 -0.449571 -0.00541544  -0.16159 -0.530155 -0.00439668  -0.195262 -0.613863 -0.00352716  -0.231319 -0.700304 -0.00279903  -0.269518 -0.789125 -0.00217867  -0.309647 -0.880015 -0.00165462  -0.351501 -0.972704 -0.00120926  -0.39488 -1.06693 -0.00083375  -0.439588 -1.16248 -0.000507593  -0.485449 -1.25915 -0.000241518  -0.532287 -1.35672 -2.47955e-05  -0.579932 -1.45508 0.000159025  -0.628228 -1.55403 0.000304699  -0.677045 -1.65346 0.000411749  -0.726251 -1.75325 0.000489473  -0.775713 -1.85327 0.000532389  -0.82535 -1.95343 0.000551224  -0.875054 -2.05365 0.000547171  -0.924746 -2.15383 0.000507116  -0.974375 -2.25392 0.000453949  -1.02388 -2.35386 0.000374079  -1.07322 -2.4536 0.000279427  -1.12236 -2.55311 0.000182629  -1.17125 -2.6523 9.9659e-05  0 0 0  0.00333008 -0.00896102 0.000755072  0.00783387 -0.0350208 0.000279188  0.0101906 -0.0739454 -0.000225782  0.00892961 -0.123094 -0.000285625  0.00332695 -0.180689 9.53674e-07  -0.00683922 -0.245354 0.000452757  -0.021491 -0.315963 0.00093627  -0.0403751 -0.391555 0.00138497  -0.0631728 -0.471357 0.00174236  -0.0895388 -0.554737 0.00201964  -0.11914 -0.641169 0.00220704  -0.151661 -0.730203 0.00232363  -0.186805 -0.821466 0.00237989  -0.224302 -0.914625 0.00239325  -0.263888 -1.00938 0.00236297  -0.305315 -1.10549 0.00230074  -0.34836 -1.20273 0.00222087  -0.39279 -1.30088 0.00212383  -0.438415 -1.39978 0.00200462  -0.485042 -1.49926 0.00187778  -0.532481 -1.59919 0.00174761  -0.580588 -1.69945 0.00160575  -0.629198 -1.79992 0.00145364  -0.678187 -1.9005 0.00130033  -0.727436 -2.00111 0.00114942  -0.77683 -2.10166 0.000983238  -0.826289 -2.2021 0.000819921  -0.875738 -2.30238 0.000651836  -0.925101 -2.40245 0.00048852  -0.974334 -2.50224 0.000329494  -1.0234 -2.60177 0.000174761  -1.07221 -2.70095 2.43187e-05  0 0 0  0.00886835 -0.0141832 0.00794721  0.0221992 -0.0437275 0.0107749  0.0336338 -0.0848743 0.0111086  0.0409842 -0.135783 0.0108449  0.0434034 -0.195168 0.0104764  0.0406272 -0.261832 0.0101085  0.0327042 -0.33467 0.00973582  0.01987 -0.412672 0.00933981  0.00246775 -0.494995 0.00891447  -0.0191302 -0.580927 0.00845909  -0.044559 -0.669871 0.00797558  -0.0734276 -0.761323 0.007478  -0.105398 -0.854872 0.00696731  -0.140138 -0.950152 0.006464  -0.177339 -1.04686 0.0059526  -0.216708 -1.14474 0.00545549  -0.257973 -1.24355 0.00497222  -0.300885 -1.34311 0.00450134  -0.345198 -1.44325 0.00405002  -0.390717 -1.5438 0.00361729  -0.437226 -1.64465 0.00320053  -0.484547 -1.74567 0.00280333  -0.532507 -1.84678 0.00242138  -0.580961 -1.94787 0.00206995  -0.62977 -2.04889 0.00173044  -0.678815 -2.14976 0.00141954  -0.728003 -2.25043 0.00112724  -0.777228 -2.35086 0.000859976  -0.82643 -2.45103 0.000612497  -0.875546 -2.55089 0.000382423  -0.924528 -2.65042 0.000158072  -0.973292 -2.74961 -5.00679e-05  0 0 0  0.0152419 -0.0219864 0.0145087  0.0380092 -0.0559611 0.020303  0.0583774 -0.0992684 0.0216365  0.0739201 -0.151721 0.0214176  0.0839515 -0.212702 0.0206065  0.0882289 -0.281199 0.0195584  0.0867937 -0.356089 0.0184171  0.0798496 -0.436326 0.0172434  0.0677235 -0.520993 0.0160594  0.0508231 -0.609293 0.0148904  0.0295479 -0.700564 0.0137467  0.00432599 -0.794263 0.0126381  -0.0244564 -0.889926 0.0115647  -0.056406 -0.987176 0.0105326  -0.0911827 -1.08569 0.00954914  -0.128449 -1.18521 0.00861263  -0.167901 -1.28548 0.00771832  -0.209248 -1.38632 0.00687885  -0.252221 -1.48758 0.00608802  -0.296591 -1.5891 0.00534415  -0.342125 -1.69077 0.00465083  -0.388621 -1.79247 0.00399566  -0.435905 -1.89413 0.00338745  -0.483804 -1.99567 0.00283599  -0.532157 -2.09704 0.00232291  -0.580833 -2.19815 0.00185442  -0.629732 -2.29899 0.0014317  -0.678736 -2.39953 0.00105  -0.727764 -2.49975 0.000722647  -0.77675 -2.59962 0.000438213  -0.825653 -2.69915 0.00015831  -0.874418 -2.79838 -9.13143e-05  0 0 0  0.0238446 -0.0342916 0.0199945  0.057207 -0.0721314 0.0287452  0.0859438 -0.116835 0.0313716  0.109146 -0.170606 0.0314326  0.126385 -0.233164 0.0303388  0.137394 -0.303495 0.0287194  0.142165 -0.380431 0.0268917  0.14087 -0.46286 0.0249882  0.133838 -0.549772 0.0230877  0.121476 -0.640319 0.021234  0.104227 -0.733774 0.019448  0.0825539 -0.829564 0.0177341  0.0568885 -0.927184 0.0160992  0.0276607 -1.02624 0.0145621  -0.00473022 -1.1264 0.0131059  -0.0399232 -1.22739 0.0117347  -0.0775657 -1.32898 0.0104475  -0.117362 -1.43097 0.00923514  -0.159001 -1.53321 0.00810289  -0.202224 -1.63557 0.00704885  -0.246797 -1.73793 0.00607204  -0.292482 -1.8402 0.00516629  -0.339082 -1.94229 0.0043335  -0.38643 -2.04416 0.00357461  -0.43434 -2.14574 0.00287771  -0.482672 -2.24701 0.00226665  -0.531304 -2.34794 0.00171494  -0.580103 -2.44849 0.00123692  -0.628989 -2.54868 0.000834227  -0.677869 -2.64851 0.000485897  -0.726708 -2.74799 0.000188828  -0.775486 -2.84722 -9.2268e-05  0 0 0  0.0404373 -0.054222 0.025321  0.0810709 -0.0914454 0.0369914  0.117088 -0.1369 0.0407174  0.147603 -0.192069 0.0409482  0.171839 -0.25642 0.0395625  0.189363 -0.328795 0.0374339  0.200097 -0.407913 0.0349746  0.204204 -0.492585 0.0324075  0.202005 -0.581736 0.0298483  0.193945 -0.674454 0.0273545  0.180512 -0.769993 0.0249631  0.162197 -0.867731 0.0226803  0.139488 -0.967156 0.0205154  0.112854 -1.06785 0.0184822  0.0827343 -1.16948 0.0165734  0.0495322 -1.27178 0.0147784  0.0135944 -1.37451 0.0131037  -0.0247021 -1.47749 0.0115395  -0.0650613 -1.58055 0.0100746  -0.107182 -1.68358 0.00871229  -0.150836 -1.78647 0.00746441  -0.195739 -1.88915 0.00631094  -0.241709 -1.99153 0.00524926  -0.288543 -2.09359 0.00429225  -0.336059 -2.19526 0.00341797  -0.384085 -2.29655 0.00264931  -0.43249 -2.3974 0.0019784  -0.481161 -2.49785 0.00140285  -0.529964 -2.59789 0.000924826  -0.57882 -2.69756 0.000536919  -0.627649 -2.79693 0.000217438  -0.676465 -2.89614 -5.48363e-05  0 0 0  -0.0404161 -0.0334522 -0.0189786  -0.0784205 -0.0547173 -0.0300555  -0.118436 -0.0817462 -0.0342481  -0.158938 -0.116933 -0.0338948  -0.199279 -0.159822 -0.0313249  -0.239525 -0.209515 -0.0279839  -0.279929 -0.265157 -0.0245824  -0.320782 -0.326085 -0.0214558  -0.362285 -0.391743 -0.0186808  -0.404607 -0.461681 -0.0162771  -0.447814 -0.535476 -0.0141733  -0.491953 -0.612745 -0.0123413  -0.537008 -0.693174 -0.0107229  -0.582943 -0.77645 -0.00927162  -0.629696 -0.862262 -0.00798702  -0.677181 -0.950349 -0.00683594  -0.725325 -1.04045 -0.00580478  -0.774027 -1.13233 -0.00486517  -0.823171 -1.22576 -0.00403261  -0.872697 -1.32056 -0.00328398  -0.922488 -1.41651 -0.00262165  -0.972459 -1.51345 -0.00204301  -1.02252 -1.6112 -0.00153756  -1.07262 -1.70961 -0.00111389  -1.12268 -1.80854 -0.000761747  -1.17264 -1.90785 -0.000454664  -1.22246 -2.00744 -0.000230551  -1.27212 -2.10717 -7.08103e-05  -1.3216 -2.20694 2.31266e-05  -1.3709 -2.30666 6.8903e-05  -1.42007 -2.40625 5.50747e-05  -1.46917 -2.50567 4.91142e-05  0 0 0  -0.0169199 -0.0157577 -0.0135458  -0.0448943 -0.0416155 -0.02191  -0.0750159 -0.074232 -0.0251305  -0.106177 -0.11502 -0.0249519  -0.138555 -0.163261 -0.0230825  -0.172234 -0.217922 -0.0205827  -0.20722 -0.278142 -0.018018  -0.24355 -0.343277 -0.015645  -0.281245 -0.412808 -0.01354  -0.320333 -0.486318 -0.0117235  -0.36079 -0.563393 -0.0101428  -0.402586 -0.643682 -0.00877428  -0.445658 -0.72685 -0.00756526  -0.489917 -0.812591 -0.00650501  -0.535258 -0.900619 -0.00555706  -0.581571 -0.990673 -0.0047071  -0.628745 -1.08251 -0.00395393  -0.676648 -1.17589 -0.00327921  -0.725164 -1.27063 -0.00267529  -0.774175 -1.36652 -0.00214243  -0.823579 -1.46339 -0.00167608  -0.873265 -1.56108 -0.00126767  -0.923139 -1.65942 -0.000914097  -0.973104 -1.75828 -0.000615835  -1.0231 -1.85754 -0.000374317  -1.07305 -1.95708 -0.000180244  -1.1229 -2.05677 -3.91006e-05  -1.17261 -2.15653 4.98295e-05  -1.22217 -2.25628 0.000101328  -1.27153 -2.35593 0.00010705  -1.32073 -2.45542 9.60827e-05  -1.36981 -2.55475 7.86781e-05  0 0 0  -0.00817607 -0.0096343 -0.00872755  -0.0230647 -0.0354372 -0.0143821  -0.0420337 -0.0716791 -0.0166094  -0.0634259 -0.116426 -0.016511  -0.0871554 -0.168607 -0.0152416  -0.113315 -0.227183 -0.0135217  -0.14189 -0.291262 -0.0117381  -0.17278 -0.360137 -0.0100825  -0.205863 -0.433251 -0.00861335  -0.24103 -0.510132 -0.00735092  -0.278147 -0.590354 -0.0062604  -0.317101 -0.673562 -0.00532508  -0.357745 -0.75941 -0.00451612  -0.399928 -0.847594 -0.0038054  -0.443517 -0.937829 -0.00318646  -0.488347 -1.02986 -0.00263143  -0.534263 -1.12345 -0.00215077  -0.58112 -1.21838 -0.0017271  -0.628768 -1.31446 -0.00134897  -0.677076 -1.4115 -0.00102043  -0.725904 -1.50933 -0.000735998  -0.775127 -1.60782 -0.000495911  -0.82465 -1.70682 -0.000297785  -0.874359 -1.8062 -0.00013113  -0.924156 -1.90586 -6.4373e-06  -0.973971 -2.00568 8.53539e-05  -1.02374 -2.10557 0.000142097  -1.07341 -2.20546 0.000174046  -1.12294 -2.30526 0.000172853  -1.1723 -2.40492 0.00015378  -1.22147 -2.5044 0.000112534  -1.27048 -2.60365 8.34465e-05  0 0 0  -0.00232027 -0.00920501 -0.00421572  -0.00728765 -0.0355366 -0.00713706  -0.0155396 -0.0739153 -0.00840235  -0.0270644 -0.121473 -0.00840092  -0.041948 -0.176663 -0.00768542  -0.0602741 -0.238354 -0.00668287  -0.0820029 -0.305637 -0.00562644  -0.106953 -0.377755 -0.00464582  -0.134931 -0.454064 -0.00378156  -0.165712 -0.53404 -0.00304818  -0.199064 -0.617221 -0.00243068  -0.234777 -0.703203 -0.00191426  -0.272646 -0.791633 -0.00148082  -0.312453 -0.882183 -0.00113034  -0.354 -0.974567 -0.000820875  -0.39709 -1.06854 -0.000561237  -0.441531 -1.16386 -0.000344038  -0.487133 -1.26032 -0.000167608  -0.533733 -1.35773 -1.00136e-05  -0.581166 -1.45592 0.000106096  -0.629266 -1.55475 0.000207901  -0.677895 -1.65407 0.000284672  -0.726939 -1.75374 0.000334978  -0.776267 -1.85368 0.000361443  -0.825769 -1.95377 0.000375748  -0.87536 -2.05392 0.000365496  -0.924954 -2.15404 0.000349045  -0.974505 -2.2541 0.000304699  -1.02394 -2.354 0.000251293  -1.07324 -2.45373 0.000185251  -1.12235 -2.55321 0.000124454  -1.17127 -2.65241 5.29289e-05  0 0 0  0.00266564 -0.0117452 0.000137329  0.00629082 -0.0401069 -0.000153065  0.00787678 -0.0805169 -0.000500917  0.00587863 -0.130258 -0.00056982  -0.000305057 -0.187786 -0.000359774  -0.0108185 -0.252004 -1.0252e-05  -0.0256062 -0.321982 0.000374794  -0.0444476 -0.396907 0.00073266  -0.0670897 -0.476067 0.00102663  -0.0932266 -0.558868 0.00125027  -0.122546 -0.644783 0.00140357  -0.154778 -0.733362 0.00150251  -0.189632 -0.824226 0.00155234  -0.226835 -0.917031 0.00156689  -0.266158 -1.01148 0.00155377  -0.307327 -1.10732 0.0015223  -0.350119 -1.20431 0.00147533  -0.394321 -1.30225 0.00140905  -0.439729 -1.40096 0.00133538  -0.486151 -1.50027 0.0012536  -0.533409 -1.60005 0.00116801  -0.581344 -1.70018 0.00107026  -0.629799 -1.80053 0.000972271  -0.678662 -1.90101 0.000865221  -0.727789 -2.00153 0.000760078  -0.777082 -2.10201 0.000655413  -0.826444 -2.20239 0.000545502  -0.875822 -2.30262 0.000436544  -0.925134 -2.40264 0.000330925  -0.974331 -2.50241 0.000224829  -1.02338 -2.60191 0.000113487  -1.0722 -2.70109 1.66893e-05  0 0 0  0.00768711 -0.0166616 0.00426865  0.0197466 -0.048443 0.0064218  0.0307509 -0.0910848 0.00697231  0.0378101 -0.142658 0.00691533  0.0399764 -0.202081 0.0067215  0.0370365 -0.268411 0.0065155  0.0290616 -0.340726 0.00630784  0.0162884 -0.418138 0.00608087  -0.000979185 -0.499876 0.0058291  -0.0223882 -0.585256 0.00555301  -0.0475816 -0.673697 0.00525093  -0.0762126 -0.764699 0.00492859  -0.107933 -0.85784 0.00460792  -0.142416 -0.952763 0.00427556  -0.179367 -1.04916 0.00394607  -0.218504 -1.14675 0.00362444  -0.259547 -1.24532 0.0033021  -0.302242 -1.34465 0.00299144  -0.346364 -1.44459 0.0026958  -0.3917 -1.54496 0.00239992  -0.438034 -1.64565 0.00212479  -0.485201 -1.74653 0.00186563  -0.533022 -1.8475 0.00160909  -0.581347 -1.94849 0.00137448  -0.630054 -2.0494 0.00115347  -0.679004 -2.15019 0.000946522  -0.72811 -2.25078 0.00074935  -0.777272 -2.35116 0.000570059  -0.826424 -2.45127 0.000404835  -0.875512 -2.55108 0.000253439  -0.924468 -2.6506 0.00011754  -0.973249 -2.7498 -3.12328e-05  0 0 0  0.0135856 -0.0245815 0.00800419  0.0348097 -0.0607511 0.0124083  0.0550562 -0.105417 0.0138955  0.0706559 -0.158451 0.0139866  0.0806912 -0.219479 0.01353  0.0849605 -0.28769 0.0128639  0.0835395 -0.362125 0.0121331  0.0766661 -0.441831 0.0113664  0.0646626 -0.525952 0.0106039  0.0479283 -0.613734 0.00984144  0.0268526 -0.704518 0.00909591  0.00184262 -0.797784 0.00836802  -0.0267166 -0.893046 0.00766873  -0.0584472 -0.98994 0.00698948  -0.0930086 -1.08814 0.0063417  -0.130063 -1.18736 0.00572228  -0.169307 -1.28738 0.00513482  -0.210456 -1.388 0.0045743  -0.253249 -1.48905 0.00404739  -0.297441 -1.59038 0.00355816  -0.342825 -1.69187 0.00308919  -0.389182 -1.79343 0.00266147  -0.436335 -1.89495 0.00225258  -0.484117 -1.99636 0.00188661  -0.532362 -2.09761 0.00154161  -0.580965 -2.19863 0.00123453  -0.629788 -2.29939 0.000951767  -0.678738 -2.39987 0.000701666  -0.727721 -2.50002 0.000485659  -0.776678 -2.59985 0.000287294  -0.825565 -2.69937 0.000119448  -0.874332 -2.7986 -5.34058e-05  0 0 0  0.0218559 -0.0377102 0.0112429  0.0535915 -0.0775772 0.0177577  0.0824012 -0.12323 0.0202532  0.105833 -0.177329 0.0206149  0.123219 -0.239817 0.0200024  0.134317 -0.309848 0.0189688  0.139151 -0.38635 0.0177779  0.137947 -0.468284 0.0165298  0.131028 -0.554688 0.0152826  0.118815 -0.64474 0.0140672  0.101744 -0.737735 0.0128896  0.0802584 -0.833103 0.0117631  0.0547925 -0.930335 0.0106914  0.0257685 -1.02905 0.00966978  -0.00642562 -1.12889 0.00871181  -0.0414188 -1.22959 0.00780225  -0.0788727 -1.33093 0.00695014  -0.118484 -1.43269 0.00614142  -0.159944 -1.53473 0.00539231  -0.20301 -1.63689 0.00469542  -0.247422 -1.73907 0.00404477  -0.292976 -1.84119 0.00344396  -0.339457 -1.94315 0.00289416  -0.386691 -2.04489 0.00238156  -0.434506 -2.14636 0.00191832  -0.48276 -2.24752 0.00150514  -0.53132 -2.34836 0.0011456  -0.580072 -2.44884 0.000820875  -0.628914 -2.54897 0.00055933  -0.677779 -2.64875 0.000332117  -0.726597 -2.74823 0.000137091  -0.775378 -2.84745 -5.57899e-05  0 0 0  0.0390026 -0.0595215 0.0143468  0.0776249 -0.0980648 0.0228341  0.113472 -0.143769 0.026181  0.144165 -0.198873 0.0267549  0.168555 -0.262948 0.0260079  0.186207 -0.33493 0.0246747  0.19703 -0.413585 0.0230978  0.201227 -0.497753 0.0214274  0.199163 -0.58641 0.0197613  0.191241 -0.678646 0.0181305  0.17798 -0.773748 0.0165577  0.159862 -0.871077 0.0150659  0.137351 -0.970125 0.0136371  0.110926 -1.07048 0.0122974  0.0810064 -1.17183 0.0110285  0.047987 -1.27385 0.00984859  0.0122583 -1.37633 0.0087285  -0.0258553 -1.47908 0.00769234  -0.0660331 -1.58195 0.0067234  -0.108001 -1.68479 0.00582027  -0.151491 -1.78754 0.00498581  -0.196255 -1.89007 0.00422192  -0.242111 -1.99231 0.0035193  -0.288816 -2.09424 0.00287819  -0.336235 -2.19581 0.00230122  -0.384169 -2.29699 0.00178242  -0.432518 -2.39777 0.00134778  -0.481122 -2.49815 0.000954866  -0.529888 -2.59815 0.000640869  -0.578712 -2.69779 0.000383139  -0.627525 -2.79716 0.000171185  -0.676348 -2.89639 -2.6226e-05  0 0 0  -0.0425451 -0.0367812 -0.00892949  -0.0803453 -0.0605403 -0.0143056  -0.120004 -0.0886222 -0.0166886  -0.160658 -0.123691 -0.0168738  -0.201378 -0.165916 -0.015794  -0.241959 -0.214739 -0.0141964  -0.282557 -0.269552 -0.0125058  -0.323453 -0.329746 -0.0109072  -0.364899 -0.394804 -0.00948715  -0.407079 -0.464239 -0.00823903  -0.450106 -0.537638 -0.00716782  -0.494047 -0.614587 -0.00622916  -0.538901 -0.694744 -0.00540257  -0.584635 -0.777789 -0.00467348  -0.631194 -0.863402 -0.00402594  -0.678502 -0.951326 -0.00343728  -0.72648 -1.04128 -0.00291657  -0.775022 -1.13304 -0.00244665  -0.824028 -1.22637 -0.00203371  -0.873417 -1.32107 -0.00164914  -0.923083 -1.41694 -0.00132179  -0.972956 -1.51379 -0.00103188  -1.02292 -1.61148 -0.000773191  -1.07292 -1.70983 -0.000556469  -1.12291 -1.80871 -0.000387192  -1.17281 -1.908 -0.000228882  -1.22257 -2.00755 -0.000127077  -1.27219 -2.10725 -5.126e-05  -1.32165 -2.20699 -2.38419e-07  -1.37094 -2.3067 1.57356e-05  -1.42011 -2.40629 3.24249e-05  -1.46921 -2.50569 1.38283e-05  0 0 0  -0.0169941 -0.0183154 -0.00643277  -0.0452729 -0.0464654 -0.0105054  -0.075863 -0.0800053 -0.012327  -0.107688 -0.12078 -0.0125005  -0.140704 -0.168544 -0.0117021  -0.174824 -0.222538 -0.0104873  -0.210054 -0.282081 -0.00918818  -0.24644 -0.346596 -0.00796223  -0.284065 -0.415608 -0.00687671  -0.322989 -0.488669 -0.00593853  -0.363252 -0.565383 -0.00512695  -0.404838 -0.645374 -0.00442147  -0.447691 -0.728284 -0.00381279  -0.491744 -0.813819 -0.00327277  -0.536871 -0.901661 -0.00279498  -0.583 -0.991559 -0.00236392  -0.629996 -1.08325 -0.00197911  -0.677733 -1.17653 -0.00164747  -0.726099 -1.27116 -0.00134277  -0.774977 -1.36697 -0.00107718  -0.824244 -1.46376 -0.000839233  -0.873818 -1.56138 -0.000638962  -0.923583 -1.65967 -0.000458002  -0.973456 -1.75848 -0.000310183  -1.02337 -1.8577 -0.000194311  -1.07325 -1.9572 -9.53674e-05  -1.12304 -2.05686 -2.45571e-05  -1.17271 -2.15661 1.85966e-05  -1.22223 -2.25634 4.41074e-05  -1.27157 -2.35597 5.00679e-05  -1.32076 -2.45546 4.45843e-05  -1.36986 -2.55479 2.67029e-05  0 0 0  -0.00820465 -0.01158 -0.00415063  -0.0232217 -0.0391144 -0.0069263  -0.0427102 -0.0763305 -0.00820231  -0.0648475 -0.121332 -0.00831747  -0.0892398 -0.173295 -0.00776386  -0.115855 -0.231423 -0.00691843  -0.144668 -0.294975 -0.00601029  -0.175607 -0.363337 -0.00514269  -0.208622 -0.435986 -0.00438595  -0.243637 -0.512462 -0.00372791  -0.280565 -0.592344 -0.00316739  -0.319311 -0.67526 -0.00268674  -0.359738 -0.76087 -0.00227714  -0.401723 -0.848846 -0.00191617  -0.44511 -0.938899 -0.00160146  -0.489749 -1.03078 -0.00131989  -0.535503 -1.12423 -0.00108099  -0.582195 -1.21904 -0.000860929  -0.629699 -1.31501 -0.000673771  -0.677868 -1.41197 -0.000513554  -0.726568 -1.50972 -0.00036788  -0.775685 -1.60815 -0.000246525  -0.825105 -1.70709 -0.000149012  -0.874713 -1.80642 -6.4373e-05  -0.924438 -1.90604 -4.52995e-06  -0.974183 -2.00582 4.17233e-05  -1.02389 -2.10568 6.91414e-05  -1.07351 -2.20555 8.29697e-05  -1.123 -2.30533 8.51154e-05  -1.17234 -2.40498 7.55787e-05  -1.2215 -2.50446 5.34058e-05  -1.27052 -2.60371 3.05176e-05  0 0 0  -0.00247731 -0.0107132 -0.00204062  -0.00771885 -0.0384095 -0.00347972  -0.0164395 -0.0777514 -0.00419521  -0.0285534 -0.125752 -0.00427437  -0.04397 -0.180935 -0.00396109  -0.0626696 -0.242363 -0.00345802  -0.0845777 -0.30926 -0.00291705  -0.109576 -0.380944 -0.00240088  -0.137486 -0.456852 -0.00194073  -0.168131 -0.536453 -0.00156045  -0.201309 -0.619305 -0.00124288  -0.236842 -0.705011 -0.00097847  -0.274514 -0.793189 -0.000753164  -0.314137 -0.883527 -0.000567913  -0.355501 -0.975737 -0.000415325  -0.398418 -1.06954 -0.00028348  -0.442697 -1.16472 -0.000176668  -0.488149 -1.26106 -8.15392e-05  -0.53461 -1.35836 -1.14441e-05  -0.581908 -1.45646 5.81741e-05  -0.629887 -1.5552 0.000101328  -0.678418 -1.65445 0.000142813  -0.727359 -1.75406 0.000169039  -0.776596 -1.85395 0.000183582  -0.826019 -1.95398 0.000187635  -0.875546 -2.05409 0.000188112  -0.925085 -2.15418 0.000168562  -0.974591 -2.25421 0.000150442  -1.024 -2.3541 0.000121117  -1.07326 -2.4538 9.2268e-05  -1.12238 -2.55328 5.93662e-05  -1.1713 -2.6525 2.40803e-05  0 0 0  0.00234286 -0.0129607 -2.93255e-05  0.00547171 -0.0425172 -0.00015974  0.00661826 -0.0838717 -0.000323772  0.00422114 -0.134137 -0.000375032  -0.00229907 -0.191799 -0.000276327  -0.0130494 -0.255872 -9.27448e-05  -0.0279519 -0.325554 0.000116587  -0.0468161 -0.40012 0.00030756  -0.069386 -0.47892 0.000472069  -0.0954068 -0.561378 0.000591516  -0.124585 -0.646976 0.000680447  -0.156653 -0.735284 0.000736713  -0.191342 -0.825899 0.000769377  -0.22838 -0.918492 0.000772238  -0.267523 -1.01276 0.000773668  -0.308536 -1.10842 0.000755787  -0.351176 -1.20527 0.000735044  -0.395245 -1.30308 0.000706434  -0.44052 -1.40167 0.000667334  -0.486825 -1.50089 0.000626326  -0.533977 -1.60058 0.000577211  -0.581812 -1.70063 0.000534773  -0.630176 -1.80091 0.000487804  -0.678947 -1.90133 0.000433207  -0.728003 -2.00179 0.000383139  -0.77724 -2.10223 0.000324488  -0.826559 -2.20257 0.000278234  -0.87589 -2.30276 0.00021553  -0.92516 -2.40275 0.000163078  -0.97434 -2.50251 0.000108242  -1.02337 -2.60201 5.57899e-05  -1.07221 -2.70121 5.96046e-06  0 0 0  0.00720061 -0.0177683 0.0018692  0.0185405 -0.050684 0.00297189  0.02912 -0.0942274 0.0033443  0.035975 -0.146338 0.00337052  0.0379972 -0.205936 0.00329351  0.0349479 -0.272187 0.00319505  0.0269266 -0.344263 0.0031023  0.0141683 -0.421369 0.00299621  -0.00303698 -0.502779 0.00287819  -0.0243405 -0.587838 0.00275111  -0.0494078 -0.675992 0.00260806  -0.0778906 -0.766717 0.00245142  -0.109465 -0.859618 0.00229335  -0.143798 -0.954333 0.00212765  -0.180616 -1.05053 0.00196481  -0.219602 -1.14796 0.00180626  -0.260502 -1.24638 0.00165153  -0.30308 -1.34558 0.00149417  -0.347082 -1.44539 0.00134158  -0.392303 -1.54565 0.00119948  -0.438536 -1.64624 0.00106668  -0.48561 -1.74705 0.000931025  -0.53335 -1.84794 0.0008111  -0.581601 -1.94886 0.00068593  -0.630236 -2.04971 0.000576019  -0.679129 -2.15045 0.000474453  -0.728186 -2.251 0.000377655  -0.777312 -2.35132 0.000287294  -0.826433 -2.45141 0.000202179  -0.875495 -2.55122 0.000127792  -0.924453 -2.65073 5.79357e-05  -0.973229 -2.74994 -6.91414e-06  0 0 0  0.0129496 -0.0258426 0.00359941  0.0332857 -0.0631359 0.00583625  0.0531467 -0.108606 0.00675488  0.0686803 -0.162085 0.00689483  0.0787101 -0.223245 0.00670099  0.0829744 -0.291379 0.00638127  0.0815721 -0.36561 0.00602221  0.0747426 -0.445044 0.005651  0.0628108 -0.52886 0.00527334  0.0461633 -0.616342 0.00489521  0.0252006 -0.706854 0.00452709  0.00031364 -0.799853 0.00416636  -0.0281146 -0.894883 0.0038178  -0.0597152 -0.99157 0.00348401  -0.0941398 -1.08958 0.00316548  -0.131065 -1.18863 0.00285554  -0.170181 -1.28851 0.00256324  -0.211214 -1.38898 0.00229025  -0.253896 -1.48991 0.00202155  -0.297994 -1.59113 0.00177264  -0.34327 -1.69253 0.00154448  -0.389546 -1.79399 0.00132823  -0.436613 -1.89542 0.00112367  -0.484323 -1.99677 0.000942707  -0.53252 -2.09795 0.0007689  -0.581058 -2.19892 0.000616312  -0.629836 -2.29963 0.000470638  -0.678754 -2.40006 0.000355244  -0.727707 -2.50019 0.00023818  -0.776656 -2.6 0.000142574  -0.825533 -2.6995 6.53267e-05  -0.874299 -2.79874 -2.26498e-05  0 0 0  0.0211623 -0.0393903 0.00513291  0.0519204 -0.0804119 0.008425  0.0803409 -0.126657 0.00988102  0.103773 -0.181012 0.0101874  0.121219 -0.243533 0.00993013  0.132378 -0.313444 0.00943255  0.137262 -0.389733 0.00884485  0.136114 -0.471405 0.00822759  0.129276 -0.55753 0.00761104  0.117143 -0.6473 0.00700665  0.100177 -0.740036 0.00642371  0.0788077 -0.835149 0.00586748  0.053462 -0.932159 0.00533199  0.0245675 -1.03066 0.00482607  -0.00750327 -1.13033 0.00434446  -0.042372 -1.23087 0.00389862  -0.0797129 -1.33205 0.00347424  -0.119204 -1.43368 0.00307083  -0.160566 -1.53559 0.00269532  -0.203529 -1.63765 0.00234199  -0.247848 -1.73973 0.00201654  -0.293315 -1.84176 0.00171661  -0.339723 -1.94363 0.00144839  -0.386888 -2.04529 0.0011847  -0.43464 -2.1467 0.000962734  -0.482841 -2.24781 0.000757694  -0.531362 -2.34859 0.000577927  -0.580078 -2.44904 0.000411749  -0.628886 -2.54915 0.000283241  -0.677735 -2.64891 0.000169039  -0.726551 -2.74836 7.34329e-05  -0.775342 -2.84761 -2.24113e-05  0 0 0  0.0387342 -0.0620691 0.00652766  0.0761276 -0.101665 0.0108004  0.111379 -0.147618 0.0127258  0.141992 -0.202688 0.0131743  0.166448 -0.266648 0.0128791  0.184165 -0.338424 0.0122473  0.195057 -0.416824 0.0114856  0.199327 -0.500714 0.0106614  0.197343 -0.58909 0.0098412  0.189523 -0.681061 0.00903177  0.176367 -0.77589 0.00825715  0.158364 -0.872988 0.00751305  0.13598 -0.971825 0.00680351  0.109678 -1.07199 0.00613737  0.0798849 -1.17315 0.00551271  0.0470016 -1.27502 0.00492215  0.0113852 -1.37736 0.0043633  -0.0266161 -1.47999 0.00385284  -0.0666876 -1.58274 0.00335836  -0.108556 -1.68548 0.0029211  -0.151945 -1.78812 0.00249982  -0.196631 -1.89056 0.0021131  -0.242391 -1.99273 0.00176382  -0.289028 -2.09459 0.00144196  -0.336374 -2.1961 0.00115585  -0.384267 -2.29724 0.000910044  -0.432565 -2.39798 0.000688553  -0.481127 -2.49832 0.000491858  -0.529861 -2.59829 0.000332117  -0.578664 -2.69793 0.000200033  -0.627468 -2.79729 9.89437e-05  -0.676285 -2.89654 3.57628e-06  0 0 0  -0.0432696 -0.0377764 4.76837e-07  -0.0810543 -0.0622991 4.76837e-07  -0.12057 -0.0907703 -2.38419e-07  -0.161203 -0.125896 -2.6226e-06  -0.202006 -0.167954 -9.53674e-07  -0.24269 -0.216525 -3.8147e-06  -0.283366 -0.271067 -1.66893e-06  -0.324289 -0.331023 2.38419e-07  -0.365723 -0.395868 -2.6226e-06  -0.407864 -0.465136 2.38419e-06  -0.450855 -0.538393 -4.76837e-07  -0.494728 -0.615226 3.33786e-06  -0.539509 -0.695305 0  -0.585181 -0.77826 -6.91414e-06  -0.63168 -0.863811 -2.38419e-06  -0.678937 -0.951671 -8.34465e-06  -0.726854 -1.04158 2.86102e-06  -0.775343 -1.1333 -2.14577e-06  -0.824311 -1.22658 -4.29153e-06  -0.873657 -1.32124 -9.29832e-06  -0.923279 -1.41708 7.15256e-07  -0.973107 -1.51391 -2.38419e-07  -1.02305 -1.61158 -2.86102e-06  -1.07303 -1.70992 -7.39098e-06  -1.12298 -1.80879 -7.15256e-06  -1.17286 -1.90805 -9.05991e-06  -1.2226 -2.00758 -4.76837e-06  -1.27221 -2.10727 -2.38419e-07  -1.32166 -2.20701 -2.38419e-06  -1.37094 -2.30672 -5.24521e-06  -1.42011 -2.4063 -5.00679e-06  -1.46923 -2.5057 -2.14577e-06  0 0 0  -0.0170516 -0.0190661 -2.86102e-06  -0.0454694 -0.0479595 -1.90735e-06  -0.0761788 -0.0818402 4.05312e-06  -0.108148 -0.122661 0  -0.141334 -0.170311 -1.43051e-06  -0.175605 -0.224111 -5.48363e-06  -0.210926 -0.283434 -1.19209e-06  -0.247342 -0.347744 2.38419e-06  -0.284956 -0.41658 0  -0.323842 -0.489496 -5.48363e-06  -0.364052 -0.566082 -7.15256e-07  -0.405572 -0.645961 -2.38419e-07  -0.44835 -0.728787 -3.8147e-06  -0.492331 -0.814245 -1.43051e-06  -0.537408 -0.902029 -3.57628e-06  -0.583466 -0.991872 -1.43051e-06  -0.63041 -1.08353 4.76837e-07  -0.678087 -1.17676 -4.76837e-06  -0.726403 -1.27136 -4.76837e-07  -0.775239 -1.36713 -4.76837e-07  -0.824466 -1.4639 2.14577e-06  -0.873991 -1.56149 -2.14577e-06  -0.92373 -1.65976 2.38419e-07  -0.973578 -1.75856 -2.38419e-07  -1.02346 -1.85775 -3.57628e-06  -1.07332 -1.95725 -4.05312e-06  -1.12309 -2.0569 4.52995e-06  -1.17274 -2.15664 -3.57628e-06  -1.22224 -2.25635 1.66893e-06  -1.27159 -2.35599 7.15256e-07  -1.32078 -2.45548 -3.33786e-06  -1.36986 -2.5548 -2.38419e-06  0 0 0  -0.00822623 -0.0121505 -2.14577e-06  -0.0233117 -0.0402423 -1.19209e-06  -0.0429461 -0.0778084 -4.76837e-07  -0.0652762 -0.122927 1.19209e-06  -0.0898677 -0.174849 -5.24521e-06  -0.116639 -0.232846 -2.86102e-06  -0.145534 -0.296238 -4.76837e-07  -0.17651 -0.364436 2.38419e-07  -0.209508 -0.436928 3.33786e-06  -0.244487 -0.513263 -3.57628e-06  -0.28136 -0.593034 2.14577e-06  -0.320037 -0.675854 -3.57628e-06  -0.360401 -0.761376 -8.34465e-06  -0.402314 -0.849277 -2.38419e-06  -0.445636 -0.939274 2.38419e-07  -0.490223 -1.03109 -1.66893e-06  -0.535907 -1.1245 1.66893e-06  -0.582551 -1.21927 -5.48363e-06  -0.630003 -1.3152 -3.57628e-06  -0.678131 -1.41212 1.43051e-06  -0.726796 -1.50986 4.76837e-07  -0.775871 -1.60826 1.43051e-06  -0.825249 -1.70718 -4.76837e-07  -0.87483 -1.8065 -2.38419e-07  -0.924528 -1.90609 -4.52995e-06  -0.974252 -2.00587 1.90735e-06  -1.02394 -2.10572 -7.15256e-07  -1.07355 -2.20558 -4.52995e-06  -1.12303 -2.30536 2.38419e-07  -1.17235 -2.405 0  -1.22151 -2.50448 -8.34465e-06  -1.27053 -2.60372 4.05312e-06  0 0 0  -0.00253743 -0.0111466 -3.57628e-06  -0.00787376 -0.039286 -1.43051e-06  -0.0167244 -0.0789528 5.00679e-06  -0.0290149 -0.127129 4.76837e-07  -0.0445972 -0.182338 1.19209e-06  -0.0634278 -0.243692 -2.6226e-06  -0.0854051 -0.310475 -6.19888e-06  -0.110425 -0.382023 -5.24521e-06  -0.138323 -0.457789 -2.6226e-06  -0.168929 -0.537266 4.76837e-07  -0.202052 -0.620013 -2.38419e-07  -0.237533 -0.705612 -1.43051e-06  -0.275136 -0.793716 -4.76837e-07  -0.314695 -0.883985 2.14577e-06  -0.355999 -0.976125 -4.29153e-06  -0.398855 -1.06988 -3.57628e-06  -0.443083 -1.16502 4.76837e-07  -0.488493 -1.26131 -5.00679e-06  -0.534902 -1.35857 2.38419e-07  -0.582156 -1.45664 -6.4373e-06  -0.630103 -1.55536 -2.38419e-07  -0.67859 -1.65457 -2.38419e-06  -0.727501 -1.75418 -1.43051e-06  -0.776705 -1.85404 1.19209e-06  -0.826103 -1.95405 -5.24521e-06  -0.875607 -2.05415 -1.43051e-06  -0.925137 -2.15423 -5.00679e-06  -0.974623 -2.25426 -2.38419e-06  -1.02401 -2.35413 -1.04904e-05  -1.07327 -2.45383 -7.15256e-07  -1.12238 -2.55331 -6.4373e-06  -1.1713 -2.65252 -5.00679e-06  0 0 0  0.00224847 -0.0133115 1.19209e-06  0.00521132 -0.0432411 -4.76837e-07  0.00621751 -0.0848994 9.53674e-07  0.00369221 -0.135367 -2.38419e-06  -0.00293124 -0.193098 -2.38419e-06  -0.0137706 -0.257143 -4.29153e-06  -0.0287147 -0.326741 -1.90735e-06  -0.0475937 -0.401194 -4.52995e-06  -0.0701495 -0.479875 -5.72205e-06  -0.0961313 -0.562216 -4.29153e-06  -0.125261 -0.647715 4.76837e-07  -0.157281 -0.735927 -1.43051e-06  -0.191908 -0.826467 -2.14577e-06  -0.228892 -0.918987 -3.8147e-06  -0.267991 -1.01318 -4.76837e-06  -0.308943 -1.1088 -1.90735e-06  -0.351538 -1.20559 -1.43051e-06  -0.395554 -1.30336 2.38419e-07  -0.440792 -1.40192 -1.43051e-06  -0.487048 -1.5011 -1.19209e-06  -0.534158 -1.60076 -3.33786e-06  -0.581963 -1.70078 -5.00679e-06  -0.630301 -1.80104 -9.53674e-07  -0.679048 -1.90144 -9.53674e-07  -0.728076 -2.00188 -2.38419e-07  -0.777292 -2.1023 -2.14577e-06  -0.826596 -2.20262 3.33786e-06  -0.87591 -2.30281 -9.53674e-07  -0.925178 -2.40279 -4.29153e-06  -0.974344 -2.50255 1.66893e-06  -1.02337 -2.60205 -1.43051e-06  -1.07221 -2.70124 7.62939e-06  0 0 0  0.00706415 -0.0180923 -2.86102e-06  0.0181751 -0.0513579 -9.53674e-07  0.0286051 -0.0951966 -1.90735e-06  0.0353744 -0.147494 -1.90735e-06  0.0373411 -0.207173 -3.09944e-06  0.0342638 -0.273416 -1.90735e-06  0.0262269 -0.34542 -2.6226e-06  0.0134642 -0.422436 -3.57628e-06  -0.0037173 -0.503741 -4.52995e-06  -0.0249939 -0.588698 -2.6226e-06  -0.0500138 -0.676742 3.09944e-06  -0.0784568 -0.767393 -1.19209e-06  -0.10998 -0.860217 -9.53674e-07  -0.144266 -0.954854 -3.33786e-06  -0.181025 -1.05099 -1.66893e-06  -0.219974 -1.14835 -7.15256e-06  -0.260836 -1.24672 7.15256e-07  -0.303358 -1.34589 4.76837e-06  -0.347325 -1.44566 -2.6226e-06  -0.392506 -1.54588 -1.19209e-06  -0.438708 -1.64645 2.38419e-07  -0.485748 -1.74721 2.14577e-06  -0.533452 -1.84808 -2.38419e-07  -0.581687 -1.94897 2.38419e-06  -0.630296 -2.04982 2.86102e-06  -0.679184 -2.15053 2.38419e-07  -0.72822 -2.25107 9.53674e-07  -0.77732 -2.3514 9.53674e-07  -0.826443 -2.45146 -7.15256e-07  -0.875492 -2.55126 0  -0.924448 -2.65077 0  -0.973228 -2.74998 -5.00679e-06  0 0 0  0.0127893 -0.0262177 2.38419e-07  0.0328393 -0.063865 9.53674e-07  0.0525346 -0.109593 -1.66893e-06  0.0680318 -0.163225 2.14577e-06  0.0780453 -0.224452 -3.57628e-06  0.0823188 -0.292577 -2.14577e-06  0.0809177 -0.366735 -5.72205e-06  0.0740944 -0.446094 -9.53674e-07  0.0621862 -0.529818 -2.38419e-07  0.0455742 -0.617206 -2.86102e-06  0.0246407 -0.707624 -7.15256e-07  -0.000202656 -0.800541 -2.38419e-07  -0.0285894 -0.895494 -3.09944e-06  -0.0601451 -0.99211 -3.8147e-06  -0.0945204 -1.09005 -2.86102e-06  -0.131401 -1.18905 -2.14577e-06  -0.170486 -1.28887 -2.38419e-06  -0.211474 -1.3893 2.6226e-06  -0.25412 -1.49019 4.76837e-07  -0.298179 -1.59137 -4.29153e-06  -0.343427 -1.69274 -9.53674e-07  -0.389669 -1.79417 -5.96046e-06  -0.436715 -1.89559 -1.66893e-06  -0.484397 -1.9969 -3.09944e-06  -0.532567 -2.09806 -5.72205e-06  -0.581097 -2.19901 5.00679e-06  -0.629863 -2.2997 7.15256e-07  -0.678762 -2.40012 -1.43051e-06  -0.727714 -2.50024 -7.15256e-07  -0.776649 -2.60004 -1.66893e-06  -0.825524 -2.69955 -9.53674e-07  -0.874291 -2.79879 -4.05312e-06  0 0 0  0.0209926 -0.0398868 1.90735e-06  0.0514458 -0.0812859 2.6226e-06  0.0796838 -0.127733 -7.15256e-07  0.103076 -0.182176 -4.76837e-07  0.120542 -0.244718 -1.90735e-06  0.131714 -0.314602 -1.19209e-06  0.136622 -0.390838 -1.43051e-06  0.135491 -0.472421 2.6226e-06  0.128677 -0.558455 -2.38419e-07  0.11658 -0.648139 -2.38419e-06  0.0996426 -0.740787 -1.19209e-06  0.0783136 -0.835825 -1.90735e-06  0.0530137 -0.932758 -7.15256e-07  0.0241554 -1.03119 -1.19209e-06  -0.00787437 -1.1308 4.05312e-06  -0.0427036 -1.23128 0  -0.0799992 -1.33242 -4.76837e-07  -0.119454 -1.434 5.24521e-06  -0.160774 -1.53587 -2.6226e-06  -0.203714 -1.63789 -2.86102e-06  -0.247998 -1.73995 -4.52995e-06  -0.293435 -1.84193 1.19209e-06  -0.339818 -1.94379 -2.14577e-06  -0.386949 -2.04542 2.38419e-07  -0.434691 -2.14681 2.14577e-06  -0.482872 -2.2479 2.6226e-06  -0.531375 -2.34867 1.66893e-06  -0.580084 -2.4491 2.38419e-07  -0.628892 -2.5492 1.90735e-06  -0.677725 -2.64895 1.90735e-06  -0.726537 -2.74842 -1.90735e-06  -0.775324 -2.84766 -9.05991e-06  0 0 0  0.0387081 -0.0628607 1.19209e-06  0.0757327 -0.102804 3.33786e-06  0.11072 -0.148847 3.57628e-06  0.14126 -0.203924 4.76837e-07  0.165728 -0.267833 7.15256e-07  0.183473 -0.339555 -3.33786e-06  0.194388 -0.417881 -3.09944e-06  0.198689 -0.501681 5.24521e-06  0.196716 -0.58996 2.38419e-06  0.188938 -0.681843 -2.14577e-06  0.175826 -0.776593 -6.67572e-06  0.157849 -0.873601 -4.52995e-06  0.135505 -0.972373 2.14577e-06  0.109249 -1.07248 3.8147e-06  0.0794988 -1.17358 -4.76837e-06  0.046663 -1.2754 1.43051e-06  0.0110815 -1.37769 -2.86102e-06  -0.0268753 -1.48028 2.86102e-06  -0.0669086 -1.58299 -9.53674e-07  -0.108744 -1.6857 -6.67572e-06  -0.152105 -1.7883 -2.38419e-06  -0.196761 -1.89072 -4.76837e-07  -0.242488 -1.99287 4.29153e-06  -0.289107 -2.09471 2.86102e-06  -0.33643 -2.1962 5.48363e-06  -0.384297 -2.29731 -2.38419e-06  -0.432581 -2.39805 -1.43051e-06  -0.481139 -2.49838 4.76837e-07  -0.52986 -2.59835 3.33786e-06  -0.578655 -2.69798 6.91414e-06  -0.627452 -2.79735 -3.09944e-06  -0.676262 -2.8966 2.6226e-06  0 0 0  -0.0425447 -0.0367901 0.00893736  -0.0803459 -0.0605379 0.014308  -0.120005 -0.0886215 0.0166936  -0.160658 -0.123698 0.016871  -0.201382 -0.16592 0.0158014  -0.241964 -0.214747 0.0141902  -0.282563 -0.269548 0.0124979  -0.323457 -0.329746 0.010901  -0.364893 -0.394805 0.00948095  -0.407067 -0.464244 0.00824022  -0.450104 -0.537635 0.00716782  -0.494046 -0.614587 0.00623083  -0.538901 -0.694746 0.00539923  -0.584631 -0.777788 0.0046711  -0.631193 -0.863405 0.00402594  -0.678505 -0.951321 0.00344372  -0.726478 -1.04128 0.00291824  -0.775022 -1.13303 0.00244474  -0.82403 -1.22636 0.00202417  -0.87342 -1.32107 0.00165987  -0.923089 -1.41693 0.00132656  -0.972951 -1.51379 0.00103664  -1.02292 -1.61148 0.000775814  -1.07293 -1.70984 0.000564098  -1.12291 -1.80872 0.000385284  -1.1728 -1.90799 0.000229836  -1.22258 -2.00754 0.000117302  -1.2722 -2.10724 4.72069e-05  -1.32164 -2.20699 -4.29153e-06  -1.37094 -2.3067 -2.86102e-05  -1.4201 -2.40628 -2.90871e-05  -1.46921 -2.5057 -2.43187e-05  0 0 0  -0.016998 -0.0183135 0.0064292  -0.0452759 -0.0464647 0.0105004  -0.0758672 -0.0800036 0.0123329  -0.107689 -0.120777 0.0124965  -0.1407 -0.168545 0.0116982  -0.174825 -0.222538 0.0104771  -0.210054 -0.282076 0.00918722  -0.246436 -0.346591 0.00796461  -0.284063 -0.415609 0.00688362  -0.322988 -0.488672 0.00593233  -0.363251 -0.565383 0.00513077  -0.40484 -0.645369 0.00442123  -0.44769 -0.728287 0.00380659  -0.491734 -0.813817 0.00326633  -0.536872 -0.901667 0.00279188  -0.582998 -0.991556 0.0023613  -0.629992 -1.08326 0.0019865  -0.677731 -1.17654 0.00164175  -0.726094 -1.27117 0.00134134  -0.774971 -1.36697 0.00107288  -0.824247 -1.46376 0.000837326  -0.873816 -1.56138 0.000636578  -0.923583 -1.65967 0.000457287  -0.973457 -1.75849 0.000308037  -1.02337 -1.8577 0.000182629  -1.07325 -1.9572 9.20296e-05  -1.12304 -2.05687 2.19345e-05  -1.17271 -2.15661 -2.76566e-05  -1.22222 -2.25633 -4.52995e-05  -1.27157 -2.35597 -5.8651e-05  -1.32076 -2.45546 -5.19753e-05  -1.36986 -2.55479 -3.95775e-05  0 0 0  -0.00819992 -0.0115839 0.00414991  -0.0232207 -0.0391119 0.00692368  -0.0427078 -0.0763364 0.00819969  -0.0648472 -0.121329 0.00832224  -0.0892394 -0.173295 0.00776243  -0.115859 -0.231428 0.00691462  -0.144668 -0.294981 0.00600672  -0.175608 -0.363338 0.00514174  -0.208623 -0.43599 0.00438213  -0.243633 -0.512464 0.00372458  -0.280567 -0.592344 0.0031662  -0.319311 -0.67527 0.00268888  -0.359742 -0.760872 0.00227308  -0.401721 -0.848844 0.00190639  -0.445112 -0.9389 0.00159836  -0.48975 -1.03078 0.00131893  -0.535494 -1.12423 0.00107479  -0.58219 -1.21904 0.000860691  -0.629699 -1.31501 0.000669956  -0.677866 -1.41196 0.000500202  -0.726576 -1.50973 0.000367641  -0.775686 -1.60815 0.000247002  -0.825101 -1.70709 0.000142574  -0.874707 -1.80643 6.62804e-05  -0.924429 -1.90604 -1.90735e-06  -0.974176 -2.00582 -4.673e-05  -1.0239 -2.10568 -7.34329e-05  -1.07352 -2.20554 -9.44138e-05  -1.123 -2.30533 -9.48906e-05  -1.17233 -2.40498 -7.43866e-05  -1.2215 -2.50446 -5.8651e-05  -1.27053 -2.60371 -3.95775e-05  0 0 0  -0.00247858 -0.0107097 0.00203753  -0.00771661 -0.0384073 0.00348091  -0.0164405 -0.0777556 0.00419664  -0.0285517 -0.12575 0.00427675  -0.0439723 -0.180932 0.00396395  -0.0626661 -0.242367 0.00345612  -0.0845792 -0.309261 0.00291348  -0.109576 -0.380948 0.0023942  -0.137489 -0.456851 0.00194502  -0.168131 -0.536447 0.00156069  -0.201316 -0.619308 0.00124073  -0.236847 -0.70501 0.000972748  -0.274514 -0.793189 0.000749588  -0.314132 -0.883528 0.000568867  -0.3555 -0.975735 0.000413418  -0.398418 -1.06955 0.000283718  -0.442692 -1.16473 0.000169754  -0.488152 -1.26106 8.2016e-05  -0.534613 -1.35836 5.24521e-06  -0.581907 -1.45646 -5.38826e-05  -0.629895 -1.55521 -0.000107288  -0.678421 -1.65444 -0.000140667  -0.72736 -1.75406 -0.000169754  -0.776589 -1.85394 -0.000184536  -0.826019 -1.95398 -0.00019598  -0.875541 -2.05409 -0.000183582  -0.925093 -2.15419 -0.000173092  -0.974593 -2.25422 -0.000155926  -1.02399 -2.3541 -0.000130177  -1.07326 -2.4538 -9.48906e-05  -1.12238 -2.55329 -6.19888e-05  -1.1713 -2.6525 -1.95503e-05  0 0 0  0.00234167 -0.0129563 2.76566e-05  0.00547102 -0.0425144 0.000157833  0.00661558 -0.0838671 0.000327587  0.00421768 -0.134142 0.000368118  -0.00229836 -0.191799 0.000272751  -0.013049 -0.255871 9.10759e-05  -0.0279523 -0.325556 -0.00012064  -0.0468128 -0.400124 -0.000315189  -0.0693936 -0.478918 -0.000476837  -0.0954046 -0.561374 -0.000596523  -0.124586 -0.64697 -0.000682831  -0.156655 -0.735284 -0.000741005  -0.191341 -0.825906 -0.000768661  -0.228376 -0.918496 -0.000774384  -0.26753 -1.01275 -0.000782013  -0.308538 -1.10843 -0.000758648  -0.35118 -1.20527 -0.000738621  -0.395247 -1.30308 -0.00070715  -0.440522 -1.40167 -0.000669003  -0.486833 -1.50089 -0.000630856  -0.533972 -1.60059 -0.000585079  -0.581802 -1.70063 -0.00053978  -0.630177 -1.80091 -0.000491619  -0.678954 -1.90133 -0.000442505  -0.728003 -2.00179 -0.0003829  -0.777239 -2.10223 -0.000329971  -0.82656 -2.20257 -0.000279427  -0.87589 -2.30276 -0.000219345  -0.925163 -2.40275 -0.000174522  -0.974341 -2.5025 -0.000114918  -1.02337 -2.60201 -6.1512e-05  -1.07221 -2.70121 -7.15256e-06  0 0 0  0.0071986 -0.0177692 -0.00187778  0.0185376 -0.0506869 -0.00297165  0.0291194 -0.0942312 -0.00334597  0.0359713 -0.146334 -0.00336933  0.0379944 -0.20594 -0.00328922  0.034945 -0.272189 -0.00319719  0.0269257 -0.344263 -0.00310087  0.0141687 -0.421371 -0.00300503  -0.003034 -0.502778 -0.00288725  -0.0243429 -0.587839 -0.0027566  -0.0494086 -0.675982 -0.00260592  -0.0778915 -0.76672 -0.00245523  -0.109463 -0.859621 -0.00229454  -0.143802 -0.954333 -0.00213671  -0.180608 -1.05053 -0.00197172  -0.219605 -1.14796 -0.00181055  -0.260509 -1.24637 -0.00165081  -0.303076 -1.34558 -0.00149727  -0.347081 -1.44539 -0.00134611  -0.392304 -1.54566 -0.00120497  -0.438539 -1.64624 -0.00106716  -0.48561 -1.74704 -0.000939846  -0.533343 -1.84794 -0.000807762  -0.581608 -1.94886 -0.000689983  -0.630241 -2.04971 -0.000579834  -0.679134 -2.15044 -0.000472546  -0.728185 -2.251 -0.000378132  -0.777313 -2.35133 -0.000282764  -0.826438 -2.45141 -0.000203609  -0.875497 -2.55121 -0.000132561  -0.924453 -2.65072 -5.76973e-05  -0.973235 -2.74994 1.28746e-05  0 0 0  0.0129558 -0.0258375 -0.00360155  0.0332806 -0.0631344 -0.00583982  0.0531523 -0.108604 -0.00675535  0.0686803 -0.162088 -0.00689507  0.0787134 -0.223248 -0.0067029  0.0829796 -0.291382 -0.00638819  0.0815762 -0.365601 -0.00602722  0.074736 -0.445037 -0.0056529  0.0628102 -0.528865 -0.00527906  0.0461676 -0.616348 -0.00490046  0.0252031 -0.706856 -0.00453568  0.000314236 -0.799854 -0.00417423  -0.0281154 -0.894886 -0.00382757  -0.0597146 -0.991569 -0.00348902  -0.0941421 -1.08958 -0.00315952  -0.131062 -1.18863 -0.00286102  -0.170182 -1.2885 -0.00256538  -0.211213 -1.38898 -0.00228453  -0.253897 -1.48991 -0.0020256  -0.297991 -1.59113 -0.00177813  -0.343276 -1.69253 -0.00154781  -0.389544 -1.79399 -0.00132799  -0.43662 -1.89543 -0.00112963  -0.484328 -1.99677 -0.000945568  -0.53252 -2.09795 -0.000774384  -0.581063 -2.19892 -0.000616074  -0.629842 -2.29963 -0.000472069  -0.678754 -2.40005 -0.000350952  -0.72771 -2.50018 -0.000245094  -0.776656 -2.6 -0.000146389  -0.825532 -2.6995 -5.8651e-05  -0.874303 -2.79875 2.19345e-05  0 0 0  0.0211665 -0.0393925 -0.00512838  0.0519233 -0.0804188 -0.00842047  0.0803372 -0.126655 -0.00988054  0.10377 -0.181008 -0.0101886  0.121224 -0.243531 -0.00993395  0.132374 -0.313443 -0.00943613  0.137268 -0.389735 -0.0088439  0.136113 -0.471403 -0.00822878  0.129268 -0.55753 -0.00760794  0.117145 -0.6473 -0.00700808  0.100176 -0.740036 -0.0064311  0.0788068 -0.835145 -0.00587177  0.0534621 -0.932161 -0.00533009  0.0245581 -1.03066 -0.00482416  -0.00750566 -1.13032 -0.0043478  -0.0423746 -1.23086 -0.0038991  -0.0797079 -1.33205 -0.00347137  -0.119205 -1.43368 -0.00307417  -0.16057 -1.53559 -0.00269461  -0.203533 -1.63765 -0.00235367  -0.247856 -1.73973 -0.00202751  -0.293313 -1.84175 -0.00172377  -0.339725 -1.94363 -0.00144196  -0.386888 -2.04529 -0.00119162  -0.434646 -2.1467 -0.000958443  -0.482842 -2.24781 -0.000758648  -0.531367 -2.34859 -0.00057745  -0.580078 -2.44904 -0.000417233  -0.6289 -2.54914 -0.000286579  -0.67774 -2.64891 -0.000169277  -0.726552 -2.74837 -7.29561e-05  -0.775342 -2.84761 2.24113e-05  0 0 0  0.0387398 -0.0620794 -0.00653267  0.0761361 -0.10168 -0.0107918  0.111383 -0.147621 -0.0127225  0.141992 -0.2027 -0.0131726  0.166456 -0.26664 -0.0128832  0.184167 -0.338422 -0.0122552  0.195063 -0.416821 -0.0114818  0.199339 -0.500718 -0.0106635  0.197336 -0.589082 -0.00983953  0.18953 -0.681052 -0.00903273  0.176368 -0.775892 -0.00825691  0.158363 -0.87298 -0.00751495  0.135985 -0.971818 -0.0068078  0.109677 -1.07199 -0.00614357  0.0798852 -1.17316 -0.00551987  0.0470011 -1.27502 -0.00492191  0.0113862 -1.37737 -0.00437117  -0.0266132 -1.47999 -0.00385284  -0.0666819 -1.58274 -0.00336313  -0.108548 -1.68548 -0.00292683  -0.151941 -1.78811 -0.00250149  -0.196628 -1.89056 -0.00212049  -0.242395 -1.99273 -0.0017643  -0.289035 -2.09459 -0.00144625  -0.336382 -2.1961 -0.00115967  -0.384267 -2.29723 -0.000902176  -0.432555 -2.39797 -0.000676155  -0.481128 -2.49832 -0.000481129  -0.529862 -2.59829 -0.000335217  -0.578665 -2.69794 -0.000198841  -0.627473 -2.7973 -9.01222e-05  -0.676295 -2.89654 -7.15256e-06  0 0 0  -0.0404191 -0.0334449 0.018981  -0.0784322 -0.0547198 0.0300517  -0.118439 -0.0817518 0.0342507  -0.15894 -0.116928 0.0338893  -0.199279 -0.159826 0.0313201  -0.239524 -0.209518 0.0279732  -0.279928 -0.265155 0.0245881  -0.320769 -0.32609 0.0214539  -0.362289 -0.39175 0.0186901  -0.404603 -0.46168 0.0162725  -0.447816 -0.535471 0.0141668  -0.49195 -0.61276 0.0123329  -0.537004 -0.69318 0.0107183  -0.582944 -0.77645 0.00926828  -0.629686 -0.862265 0.00798225  -0.677173 -0.950347 0.00682926  -0.725324 -1.04045 0.00578451  -0.774021 -1.13233 0.00486279  -0.823178 -1.22577 0.00402308  -0.872698 -1.32057 0.0032773  -0.922488 -1.41651 0.0026207  -0.972453 -1.51345 0.00204086  -1.02253 -1.61121 0.00153828  -1.07263 -1.70962 0.00110579  -1.12268 -1.80854 0.000747204  -1.17263 -1.90785 0.00045681  -1.22246 -2.00744 0.000227451  -1.27213 -2.10717 7.05719e-05  -1.32161 -2.20694 -3.14713e-05  -1.3709 -2.30667 -6.77109e-05  -1.42008 -2.40626 -7.39098e-05  -1.46918 -2.50566 -5.72205e-05  0 0 0  -0.0169196 -0.0157575 0.0135503  -0.0448926 -0.041615 0.0219059  -0.0750172 -0.0742338 0.0251245  -0.106176 -0.115026 0.0249491  -0.138557 -0.163264 0.0230746  -0.172234 -0.217923 0.020576  -0.207225 -0.27814 0.0180135  -0.24355 -0.343275 0.0156384  -0.281248 -0.412815 0.0135484  -0.320329 -0.486319 0.0117278  -0.360795 -0.563396 0.0101447  -0.40259 -0.643682 0.00876713  -0.44566 -0.726853 0.00756502  -0.489915 -0.812586 0.00649786  -0.535264 -0.900623 0.00555325  -0.581568 -0.990671 0.00470686  -0.628745 -1.0825 0.00395012  -0.676642 -1.1759 0.00327587  -0.725161 -1.27063 0.00267601  -0.774178 -1.36652 0.00214195  -0.823579 -1.4634 0.00167131  -0.873262 -1.56108 0.00126743  -0.923137 -1.65942 0.000911713  -0.973109 -1.75828 0.000614166  -1.0231 -1.85755 0.000380516  -1.07304 -1.95707 0.000179291  -1.1229 -2.05677 3.76701e-05  -1.17262 -2.15654 -5.24521e-05  -1.22217 -2.25628 -0.000110626  -1.27153 -2.35593 -0.000123501  -1.32073 -2.45543 -0.000104904  -1.36982 -2.55475 -8.15392e-05  0 0 0  -0.00818221 -0.00963217 0.00872374  -0.0230647 -0.0354396 0.0143843  -0.0420315 -0.0716827 0.0166168  -0.0634251 -0.116428 0.0165138  -0.087153 -0.168613 0.0152345  -0.113308 -0.227187 0.0135121  -0.141889 -0.291271 0.0117326  -0.172781 -0.360151 0.0100775  -0.205865 -0.433251 0.00861311  -0.241028 -0.510125 0.00735378  -0.278153 -0.590353 0.00626087  -0.317103 -0.673564 0.00532722  -0.357741 -0.759415 0.00450563  -0.39993 -0.847596 0.00379944  -0.443516 -0.937833 0.00318098  -0.488342 -1.02986 0.002635  -0.534263 -1.12345 0.00214338  -0.581123 -1.21838 0.00172043  -0.628772 -1.31445 0.00134754  -0.677081 -1.41149 0.00102043  -0.725904 -1.50934 0.000736713  -0.775138 -1.60783 0.000494003  -0.824654 -1.70682 0.000296593  -0.874356 -1.80621 0.000127316  -0.924156 -1.90586 -5.24521e-06  -0.973973 -2.00568 -8.91685e-05  -1.02375 -2.10558 -0.000149727  -1.07342 -2.20546 -0.000176907  -1.12294 -2.30526 -0.000180244  -1.1723 -2.40493 -0.000154018  -1.22147 -2.5044 -0.00012064  -1.27049 -2.60365 -7.86781e-05  0 0 0  -0.00232043 -0.00920719 0.00421476  -0.00728001 -0.0355359 0.00713587  -0.01554 -0.0739193 0.00839853  -0.0270627 -0.12148 0.00839472  -0.0419484 -0.176661 0.00768709  -0.0602753 -0.238357 0.00668001  -0.0819983 -0.305645 0.00562382  -0.106958 -0.377757 0.00464249  -0.134938 -0.454068 0.00377893  -0.165711 -0.53404 0.00303888  -0.199064 -0.617217 0.00242186  -0.234784 -0.7032 0.00191307  -0.272645 -0.791627 0.0014863  -0.312458 -0.882179 0.00111961  -0.354001 -0.974569 0.000822067  -0.39709 -1.06854 0.000561237  -0.44153 -1.16386 0.000342846  -0.487134 -1.26032 0.000163555  -0.533736 -1.35774 5.24521e-06  -0.581161 -1.45593 -0.000116348  -0.629266 -1.55475 -0.000204563  -0.677908 -1.65406 -0.000285149  -0.726943 -1.75374 -0.000336647  -0.776265 -1.85369 -0.00036335  -0.825767 -1.95377 -0.000373363  -0.875357 -2.05392 -0.000370979  -0.92496 -2.15405 -0.000346184  -0.974505 -2.2541 -0.000305653  -1.02394 -2.354 -0.00025177  -1.07324 -2.45372 -0.000190735  -1.12236 -2.55321 -0.00012207  -1.17127 -2.65241 -6.24657e-05  0 0 0  0.00266585 -0.011745 -0.000139713  0.00628915 -0.0401106 0.000156879  0.00787485 -0.080516 0.000495911  0.00587398 -0.130256 0.000565529  -0.000307441 -0.187787 0.00036478  -0.0108193 -0.252006 5.24521e-06  -0.0256008 -0.321983 -0.00038147  -0.0444499 -0.396908 -0.000738144  -0.0670906 -0.476067 -0.00103378  -0.0932246 -0.558863 -0.00125074  -0.122552 -0.644781 -0.00140572  -0.154782 -0.733361 -0.00150394  -0.189635 -0.824227 -0.00155592  -0.226848 -0.917032 -0.00156832  -0.266161 -1.01149 -0.00155926  -0.307325 -1.10731 -0.00152779  -0.350121 -1.20431 -0.0014739  -0.394319 -1.30225 -0.00141573  -0.439729 -1.40095 -0.00133705  -0.486153 -1.50027 -0.00125694  -0.533409 -1.60006 -0.00117016  -0.581345 -1.70018 -0.00106859  -0.629798 -1.80053 -0.000972748  -0.678658 -1.90101 -0.000868797  -0.727791 -2.00154 -0.000763893  -0.77708 -2.10201 -0.00065136  -0.826453 -2.20239 -0.000546932  -0.875827 -2.30262 -0.000433445  -0.925132 -2.40263 -0.000331402  -0.974336 -2.5024 -0.000220299  -1.02338 -2.60191 -0.000123024  -1.0722 -2.70109 -1.23978e-05  0 0 0  0.00768794 -0.0166609 -0.00427055  0.0197453 -0.0484449 -0.00642109  0.0307409 -0.0910797 -0.00697565  0.0378119 -0.142654 -0.00691605  0.0399741 -0.202082 -0.00672293  0.0370371 -0.268416 -0.00651884  0.0290577 -0.340725 -0.00631237  0.0162868 -0.418137 -0.00608301  -0.000982761 -0.499874 -0.00583506  -0.0223882 -0.585257 -0.00555468  -0.0475858 -0.673692 -0.00525808  -0.0762086 -0.764697 -0.00494289  -0.107926 -0.857841 -0.00461674  -0.142415 -0.952763 -0.004282  -0.179377 -1.04915 -0.00395155  -0.218504 -1.14675 -0.00362444  -0.259545 -1.24532 -0.00330591  -0.302246 -1.34465 -0.00300026  -0.346368 -1.44458 -0.00269604  -0.391698 -1.54496 -0.00240564  -0.438038 -1.64565 -0.0021348  -0.485202 -1.74653 -0.00186825  -0.533021 -1.8475 -0.00161839  -0.581352 -1.94849 -0.00138426  -0.630055 -2.0494 -0.00115252  -0.679009 -2.15019 -0.000944614  -0.728118 -2.25079 -0.000754833  -0.777277 -2.35115 -0.000576973  -0.826424 -2.45127 -0.000407219  -0.875512 -2.55108 -0.000253201  -0.924475 -2.6506 -0.00011158  -0.973246 -2.74981 3.67165e-05  0 0 0  0.0135886 -0.0245799 -0.00801039  0.0348048 -0.0607507 -0.012413  0.0550573 -0.105419 -0.0138969  0.0706565 -0.158452 -0.0139847  0.0806915 -0.219483 -0.0135312  0.0849546 -0.287691 -0.0128684  0.0835322 -0.362125 -0.012135  0.0766623 -0.441833 -0.0113711  0.0646707 -0.525954 -0.0106049  0.0479263 -0.613731 -0.00984526  0.0268494 -0.704522 -0.00910282  0.00184 -0.797775 -0.00837469  -0.0267177 -0.893045 -0.00766945  -0.0584468 -0.989941 -0.006989  -0.0930074 -1.08814 -0.0063448  -0.130062 -1.18736 -0.00572729  -0.169302 -1.28738 -0.00513935  -0.210455 -1.388 -0.00458002  -0.253255 -1.48904 -0.0040555  -0.297446 -1.59038 -0.00356197  -0.342821 -1.69187 -0.0030942  -0.389179 -1.79343 -0.00265789  -0.436338 -1.89495 -0.00225401  -0.484113 -1.99637 -0.00188303  -0.532367 -2.0976 -0.00154114  -0.58097 -2.19863 -0.00123262  -0.629794 -2.29939 -0.000951767  -0.678741 -2.39986 -0.000703812  -0.727726 -2.50001 -0.000482559  -0.776686 -2.59985 -0.000290871  -0.825577 -2.69936 -0.000114441  -0.874339 -2.7986 5.62668e-05  0 0 0  0.021851 -0.0377042 -0.0112395  0.0535949 -0.0775771 -0.0177574  0.082395 -0.123231 -0.0202503  0.105832 -0.177329 -0.0206137  0.12322 -0.23982 -0.0200028  0.134319 -0.309847 -0.0189795  0.139158 -0.386354 -0.0177751  0.137951 -0.46828 -0.0165315  0.131028 -0.554691 -0.0152888  0.118811 -0.644737 -0.0140691  0.101741 -0.737733 -0.0128951  0.0802547 -0.833098 -0.0117693  0.054792 -0.930331 -0.0106931  0.0257661 -1.02904 -0.00967169  -0.006423 -1.12889 -0.00870895  -0.0414113 -1.22959 -0.00780439  -0.0788679 -1.33092 -0.00694895  -0.118473 -1.43269 -0.00614738  -0.159948 -1.53473 -0.0053916  -0.203011 -1.63689 -0.00469923  -0.24743 -1.73908 -0.00404453  -0.292975 -1.84118 -0.00343943  -0.339457 -1.94315 -0.00288534  -0.386693 -2.04489 -0.00238466  -0.434506 -2.14635 -0.00192595  -0.482764 -2.24752 -0.00150871  -0.531322 -2.34835 -0.00114059  -0.580071 -2.44884 -0.000824451  -0.628927 -2.54897 -0.000555038  -0.677782 -2.64876 -0.000330448  -0.726608 -2.74823 -0.000131607  -0.775398 -2.84746 6.00815e-05  0 0 0  0.0389992 -0.0595165 -0.0143471  0.0776211 -0.0980637 -0.0228333  0.113472 -0.143769 -0.0261793  0.144164 -0.198872 -0.0267477  0.168564 -0.262948 -0.026011  0.186208 -0.334931 -0.0246801  0.197023 -0.413582 -0.0230994  0.201234 -0.49776 -0.0214286  0.199153 -0.586407 -0.019762  0.19124 -0.678645 -0.0181322  0.177978 -0.773742 -0.0165529  0.15986 -0.871074 -0.0150685  0.137354 -0.970126 -0.0136428  0.110926 -1.07049 -0.01229  0.0810021 -1.17182 -0.0110378  0.0479984 -1.27385 -0.00984716  0.0122643 -1.37634 -0.00873137  -0.0258484 -1.47909 -0.00768805  -0.0660336 -1.58197 -0.00672626  -0.108003 -1.6848 -0.00582695  -0.151497 -1.78754 -0.00498819  -0.19627 -1.89006 -0.00421667  -0.242112 -1.99231 -0.00351238  -0.288815 -2.09424 -0.00288057  -0.336232 -2.19581 -0.00230265  -0.384179 -2.29699 -0.00178814  -0.432511 -2.39777 -0.00133848  -0.481123 -2.49815 -0.000960827  -0.529895 -2.59815 -0.000640392  -0.578716 -2.6978 -0.000383377  -0.62754 -2.79715 -0.00017643  -0.676363 -2.89639 2.86102e-05  0 0 0  -0.0375799 -0.0259419 0.0319171  -0.0768728 -0.0426678 0.0487318  -0.116234 -0.0690041 0.0525441  -0.155413 -0.105417 0.0504293  -0.194742 -0.150063 0.0459332  -0.23445 -0.201435 0.0408039  -0.274707 -0.258533 0.0358286  -0.315665 -0.320643 0.0313406  -0.357456 -0.387247 0.0273895  -0.400117 -0.457913 0.0239291  -0.443709 -0.532301 0.0209026  -0.488231 -0.610058 0.0182309  -0.533666 -0.690895 0.0158601  -0.579958 -0.774489 0.0137401  -0.627047 -0.860613 0.0118408  -0.674852 -0.948938 0.0101414  -0.72329 -1.03926 0.00860357  -0.772264 -1.13134 0.00722122  -0.821662 -1.22494 0.00598049  -0.87143 -1.31987 0.00487566  -0.921416 -1.41595 0.00388241  -0.971581 -1.513 0.00302601  -1.02182 -1.61083 0.0022769  -1.07206 -1.70932 0.00162363  -1.12226 -1.80831 0.00107527  -1.17234 -1.90769 0.000648022  -1.22226 -2.00731 0.000308037  -1.272 -2.10707 6.91414e-05  -1.32153 -2.20688 -8.29697e-05  -1.37086 -2.30661 -0.000143051  -1.42004 -2.40622 -0.000125408  -1.46912 -2.50563 -0.000101566  0 0 0  -0.01758 -0.0102598 0.022645  -0.0456405 -0.0322126 0.0350051  -0.073729 -0.063883 0.0380201  -0.102872 -0.105296 0.0367098  -0.133923 -0.154746 0.033556  -0.166926 -0.210704 0.0298405  -0.201719 -0.27211 0.0261741  -0.238161 -0.338251 0.0228195  -0.276141 -0.408619 0.0198565  -0.315597 -0.4828 0.0172639  -0.356464 -0.560424 0.0149927  -0.398672 -0.641165 0.0129967  -0.442138 -0.72471 0.0112333  -0.486778 -0.810771 0.00967121  -0.532466 -0.899076 0.0082655  -0.579114 -0.989369 0.00701714  -0.626589 -1.08141 0.00589752  -0.674776 -1.17498 0.00489616  -0.723557 -1.26987 0.00399494  -0.772806 -1.3659 0.00320482  -0.822425 -1.46289 0.0025034  -0.872309 -1.56066 0.00189972  -0.922355 -1.6591 0.00136852  -0.97249 -1.75803 0.000921249  -1.02263 -1.85735 0.000555992  -1.0727 -1.95693 0.000265598  -1.12266 -2.05666 5.10216e-05  -1.17245 -2.15645 -8.7738e-05  -1.22206 -2.25621 -0.000172615  -1.27148 -2.35588 -0.000171661  -1.3207 -2.45538 -0.000163555  -1.36977 -2.55471 -0.000139236  0 0 0  -0.00860605 -0.00541285 0.0145421  -0.0235089 -0.0282889 0.0226784  -0.0408019 -0.0632165 0.0248189  -0.0604035 -0.107944 0.024025  -0.0828834 -0.160806 0.0219564  -0.108379 -0.220315 0.019454  -0.136732 -0.285352 0.0169511  -0.167683 -0.355106 0.0146399  -0.201013 -0.428974 0.0125895  -0.236508 -0.506486 0.010798  -0.27401 -0.587245 0.00923538  -0.313338 -0.670907 0.00788355  -0.354353 -0.757142 0.00670242  -0.396901 -0.845654 0.00565481  -0.440821 -0.936176 0.0047431  -0.485967 -1.02845 0.00392532  -0.532177 -1.12225 0.00321484  -0.579307 -1.21737 0.00257778  -0.627212 -1.31361 0.00202084  -0.675742 -1.41078 0.00153255  -0.724779 -1.50875 0.00111151  -0.774206 -1.60734 0.000756264  -0.823896 -1.70643 0.000450611  -0.873757 -1.80589 0.000199795  -0.923696 -1.90561 1.00136e-05  -0.973638 -2.00548 -0.000134945  -1.0235 -2.10542 -0.000228405  -1.07326 -2.20533 -0.000268459  -1.12285 -2.30517 -0.000264168  -1.17225 -2.40485 -0.000231743  -1.22145 -2.50433 -0.000185013  -1.27045 -2.60359 -0.000144482  0 0 0  -0.00220253 -0.00584388 0.00677109  -0.00674808 -0.0296841 0.0109248  -0.0138306 -0.0666452 0.0122404  -0.0241003 -0.113811 0.01192  -0.0380474 -0.169293 0.0108123  -0.0558386 -0.231634 0.00938892  -0.0773588 -0.29969 0.00794458  -0.10236 -0.372562 0.00660038  -0.13053 -0.449574 0.00540876  -0.161581 -0.530153 0.00439024  -0.195261 -0.613865 0.00352716  -0.231317 -0.700307 0.00279427  -0.269513 -0.789128 0.00217533  -0.309652 -0.880017 0.00165033  -0.3515 -0.972706 0.0012064  -0.39488 -1.06693 0.000829697  -0.439587 -1.16248 0.000508785  -0.48545 -1.25914 0.000236034  -0.532279 -1.35672 1.43051e-05  -0.579931 -1.45507 -0.000162125  -0.628233 -1.55404 -0.000305176  -0.677051 -1.65346 -0.000418663  -0.726251 -1.75325 -0.000495911  -0.775723 -1.85327 -0.000535011  -0.825352 -1.95344 -0.000554085  -0.875058 -2.05365 -0.000549793  -0.924754 -2.15383 -0.000516415  -0.974375 -2.25392 -0.000454426  -1.02389 -2.35386 -0.000371456  -1.07322 -2.45361 -0.000283241  -1.12236 -2.55311 -0.000189781  -1.17126 -2.6523 -0.000105858  0 0 0  0.00333062 -0.00895962 -0.000756741  0.00783151 -0.0350164 -0.000272751  0.0101882 -0.0739404 0.000223637  0.0089308 -0.123094 0.000282288  0.00332654 -0.180693 0  -0.00683671 -0.245361 -0.000451565  -0.0214887 -0.315961 -0.000943661  -0.0403761 -0.391551 -0.0013876  -0.0631795 -0.471354 -0.00174809  -0.0895412 -0.554737 -0.00202036  -0.119142 -0.641171 -0.002213  -0.151657 -0.730207 -0.00232792  -0.186808 -0.821475 -0.00238657  -0.224309 -0.914628 -0.00239277  -0.263891 -1.00938 -0.00236416  -0.305318 -1.1055 -0.00230789  -0.348354 -1.20272 -0.0022254  -0.392792 -1.30088 -0.00212526  -0.438417 -1.39978 -0.00201416  -0.485037 -1.49926 -0.00188351  -0.532482 -1.59919 -0.00174856  -0.580586 -1.69945 -0.00160265  -0.629202 -1.79992 -0.00145769  -0.678185 -1.90049 -0.00129271  -0.727434 -2.0011 -0.00113964  -0.776832 -2.10166 -0.000979424  -0.82629 -2.2021 -0.000819683  -0.87574 -2.30238 -0.000658989  -0.925106 -2.40244 -0.000490665  -0.974346 -2.50225 -0.000329018  -1.02341 -2.60176 -0.000170708  -1.07222 -2.70094 -2.38419e-05  0 0 0  0.00886808 -0.0141899 -0.00794935  0.0222027 -0.0437287 -0.0107737  0.033631 -0.0848727 -0.0111079  0.0409935 -0.135779 -0.0108471  0.0434071 -0.195171 -0.0104804  0.0406255 -0.261831 -0.0101161  0.0327035 -0.334665 -0.00974178  0.019871 -0.41267 -0.00934124  0.00246286 -0.494995 -0.00891733  -0.0191355 -0.580929 -0.00846577  -0.044558 -0.669868 -0.00798035  -0.0734328 -0.761329 -0.00748539  -0.105402 -0.854873 -0.00697708  -0.140139 -0.950152 -0.00646544  -0.177335 -1.04686 -0.00595951  -0.216706 -1.14473 -0.00546312  -0.257969 -1.24355 -0.00497723  -0.300883 -1.34311 -0.0045085  -0.345204 -1.44325 -0.00405312  -0.390716 -1.5438 -0.0036211  -0.437231 -1.64465 -0.00320339  -0.484547 -1.74567 -0.00281334  -0.532511 -1.84677 -0.00242138  -0.580969 -1.94787 -0.00206566  -0.629769 -2.04888 -0.00173521  -0.678823 -2.14976 -0.0014205  -0.728002 -2.25043 -0.00112772  -0.77723 -2.35087 -0.000858784  -0.826433 -2.45103 -0.000608444  -0.875556 -2.55088 -0.000377655  -0.924539 -2.65042 -0.000163078  -0.973306 -2.74962 5.72205e-05  0 0 0  0.0152366 -0.0219978 -0.0145102  0.0380104 -0.0559675 -0.0203023  0.0583733 -0.0992677 -0.0216312  0.0739231 -0.151722 -0.0214171  0.0839519 -0.212703 -0.0206137  0.0882277 -0.281201 -0.0195642  0.0867922 -0.356088 -0.0184183  0.0798395 -0.43633 -0.0172429  0.0677241 -0.520999 -0.0160627  0.0508174 -0.60929 -0.0148931  0.0295516 -0.700568 -0.013752  0.00432825 -0.794252 -0.0126448  -0.0244532 -0.889925 -0.0115714  -0.0564111 -0.987174 -0.0105348  -0.0911856 -1.08569 -0.00955009  -0.128446 -1.1852 -0.00861549  -0.167897 -1.28548 -0.00773001  -0.209242 -1.38632 -0.0068841  -0.252218 -1.48758 -0.00609112  -0.296589 -1.5891 -0.00534773  -0.342122 -1.69077 -0.00465393  -0.388625 -1.79247 -0.00399685  -0.435905 -1.89413 -0.00339985  -0.4838 -1.99567 -0.00283051  -0.532153 -2.09702 -0.0023222  -0.58084 -2.19814 -0.00184917  -0.629729 -2.29899 -0.0014286  -0.678738 -2.39954 -0.0010581  -0.727765 -2.49975 -0.000730991  -0.776763 -2.59961 -0.000431538  -0.82566 -2.69914 -0.000162125  -0.874413 -2.79838 9.77516e-05  0 0 0  0.0238425 -0.0342923 -0.0199947  0.0572019 -0.0721314 -0.028748  0.0859416 -0.11683 -0.0313654  0.109147 -0.170612 -0.0314326  0.126383 -0.233168 -0.0303416  0.137398 -0.303491 -0.0287256  0.142167 -0.380431 -0.0268903  0.140873 -0.46286 -0.0249853  0.133839 -0.549769 -0.023087  0.121477 -0.640309 -0.0212317  0.104228 -0.733773 -0.0194502  0.0825539 -0.829558 -0.0177398  0.0568891 -0.927177 -0.0161047  0.0276569 -1.02623 -0.0145674  -0.00472522 -1.12639 -0.0131078  -0.0399202 -1.22738 -0.0117378  -0.0775666 -1.32897 -0.0104451  -0.117359 -1.43096 -0.00922823  -0.158994 -1.53322 -0.00810623  -0.202224 -1.63557 -0.00705099  -0.246792 -1.73793 -0.00607347  -0.292485 -1.84019 -0.00516891  -0.339088 -1.94229 -0.00433636  -0.386425 -2.04416 -0.00356817  -0.434335 -2.14575 -0.00287676  -0.482679 -2.24701 -0.00225163  -0.5313 -2.34794 -0.00170755  -0.580104 -2.44849 -0.00123072  -0.628987 -2.54869 -0.000829697  -0.677869 -2.64851 -0.000490189  -0.726718 -2.74799 -0.000189781  -0.775491 -2.84723 0.000100136  0 0 0  0.040435 -0.0542256 -0.0253134  0.081079 -0.0914469 -0.0369902  0.117081 -0.136897 -0.040709  0.147597 -0.192068 -0.0409503  0.171834 -0.256423 -0.0395679  0.189369 -0.328796 -0.0374327  0.200104 -0.407917 -0.0349722  0.20421 -0.492595 -0.0324059  0.202009 -0.581739 -0.02985  0.193939 -0.674451 -0.0273576  0.180503 -0.769997 -0.0249572  0.16219 -0.867732 -0.022676  0.139484 -0.967154 -0.0205202  0.112858 -1.06784 -0.0184908  0.0827352 -1.16948 -0.0165706  0.0495181 -1.27178 -0.01478  0.013597 -1.3745 -0.0131006  -0.0247021 -1.47748 -0.0115318  -0.0650673 -1.58055 -0.0100746  -0.107186 -1.68359 -0.00871992  -0.15083 -1.78648 -0.00746489  -0.195747 -1.88915 -0.00630665  -0.241709 -1.99154 -0.00524473  -0.288551 -2.09359 -0.004282  -0.336062 -2.19527 -0.00341558  -0.384088 -2.29654 -0.00264168  -0.432493 -2.39741 -0.00196695  -0.481156 -2.49785 -0.00140429  -0.529968 -2.59789 -0.00092268  -0.578827 -2.69756 -0.00053978  -0.62765 -2.79692 -0.000221252  -0.676466 -2.89614 6.34193e-05  0 0 0  -0.0507642 -0.00791754 0.0491543  -0.0799632 -0.0209 0.0661306  -0.111283 -0.0502318 0.0683837  -0.146613 -0.0905018 0.0645275  -0.184584 -0.138473 0.0585136  -0.224226 -0.192415 0.0520825  -0.265017 -0.251385 0.0459709  -0.306748 -0.314868 0.0404415  -0.349347 -0.382488 0.0355053  -0.392822 -0.453973 0.0311704  -0.437159 -0.528984 0.0273175  -0.48237 -0.607271 0.0238891  -0.528446 -0.688564 0.0208244  -0.575317 -0.772544 0.0180745  -0.622941 -0.858985 0.0155964  -0.671245 -0.947598 0.0133491  -0.720143 -1.03817 0.0113182  -0.769532 -1.13045 0.0095067  -0.819307 -1.22423 0.00787687  -0.869435 -1.31932 0.00640869  -0.919747 -1.41553 0.00511646  -0.970199 -1.51268 0.00397253  -1.0207 -1.61063 0.0029707  -1.07119 -1.7092 0.00210142  -1.12161 -1.80824 0.00139046  -1.17187 -1.90765 0.000798225  -1.22196 -2.00729 0.00035429  -1.27182 -2.10708 1.85966e-05  -1.32145 -2.20688 -0.000183105  -1.37085 -2.30662 -0.000267982  -1.42003 -2.4062 -0.000220299  -1.46913 -2.50558 -0.000180721  0 0 0  -0.0292686 0.000845775 0.0350232  -0.0492209 -0.0167764 0.0461955  -0.0699682 -0.0487146 0.0483508  -0.0951616 -0.0921761 0.0462699  -0.124557 -0.14393 0.0423903  -0.157221 -0.201922 0.0379434  -0.19237 -0.26496 0.0335546  -0.229452 -0.332369 0.0294857  -0.268184 -0.403738 0.0258188  -0.308403 -0.4787 0.0225635  -0.34998 -0.556972 0.0196762  -0.392862 -0.638255 0.017118  -0.436945 -0.722257 0.0148301  -0.482155 -0.808711 0.0127888  -0.528367 -0.89735 0.0109539  -0.575504 -0.987936 0.00930548  -0.623427 -1.08023 0.00783587  -0.672015 -1.17402 0.00650215  -0.721179 -1.2691 0.00532579  -0.770787 -1.36527 0.00427198  -0.820725 -1.4624 0.00334358  -0.870901 -1.5603 0.00252628  -0.921208 -1.65882 0.00183392  -0.97158 -1.75784 0.00123024  -1.02193 -1.85722 0.000746727  -1.07218 -1.95683 0.000364304  -1.12229 -2.0566 7.24792e-05  -1.17224 -2.15641 -0.000128269  -1.22195 -2.25616 -0.000231743  -1.27144 -2.35584 -0.000250816  -1.32068 -2.45534 -0.000227451  -1.36976 -2.55467 -0.000219822  0 0 0  -0.0148804 0.00379598 0.0221319  -0.0248411 -0.0155235 0.0293021  -0.0373368 -0.0498645 0.0308619  -0.0539601 -0.0956016 0.0297222  -0.0749705 -0.150065 0.0273433  -0.100013 -0.211211 0.0244732  -0.128505 -0.2777 0.0215487  -0.159906 -0.348666 0.0187922  -0.193819 -0.423527 0.0162902  -0.229942 -0.501865 0.014061  -0.268047 -0.583303 0.0120959  -0.307971 -0.667541 0.0103621  -0.349536 -0.754266 0.00883532  -0.392603 -0.843202 0.00748205  -0.436993 -0.934083 0.00627756  -0.482587 -1.02668 0.00522089  -0.529221 -1.12075 0.00427961  -0.576737 -1.21611 0.00344038  -0.624986 -1.31256 0.00269985  -0.673854 -1.40993 0.00205517  -0.7232 -1.50804 0.00149965  -0.772888 -1.60677 0.00102472  -0.822832 -1.70597 0.000621796  -0.872918 -1.80554 0.000291824  -0.923058 -1.90534 3.29018e-05  -0.973166 -2.00528 -0.00015831  -1.02319 -2.10526 -0.00028801  -1.07307 -2.20521 -0.0003438  -1.12275 -2.30506 -0.00034523  -1.17222 -2.40477 -0.000302315  -1.22146 -2.50427 -0.000247002  -1.27044 -2.60353 -0.000238895  0 0 0  -0.00428838 0.00224125 0.00961733  -0.00603104 -0.0182092 0.0133667  -0.0102244 -0.0542598 0.0144529  -0.0184955 -0.101916 0.0140538  -0.0313287 -0.158546 0.012877  -0.048703 -0.222216 0.0113535  -0.0702437 -0.291553 0.00973606  -0.0955511 -0.365569 0.00819731  -0.124158 -0.443556 0.00680017  -0.155711 -0.524982 0.00556946  -0.189892 -0.609394 0.00449991  -0.226453 -0.69644 0.00358629  -0.265129 -0.78579 0.00280809  -0.305723 -0.877141 0.00213766  -0.348003 -0.970219 0.00155306  -0.3918 -1.0648 0.0010829  -0.436886 -1.16064 0.000660419  -0.483106 -1.25758 0.000315666  -0.530264 -1.3554 2.6226e-05  -0.57821 -1.45395 -0.000200748  -0.6268 -1.55309 -0.000393391  -0.675868 -1.65269 -0.00053978  -0.725301 -1.7526 -0.000646591  -0.774973 -1.85275 -0.000714302  -0.824795 -1.953 -0.000732422  -0.874649 -2.05331 -0.000724316  -0.924489 -2.15356 -0.000678539  -0.97423 -2.2537 -0.000601768  -1.02382 -2.35369 -0.000501633  -1.07322 -2.45347 -0.000378132  -1.1224 -2.553 -0.000259876  -1.17131 -2.65223 -0.000193596  0 0 0  0.00455604 -0.00176752 -0.00238895  0.0102256 -0.0244679 -0.0017767  0.0140313 -0.0622349 -0.00117254  0.0139571 -0.111544 -0.000995159  0.00911319 -0.169968 -0.00115728  -0.000726044 -0.235719 -0.00151682  -0.0153626 -0.307448 -0.00194931  -0.0344655 -0.384103 -0.00235891  -0.057579 -0.464855 -0.00270462  -0.0843365 -0.549068 -0.00296831  -0.114361 -0.636216 -0.00315046  -0.147308 -0.725888 -0.00325251  -0.182875 -0.8177 -0.00328445  -0.220777 -0.911338 -0.00326872  -0.260749 -1.00652 -0.00321102  -0.302546 -1.103 -0.00310993  -0.34592 -1.20055 -0.00299454  -0.390687 -1.299 -0.00284815  -0.436619 -1.39816 -0.00268269  -0.483517 -1.49788 -0.00251293  -0.531219 -1.59801 -0.00233221  -0.57956 -1.69845 -0.00214005  -0.628382 -1.79907 -0.00193882  -0.677563 -1.8998 -0.00173044  -0.726979 -2.00053 -0.00152302  -0.776518 -2.1012 -0.00130606  -0.826097 -2.20173 -0.001091  -0.875637 -2.30207 -0.000870705  -0.925085 -2.40219 -0.00065279  -0.974387 -2.50206 -0.000438213  -1.0235 -2.60161 -0.000235558  -1.0723 -2.70082 -6.91414e-05  0 0 0  0.0127448 -0.00777858 -0.0138516  0.0259474 -0.0339823 -0.0159969  0.0377088 -0.0737727 -0.0159664  0.0456033 -0.124581 -0.0154295  0.0484487 -0.184535 -0.0148091  0.0458769 -0.252088 -0.0141768  0.0379615 -0.325907 -0.0135441  0.0249993 -0.404872 -0.0128984  0.00734484 -0.4881 -0.0122347  -0.0145687 -0.574853 -0.0115523  -0.0403332 -0.664511 -0.0108447  -0.0695674 -0.756599 -0.0101385  -0.101907 -0.85072 -0.00941658  -0.137001 -0.946498 -0.008708  -0.174546 -1.04365 -0.00800323  -0.214242 -1.14192 -0.00733709  -0.255825 -1.24108 -0.00666952  -0.299034 -1.34096 -0.00603151  -0.343631 -1.44137 -0.00542736  -0.389403 -1.54217 -0.00483704  -0.436149 -1.64324 -0.00428391  -0.483687 -1.74447 -0.00374508  -0.531835 -1.84576 -0.00324535  -0.580467 -1.94701 -0.00276184  -0.629425 -2.04818 -0.00230932  -0.6786 -2.14917 -0.00188589  -0.727886 -2.24996 -0.00150537  -0.777211 -2.35048 -0.00114822  -0.826478 -2.45071 -0.000812054  -0.875648 -2.55064 -0.000506401  -0.924672 -2.65021 -0.000210762  -0.973423 -2.74942 4.81606e-05  0 0 0  0.0211669 -0.0162838 -0.0244846  0.0428413 -0.0468889 -0.0290513  0.0626835 -0.088704 -0.0298715  0.0782391 -0.14087 -0.0293112  0.0884106 -0.202222 -0.0281096  0.0927791 -0.271443 -0.0266218  0.0913306 -0.3472 -0.0250192  0.0842631 -0.42833 -0.0233812  0.0719558 -0.51383 -0.0217314  0.0547973 -0.602916 -0.0201206  0.033241 -0.694892 -0.0185413  0.0077126 -0.789226 -0.0170178  -0.0213753 -0.885456 -0.015554  -0.0536425 -0.98321 -0.0141444  -0.0887263 -1.08218 -0.0128164  -0.126294 -1.18211 -0.0115519  -0.166029 -1.28274 -0.0103493  -0.207642 -1.38392 -0.00921869  -0.250872 -1.48548 -0.0081563  -0.295476 -1.58726 -0.00714874  -0.341233 -1.68917 -0.00620842  -0.387932 -1.7911 -0.00533485  -0.435393 -1.89296 -0.00453043  -0.483443 -1.99467 -0.00378799  -0.531933 -2.09619 -0.00309706  -0.580719 -2.19746 -0.00248384  -0.629712 -2.29843 -0.00191259  -0.678774 -2.39908 -0.00141716  -0.727864 -2.49938 -0.000963688  -0.776891 -2.59931 -0.000574112  -0.825827 -2.69888 -0.0002141  -0.874586 -2.7981 0.0001297  0 0 0  0.0313547 -0.0286025 -0.0333872  0.0628479 -0.0631744 -0.040844  0.0904582 -0.106535 -0.0430427  0.113262 -0.160032 -0.042697  0.130387 -0.222908 -0.0410681  0.141385 -0.293862 -0.0388145  0.146107 -0.37157 -0.0363007  0.144707 -0.454804 -0.0336976  0.13752 -0.542501 -0.0311027  0.124953 -0.633783 -0.0285721  0.107462 -0.72793 -0.0261412  0.0855167 -0.824332 -0.0238199  0.059586 -0.922519 -0.0216112  0.0300913 -1.02207 -0.0195336  -0.00258029 -1.12269 -0.0175624  -0.038038 -1.22409 -0.0157104  -0.0759532 -1.32606 -0.0139747  -0.11599 -1.42839 -0.0123491  -0.157861 -1.53093 -0.0108361  -0.201302 -1.63357 -0.00941277  -0.246066 -1.73618 -0.00811005  -0.291941 -1.83869 -0.00689936  -0.338713 -1.941 -0.00579071  -0.386193 -2.04306 -0.0047617  -0.434228 -2.14482 -0.00383949  -0.482667 -2.24625 -0.00301218  -0.531358 -2.34731 -0.00228167  -0.580218 -2.44799 -0.00164557  -0.629146 -2.54828 -0.00110435  -0.678047 -2.64817 -0.000644207  -0.726888 -2.7477 -0.000236511  -0.775663 -2.84694 0.000102043  0 0 0  0.0483836 -0.0461329 -0.0411143  0.0869766 -0.0816087 -0.0526834  0.121703 -0.126488 -0.0560532  0.151667 -0.181695 -0.0557361  0.175686 -0.246463 -0.0535989  0.193125 -0.319485 -0.0505638  0.203799 -0.399358 -0.0471663  0.207795 -0.484778 -0.043643  0.205451 -0.57467 -0.0401416  0.197212 -0.668097 -0.0367403  0.183549 -0.764288 -0.0334764  0.164985 -0.862599 -0.0303931  0.142014 -0.962558 -0.0274577  0.115134 -1.06375 -0.0247159  0.0847557 -1.16583 -0.0221448  0.0512829 -1.26853 -0.0197153  0.0151122 -1.37162 -0.0174661  -0.023417 -1.47492 -0.0153694  -0.0640008 -1.57828 -0.0134096  -0.106343 -1.6816 -0.0116024  -0.150182 -1.78474 -0.00991583  -0.195284 -1.88765 -0.00836372  -0.241393 -1.99025 -0.00693893  -0.288368 -2.0925 -0.00567055  -0.336017 -2.19436 -0.00449133  -0.384134 -2.29579 -0.00347233  -0.432613 -2.39681 -0.00256729  -0.481329 -2.49735 -0.00180864  -0.530173 -2.59751 -0.00115633  -0.579041 -2.69725 -0.000628948  -0.627842 -2.79663 -0.000256062  -0.676635 -2.89585 8.7738e-05  -0.0300241 -0.0111165 -0.0297318  -0.0396388 -0.0205879 -0.0421324  -0.019131 -0.0186266 -0.0177972  0 0 0  0 0 0  -0.0405624 -0.00364225 -0.0417521  -0.0256539 -0.0172865 -0.0272176  0 0 0  -0.0164208 0.00373095 -0.0234263  -0.0211609 -0.00550632 -0.0296853  -0.00718383 -0.00316802 -0.0124116  0 0 0  -0.018141 -0.0144856 -0.0228322  -0.0219532 -0.000761833 -0.0264447  -0.0293641 -0.0117713 -0.0354819  -0.0101122 -0.00804366 -0.0147524  0 0 0  -0.00829301 -0.000513732 -0.0163054  -0.0111702 -0.00495252 -0.0191076  -0.0656583 -0.0125532 -0.0604968  -0.0776279 -0.0335268 -0.0586369  -0.0570353 -0.0334693 -0.0425224  -0.0640685 -0.0185295 -0.055172  -0.0599639 -0.0365698 -0.041646  -0.0396596 -0.00609842 -0.0423956  -0.0471301 -0.0251945 -0.0415399  -0.0315154 -0.0201642 -0.0304019  -0.059 -0.0253315 -0.0527253  -0.0527371 -0.00898277 -0.0504129  -0.0614506 -0.028459 -0.0495207  -0.0428493 -0.0258825 -0.0362678  -0.0344497 -0.0139407 -0.0371757  -0.04605 -0.0185646 -0.0443926  -0.0950214 -0.0338894 -0.068574  -0.114575 -0.0603694 -0.0611823  -0.0965977 -0.0544632 -0.0516868  -0.0891936 -0.0491518 -0.0577021  -0.0935361 -0.0657829 -0.0450561  -0.059071 -0.030997 -0.0481687  -0.0723881 -0.056775 -0.0437741  -0.0596417 -0.046681 -0.0372529  -0.0960824 -0.0454798 -0.0610166  -0.0760042 -0.0320911 -0.0575106  -0.0920227 -0.0579965 -0.0520723  -0.0767781 -0.0498159 -0.0442245  -0.0595947 -0.0394989 -0.0434115  -0.0766036 -0.0417199 -0.0517099  -0.128506 -0.0691656 -0.0669632  -0.152198 -0.0981099 -0.0579543  -0.135816 -0.0860414 -0.051955  -0.119109 -0.0912458 -0.0550225  -0.12763 -0.105003 -0.0434012  -0.0819787 -0.0691518 -0.0477085  -0.0998006 -0.0990046 -0.0418661  -0.0880685 -0.0834002 -0.0377071  -0.133268 -0.0780961 -0.0600326  -0.10358 -0.0689868 -0.056797  -0.124337 -0.098338 -0.0496469  -0.110442 -0.0842378 -0.0446272  -0.0857412 -0.0767174 -0.0431728  -0.107901 -0.0770039 -0.0512619  -0.165304 -0.113572 -0.0616961  -0.190791 -0.144131 -0.0525465  -0.175029 -0.126767 -0.0483468  -0.152805 -0.141317 -0.0502625  -0.162899 -0.152276 -0.0396211  -0.109367 -0.117096 -0.0444806  -0.13001 -0.149459 -0.0382109  -0.118131 -0.12905 -0.0352681  -0.171376 -0.120225 -0.0554049  -0.135543 -0.115392 -0.052788  -0.158792 -0.146827 -0.0452118  -0.14509 -0.127705 -0.0416579  -0.114558 -0.123328 -0.0401738  -0.141306 -0.12169 -0.0475724  -0.204202 -0.164691 -0.0553305  -0.230291 -0.196689 -0.0466583  -0.214522 -0.174923 -0.04339  -0.189133 -0.197392 -0.0449247  -0.199407 -0.206091 -0.0352309  -0.140518 -0.172168 -0.0402057  -0.162748 -0.206338 -0.0340366  -0.150167 -0.181918 -0.0317237  -0.210428 -0.169677 -0.0496113  -0.170677 -0.168647 -0.0476084  -0.195077 -0.201688 -0.0402384  -0.180984 -0.178406 -0.0374501  -0.146085 -0.177174 -0.0361519  -0.176722 -0.173533 -0.0427425  -0.244465 -0.221234 -0.0489964  -0.27064 -0.254709 -0.041045  -0.254475 -0.229263 -0.0382843  -0.227306 -0.258447 -0.0397222  -0.237098 -0.265423 -0.0309362  -0.174507 -0.232785 -0.0357261  -0.197605 -0.268518 -0.0299542  -0.184083 -0.240703 -0.027986  -0.250358 -0.225064 -0.0438077  -0.208002 -0.227307 -0.0422831  -0.232867 -0.261855 -0.0354271  -0.218085 -0.235083 -0.0330503  -0.179928 -0.236811 -0.0319672  -0.213794 -0.23115 -0.0377934  -0.285744 -0.282517 -0.0431523  -0.311845 -0.317521 -0.0359824  -0.295074 -0.288944 -0.0335271  -0.266916 -0.323922 -0.0349419  -0.27595 -0.32959 -0.0270274  -0.210663 -0.298083 -0.0314784  -0.234271 -0.335277 -0.0262017  -0.219714 -0.304553 -0.0244567  -0.291134 -0.285547 -0.038439  -0.246927 -0.290627 -0.037272  -0.271974 -0.326671 -0.0310411  -0.256356 -0.296902 -0.0289245  -0.21572 -0.301347 -0.0280349  -0.252258 -0.293707 -0.0331738  -0.327908 -0.348111 -0.0379281  -0.353928 -0.384651 -0.0315151  -0.33643 -0.353355 -0.0293071  -0.307746 -0.393417 -0.0306594  -0.31596 -0.398093 -0.023577  -0.248597 -0.367519 -0.0276022  -0.27255 -0.406125 -0.0228715  -0.256928 -0.37287 -0.0212929  -0.332773 -0.350572 -0.033684  -0.287159 -0.35815 -0.0327423  -0.312297 -0.395676 -0.0271549  -0.295784 -0.363295 -0.0252447  -0.253213 -0.370207 -0.0244877  -0.291981 -0.360667 -0.0290384  -0.370947 -0.417706 -0.0332918  -0.396911 -0.455744 -0.0275934  -0.378644 -0.422039 -0.0255964  -0.349727 -0.466626 -0.0268698  -0.357131 -0.470524 -0.0205555  -0.288087 -0.44072 -0.0241516  -0.312328 -0.480696 -0.0199325  -0.295659 -0.445191 -0.0185122  -0.375302 -0.419724 -0.029494  -0.328572 -0.429551 -0.0287156  -0.353801 -0.468509 -0.0237355  -0.336376 -0.433815 -0.0220165  -0.292253 -0.442963 -0.0213594  -0.332899 -0.43163 -0.025394  -0.414852 -0.490986 -0.0292048  -0.440817 -0.530459 -0.0241473  -0.421771 -0.4946 -0.0223646  -0.392804 -0.543262 -0.023509  -0.399455 -0.546534 -0.0179162  -0.328996 -0.517382 -0.0210857  -0.353509 -0.558637 -0.0173445  -0.33583 -0.521133 -0.0160861  -0.418745 -0.49267 -0.0258198  -0.371107 -0.504508 -0.0251446  -0.396448 -0.544836 -0.0207262  -0.378122 -0.508077 -0.019191  -0.33274 -0.519259 -0.0185997  -0.374978 -0.506248 -0.0221884  -0.45962 -0.567683 -0.0255845  -0.485633 -0.608497 -0.0210838  -0.465831 -0.570726 -0.0195253  -0.436951 -0.623042 -0.0205207  -0.442897 -0.62579 -0.0155938  -0.371237 -0.597193 -0.0183649  -0.396016 -0.639641 -0.0150616  -0.377378 -0.600359 -0.0139604  -0.463108 -0.569082 -0.0225766  -0.414722 -0.582753 -0.0219717  -0.440197 -0.62435 -0.0180647  -0.421014 -0.585751 -0.0167177  -0.374597 -0.598769 -0.0161755  -0.418183 -0.584208 -0.0193551  -0.505275 -0.647506 -0.0223441  -0.531344 -0.689559 -0.0183692  -0.510814 -0.650061 -0.0170164  -0.482115 -0.705675 -0.0178454  -0.487417 -0.707983 -0.0135336  -0.414732 -0.679871 -0.0159504  -0.439767 -0.723413 -0.0130424  -0.420229 -0.682546 -0.0120914  -0.508378 -0.648668 -0.019696  -0.459383 -0.663992 -0.0191495  -0.485003 -0.706762 -0.0156963  -0.464999 -0.666512 -0.0145328  -0.417737 -0.681195 -0.0140269  -0.462467 -0.665207 -0.01685  -0.551743 -0.730178 -0.0194371  -0.577894 -0.773363 -0.0159287  -0.556685 -0.73232 -0.0147789  -0.528225 -0.790883 -0.0154569  -0.532939 -0.792803 -0.0116956  -0.459388 -0.765134 -0.0137892  -0.484658 -0.809661 -0.0112388  -0.464291 -0.767386 -0.0104363  -0.554513 -0.731134 -0.0171232  -0.505027 -0.747948 -0.0166214  -0.53079 -0.791782 -0.0135772  -0.510031 -0.750055 -0.0125866  -0.462071 -0.766241 -0.0121186  -0.507772 -0.748959 -0.0146091  -0.599011 -0.815419 -0.0168235  -0.625211 -0.859635 -0.0137444  -0.603389 -0.817207 -0.0127764  -0.575211 -0.8784 -0.0133026  -0.579386 -0.880004 -0.0100534  -0.505116 -0.852713 -0.0118551  -0.530592 -0.898131 -0.00962234  -0.509468 -0.854606 -0.00895452  -0.601461 -0.816205 -0.0148101  -0.551587 -0.834347 -0.0143464  -0.577474 -0.879136 -0.011678  -0.556028 -0.836102 -0.0108514  -0.507498 -0.853631 -0.0104089  -0.554024 -0.835178 -0.0126014  -0.646974 -0.902967 -0.0144744  -0.673246 -0.948106 -0.0117702  -0.650846 -0.904459 -0.0109761  -0.622972 -0.967995 -0.0113592  -0.626658 -0.969313 -0.00857592  -0.551801 -0.942359 -0.0101211  -0.577461 -0.988563 -0.00816822  -0.555655 -0.943937 -0.00762939  -0.649147 -0.90361 -0.0127299  -0.59897 -0.922927 -0.0123024  -0.624971 -0.968586 -0.00996828  -0.6029 -0.924389 -0.00929594  -0.553912 -0.943114 -0.00887489  -0.601123 -0.923613 -0.0108004  -0.695588 -0.992606 -0.0123401  -0.721886 -1.03856 -0.00998378  -0.698974 -0.993815 -0.00936007  -0.671425 -1.0594 -0.00961041  -0.674655 -1.06048 -0.00725031  -0.599339 -1.03382 -0.00855708  -0.625138 -1.08073 -0.00686622  -0.602728 -1.03513 -0.00644636  -0.697494 -0.993107 -0.0108593  -0.647095 -1.01346 -0.0104654  -0.673176 -1.05988 -0.00843358  -0.650548 -1.01466 -0.00789523  -0.601197 -1.03444 -0.00750399  -0.648988 -1.01401 -0.0091815  -0.744739 -1.08405 -0.0104189  -0.771043 -1.13074 -0.00836921  -0.74769 -1.08504 -0.00789642  -0.720468 -1.15242 -0.0080359  -0.723266 -1.15329 -0.00605416  -0.647612 -1.12689 -0.00716114  -0.673512 -1.1744 -0.00570178  -0.650574 -1.12796 -0.00538301  -0.746401 -1.08444 -0.00916433  -0.695853 -1.10571 -0.00880241  -0.721983 -1.15279 -0.00704312  -0.698864 -1.10667 -0.00663638  -0.64924 -1.12739 -0.00627303  -0.697506 -1.10614 -0.00771594  -0.794349 -1.17712 -0.00869775  -0.820621 -1.22444 -0.00693393  -0.796887 -1.1779 -0.00658464  -0.769985 -1.24684 -0.00662708  -0.772389 -1.24753 -0.00498772  -0.696515 -1.22135 -0.0059042  -0.722469 -1.26939 -0.00466228  -0.699068 -1.22222 -0.00443411  -0.795785 -1.17741 -0.00764227  -0.745151 -1.19945 -0.00730658  -0.771288 -1.24712 -0.00580692  -0.747748 -1.20023 -0.00550866  -0.697919 -1.22174 -0.00516558  -0.746578 -1.19979 -0.00640631  -0.844308 -1.27158 -0.00713778  -0.870533 -1.31946 -0.00564861  -0.846481 -1.27221 -0.00541091  -0.819876 -1.34247 -0.00536203  -0.821929 -1.343 -0.0040381  -0.745909 -1.31701 -0.00478411  -0.771878 -1.36549 -0.00373363  -0.748099 -1.3177 -0.00359178  -0.84554 -1.27179 -0.00628018  -0.794862 -1.29449 -0.00597787  -0.820978 -1.34267 -0.00469613  -0.79709 -1.29511 -0.00449824  -0.747118 -1.31731 -0.00418711  -0.796088 -1.29475 -0.00523639  -0.894524 -1.36726 -0.00576091  -0.920679 -1.4156 -0.0044992  -0.896373 -1.36773 -0.00436616  -0.870039 -1.43911 -0.00425172  -0.871767 -1.43952 -0.00319624  -0.795691 -1.41369 -0.00379229  -0.821647 -1.46255 -0.00292325  -0.797551 -1.41424 -0.00284529  -0.895574 -1.3674 -0.00506377  -0.844901 -1.39065 -0.00479722  -0.870965 -1.43926 -0.00372195  -0.846791 -1.39112 -0.0036006  -0.79672 -1.41391 -0.00331736  -0.845936 -1.39084 -0.00419736  -0.94494 -1.46396 -0.00452709  -0.97097 -1.51271 -0.00349426  -0.946461 -1.46432 -0.00343776  -0.920385 -1.53663 -0.00327587  -0.921815 -1.53692 -0.00246  -0.84576 -1.51121 -0.00292897  -0.871661 -1.56038 -0.00221038  -0.847312 -1.51164 -0.00218797  -0.945811 -1.46405 -0.00398684  -0.895169 -1.48776 -0.00374818  -0.921147 -1.53671 -0.00286365  -0.896745 -1.4881 -0.00281596  -0.846624 -1.51138 -0.00255799  -0.896034 -1.48788 -0.00327945  -0.995439 -1.56152 -0.00344968  -1.02133 -1.6106 -0.00262022  -0.996677 -1.56178 -0.00262594  -0.970821 -1.63484 -0.00241923  -0.971979 -1.63504 -0.00182199  -0.896019 -1.60944 -0.00216794  -0.921827 -1.65886 -0.00159883  -0.897294 -1.60976 -0.00162101  -0.996138 -1.56156 -0.00304222  -0.945569 -1.58563 -0.00282979  -0.971434 -1.63488 -0.0021193  -0.946858 -1.58588 -0.00212932  -0.896729 -1.60955 -0.00189471  -0.946278 -1.58571 -0.00247669  -1.04592 -1.65978 -0.0025394  -1.07167 -1.70912 -0.00187755  -1.04693 -1.65996 -0.00193286  -1.02127 -1.73361 -0.00170279  -1.02219 -1.73374 -0.00127578  -0.946364 -1.70822 -0.00152254  -0.972067 -1.75783 -0.00108075  -0.947389 -1.70846 -0.00113893  -1.0465 -1.65979 -0.00223327  -0.99602 -1.68414 -0.00205231  -1.02175 -1.73362 -0.00148726  -0.997056 -1.68431 -0.00153971  -0.946941 -1.70829 -0.001333  -0.996593 -1.68418 -0.00179052  -1.09637 -1.75861 -0.00174809  -1.12197 -1.80815 -0.00124121  -1.09715 -1.75872 -0.0013485  -1.07166 -1.8328 -0.00109363  -1.07237 -1.83288 -0.000822783  -0.99672 -1.80744 -0.00098896  -1.0223 -1.85718 -0.000653505  -0.997527 -1.8076 -0.000731945  -1.09683 -1.75858 -0.00155067  -1.04644 -1.78314 -0.00138879  -1.07203 -1.83278 -0.000953913  -1.04726 -1.78324 -0.00103855  -0.997187 -1.80746 -0.0008564  -1.04689 -1.78315 -0.00121164  -1.14672 -1.85785 -0.00109816  -1.17213 -1.90754 -0.000729561  -1.14729 -1.85792 -0.000852585  -1.12195 -1.9323 -0.000612259  -1.12247 -1.93234 -0.00045681  -1.04704 -1.90695 -0.000549316  -1.07246 -1.95678 -0.000313282  -1.04765 -1.90706 -0.000403881  -1.14707 -1.85781 -0.000976324  -1.09679 -1.8825 -0.000839472  -1.12221 -1.93227 -0.000533581  -1.09741 -1.88256 -0.000628948  -1.04739 -1.90696 -0.000472307  -1.09713 -1.88249 -0.000728846  -1.19691 -1.9574 -0.000569344  -1.22212 -2.00719 -0.000328541  -1.1973 -1.95742 -0.000463963  -1.17207 -2.03198 -0.000236988  -1.17242 -2.03201 -0.000183821  -1.09724 -2.00665 -0.000206709  -1.12249 -2.05653 -6.65188e-05  -1.09766 -2.00673 -0.000152826  -1.19714 -1.95734 -0.00051713  -1.14701 -1.98211 -0.000415087  -1.17224 -2.03195 -0.000210047  -1.14744 -1.98214 -0.000310421  -1.09749 -2.00664 -0.000176191  -1.14724 -1.98209 -0.00036025  -1.24688 -2.05713 -0.00019002  -1.27191 -2.10697 -4.74453e-05  -1.24713 -2.05713 -0.00017786  -1.22199 -2.13177 1.90735e-05  -1.22221 -2.13177 8.58307e-06  -1.14727 -2.10646 3.09944e-05  -1.17235 -2.15633 0.000100136  -1.14755 -2.1065 2.64645e-05  -1.24704 -2.05707 -0.000181437  -1.19704 -2.08185 -9.39369e-05  -1.22208 -2.13172 1.54972e-05  -1.19731 -2.08186 -7.9155e-05  -1.14743 -2.10643 2.86102e-05  -1.19718 -2.08183 -8.51154e-05  -1.29663 -2.15692 7.31945e-05  -1.32149 -2.20677 0.000116348  -1.29676 -2.15693 1.50204e-05  -1.27169 -2.23153 0.000168562  -1.27179 -2.23153 0.000115633  -1.1971 -2.20625 0.000173092  -1.22201 -2.25611 0.000188589  -1.19726 -2.20628 0.000130415  -1.29673 -2.15686 4.74453e-05  -1.24684 -2.18164 0.000106573  -1.27172 -2.2315 0.00014329  -1.24699 -2.18164 7.22408e-05  -1.1972 -2.20623 0.000151396  -1.24692 -2.18161 9.34601e-05  -1.34614 -2.25672 0.000212193  -1.37084 -2.30652 0.000188351  -1.3462 -2.25671 0.000113964  -1.32114 -2.3312 0.000220299  -1.32118 -2.33122 0.000160456  -1.2467 -2.30597 0.000244856  -1.27145 -2.35577 0.00021553  -1.24677 -2.30601 0.000176191  -1.34619 -2.25665 0.00015974  -1.29642 -2.28136 0.000205994  -1.32113 -2.33118 0.000192881  -1.29649 -2.28137 0.000145674  -1.24675 -2.30595 0.000210762  -1.29645 -2.28135 0.000177622  -1.39543 -2.35638 0.000232458  -1.42002 -2.40612 0.000158787  -1.39544 -2.35639 0.000131607  -1.37035 -2.43072 0.000202179  -1.37039 -2.43076 0.000143766  -1.29605 -2.40556 0.000239849  -1.32068 -2.45528 0.000188828  -1.29608 -2.4056 0.0001688  -1.39544 -2.35635 0.000179529  -1.34575 -2.38097 0.000219822  -1.37035 -2.43072 0.000171185  -1.34578 -2.381 0.000151873  -1.29608 -2.40554 0.000201941  -1.34576 -2.38097 0.000185013  -1.44455 -2.45586 0.000172377  -1.46912 -2.50554 0.00013566  -1.44457 -2.45591 0.000111341  -1.41945 -2.53009 0.000181675  -1.41948 -2.53013 0.000129223  -1.34518 -2.50498 0.000202179  -1.36976 -2.5546 0.000179768  -1.34522 -2.50501 0.000143766  -1.44457 -2.45585 0.000146389  -1.39488 -2.4804 0.00018549  -1.41945 -2.53009 0.000150204  -1.39492 -2.48045 0.000131369  -1.34523 -2.50495 0.000174522  -1.3949 -2.48042 0.000161648  0 0 0  -0.0215225 0.00316143 -0.0284569  -0.0126773 -0.00687352 -0.0185416  0 0 0  -0.00854307 0.00582561 -0.0149946  -0.0105297 -0.00154148 -0.0187764  -0.00348779 5.48363e-06 -0.00793028  0 0 0  -0.0120109 0.00538932 -0.0190675  -0.0153738 -0.00263849 -0.0240796  -0.00497888 -0.00090313 -0.0100968  0 0 0  -0.00413141 0.00209358 -0.0104346  -0.00587464 0.00142565 -0.013314  -0.0361799 -0.0156789 -0.037554  -0.0337119 -0.0294743 -0.0287468  -0.0197307 -0.00358428 -0.0268419  -0.0241566 -0.0226897 -0.0266218  -0.0156725 -0.0151046 -0.019599  -0.0288102 -0.00415389 -0.0343444  -0.0348075 -0.0233281 -0.0339215  -0.0227867 -0.0166472 -0.0248899  -0.0172013 -0.0102381 -0.0237074  -0.0250468 -0.011253 -0.0302784  -0.0528064 -0.0489085 -0.0393796  -0.0563372 -0.0629904 -0.0313182  -0.0306087 -0.0309907 -0.0306392  -0.0395402 -0.0571403 -0.0282979  -0.0319054 -0.0443513 -0.0242474  -0.0440018 -0.0306023 -0.0391638  -0.0550701 -0.0565144 -0.0358851  -0.044863 -0.0448773 -0.0306413  -0.031552 -0.0384408 -0.0279627  -0.0447131 -0.0384535 -0.0355258  -0.0736611 -0.0935413 -0.0378258  -0.0806808 -0.106197 -0.030277  -0.0450802 -0.0714085 -0.0305679  -0.0577701 -0.102187 -0.027179  -0.0502608 -0.0843849 -0.0246601  -0.0626566 -0.0699435 -0.0389204  -0.077828 -0.100251 -0.0344005  -0.0682193 -0.0834353 -0.0310807  -0.0482339 -0.0784696 -0.0279787  -0.0660577 -0.0772004 -0.03543  -0.0988325 -0.146723 -0.03475  -0.107454 -0.157474 -0.027689  -0.0639166 -0.121813 -0.0286615  -0.0794962 -0.155703 -0.0248427  -0.0712545 -0.133381 -0.023088  -0.0857193 -0.119173 -0.0364149  -0.103785 -0.15234 -0.0314388  -0.0937318 -0.130888 -0.0290945  -0.0681815 -0.128 -0.0261133  -0.0904 -0.125372 -0.0330341  -0.127714 -0.206382 -0.0311437  -0.136754 -0.215314 -0.0245991  -0.0870051 -0.179824 -0.0259414  -0.104697 -0.215927 -0.0220842  -0.095239 -0.189733 -0.0207317  -0.112837 -0.175801 -0.0329721  -0.132791 -0.210997 -0.0280023  -0.121776 -0.185614 -0.0261662  -0.0916749 -0.185059 -0.0234878  -0.117925 -0.18093 -0.0297425  -0.159594 -0.27122 -0.0275156  -0.168401 -0.278617 -0.0215344  -0.113842 -0.24377 -0.0230062  -0.133039 -0.281623 -0.0193245  -0.122188 -0.252126 -0.0181918  -0.143296 -0.238169 -0.0293088  -0.164463 -0.275015 -0.0246012  -0.152273 -0.246295 -0.0230434  -0.118495 -0.248146 -0.0206923  -0.148313 -0.242383 -0.0262818  -0.193922 -0.340478 -0.0241179  -0.202183 -0.34662 -0.0187101  -0.143847 -0.312589 -0.0201459  -0.164154 -0.351942 -0.0167582  -0.151872 -0.319607 -0.0157692  -0.176452 -0.305295 -0.0257766  -0.198438 -0.343615 -0.0214584  -0.185014 -0.312033 -0.0200813  -0.148265 -0.316241 -0.0180171  -0.181175 -0.30877 -0.0229924  -0.230326 -0.413628 -0.0210478  -0.23792 -0.418778 -0.016202  -0.176545 -0.385565 -0.017508  -0.197717 -0.426286 -0.0144701  -0.184036 -0.391486 -0.0135818  -0.211853 -0.376552 -0.0225403  -0.234443 -0.416254 -0.0186515  -0.219794 -0.382176 -0.0174143  -0.18064 -0.388632 -0.0155826  -0.216193 -0.379448 -0.0200143  -0.26857 -0.490314 -0.0183089  -0.275477 -0.494652 -0.0140111  -0.211585 -0.462216 -0.0151467  -0.233481 -0.504188 -0.0124488  -0.218473 -0.46723 -0.0116627  -0.249198 -0.451516 -0.0196378  -0.272294 -0.492518 -0.0161748  -0.256456 -0.456244 -0.0150728  -0.215332 -0.464807 -0.0134296  -0.253141 -0.45395 -0.0173774  -0.308489 -0.570187 -0.0158927  -0.314725 -0.573869 -0.0121055  -0.248726 -0.542156 -0.0130534  -0.271251 -0.585279 -0.0106766  -0.25499 -0.546419 -0.00998998  -0.288304 -0.529838 -0.0170653  -0.31184 -0.572054 -0.0140097  -0.294867 -0.533835 -0.0130248  -0.252123 -0.544351 -0.0115356  -0.291856 -0.53189 -0.0150583  -0.349951 -0.652952 -0.013746  -0.355555 -0.656082 -0.010437  -0.287767 -0.625032 -0.0112042  -0.31085 -0.669213 -0.00913358  -0.293416 -0.628672 -0.00853992  -0.32901 -0.611194 -0.0147941  -0.352955 -0.654534 -0.0121012  -0.334925 -0.614591 -0.0112445  -0.290828 -0.626907 -0.00988269  -0.332203 -0.61294 -0.0130243  -0.392831 -0.738326 -0.0118496  -0.397853 -0.740983 -0.0089705  -0.328526 -0.710549 -0.009583  -0.352119 -0.755682 -0.00777411  -0.333612 -0.713661 -0.00727391  -0.371196 -0.695309 -0.0127711  -0.39552 -0.739663 -0.0104115  -0.376503 -0.698188 -0.00967932  -0.331283 -0.712146 -0.00843477  -0.374057 -0.69678 -0.0112314  -0.43701 -0.82602 -0.0101485  -0.44149 -0.828273 -0.00766563  -0.370862 -0.798409 -0.00814414  -0.394902 -0.844392 -0.00657725  -0.375414 -0.801073 -0.00616503  -0.41474 -0.781871 -0.0109701  -0.439405 -0.827147 -0.00890756  -0.419488 -0.784319 -0.00829363  -0.373328 -0.79977 -0.00715709  -0.417299 -0.783121 -0.00963569  -0.482368 -0.915786 -0.00863028  -0.486339 -0.917686 -0.00651121  -0.414612 -0.88835 -0.00687337  -0.439049 -0.935088 -0.00552177  -0.418666 -0.890624 -0.0051918  -0.459526 -0.870631 -0.00937247  -0.484489 -0.916733 -0.00757527  -0.463744 -0.872706 -0.00707173  -0.416809 -0.889506 -0.00603485  -0.461801 -0.871689 -0.00822234  -0.528763 -1.00737 -0.00727463  -0.532274 -1.00897 -0.00548434  -0.459625 -0.980119 -0.00574493  -0.484397 -1.02751 -0.00458121  -0.463222 -0.982051 -0.00432706  -0.50542 -0.961344 -0.00793529  -0.530632 -1.00816 -0.00637913  -0.509155 -0.963085 -0.0059793  -0.461576 -0.981093 -0.00503898  -0.507429 -0.962225 -0.00695753  -0.57607 -1.10055 -0.00606513  -0.579148 -1.10189 -0.00455904  -0.505749 -1.07349 -0.00473762  -0.530804 -1.12145 -0.00374222  -0.508918 -1.07512 -0.0035646  -0.552284 -1.05376 -0.00665808  -0.577709 -1.10121 -0.0053091  -0.555575 -1.05521 -0.00500631  -0.50747 -1.0743 -0.00415421  -0.554056 -1.05449 -0.00583076  -0.624161 -1.19512 -0.004987  -0.62684 -1.19623 -0.00373912  -0.55284 -1.16823 -0.0038476  -0.57811 -1.21668 -0.00300622  -0.555608 -1.1696 -0.00288606  -0.599999 -1.14766 -0.00551391  -0.625583 -1.19566 -0.00436234  -0.602873 -1.14887 -0.0041399  -0.554346 -1.16891 -0.00336814  -0.601547 -1.14826 -0.00482535  -0.672896 -1.29088 -0.00402451  -0.675206 -1.29179 -0.00301456  -0.600745 -1.26416 -0.0030601  -0.626175 -1.31302 -0.00235415  -0.603138 -1.2653 -0.00229335  -0.648433 -1.24285 -0.00449276  -0.674121 -1.29131 -0.00351477  -0.650913 -1.24384 -0.00336838  -0.60205 -1.26472 -0.00267458  -0.64977 -1.24334 -0.00392747  -0.722167 -1.38766 -0.0031755  -0.724123 -1.38839 -0.00237274  -0.649327 -1.36109 -0.0023725  -0.674871 -1.41029 -0.00179315  -0.651375 -1.36204 -0.00176716  -0.697447 -1.33913 -0.00358653  -0.723199 -1.388 -0.00277352  -0.699575 -1.33995 -0.00268531  -0.650447 -1.36154 -0.00206947  -0.698596 -1.33953 -0.00313234  -0.771822 -1.48527 -0.00242853  -0.773476 -1.48586 -0.0018127  -0.698446 -1.45885 -0.0017674  -0.724048 -1.50832 -0.00130534  -0.700178 -1.45962 -0.00131822  -0.746922 -1.43635 -0.00279093  -0.772692 -1.48554 -0.00212049  -0.748725 -1.43701 -0.00208402  -0.699398 -1.45921 -0.00153995  -0.747895 -1.43667 -0.00243306  -0.82178 -1.58357 -0.00179124  -0.823152 -1.58404 -0.00132751  -0.74798 -1.5573 -0.00124931  -0.773595 -1.60698 -0.000883818  -0.749425 -1.55792 -0.000926495  -0.796744 -1.53433 -0.00210714  -0.8225 -1.58378 -0.00155544  -0.798252 -1.53485 -0.00156164  -0.748778 -1.55758 -0.00108838  -0.797562 -1.53458 -0.00182724  -0.871923 -1.68243 -0.00123978  -0.873038 -1.68279 -0.000914097  -0.797812 -1.65627 -0.000813007  -0.823402 -1.70612 -0.000527859  -0.798999 -1.65678 -0.000595808  -0.846808 -1.63292 -0.00150204  -0.872504 -1.68258 -0.00107503  -0.848049 -1.63333 -0.00111032  -0.798468 -1.65649 -0.000699043  -0.847476 -1.63311 -0.00130224  -0.922168 -1.78171 -0.000775576  -0.923053 -1.78198 -0.000566483  -0.847824 -1.75567 -0.00044322  -0.873356 -1.80563 -0.00024724  -0.848781 -1.75607 -0.000319958  -0.897007 -1.73201 -0.00099659  -0.922617 -1.78181 -0.000667334  -0.898008 -1.73231 -0.000733376  -0.848362 -1.75584 -0.000385523  -0.897546 -1.73215 -0.00086236  -0.972422 -1.88128 -0.000408649  -0.973096 -1.88149 -0.000291348  -0.89795 -1.85537 -0.000155449  -0.923389 -1.90539 -2.36034e-05  -0.898694 -1.85568 -0.000103712  -0.947276 -1.83144 -0.000579357  -0.972767 -1.88136 -0.000346422  -0.94805 -1.83168 -0.00042057  -0.898367 -1.85549 -0.000129461  -0.947689 -1.83155 -0.00049448  -1.02262 -1.98105 -0.000118256  -1.02312 -1.98121 -7.36713e-05  -0.948083 -1.95524 6.65188e-05  -0.973408 -2.00529 0.000144482  -0.94864 -1.95548 6.12736e-05  -0.997511 -1.93114 -0.000248194  -1.02287 -1.9811 -9.41753e-05  -0.998091 -1.93131 -0.00017643  -0.948398 -1.95533 6.50883e-05  -0.99782 -1.9312 -0.000211477  -1.07271 -2.08093 8.65459e-05  -1.07305 -2.08103 7.89165e-05  -0.998158 -2.05521 0.000224829  -1.02335 -2.10525 0.000247002  -0.998552 -2.0554 0.000176668  -1.04765 -2.03096 -1.66893e-06  -1.07287 -2.08094 8.58307e-05  -1.04807 -2.03109 8.82149e-06  -0.998391 -2.05527 0.000201941  -1.04788 -2.03101 7.15256e-06  -1.12262 -2.18079 0.000221252  -1.12284 -2.18088 0.0001688  -1.04811 -2.15519 0.000315666  -1.07316 -2.20518 0.000303268  -1.04838 -2.15533 0.000246525  -1.09766 -2.13084 0.000161886  -1.12271 -2.1808 0.000197887  -1.09794 -2.13094 0.000131845  -1.04827 -2.15522 0.000283718  -1.09781 -2.13087 0.000148773  -1.17234 -2.2806 0.000268221  -1.17245 -2.28066 0.000206947  -1.09791 -2.2551 0.000345945  -1.1228 -2.30503 0.000296831  -1.09805 -2.25521 0.000265121  -1.14749 -2.23069 0.000246763  -1.17238 -2.2806 0.000237226  -1.14764 -2.23076 0.000191212  -1.098 -2.25512 0.000304699  -1.14757 -2.23071 0.000222445  -1.22182 -2.38027 0.000277042  -1.22187 -2.38033 0.000202417  -1.14748 -2.35488 0.000320673  -1.17223 -2.40472 0.000267744  -1.14755 -2.35498 0.000248432  -1.19709 -2.33043 0.000276804  -1.22182 -2.38027 0.000236511  -1.19716 -2.33049 0.000205278  -1.14754 -2.35489 0.000285387  -1.19712 -2.33045 0.000243187  -1.27106 -2.47977 0.000234604  -1.27108 -2.47982 0.000170469  -1.19683 -2.4545 0.000271559  -1.22145 -2.50422 0.000217199  -1.19685 -2.45457 0.000204325  -1.24644 -2.43003 0.000250578  -1.27105 -2.47977 0.000201941  -1.24647 -2.43008 0.00018692  -1.19686 -2.45449 0.000239372  -1.24645 -2.43004 0.00021863  -1.3201 -2.57907 0.000228643  -1.32013 -2.57911 0.000141859  -1.24594 -2.55389 0.000226259  -1.27044 -2.60347 0.000186682  -1.24595 -2.55395 0.000154257  -1.29557 -2.52943 0.000216961  -1.32009 -2.57906 0.00018239  -1.29559 -2.52947 0.000154734  -1.24596 -2.55387 0.000188589  -1.29558 -2.52944 0.000186205  0 0 0  -0.00927347 0.00340992 -0.0157425  -0.00522488 -0.0051842 -0.0106232  0 0 0  -0.00278302 0.00473619 -0.00645804  -0.00276093 -0.00254804 -0.00843  -0.000952046 -0.000263423 -0.00363231  0 0 0  -0.00544165 0.005501 -0.0106533  -0.00642456 -0.001654 -0.0135143  -0.00211124 0.000125825 -0.00576663  0 0 0  -0.00115401 0.0014309 -0.00463033  -0.00253039 0.00199372 -0.00751066  -0.0149786 -0.0163559 -0.0211854  -0.0147333 -0.028396 -0.0167294  -0.0050174 -0.00561756 -0.0120437  -0.00646313 -0.0247933 -0.0125275  -0.00419816 -0.0158305 -0.00927949  -0.011966 -0.00414649 -0.0192709  -0.0148792 -0.0232309 -0.0194628  -0.00962274 -0.0149333 -0.0143654  -0.00443824 -0.01166 -0.0109503  -0.0104689 -0.0104626 -0.0172153  -0.0232854 -0.0515828 -0.0225239  -0.0268089 -0.0643975 -0.0184586  -0.00766063 -0.0344907 -0.0142283  -0.0123797 -0.0611415 -0.01366  -0.00993252 -0.0466832 -0.0118496  -0.0186476 -0.0322708 -0.0222778  -0.0254408 -0.0586803 -0.0208778  -0.0204399 -0.0449701 -0.0179646  -0.00904959 -0.0414365 -0.0133736  -0.0198101 -0.0394423 -0.0205543  -0.035719 -0.0983276 -0.0217845  -0.0417035 -0.110418 -0.0179129  -0.0137881 -0.076741 -0.0144329  -0.021729 -0.108378 -0.0132151  -0.0185239 -0.0890103 -0.0122211  -0.0289333 -0.0736536 -0.0223665  -0.0392003 -0.104882 -0.0201147  -0.0338556 -0.0862286 -0.0183668  -0.0165712 -0.0835435 -0.0135853  -0.0318663 -0.0805758 -0.0206869  -0.0526257 -0.153914 -0.0200241  -0.0599016 -0.164665 -0.0163379  -0.0243228 -0.129169 -0.0135624  -0.035117 -0.164274 -0.011997  -0.0305787 -0.140537 -0.0114276  -0.0436006 -0.125115 -0.0210018  -0.0567372 -0.159651 -0.0183589  -0.0503556 -0.136567 -0.0172  -0.027897 -0.135348 -0.0126793  -0.0474775 -0.131306 -0.0193217  -0.073823 -0.216384 -0.0178573  -0.0815493 -0.22566 -0.0143974  -0.0394479 -0.189517 -0.0121512  -0.0526505 -0.227173 -0.0104799  -0.046445 -0.199607 -0.0101223  -0.0626932 -0.18435 -0.0189741  -0.0781044 -0.22128 -0.0162411  -0.0702782 -0.194354 -0.0153883  -0.0433668 -0.19493 -0.0112627  -0.0669488 -0.189688 -0.0173261  -0.0988584 -0.28436 -0.0156116  -0.106507 -0.292268 -0.0124364  -0.0589565 -0.256169 -0.0105567  -0.0741445 -0.295794 -0.00891232  -0.0661237 -0.264935 -0.00866675  -0.0858696 -0.249711 -0.0167291  -0.103038 -0.288505 -0.0140946  -0.0936091 -0.258283 -0.0134063  -0.0629174 -0.260825 -0.009691  -0.0901431 -0.254246 -0.015162  -0.127243 -0.356915 -0.0134802  -0.134521 -0.363638 -0.0106103  -0.0824414 -0.32795 -0.00896645  -0.0992432 -0.369195 -0.00744772  -0.08942 -0.335501 -0.00726151  -0.112636 -0.320068 -0.0145245  -0.131178 -0.360418 -0.0120931  -0.120126 -0.327366 -0.0115013  -0.0862622 -0.331939 -0.00816655  -0.116724 -0.323913 -0.0130746  -0.158529 -0.433381 -0.0115366  -0.165315 -0.439121 -0.00899768  -0.109436 -0.404033 -0.00748277  -0.127593 -0.446652 -0.00613427  -0.116041 -0.410519 -0.00598931  -0.142516 -0.394653 -0.0124795  -0.162177 -0.436367 -0.010299  -0.149563 -0.400863 -0.00978088  -0.113026 -0.407448 -0.00677466  -0.146335 -0.397914 -0.0111709  -0.192407 -0.513308 -0.00981784  -0.198638 -0.518208 -0.00759816  -0.139557 -0.483804 -0.00616336  -0.158866 -0.527632 -0.00500274  -0.145692 -0.489382 -0.00488591  -0.175139 -0.472903 -0.0106514  -0.19574 -0.515841 -0.00872993  -0.181648 -0.478209 -0.00827026  -0.142881 -0.486729 -0.00555182  -0.178649 -0.475684 -0.00948977  -0.228597 -0.596263 -0.00829864  -0.234264 -0.600468 -0.00638652  -0.172458 -0.566778 -0.00502253  -0.192773 -0.611675 -0.00402927  -0.17809 -0.57158 -0.00393963  -0.210199 -0.554391 -0.0090313  -0.23162 -0.598438 -0.00735593  -0.216148 -0.558931 -0.00696731  -0.175501 -0.569291 -0.0044992  -0.213398 -0.556767 -0.00801778  -0.266878 -0.68192 -0.00698471  -0.271996 -0.685536 -0.00534368  -0.207865 -0.652557 -0.00402665  -0.229055 -0.698401 -0.00320411  -0.212981 -0.656698 -0.00314236  -0.247463 -0.638747 -0.00762272  -0.269599 -0.68379 -0.00617433  -0.25285 -0.64264 -0.00584626  -0.210625 -0.654718 -0.00359845  -0.250353 -0.640782 -0.00674534  -0.307037 -0.769967 -0.00583267  -0.311642 -0.773074 -0.00444555  -0.24551 -0.740784 -0.00318527  -0.267475 -0.787465 -0.0024991  -0.250136 -0.744376 -0.00247192  -0.286708 -0.725634 -0.00638962  -0.309484 -0.771572 -0.0051477  -0.291566 -0.728986 -0.00487566  -0.248008 -0.742657 -0.00283861  -0.289309 -0.727392 -0.00564098  -0.348896 -0.860123 -0.00482011  -0.353015 -0.862791 -0.00366235  -0.285174 -0.831167 -0.00246072  -0.307818 -0.878574 -0.001899  -0.289331 -0.834268 -0.00190473  -0.327738 -0.814773 -0.00531077  -0.351082 -0.861495 -0.0042448  -0.332098 -0.817653 -0.00403905  -0.287417 -0.83278 -0.00218797  -0.330075 -0.816274 -0.0046804  -0.392269 -0.95211 -0.00393629  -0.395931 -0.954401 -0.00298095  -0.326638 -0.923419 -0.00184345  -0.349875 -0.971447 -0.00139213  -0.330346 -0.926094 -0.00142193  -0.370383 -0.905876 -0.00436664  -0.394213 -0.953288 -0.00346088  -0.374264 -0.908352 -0.00330806  -0.32864 -0.924802 -0.00163674  -0.37246 -0.907167 -0.00384092  -0.436981 -1.0457 -0.00316119  -0.440222 -1.04766 -0.00238585  -0.369698 -1.01727 -0.0013206  -0.393443 -1.06584 -0.000959873  -0.372985 -1.01959 -0.00101042  -0.414446 -0.998692 -0.00353813  -0.438697 -1.0467 -0.00277615  -0.41789 -1.00082 -0.00267482  -0.371477 -1.01846 -0.00116849  -0.41629 -0.999801 -0.00310898  -0.482873 -1.14067 -0.00248027  -0.48571 -1.14234 -0.0018661  -0.414158 -1.11252 -0.000864744  -0.438331 -1.16153 -0.000585556  -0.417054 -1.1145 -0.000663757  -0.459764 -1.093 -0.00281048  -0.484368 -1.14152 -0.00217295  -0.462798 -1.09481 -0.0021193  -0.415729 -1.11353 -0.000764847  -0.46139 -1.09395 -0.00246501  -0.52976 -1.23682 -0.00188851  -0.532228 -1.23822 -0.00141811  -0.459839 -1.20893 -0.00048995  -0.484359 -1.25832 -0.000286341  -0.462361 -1.21063 -0.00037241  -0.506175 -1.18859 -0.00218153  -0.531062 -1.23753 -0.0016551  -0.508822 -1.19012 -0.00163174  -0.461208 -1.20979 -0.000430346  -0.507594 -1.18938 -0.00190663  -0.577494 -1.33396 -0.00137949  -0.579616 -1.33514 -0.00102282  -0.506548 -1.30634 -0.000169754  -0.531345 -1.35601 -2.38419e-05  -0.508732 -1.30777 -0.000126123  -0.553504 -1.28526 -0.00162888  -0.578607 -1.33455 -0.00119781  -0.555794 -1.28655 -0.00121379  -0.507738 -1.30706 -0.000153303  -0.55473 -1.28592 -0.00141954  -0.625924 -1.43192 -0.000934362  -0.627726 -1.43291 -0.000685692  -0.554125 -1.40454 9.05991e-05  -0.579132 -1.45446 0.000185728  -0.555993 -1.40576 7.4625e-05  -0.601603 -1.38282 -0.00114512  -0.626866 -1.43241 -0.000813007  -0.60356 -1.38391 -0.000849485  -0.555142 -1.40515 8.44002e-05  -0.602651 -1.38338 -0.000994444  -0.674901 -1.53055 -0.000557661  -0.676412 -1.53137 -0.000404596  -0.602406 -1.5034 0.00030303  -0.627564 -1.5535 0.000347614  -0.603978 -1.50443 0.000239611  -0.650329 -1.48114 -0.000743389  -0.675686 -1.53095 -0.000478268  -0.651979 -1.48204 -0.000542641  -0.603269 -1.50391 0.000272036  -0.651209 -1.4816 -0.000641823  -0.724299 -1.62971 -0.000252962  -0.725548 -1.63038 -0.000172615  -0.651248 -1.60279 0.000473499  -0.676493 -1.65301 0.000476837  -0.652557 -1.60364 0.000362158  -0.699526 -1.58005 -0.000397682  -0.724946 -1.63003 -0.000209808  -0.700905 -1.58079 -0.000283718  -0.651967 -1.6032 0.000419378  -0.700266 -1.58043 -0.000338793  -0.773999 -1.72927 1.04904e-05  -0.775009 -1.72982 1.5974e-05  -0.700516 -1.70256 0.00059104  -0.725802 -1.75286 0.000566006  -0.701578 -1.70327 0.000454903  -0.749092 -1.67943 -0.000116825  -0.774518 -1.72953 1.4782e-05  -0.75022 -1.68003 -7.10487e-05  -0.701104 -1.70289 0.000524521  -0.749694 -1.67973 -9.15527e-05  -0.823884 -1.82911 0.000202656  -0.824689 -1.82956 0.000165462  -0.750082 -1.8026 0.000669956  -0.775365 -1.85294 0.00062418  -0.750929 -1.80318 0.00051856  -0.798892 -1.77914 0.00010705  -0.82429 -1.82932 0.000184536  -0.7998 -1.77964 9.27448e-05  -0.750553 -1.80287 0.000599623  -0.799379 -1.77939 0.000103712  -0.873865 -1.92914 0.000339508  -0.874479 -1.92949 0.000267506  -0.799837 -1.90282 0.000719547  -0.82508 -1.95314 0.000645161  -0.800489 -1.90329 0.000550747  -0.848845 -1.87909 0.000273943  -0.874176 -1.9293 0.000304937  -0.849548 -1.87949 0.000222206  -0.800207 -1.90303 0.000636816  -0.849219 -1.87929 0.000249386  -0.923872 -2.02926 0.000429869  -0.924313 -2.02953 0.000334024  -0.84969 -2.0031 0.000723362  -0.874858 -2.05339 0.00063324  -0.850165 -2.00349 0.000550747  -0.898851 -1.97918 0.000387907  -0.92408 -2.02937 0.000382662  -0.899369 -1.97949 0.000303984  -0.849963 -2.00327 0.000637293  -0.899125 -1.97933 0.00034976  -0.973814 -2.12937 0.000472307  -0.974107 -2.12959 0.000362635  -0.899544 -2.10339 0.000691414  -0.924619 -2.15361 0.000591278  -0.899875 -2.10369 0.000531673  -0.948822 -2.0793 0.000458241  -0.973946 -2.12946 0.000418663  -0.949191 -2.07955 0.000354052  -0.899742 -2.10351 0.000615597  -0.949018 -2.07942 0.000407934  -1.02362 -2.22942 0.000469446  -1.02381 -2.22959 0.000355005  -0.949341 -2.2036 0.000634909  -0.974293 -2.25373 0.000523567  -0.949548 -2.20384 0.000482321  -0.998712 -2.17939 0.000472069  -1.0237 -2.22948 0.000412703  -0.998948 -2.17958 0.000366449  -0.949465 -2.20369 0.000557423  -0.998831 -2.17948 0.000419855  -1.07327 -2.32934 0.000418663  -1.07336 -2.32947 0.000315189  -0.999014 -2.30366 0.000547409  -1.02384 -2.35369 0.000433683  -0.999116 -2.30386 0.000415802  -1.04845 -2.27938 0.000442028  -1.0733 -2.32938 0.000365734  -1.04858 -2.27953 0.000337601  -0.999082 -2.30373 0.00048542  -1.04852 -2.27944 0.000391245  -1.12272 -2.42907 0.000334263  -1.12274 -2.42918 0.000253677  -1.04851 -2.40355 0.000433445  -1.07321 -2.45346 0.000327826  -1.04855 -2.40371 0.000325441  -1.098 -2.3792 0.000376701  -1.1227 -2.42911 0.00029397  -1.09805 -2.37933 0.000282288  -1.04854 -2.4036 0.000379562  -1.09802 -2.37926 0.000330925  -1.17193 -2.5286 0.000254869  -1.1719 -2.52867 0.00018239  -1.09781 -2.50322 0.000304699  -1.12237 -2.55297 0.000220299  -1.09779 -2.50334 0.00023222  -1.14733 -2.47884 0.00029254  -1.17189 -2.52861 0.000216246  -1.14733 -2.47894 0.000221491  -1.09781 -2.50324 0.000270367  -1.14732 -2.47888 0.00025773  -1.22087 -2.62784 0.000211716  -1.22086 -2.62789 0.000124454  -1.14687 -2.60262 0.000197172  -1.17126 -2.65216 0.000133991  -1.14681 -2.6027 0.000140429  -1.19641 -2.57825 0.000216722  -1.22084 -2.62783 0.000167608  -1.19639 -2.5783 0.000154972  -1.14685 -2.60261 0.000166893  -1.19639 -2.57826 0.00018692  0 0 0  0.000269398 0.000507325 -0.0035398  0.000608191 -0.00710744 -0.00297165  0 0 0  0.00182711 0.00232619 0.00190187  0.00389132 -0.00609601 0.00143576  0.00121171 -0.002013 0.000613928  0 0 0  -0.000366841 0.00366145 -0.00223613  0.000641286 -0.00406632 -0.00343299  0.000160173 -0.000991046 -0.00150156  0 0 0  0.00137872 -0.000616282 0.00108862  0.000146739 0.000538945 -0.00175476  0.00226694 -0.0208922 -0.00566745  0.000662804 -0.0318839 -0.0052495  0.0074667 -0.0108513 0.0020237  0.0089179 -0.0305784 0.000821114  0.00570686 -0.0201121 0.000582218  0.0013781 -0.00788572 -0.00489473  0.00137842 -0.0272708 -0.00575399  0.000841156 -0.0175926 -0.00428271  0.00652739 -0.0164089 0.00114989  0.00116107 -0.0136762 -0.0048089  0.00208944 -0.0577678 -0.00651479  -0.00163582 -0.0697927 -0.00615478  0.0125273 -0.0416407 0.00134468  0.0118791 -0.0688028 0.00027585  0.00939843 -0.0530015 -2.69413e-05  0.00261036 -0.0376252 -0.00630713  -4.93526e-05 -0.064522 -0.00659418  -0.000108361 -0.0493753 -0.00585318  0.0107797 -0.0481797 0.000470161  0.00104505 -0.0443632 -0.00634313  -0.00205731 -0.10627 -0.00643349  -0.00735429 -0.117986 -0.00604224  0.0145742 -0.0855425 0.000981569  0.0111455 -0.117869 0.000196457  0.0100788 -0.0972905 -0.000308037  0.000595659 -0.080701 -0.00660205  -0.00505096 -0.112698 -0.00643349  -0.00400701 -0.0926931 -0.00619054  0.0120463 -0.0921152 0.000170231  -0.00203931 -0.087388 -0.00661778  -0.0108843 -0.163824 -0.00578856  -0.0170985 -0.17457 -0.00536418  0.0121736 -0.139657 0.00100851  0.00590414 -0.175738 0.00046277  0.00670487 -0.150854 -0.000169039  -0.00585133 -0.134 -0.00618029  -0.0143365 -0.169624 -0.00571871  -0.0116864 -0.14528 -0.00574851  0.0091207 -0.145797 0.000287533  -0.00913119 -0.140168 -0.00612998  -0.0244648 -0.228576 -0.0048697  -0.0310541 -0.238123 -0.00444841  0.00481957 -0.201941 0.00130463  -0.00408137 -0.240843 0.000900269  -0.00116915 -0.212139 0.000215054  -0.0170701 -0.195351 -0.00535941  -0.0280755 -0.233674 -0.00475597  -0.0235326 -0.205508 -0.00492263  0.0015077 -0.207463 0.00066328  -0.0206476 -0.200839 -0.00525784  -0.0425331 -0.299152 -0.00386691  -0.0491355 -0.307496 -0.00349379  -0.00745392 -0.270839 0.00171971  -0.0186985 -0.311933 0.00138283  -0.0135999 -0.279909 0.000692606  -0.032939 -0.263173 -0.00437188  -0.0461188 -0.303578 -0.00375009  -0.0395731 -0.272103 -0.00396943  -0.0108222 -0.275701 0.00113368  -0.0365711 -0.267951 -0.00425696  -0.0647318 -0.374544 -0.00290394  -0.0710883 -0.381776 -0.00260878  -0.0243596 -0.345149 0.00215292  -0.0376628 -0.388003 0.00182796  -0.0303992 -0.353115 0.00116825  -0.0531272 -0.336268 -0.0033741  -0.0681499 -0.378355 -0.00280595  -0.059623 -0.344035 -0.00303674  -0.0276566 -0.349393 0.00160742  -0.0566542 -0.3404 -0.0032661  -0.0906029 -0.453949 -0.00204182  -0.0965805 -0.460215 -0.00183702  -0.0455168 -0.423941 0.00254083  -0.0605912 -0.468236 0.00219274  -0.0512886 -0.430904 0.00157404  -0.077207 -0.413739 -0.00245905  -0.0938032 -0.45724 -0.00197363  -0.0833828 -0.420476 -0.00220799  -0.0486475 -0.427633 0.0020175  -0.0805414 -0.417315 -0.00237703  -0.119777 -0.5368 -0.00129747  -0.125313 -0.542232 -0.00119138  -0.0705036 -0.506498 0.002846  -0.0871333 -0.552002 0.00247312  -0.075907 -0.512567 0.00188947  -0.104774 -0.494942 -0.00165272  -0.122727 -0.539648 -0.00126815  -0.110536 -0.500775 -0.00149703  -0.0734278 -0.509708 0.00233841  -0.107874 -0.49803 -0.00160599  -0.151894 -0.622608 -0.000677109  -0.156971 -0.627327 -0.000660896  -0.0989401 -0.592238 0.00306702  -0.116924 -0.638766 0.00266099  -0.103929 -0.597537 0.00212717  -0.13546 -0.57933 -0.000969172  -0.154595 -0.625081 -0.000688314  -0.140767 -0.584388 -0.000913858  -0.101637 -0.595031 0.0025754  -0.138306 -0.582005 -0.000965118  -0.186673 -0.71099 -0.000175953  -0.191278 -0.71509 -0.00024128  -0.130458 -0.680701 0.00320339  -0.149635 -0.728102 0.00277066  -0.135028 -0.685321 0.00227737  -0.168943 -0.666475 -0.000413418  -0.189114 -0.713133 -0.000222921  -0.173781 -0.670868 -0.000439405  -0.132927 -0.683134 0.00272393  -0.171533 -0.668797 -0.000442028  -0.223814 -0.801588 0.000230789  -0.227977 -0.805146 9.56059e-05  -0.16475 -0.771488 0.00326896  -0.184979 -0.819623 0.00282335  -0.168898 -0.775518 0.00235987  -0.204935 -0.756002 4.33922e-05  -0.226019 -0.803447 0.000153303  -0.209317 -0.759824 -6.24657e-05  -0.166991 -0.773602 0.00280285  -0.207278 -0.758019 -2.24113e-05  -0.263072 -0.894096 0.000555992  -0.266808 -0.897188 0.000362158  -0.201522 -0.864246 0.00328398  -0.222661 -0.913006 0.00282121  -0.205254 -0.867771 0.00238729  -0.243168 -0.847594 0.00041008  -0.265051 -0.895707 0.000453949  -0.247115 -0.850912 0.000239611  -0.203536 -0.866096 0.00282979  -0.245279 -0.849345 0.000314951  -0.30423 -0.988244 0.000813723  -0.307549 -0.990922 0.00056839  -0.240486 -0.958697 0.00323868  -0.262425 -1.00796 0.00277948  -0.243823 -0.961764 0.00237846  -0.283406 -0.940956 0.000693321  -0.305981 -0.989637 0.000686407  -0.286927 -0.943835 0.000475168  -0.24229 -0.960296 0.00280261  -0.285286 -0.942474 0.00057745  -0.347033 -1.08378 0.00100756  -0.349971 -1.0861 0.000731945  -0.281402 -1.05455 0.00315905  -0.304024 -1.10424 0.00270128  -0.284361 -1.05723 0.00233769  -0.325406 -1.03583 0.000920773  -0.348582 -1.08499 0.000865698  -0.328536 -1.03832 0.000656843  -0.283004 -1.05595 0.00274658  -0.32708 -1.03714 0.000783205  -0.391293 -1.1805 0.00115299  -0.393863 -1.18251 0.000850439  -0.324025 -1.1516 0.00305319  -0.347226 -1.20163 0.0026021  -0.326628 -1.15393 0.00226498  -0.368971 -1.13198 0.00108528  -0.392645 -1.18153 0.0010004  -0.371719 -1.13414 0.000798464  -0.325431 -1.15281 0.00265408  -0.370438 -1.13312 0.000941753  -0.436802 -1.2782 0.00125337  -0.439028 -1.27992 0.000935793  -0.368121 -1.24963 0.0029161  -0.391814 -1.29992 0.00248384  -0.370388 -1.25165 0.00217676  -0.413872 -1.22921 0.00121093  -0.437966 -1.27908 0.00109649  -0.41627 -1.23107 0.000899315  -0.369354 -1.25067 0.00254297  -0.415155 -1.23019 0.00105381  -0.483359 -1.37669 0.00131631  -0.485271 -1.37817 0.000988483  -0.413494 -1.34845 0.00276327  -0.437575 -1.39894 0.00234127  -0.415442 -1.35019 0.00206423  -0.459931 -1.32733 0.00129008  -0.484355 -1.37744 0.00115204  -0.461999 -1.32893 0.000963926  -0.414552 -1.34935 0.00241256  -0.461033 -1.32817 0.0011282  -0.530799 -1.47584 0.00135851  -0.532416 -1.47709 0.00101876  -0.459928 -1.44791 0.00259614  -0.48433 -1.49853 0.00219154  -0.461591 -1.4494 0.00194526  -0.50695 -1.42617 0.00134063  -0.531639 -1.47648 0.00118613  -0.508716 -1.42753 0.00100732  -0.460837 -1.44867 0.00226712  -0.507895 -1.42688 0.00117326  -0.578951 -1.57548 0.00135684  -0.580302 -1.57654 0.00102258  -0.507249 -1.54785 0.00241947  -0.531893 -1.59856 0.00203776  -0.508642 -1.54912 0.00181603  -0.554762 -1.52558 0.00135732  -0.579648 -1.57601 0.00119066  -0.556249 -1.52673 0.00102162  -0.508015 -1.54849 0.00211716  -0.555555 -1.52619 0.00119066  -0.62766 -1.67549 0.00133157  -0.628774 -1.67639 0.00100684  -0.555294 -1.64815 0.00222683  -0.580103 -1.69889 0.00186992  -0.556433 -1.64924 0.00167489  -0.603221 -1.62542 0.00134468  -0.62823 -1.67594 0.00117064  -0.604446 -1.6264 0.00101495  -0.555919 -1.64869 0.00195146  -0.603872 -1.62593 0.00118113  -0.676806 -1.77577 0.00128078  -0.677691 -1.77651 0.000970125  -0.603888 -1.74869 0.00203228  -0.628817 -1.79944 0.0016892  -0.604811 -1.74961 0.00152755  -0.652165 -1.72558 0.00131297  -0.677254 -1.77613 0.00112581  -0.653157 -1.7264 0.000990629  -0.604398 -1.74914 0.00178123  -0.652688 -1.72601 0.00115252  -0.726243 -1.87621 0.00120735  -0.726929 -1.87682 0.000916481  -0.65291 -1.84939 0.00182748  -0.677897 -1.90009 0.00151634  -0.653631 -1.85015 0.00137663  -0.701467 -1.82596 0.00124836  -0.726584 -1.8765 0.00106335  -0.702251 -1.82663 0.000942707  -0.653312 -1.84975 0.0016067  -0.701883 -1.8263 0.00109696  -0.775859 -1.9767 0.00112009  -0.776377 -1.97721 0.000847578  -0.702217 -1.95011 0.0016284  -0.727216 -2.00075 0.0013442  -0.70276 -1.95075 0.00122738  -0.751005 -1.92643 0.00117421  -0.776107 -1.97694 0.00098443  -0.751604 -1.92699 0.000883579  -0.702525 -1.95041 0.00142717  -0.751323 -1.92672 0.00102782  -0.825567 -2.07719 0.00100756  -0.825933 -2.07759 0.000761986  -0.751708 -2.05082 0.00141168  -0.776679 -2.10136 0.00114083  -0.75209 -2.05134 0.00106168  -0.800678 -2.02693 0.00106645  -0.825737 -2.07737 0.000882149  -0.801116 -2.02738 0.000805855  -0.751926 -2.05106 0.00123787  -0.80091 -2.02716 0.000936985  -0.875276 -2.17758 0.000876427  -0.875508 -2.17791 0.000661612  -0.801275 -2.15143 0.00118685  -0.826192 -2.20184 0.000952005  -0.80153 -2.15185 0.000898838  -0.850403 -2.12738 0.000945568  -0.875378 -2.17773 0.000768661  -0.850694 -2.12774 0.000715256  -0.801431 -2.15161 0.00104332  -0.850556 -2.12756 0.000832319  -0.924932 -2.27783 0.000724792  -0.925052 -2.27809 0.000549793  -0.850848 -2.25187 0.000975847  -0.875682 -2.30215 0.000759363  -0.850991 -2.25221 0.000736475  -0.900089 -2.22771 0.000798702  -0.924971 -2.27794 0.000639677  -0.900269 -2.228 0.000607252  -0.850938 -2.25202 0.000854969  -0.900179 -2.22785 0.000705004  -0.974452 -2.37788 0.000576496  -0.974491 -2.3781 0.000431776  -0.900353 -2.35211 0.000760078  -0.925088 -2.40224 0.000570774  -0.900397 -2.35239 0.000569582  -0.949686 -2.32786 0.000653028  -0.97445 -2.37797 0.000505924  -0.949759 -2.3281 0.000491619  -0.900394 -2.35222 0.000665426  -0.94972 -2.32797 0.000573158  -1.02381 -2.47771 0.000401974  -1.02379 -2.47787 0.000305176  -0.949723 -2.4521 0.000549078  -0.974355 -2.50207 0.000385046  -0.949708 -2.45233 0.000411034  -0.999125 -2.4278 0.000487566  -1.02377 -2.47777 0.000354052  -0.999135 -2.428 0.000370502  -0.949736 -2.45219 0.000475168  -0.999127 -2.4279 0.00042963  -1.07296 -2.57726 0.000239372  -1.07289 -2.57738 0.000182152  -0.998943 -2.55182 0.000329971  -1.02344 -2.60161 0.000206947  -0.998869 -2.55199 0.000247478  -1.04839 -2.5275 0.000316858  -1.07289 -2.57729 0.000210524  -1.04834 -2.52764 0.000241041  -0.998919 -2.55188 0.000288963  -1.04836 -2.52756 0.00028038  -1.1218 -2.67646 0.000110388  -1.12174 -2.67656 6.19888e-05  -1.04793 -2.65122 0.000132322  -1.07224 -2.70078 3.38554e-05  -1.04782 -2.65135 9.799e-05  -1.0974 -2.62689 0.000165462  -1.12174 -2.67647 8.05855e-05  -1.09732 -2.627 0.000117064  -1.04787 -2.65124 0.00011611  -1.09735 -2.62692 0.000140429  0 0 0  0.00868109 -0.00448829 0.00817728  0.00605218 -0.0112805 0.00440121  0 0 0  0.00578655 -0.00111544 0.0100064  0.0103488 -0.0116506 0.0108027  0.00333489 -0.00487959 0.00475907  0 0 0  0.00386753 0.000747383 0.00598359  0.00709978 -0.00861967 0.00618768  0.00225622 -0.00329322 0.00270462  0 0 0  0.00379803 -0.00371933 0.0066843  0.00258325 -0.00202805 0.00390553  0.0180452 -0.0287904 0.00900722  0.0149339 -0.0389296 0.0056231  0.0193411 -0.0188721 0.0152805  0.0239446 -0.0396298 0.0133104  0.0155298 -0.0272937 0.00986242  0.013393 -0.0145057 0.00876307  0.0163767 -0.0347043 0.00717902  0.0105501 -0.0233385 0.00530553  0.0172238 -0.0239347 0.0125144  0.0118329 -0.0198234 0.00693512  0.0258033 -0.0675469 0.00870395  0.0218483 -0.0789347 0.00553584  0.0321962 -0.0522869 0.0160227  0.0355313 -0.079997 0.0134366  0.0283378 -0.0629126 0.0110722  0.0223018 -0.0465292 0.0088222  0.0236583 -0.0739697 0.00696588  0.0187908 -0.0575151 0.00562549  0.0301464 -0.0584 0.0134728  0.020409 -0.0528644 0.00709295  0.029734 -0.117613 0.00831819  0.0249349 -0.128986 0.00534987  0.042254 -0.0978492 0.0156813  0.0431057 -0.130726 0.0130439  0.0379013 -0.109114 0.0110056  0.0283548 -0.0912634 0.00845575  0.0271136 -0.12388 0.00670123  0.0239478 -0.102766 0.00543499  0.0399025 -0.104157 0.0132518  0.0259448 -0.097711 0.00680947  0.028766 -0.176816 0.00805664  0.0233855 -0.187503 0.00527954  0.0476998 -0.153442 0.0150969  0.045702 -0.190278 0.0125566  0.0428527 -0.164417 0.010669  0.029911 -0.146133 0.00814795  0.0258313 -0.182618 0.00656247  0.0247797 -0.157222 0.00530696  0.0450597 -0.159479 0.0127909  0.0270974 -0.152235 0.00661063  0.0226045 -0.243486 0.00789046  0.0169452 -0.253193 0.00530052  0.0478553 -0.217373 0.0144749  0.0430278 -0.257295 0.0120711  0.0426806 -0.22759 0.0102932  0.026354 -0.209267 0.00795627  0.0195399 -0.248707 0.00651217  0.020797 -0.219481 0.00528765  0.0450331 -0.222928 0.0123098  0.0233202 -0.214819 0.00652409  0.0113605 -0.316285 0.00777793  0.00568324 -0.324944 0.00534558  0.042599 -0.288212 0.0138459  0.0351171 -0.330546 0.0115833  0.0373099 -0.297477 0.0099225  0.0176176 -0.279157 0.00783062  0.00830346 -0.320906 0.00649691  0.0119277 -0.288337 0.00532866  0.0397195 -0.293207 0.0118239  0.0145285 -0.284104 0.00650454  -0.00465018 -0.394129 0.0076561  -0.0101628 -0.401765 0.00536585  0.032113 -0.364731 0.013222  0.0222327 -0.408985 0.0110762  0.0269014 -0.373007 0.00954294  0.00394779 -0.354598 0.00771451  -0.00760621 -0.398188 0.00646091  -0.00166172 -0.362736 0.0053637  0.0292795 -0.369168 0.0113332  0.000915349 -0.35896 0.00648022  -0.0250249 -0.476147 0.00748277  -0.0302534 -0.482855 0.00532985  0.0167551 -0.44594 0.0125673  0.00472355 -0.491717 0.0105407  0.0117387 -0.45327 0.00913143  -0.0142908 -0.434627 0.00757337  -0.0278161 -0.479701 0.00636911  -0.0196749 -0.441786 0.00535583  0.0140382 -0.449857 0.0108068  -0.0171908 -0.438454 0.00642157  -0.049354 -0.561652 0.00726986  -0.0542355 -0.567535 0.00523853  -0.00307417 -0.531007 0.0118861  -0.0170183 -0.578018 0.00997305  -0.00780654 -0.537482 0.00869107  -0.0366971 -0.518465 0.00738287  -0.051955 -0.564761 0.00622511  -0.0417556 -0.524749 0.00529075  -0.00563753 -0.534457 0.0102596  -0.039414 -0.521817 0.00630116  -0.0772551 -0.650089 0.00699997  -0.0817521 -0.655249 0.00509095  -0.02697 -0.619281 0.011198  -0.0425975 -0.667296 0.00939059  -0.0313683 -0.624987 0.00822043  -0.0628594 -0.605499 0.00713849  -0.0796418 -0.652806 0.00602174  -0.0675497 -0.611011 0.00517249  -0.0293456 -0.622314 0.00968385  -0.0653726 -0.608435 0.0061295  -0.108353 -0.74099 0.00668883  -0.112453 -0.745517 0.00489712  -0.0545208 -0.710216 0.0104847  -0.0716357 -0.759044 0.00878978  -0.0585607 -0.715247 0.00772738  -0.0923953 -0.695225 0.0068531  -0.110525 -0.743369 0.00577784  -0.0967 -0.700058 0.00500035  -0.0567026 -0.712883 0.00908875  -0.0947018 -0.697796 0.00590587  -0.142307 -0.833974 0.00635219  -0.14602 -0.837938 0.0046711  -0.0853484 -0.803363 0.00977564  -0.103773 -0.852853 0.00818133  -0.0890207 -0.807793 0.00722408  -0.124969 -0.787211 0.00652504  -0.144274 -0.836053 0.00549746  -0.12887 -0.791448 0.00478911  -0.0873336 -0.805709 0.00848436  -0.127056 -0.789464 0.00564051  -0.178815 -0.9287 0.00598812  -0.182152 -0.932178 0.0044229  -0.119103 -0.898354 0.00905991  -0.138679 -0.948363 0.0075748  -0.122416 -0.902256 0.00671458  -0.160232 -0.881108 0.00617504  -0.180571 -0.93052 0.00519729  -0.163756 -0.884823 0.0045495  -0.120894 -0.900408 0.00787544  -0.162117 -0.88308 0.00535131  -0.217582 -1.02489 0.00560665  -0.220549 -1.02793 0.00415492  -0.155454 -0.994857 0.00835156  -0.176037 -1.04528 0.00697494  -0.158422 -0.998287 0.00620437  -0.197905 -0.976597 0.00579834  -0.219146 -1.02648 0.00487447  -0.201052 -0.979853 0.00428939  -0.157064 -0.996663 0.00726891  -0.199586 -0.978325 0.00503469  -0.258335 -1.12227 0.00522661  -0.260956 -1.12494 0.00388074  -0.194118 -1.09261 0.00766826  -0.215554 -1.14334 0.00639391  -0.196744 -1.09561 0.00570798  -0.2377 -1.07342 0.00541353  -0.259711 -1.12367 0.00454736  -0.240491 -1.07626 0.00401974  -0.195537 -1.09418 0.00668049  -0.23919 -1.07493 0.00471187  -0.300829 -1.22065 0.00482345  -0.303118 -1.22297 0.00359583  -0.234782 -1.19134 0.00699329  -0.256969 -1.24232 0.00581741  -0.237096 -1.19398 0.00521708  -0.279352 -1.17132 0.00502253  -0.302029 -1.22186 0.00420332  -0.281805 -1.17382 0.00373816  -0.236036 -1.19273 0.00610042  -0.280661 -1.17265 0.0043757  -0.344825 -1.31983 0.00444221  -0.346801 -1.32184 0.00331354  -0.277213 -1.29089 0.00635052  -0.300019 -1.34203 0.00526547  -0.279212 -1.29319 0.00473714  -0.322622 -1.27013 0.00463581  -0.345859 -1.32088 0.00387383  -0.324757 -1.27229 0.00345445  -0.278297 -1.29209 0.00553894  -0.323763 -1.27127 0.00404263  -0.390095 -1.41962 0.00404859  -0.391777 -1.42137 0.00302577  -0.321143 -1.39105 0.00572491  -0.344464 -1.44229 0.00473237  -0.322855 -1.39306 0.0042727  -0.367284 -1.36963 0.00424671  -0.390967 -1.42053 0.00353527  -0.369111 -1.37151 0.00316882  -0.322073 -1.3921 0.00499487  -0.368257 -1.37063 0.00370479  -0.436437 -1.51989 0.00367117  -0.437858 -1.5214 0.00274539  -0.366356 -1.49167 0.00512385  -0.3901 -1.54296 0.00422573  -0.367795 -1.49342 0.00382924  -0.413112 -1.46968 0.00386167  -0.437172 -1.52067 0.00320768  -0.414667 -1.47131 0.00288534  -0.367139 -1.49258 0.00447702  -0.413941 -1.47054 0.00337195  -0.483667 -1.62051 0.00329709  -0.484841 -1.6218 0.0024724  -0.412636 -1.59263 0.00455332  -0.436716 -1.64391 0.00374103  -0.413831 -1.59414 0.00340033  -0.459922 -1.57014 0.00348878  -0.484271 -1.62117 0.00288486  -0.461221 -1.57154 0.00260997  -0.413292 -1.59341 0.00397706  -0.460614 -1.57088 0.0030477  -0.531608 -1.72134 0.0029397  -0.532552 -1.72245 0.00219846  -0.459803 -1.6938 0.00400925  -0.484134 -1.74503 0.00327206  -0.46077 -1.69509 0.00299621  -0.507534 -1.67088 0.00311565  -0.532089 -1.7219 0.00256872  -0.508589 -1.67208 0.00233483  -0.460335 -1.69445 0.00350142  -0.508095 -1.67151 0.00272584  -0.580112 -1.82231 0.00258303  -0.580854 -1.82324 0.00193906  -0.507663 -1.79506 0.00348377  -0.532191 -1.84621 0.00282788  -0.50843 -1.79617 0.00261235  -0.55577 -1.77179 0.00275755  -0.580477 -1.82278 0.00226116  -0.556617 -1.77281 0.00206971  -0.508091 -1.79562 0.00305104  -0.556217 -1.77233 0.00241327  -0.629006 -1.9233 0.00224328  -0.629577 -1.92409 0.00168228  -0.556074 -1.89633 0.00299716  -0.580731 -1.94738 0.0024159  -0.556656 -1.89728 0.00224757  -0.604489 -1.87279 0.0024147  -0.629292 -1.92369 0.00196552  -0.605141 -1.87364 0.00181198  -0.556403 -1.8968 0.00262213  -0.604837 -1.87323 0.00210905  -0.678202 -2.02425 0.00191998  -0.678608 -2.0249 0.00143504  -0.604881 -1.99755 0.00253749  -0.629603 -2.04847 0.00202417  -0.605307 -1.99835 0.00189614  -0.653552 -1.97377 0.0020802  -0.678396 -2.02457 0.00167656  -0.654035 -1.97448 0.00156093  -0.605126 -1.99794 0.00221372  -0.653806 -1.97413 0.0018208  -0.727563 -2.12509 0.00159931  -0.727836 -2.12562 0.00119853  -0.653968 -2.09864 0.00210285  -0.678711 -2.1494 0.00165915  -0.654246 -2.0993 0.00157285  -0.702842 -2.07467 0.00175667  -0.727683 -2.12535 0.00139904  -0.703177 -2.07526 0.00131702  -0.65413 -2.09895 0.00183773  -0.703017 -2.07497 0.00153756  -0.776998 -2.22575 0.0012958  -0.777158 -2.22618 0.000974417  -0.703208 -2.19953 0.00169611  -0.727942 -2.25012 0.0013144  -0.703373 -2.20007 0.00126553  -0.752251 -2.17543 0.00144362  -0.777061 -2.22595 0.00113249  -0.752463 -2.17591 0.001086  -0.70331 -2.19978 0.00148106  -0.752362 -2.17567 0.00126338  -0.826429 -2.3262 0.00101519  -0.826497 -2.32655 0.00075388  -0.752517 -2.3002 0.00132155  -0.777211 -2.3506 0.0010066  -0.752591 -2.30063 0.000994205  -0.801692 -2.27599 0.00115228  -0.826441 -2.32635 0.000887394  -0.801804 -2.27637 0.000866413  -0.75257 -2.30039 0.00115895  -0.801751 -2.27618 0.0010097  -0.875798 -2.42638 0.000734329  -0.875784 -2.42666 0.000548124  -0.801812 -2.40059 0.000983238  -0.826442 -2.4508 0.000719547  -0.801809 -2.40094 0.000730276  -0.851101 -2.37631 0.000874281  -0.875764 -2.4265 0.000641823  -0.851123 -2.37662 0.000649691  -0.801828 -2.40073 0.000855446  -0.851107 -2.37646 0.000762939  -0.925036 -2.52628 0.00047636  -0.92496 -2.5265 0.000353098  -0.851043 -2.50066 0.000660419  -0.875582 -2.55068 0.000442266  -0.850978 -2.50095 0.000494003  -0.9004 -2.47634 0.000606775  -0.924966 -2.52636 0.000415087  -0.900363 -2.4766 0.000451803  -0.851022 -2.50077 0.000576258  -0.90038 -2.47647 0.000528097  -0.974102 -2.62584 0.000218868  -0.973982 -2.62603 0.000167847  -0.900147 -2.60041 0.000360727  -0.924589 -2.65023 0.000185251  -0.900033 -2.60064 0.000267506  -0.949565 -2.57608 0.000345707  -0.974011 -2.62591 0.000193834  -0.949471 -2.57629 0.000259638  -0.9001 -2.6005 0.000312805  -0.94951 -2.57618 0.000302553  -1.02289 -2.72503 -2.3365e-05  -1.02277 -2.72521 -1.88351e-05  -0.949072 -2.6998 6.36578e-05  -0.973337 -2.74942 -5.6982e-05  -0.94892 -2.70001 5.74589e-05  -0.998513 -2.67548 9.48906e-05  -1.02279 -2.72509 -1.81198e-05  -0.998384 -2.67565 7.62939e-05  -0.948995 -2.69987 5.76973e-05  -0.998435 -2.67554 8.22544e-05  0 0 0  0.0168593 -0.0116339 0.0192578  0.0118935 -0.0176713 0.0113246  0 0 0  0.00945766 -0.00603765 0.0175917  0.0174543 -0.0196484 0.0193908  0.00571531 -0.00930488 0.00859571  0 0 0  0.00762448 -0.0033313 0.0138385  0.0137647 -0.015285 0.0152118  0.00444837 -0.00682557 0.00672483  0 0 0  0.00640391 -0.00825149 0.0119476  0.00504319 -0.00575083 0.00936294  0.0341287 -0.0399727 0.0226948  0.0298222 -0.0493519 0.0156698  0.0320045 -0.0299982 0.0274239  0.0402862 -0.0520455 0.0246789  0.0265949 -0.0377144 0.0182538  0.0254763 -0.0240043 0.021488  0.0318553 -0.0453967 0.0191469  0.0208241 -0.0320477 0.0141842  0.0289958 -0.0345371 0.0228374  0.0228922 -0.0288049 0.0178185  0.0499085 -0.0808124 0.0230603  0.0457214 -0.0916218 0.0164754  0.0531953 -0.0663574 0.0296628  0.0604581 -0.0945691 0.0257168  0.0487269 -0.0763702 0.021255  0.042412 -0.0588988 0.0229976  0.047731 -0.0868769 0.0196908  0.0382394 -0.0691947 0.016284  0.0508843 -0.0720425 0.02545  0.0402409 -0.0647945 0.0195997  0.0616729 -0.132306 0.0224688  0.0572249 -0.143328 0.0162029  0.0711036 -0.113474 0.0296636  0.0759671 -0.146803 0.0253007  0.0668191 -0.124295 0.0216398  0.0564119 -0.105264 0.0227954  0.0593187 -0.138381 0.0192521  0.0521055 -0.116298 0.0164113  0.0688612 -0.119502 0.025604  0.0541419 -0.111437 0.0195267  0.0682279 -0.192962 0.0215275  0.0634959 -0.203521 0.0155923  0.0840437 -0.170402 0.0287266  0.0860274 -0.207897 0.0242929  0.0796602 -0.181129 0.0210555  0.0656546 -0.161534 0.0220065  0.0657005 -0.198708 0.0184798  0.0610552 -0.172387 0.0159225  0.0817092 -0.176301 0.0248327  0.0631964 -0.16751 0.0188811  0.0691699 -0.261342 0.0204501  0.0642902 -0.271109 0.0148635  0.0913401 -0.235864 0.0273714  0.0903351 -0.276678 0.0230374  0.0868241 -0.246013 0.0201025  0.0694233 -0.226231 0.0209923  0.0665592 -0.266616 0.0175862  0.0645974 -0.236421 0.0152383  0.0889121 -0.241397 0.0236783  0.0668283 -0.231787 0.0180411  0.0645232 -0.336134 0.0193195  0.0596426 -0.344981 0.0140939  0.0927844 -0.30851 0.0258222  0.0888891 -0.351937 0.0216699  0.0882325 -0.317843 0.0189977  0.0675554 -0.297974 0.0198834  0.0619132 -0.340876 0.0166502  0.0626546 -0.307287 0.0144844  0.0903289 -0.313562 0.0223587  0.064917 -0.303016 0.0171208  0.0545468 -0.416193 0.0181656  0.0497767 -0.42411 0.0133004  0.0884932 -0.387081 0.0241885  0.0818949 -0.432565 0.0202732  0.0840058 -0.395532 0.0178304  0.0602065 -0.375533 0.018743  0.0519985 -0.420424 0.0156889  0.0553644 -0.383907 0.0137038  0.0860736 -0.39164 0.0209687  0.0575989 -0.380045 0.016171  0.03958 -0.500576 0.0170059  0.0350349 -0.50762 0.0124919  0.0787652 -0.47051 0.0225456  0.0696912 -0.517609 0.0188661  0.074425 -0.478093 0.0166483  0.0476824 -0.457859 0.0175827  0.0371649 -0.504328 0.0147123  0.0430156 -0.465334 0.0129001  0.076421 -0.474584 0.0195606  0.0451777 -0.461876 0.0151999  0.0200679 -0.588504 0.015841  0.0157989 -0.594751 0.0116785  0.0639756 -0.557899 0.0209126  0.0526716 -0.606263 0.0174792  0.0598632 -0.564665 0.0154757  0.0303947 -0.544107 0.0164266  0.017802 -0.591827 0.0137303  0.025983 -0.550742 0.0120888  0.0617597 -0.561524 0.0181646  0.0280284 -0.547666 0.0142233  -0.00359058 -0.679353 0.0147018  -0.00754035 -0.684876 0.0108666  0.0445647 -0.648503 0.0193152  0.0312688 -0.697862 0.016119  0.040731 -0.654524 0.0143137  0.00875437 -0.633563 0.0152769  -0.00567746 -0.682286 0.0127616  0.00464344 -0.639442 0.0112724  0.0424997 -0.651724 0.016793  0.00655615 -0.636714 0.0132465  -0.0309618 -0.772585 0.0135813  -0.0345807 -0.777471 0.0100579  0.0209699 -0.741731 0.0177684  0.0059067 -0.791851 0.0148101  0.0174282 -0.747077 0.0131843  -0.0168084 -0.725665 0.0141442  -0.0328733 -0.775175 0.0118046  -0.0205981 -0.730864 0.0104635  0.0190632 -0.744582 0.0154591  -0.0188308 -0.728448 0.0122817  -0.061671 -0.867774 0.0124934  -0.0649532 -0.872097 0.00927019  -0.00638902 -0.837061 0.0162725  -0.0230157 -0.887776 0.0135455  -0.00961864 -0.841808 0.0120993  -0.0458906 -0.819927 0.0130353  -0.0633982 -0.87006 0.0108671  -0.0493456 -0.824525 0.00966358  -0.00812829 -0.839593 0.0141733  -0.047736 -0.822386 0.0113313  -0.0953461 -0.96456 0.0114362  -0.0982984 -0.968383 0.00849771  -0.0371194 -0.93411 0.0148394  -0.0551137 -0.985262 0.0123322  -0.0400292 -0.938315 0.0110431  -0.0781307 -0.915965 0.0119631  -0.0968976 -0.966584 0.00995708  -0.0812453 -0.920022 0.00888252  -0.038686 -0.936342 0.0129287  -0.0797912 -0.918132 0.0104096  -0.131662 -1.06265 0.0104179  -0.134283 -1.06601 0.00775337  -0.0708303 -1.03251 0.0134752  -0.0900332 -1.08399 0.0111732  -0.0734383 -1.03623 0.0100346  -0.113171 -1.01343 0.0109286  -0.133038 -1.06442 0.00907731  -0.115951 -1.01702 0.00812531  -0.0722363 -1.03448 0.0117459  -0.114653 -1.01535 0.00951457  -0.170295 -1.16176 0.00944757  -0.172599 -1.16472 0.00703788  -0.107199 -1.13198 0.0121777  -0.127437 -1.18368 0.0100739  -0.1095 -1.13528 0.00907421  -0.150676 -1.11207 0.00993037  -0.171495 -1.16332 0.00823641  -0.153143 -1.11522 0.00739098  -0.108435 -1.13372 0.0106182  -0.151989 -1.11375 0.00865412  -0.210944 -1.26168 0.00851393  -0.212961 -1.26429 0.00634575  -0.145881 -1.23229 0.0109396  -0.167022 -1.28413 0.00903535  -0.147893 -1.2352 0.00816345  -0.190358 -1.2116 0.00897646  -0.211998 -1.26305 0.00742364  -0.192515 -1.21439 0.00669169  -0.146967 -1.23382 0.00954485  -0.191505 -1.21309 0.00782704  -0.253358 -1.36222 0.00763202  -0.25509 -1.36451 0.00569701  -0.186582 -1.33322 0.00977445  -0.208486 -1.38513 0.00804472  -0.188327 -1.33578 0.00729775  -0.23192 -1.31186 0.00806713  -0.254259 -1.36342 0.00665808  -0.23379 -1.3143 0.00601816  -0.187526 -1.33457 0.00853109  -0.232915 -1.31316 0.00703764  -0.297279 -1.46322 0.00678849  -0.298738 -1.46521 0.00506973  -0.229043 -1.4346 0.00867605  -0.251582 -1.48652 0.0071187  -0.230521 -1.43685 0.00648165  -0.275121 -1.41265 0.00720596  -0.298029 -1.46426 0.00592947  -0.276713 -1.41479 0.00537682  -0.229843 -1.43578 0.00757647  -0.275964 -1.41379 0.00628996  -0.342466 -1.56453 0.00600028  -0.343684 -1.56627 0.00447989  -0.272992 -1.53629 0.00763726  -0.296062 -1.58817 0.00624681  -0.274218 -1.53826 0.00571465  -0.3197 -1.51382 0.00638962  -0.343088 -1.56544 0.00523901  -0.321031 -1.51568 0.00477171  -0.273657 -1.53732 0.00667405  -0.320407 -1.51481 0.00557756  -0.388717 -1.66603 0.00524688  -0.389703 -1.66754 0.00392318  -0.31819 -1.63817 0.00667739  -0.341699 -1.68995 0.00542879  -0.319192 -1.63987 0.0049901  -0.365445 -1.61524 0.00561476  -0.389214 -1.66681 0.00458312  -0.366541 -1.61686 0.00420022  -0.31874 -1.63904 0.00582981  -0.366023 -1.6161 0.00490618  -0.435839 -1.76762 0.00454688  -0.436619 -1.76891 0.00340104  -0.364439 -1.74009 0.00576711  -0.38829 -1.79175 0.0046742  -0.365236 -1.74157 0.00431466  -0.412156 -1.7168 0.00489497  -0.436224 -1.76829 0.00397348  -0.413034 -1.7182 0.00366211  -0.36488 -1.74085 0.00504041  -0.412616 -1.71754 0.00427508  -0.483645 -1.8692 0.00388765  -0.484241 -1.87031 0.0029068  -0.411543 -1.84198 0.0049336  -0.435652 -1.8935 0.0039587  -0.412152 -1.84326 0.00368786  -0.45964 -1.8184 0.00421333  -0.483938 -1.86977 0.00339508  -0.460324 -1.81959 0.00315428  -0.41188 -1.84264 0.00430965  -0.459997 -1.81903 0.00368118  -0.531986 -1.97071 0.00328207  -0.532417 -1.97164 0.00245476  -0.459325 -1.94379 0.00415015  -0.483623 -1.99513 0.00330806  -0.459763 -1.94487 0.00310397  -0.507733 -1.91995 0.00357938  -0.532189 -1.97118 0.00286722  -0.508244 -1.92096 0.00267577  -0.459568 -1.94433 0.00362706  -0.507999 -1.92049 0.00312805  -0.580709 -2.07205 0.00270939  -0.581006 -2.07284 0.00202894  -0.507608 -2.04541 0.00343561  -0.532043 -2.09656 0.0027132  -0.507902 -2.04633 0.00257254  -0.55628 -2.02138 0.00298977  -0.580835 -2.07245 0.00236845  -0.556638 -2.02224 0.00223684  -0.507779 -2.04587 0.00300431  -0.556464 -2.02183 0.00261354  -0.6297 -2.17319 0.00218964  -0.629862 -2.17384 0.00164056  -0.556269 -2.1468 0.00278449  -0.580776 -2.19774 0.00216436  -0.556435 -2.14757 0.00207877  -0.605153 -2.12263 0.00244927  -0.629755 -2.17352 0.00191522  -0.605378 -2.12335 0.00183082  -0.55637 -2.14718 0.00243163  -0.605264 -2.123 0.00213981  -0.678825 -2.27408 0.00171423  -0.678902 -2.27461 0.00127912  -0.605168 -2.24793 0.00218558  -0.62971 -2.29864 0.00167131  -0.605233 -2.24856 0.00163126  -0.654225 -2.22365 0.00194669  -0.678838 -2.27434 0.00149441  -0.654339 -2.22424 0.00145268  -0.605218 -2.24823 0.00190949  -0.654279 -2.22395 0.00169921  -0.728026 -2.37469 0.00129128  -0.728016 -2.37511 0.000957251  -0.654206 -2.34874 0.00165868  -0.67875 -2.39923 0.00122905  -0.654202 -2.34925 0.00123501  -0.703398 -2.3244 0.00149989  -0.727989 -2.37488 0.00112462  -0.703426 -2.32487 0.00111699  -0.654218 -2.34898 0.00144434  -0.703407 -2.32464 0.00130558  -0.777192 -2.47495 0.000903845  -0.77713 -2.4753 0.000674963  -0.703292 -2.44922 0.00118852  -0.727802 -2.49949 0.000848293  -0.703226 -2.44963 0.000883341  -0.752588 -2.42484 0.0010922  -0.777133 -2.47512 0.000786066  -0.752549 -2.42522 0.000813246  -0.703273 -2.4494 0.00103402  -0.75256 -2.42504 0.00095129  -0.826295 -2.57489 0.000540972  -0.826186 -2.57517 0.000401974  -0.75236 -2.54934 0.00077033  -0.776811 -2.59939 0.000507355  -0.75224 -2.54967 0.00057292  -0.801731 -2.52495 0.000714779  -0.82621 -2.57501 0.000469685  -0.801645 -2.52526 0.000535488  -0.75231 -2.54948 0.000671148  -0.801678 -2.5251 0.00062561  -0.87527 -2.67447 0.00020957  -0.875128 -2.67471 0.000160456  -0.801346 -2.64909 0.000388861  -0.825728 -2.69894 0.000186205  -0.801195 -2.64938 0.000294447  -0.850777 -2.6247 0.00037241  -0.875168 -2.67456 0.000181437  -0.850645 -2.62496 0.000281096  -0.801282 -2.6492 0.000343084  -0.850704 -2.62482 0.000324488  -0.924048 -2.77368 -0.00011158  -0.923883 -2.77392 -6.79493e-05  -0.850199 -2.74848 3.71933e-05  -0.874481 -2.79816 -0.000110626  -0.85003 -2.74875 4.22001e-05  -0.89966 -2.7241 4.69685e-05  -0.923917 -2.77376 -9.08375e-05  -0.899506 -2.72433 4.31538e-05  -0.850125 -2.74858 3.50475e-05  -0.899573 -2.7242 4.50611e-05  0 0 0  0.025941 -0.0217979 0.0292144  0.0192165 -0.0273734 0.0174  0 0 0  0.0134341 -0.0137655 0.0240641  0.0266109 -0.0317151 0.0265005  0.00885498 -0.0170713 0.0117316  0 0 0  0.0113383 -0.00942111 0.0208278  0.0217112 -0.0250024 0.0231566  0.00709964 -0.0125528 0.0102353  0 0 0  0.00974272 -0.0156974 0.0163288  0.00788125 -0.0114437 0.014215  0.0523199 -0.0546336 0.0351312  0.0470675 -0.063549 0.0246413  0.0475227 -0.0449176 0.0380893  0.0598234 -0.0680788 0.0347874  0.0409387 -0.0525622 0.0255103  0.0392669 -0.03694 0.0329096  0.0495479 -0.0596346 0.0298796  0.0332192 -0.0444826 0.022006  0.0438057 -0.0491815 0.0317492  0.0358891 -0.0412696 0.0274403  0.076131 -0.0972813 0.0365605  0.0717142 -0.107658 0.026582  0.0771912 -0.0835026 0.0423748  0.0881369 -0.112158 0.0371764  0.0722447 -0.0932967 0.0305097  0.0647299 -0.0746005 0.0361514  0.0738741 -0.103022 0.0315287  0.0599988 -0.0844242 0.0259864  0.0746115 -0.0889254 0.0364246  0.06229 -0.080114 0.0310524  0.0953557 -0.150087 0.0360754  0.0911517 -0.160785 0.02649  0.10253 -0.131971 0.0430663  0.11114 -0.165784 0.0370152  0.0982765 -0.142499 0.0316072  0.0864086 -0.122401 0.0364599  0.0931845 -0.155952 0.0312226  0.0821445 -0.133044 0.0266974  0.10034 -0.137772 0.037297  0.0842095 -0.128303 0.031532  0.109037 -0.212174 0.0346515  0.104829 -0.222544 0.0255277  0.122587 -0.1903 0.0419617  0.128304 -0.228447 0.0356505  0.118547 -0.200769 0.0309808  0.102944 -0.18 0.0354204  0.106837 -0.217814 0.0300276  0.0987492 -0.190594 0.0260804  0.120483 -0.196041 0.0364246  0.10075 -0.185824 0.0306935  0.116749 -0.282222 0.0327795  0.112506 -0.291938 0.0241814  0.136684 -0.257384 0.039968  0.139287 -0.29904 0.033726  0.132686 -0.267358 0.0295734  0.113671 -0.246239 0.0337324  0.114516 -0.287482 0.0284224  0.10944 -0.256312 0.0248833  0.134583 -0.262824 0.0347257  0.111435 -0.251741 0.0292511  0.118415 -0.358938 0.0307133  0.114206 -0.36784 0.0226865  0.144537 -0.331875 0.0375597  0.144025 -0.376312 0.0315566  0.140569 -0.341139 0.0278194  0.118359 -0.319792 0.0317478  0.116197 -0.363734 0.0266523  0.11412 -0.329105 0.0234461  0.142437 -0.336909 0.0326478  0.116103 -0.324849 0.0275445  0.114221 -0.441108 0.0285807  0.110116 -0.449166 0.021142  0.146172 -0.41249 0.0349934  0.142678 -0.459097 0.029309  0.142278 -0.420956 0.0259435  0.117058 -0.399369 0.029649  0.112057 -0.445436 0.0248203  0.112888 -0.407849 0.0219178  0.1441 -0.417075 0.0304322  0.114839 -0.403964 0.025737  0.104499 -0.527725 0.0264556  0.100565 -0.534959 0.0195971  0.141834 -0.49809 0.0323865  0.135572 -0.546368 0.0270696  0.138067 -0.505741 0.0240335  0.110055 -0.483882 0.0275173  0.102431 -0.531599 0.0229959  0.106025 -0.491522 0.0203691  0.139829 -0.50222 0.0281804  0.10791 -0.488011 0.023906  0.0896636 -0.617911 0.0243788  0.0859571 -0.624391 0.0180824  0.131895 -0.587677 0.0298293  0.123117 -0.637246 0.0248816  0.128317 -0.594574 0.0221539  0.0977221 -0.572378 0.0254076  0.0877196 -0.621379 0.0212026  0.0938956 -0.579233 0.0188358  0.129992 -0.591397 0.0259652  0.0956903 -0.576079 0.0220931  0.0701739 -0.710988 0.0223701  0.0667232 -0.716768 0.0166101  0.116811 -0.680476 0.0273445  0.105756 -0.731016 0.0227826  0.113457 -0.686656 0.020329  0.0805054 -0.664095 0.0233662  0.0683633 -0.714079 0.0194681  0.0769209 -0.670215 0.0173416  0.115027 -0.683801 0.0238161  0.0785995 -0.667394 0.0203273  0.0464597 -0.806375 0.0204432  0.0432897 -0.811525 0.0151992  0.0970453 -0.775818 0.0249674  0.083958 -0.827085 0.0207663  0.0939375 -0.781344 0.0185833  0.0588402 -0.758391 0.0213995  0.0448025 -0.809125 0.017803  0.0555325 -0.763853 0.0159006  0.0953946 -0.778793 0.0217607  0.0570875 -0.761333 0.0186286  0.0189618 -0.903602 0.0186012  0.0160859 -0.908189 0.0138423  0.0730515 -0.873164 0.0226955  0.0581738 -0.924961 0.0188448  0.0702163 -0.878106 0.0169082  0.033187 -0.854758 0.0195153  0.0174621 -0.906047 0.0162082  0.0301629 -0.859618 0.0145154  0.0715455 -0.875818 0.0197916  0.0315834 -0.85737 0.0169978  -0.0119083 -1.00228 0.0168533  -0.0144943 -1.00636 0.0125525  0.0452863 -0.972088 0.0205543  0.0288171 -1.02425 0.0170338  0.0427217 -0.976489 0.0153232  0.00394702 -0.952753 0.0177219  -0.01325 -1.00446 0.0146935  0.00122082 -0.957079 0.0131903  0.0439222 -0.974449 0.0179241  0.00250709 -0.955085 0.0154414  -0.0457672 -1.1021 0.0152109  -0.048067 -1.10572 0.0113344  0.0141535 -1.07222 0.018523  -0.00370157 -1.12462 0.015327  0.0118604 -1.07614 0.0138216  -0.0284586 -1.05204 0.0160224  -0.0469581 -1.10403 0.0132642  -0.0309027 -1.05588 0.0119355  0.0129353 -1.07432 0.0161643  -0.029747 -1.05411 0.0139678  -0.0822756 -1.20278 0.0136435  -0.0842917 -1.20599 0.0101814  -0.0199568 -1.17325 0.0166287  -0.0390177 -1.2258 0.0137165  -0.0219718 -1.17675 0.0124147  -0.0636873 -1.15232 0.0144134  -0.083312 -1.20448 0.0119066  -0.0658391 -1.15573 0.0107512  -0.0210246 -1.17512 0.0145125  -0.064819 -1.15415 0.012574  -0.12109 -1.30409 0.012176  -0.122829 -1.30693 0.00909328  -0.0566828 -1.27496 0.0148325  -0.0767915 -1.32756 0.0122068  -0.0584342 -1.27806 0.0110788  -0.101385 -1.25334 0.0129004  -0.121982 -1.3056 0.0106263  -0.10326 -1.25636 0.00962663  -0.0576117 -1.27662 0.0129519  -0.102372 -1.25497 0.0112588  -0.161905 -1.40587 0.0108039  -0.163393 -1.40838 0.00806355  -0.0956895 -1.37713 0.0131543  -0.116694 -1.42971 0.010792  -0.0971901 -1.37988 0.00983047  -0.141234 -1.35491 0.0114806  -0.162664 -1.4072 0.00942874  -0.142852 -1.35758 0.00857234  -0.0964875 -1.37859 0.0114911  -0.142086 -1.35635 0.0100222  -0.204458 -1.50794 0.00950336  -0.205696 -1.51014 0.00709963  -0.136681 -1.47959 0.0115814  -0.158443 -1.53209 0.00946927  -0.137941 -1.48201 0.00866008  -0.182952 -1.45685 0.0101466  -0.205082 -1.50911 0.0083003  -0.184316 -1.45921 0.00757599  -0.13735 -1.48087 0.0101171  -0.183666 -1.45812 0.0088563  -0.248477 -1.61017 0.00829363  -0.24949 -1.6121 0.00620198  -0.179374 -1.58219 0.0101161  -0.201773 -1.63457 0.00823426  -0.180405 -1.58433 0.00756812  -0.226274 -1.55902 0.00889254  -0.248984 -1.61119 0.00724483  -0.227396 -1.56109 0.00664425  -0.179924 -1.58333 0.00884032  -0.226857 -1.56013 0.00776315  -0.293725 -1.71245 0.00717354  -0.294533 -1.71413 0.0053618  -0.223512 -1.68483 0.00875688  -0.246435 -1.73705 0.00708818  -0.224329 -1.6867 0.00655317  -0.27094 -1.66129 0.00772643  -0.294131 -1.71334 0.0062654  -0.271843 -1.66309 0.0057745  -0.223949 -1.68582 0.00765204  -0.271407 -1.66226 0.0067482  -0.340009 -1.81468 0.0061326  -0.340628 -1.81613 0.00458741  -0.26885 -1.7874 0.00749421  -0.292207 -1.83943 0.00603509  -0.269482 -1.78902 0.0056088  -0.316727 -1.76356 0.00664473  -0.340307 -1.81544 0.00535822  -0.317439 -1.76512 0.00496936  -0.26919 -1.78825 0.00655365  -0.317096 -1.76439 0.00580549  -0.387124 -1.91679 0.00516844  -0.38757 -1.91803 0.00386477  -0.315195 -1.88981 0.00632763  -0.338887 -1.94162 0.00506163  -0.315654 -1.89122 0.0047431  -0.363446 -1.86573 0.0056448  -0.387325 -1.91743 0.00451493  -0.363979 -1.86708 0.004215  -0.315437 -1.89054 0.00553679  -0.363716 -1.86645 0.00492835  -0.434893 -2.0187 0.00428724  -0.435186 -2.01975 0.00320387  -0.362347 -1.99201 0.00527096  -0.386305 -2.04358 0.00416756  -0.362656 -1.99321 0.00394297  -0.41091 -1.96775 0.00471687  -0.435017 -2.01924 0.00374246  -0.411279 -1.9689 0.00352788  -0.36251 -1.99263 0.00460267  -0.411094 -1.96836 0.00411987  -0.483145 -2.12034 0.00347996  -0.483318 -2.12124 0.00260282  -0.410128 -2.09393 0.00429869  -0.434274 -2.14524 0.00335836  -0.410297 -2.09494 0.00321722  -0.458944 -2.06953 0.00387239  -0.48321 -2.1208 0.00304079  -0.459172 -2.07051 0.0028975  -0.410225 -2.09445 0.00375748  -0.459054 -2.07005 0.00338364  -0.531762 -2.22171 0.00276041  -0.531816 -2.22245 0.00205946  -0.458384 -2.19552 0.00341964  -0.482653 -2.24659 0.0026443  -0.458442 -2.19637 0.00256252  -0.507393 -2.17105 0.00311327  -0.53176 -2.22208 0.00240779  -0.507506 -2.17186 0.00232315  -0.458417 -2.19595 0.0029912  -0.507441 -2.17147 0.0027144  -0.580591 -2.32274 0.00210094  -0.580574 -2.32335 0.0015738  -0.506965 -2.29677 0.00263882  -0.531314 -2.34757 0.00200081  -0.506931 -2.29747 0.0019784  -0.556126 -2.27225 0.00242639  -0.580551 -2.32304 0.00183606  -0.556142 -2.27291 0.00181055  -0.506951 -2.29712 0.00230503  -0.556125 -2.2726 0.00211668  -0.629553 -2.42342 0.00153518  -0.629475 -2.42391 0.00114965  -0.55576 -2.39766 0.00195384  -0.58015 -2.44818 0.00144553  -0.555661 -2.39821 0.0014677  -0.605042 -2.37311 0.00181007  -0.629484 -2.42366 0.00134182  -0.604987 -2.37365 0.00135708  -0.555711 -2.39792 0.00171137  -0.605002 -2.37338 0.00158238  -0.678543 -2.52373 0.00103951  -0.678425 -2.52412 0.000779152  -0.604657 -2.49814 0.00136924  -0.629048 -2.54842 0.000968456  -0.604517 -2.49859 0.00102115  -0.654024 -2.47361 0.00128317  -0.678453 -2.52391 0.000906944  -0.653922 -2.47404 0.000959396  -0.604593 -2.49834 0.00119591  -0.653963 -2.47383 0.0011189  -0.727505 -2.62366 0.000613689  -0.727354 -2.62397 0.000462532  -0.653579 -2.59823 0.000863314  -0.677945 -2.64827 0.00056529  -0.653401 -2.59859 0.000656366  -0.703011 -2.57372 0.000822306  -0.7274 -2.6238 0.000535965  -0.702867 -2.57407 0.000614882  -0.653501 -2.59839 0.000757217  -0.702929 -2.5739 0.000718117  -0.776395 -2.72321 0.000222683  -0.77622 -2.72349 0.00017333  -0.702447 -2.69793 0.00043416  -0.726792 -2.74777 0.0002141  -0.702275 -2.69824 0.000336409  -0.751939 -2.67346 0.000416756  -0.776279 -2.72334 0.000196695  -0.751777 -2.67376 0.000317097  -0.702369 -2.69806 0.000383854  -0.751844 -2.67361 0.000365496  -0.825164 -2.82245 -0.000133753  -0.824987 -2.82272 -9.63211e-05  -0.75125 -2.7973 5.29289e-05  -0.775561 -2.847 -0.000106812  -0.751081 -2.79758 4.86374e-05  -0.800767 -2.77284 3.86238e-05  -0.825035 -2.82256 -0.00011611  -0.800596 -2.77312 3.88622e-05  -0.751183 -2.7974 4.88758e-05  -0.800671 -2.77297 3.67165e-05  0 0 0  0.0385647 -0.0370081 0.0377705  0.0306752 -0.0436544 0.0225821  0 0 0  0.0215981 -0.0291349 0.0295432  0.042846 -0.0507314 0.0328534  0.0170629 -0.0347471 0.0148177  0 0 0  0.0162292 -0.0196789 0.0260737  0.0334145 -0.0405734 0.0297284  0.0112395 -0.0236601 0.0129802  0 0 0  0.0178449 -0.0316905 0.0203722  0.0121104 -0.0217406 0.0178463  0.0744115 -0.0722231 0.0467057  0.0685129 -0.0815033 0.0328012  0.0681159 -0.0629829 0.0486138  0.0836928 -0.0869353 0.0447519  0.0612341 -0.0720158 0.0326147  0.0572057 -0.0537733 0.0432806  0.0712105 -0.0772608 0.0396874  0.0502472 -0.0619248 0.0289454  0.0640006 -0.0679369 0.0404234  0.0532206 -0.0582199 0.0359571  0.105619 -0.11626 0.0495677  0.101033 -0.126578 0.0360577  0.104857 -0.102666 0.0550578  0.119333 -0.13212 0.048327  0.0997122 -0.112892 0.0394669  0.09057 -0.0929085 0.0486791  0.103279 -0.121883 0.0427556  0.0854612 -0.102842 0.0349708  0.102111 -0.108269 0.0471795  0.0878865 -0.098362 0.0417664  0.131957 -0.170529 0.0492752  0.127907 -0.181003 0.0362561  0.137386 -0.152731 0.0562191  0.149617 -0.187307 0.048291  0.133107 -0.163187 0.0411232  0.119479 -0.142093 0.0496731  0.129908 -0.176241 0.0427077  0.115226 -0.152566 0.0364141  0.135211 -0.158453 0.0486088  0.117312 -0.147842 0.042989  0.152503 -0.234275 0.0474124  0.148648 -0.244408 0.0350204  0.16449 -0.212876 0.054827  0.173749 -0.251836 0.0465333  0.160564 -0.223068 0.0403965  0.143017 -0.201251 0.0484581  0.150549 -0.239784 0.0411618  0.13909 -0.211593 0.0357585  0.162506 -0.218447 0.0475578  0.141016 -0.206916 0.0420551  0.166716 -0.306206 0.0447905  0.162932 -0.31572 0.033144  0.185272 -0.28195 0.0521743  0.191233 -0.324495 0.0439627  0.181473 -0.291594 0.0385611  0.160442 -0.269262 0.0461485  0.164793 -0.311361 0.0389178  0.156631 -0.279107 0.0341418  0.183349 -0.287212 0.045316  0.158489 -0.27464 0.0400946  0.174439 -0.384948 0.0418267  0.170711 -0.393721 0.0309935  0.199332 -0.358555 0.0489128  0.201934 -0.403953 0.0410368  0.195596 -0.367503 0.0362251  0.171417 -0.344766 0.0433235  0.172537 -0.389695 0.0363672  0.167655 -0.353919 0.032095  0.197437 -0.36344 0.0425265  0.16948 -0.349756 0.0376618  0.175778 -0.469256 0.0387623  0.172146 -0.477257 0.0287511  0.206642 -0.441362 0.0454321  0.205979 -0.488973 0.0380042  0.202984 -0.449551 0.0336969  0.175913 -0.426442 0.0402923  0.173919 -0.473581 0.0337183  0.172231 -0.434828 0.0298786  0.204778 -0.445828 0.0395272  0.174012 -0.431008 0.0350442  0.171043 -0.558048 0.0357058  0.167567 -0.565284 0.0265148  0.207414 -0.529157 0.0419042  0.203714 -0.578466 0.0349729  0.203893 -0.536588 0.0311236  0.174165 -0.513121 0.0372221  0.169269 -0.561956 0.0310786  0.170609 -0.520726 0.0276306  0.205618 -0.53321 0.0364845  0.172332 -0.51726 0.0323925  0.160674 -0.650398 0.0327325  0.157384 -0.656916 0.024332  0.202056 -0.620926 0.0384459  0.195559 -0.671504 0.0320356  0.198698 -0.627637 0.0285945  0.166563 -0.603795 0.0342059  0.158999 -0.65392 0.0285075  0.163173 -0.610665 0.0254157  0.200348 -0.624582 0.0334947  0.164812 -0.607533 0.0297816  0.14514 -0.745577 0.0298865  0.142077 -0.751423 0.022234  0.191044 -0.715823 0.0351052  0.182017 -0.767343 0.0292094  0.187892 -0.721856 0.0261381  0.153551 -0.697645 0.0312924  0.143584 -0.748739 0.0260401  0.150368 -0.703819 0.0232742  0.189436 -0.719108 0.0306051  0.151913 -0.701005 0.0272567  0.12493 -0.842959 0.0271654  0.122109 -0.848196 0.0202358  0.174884 -0.813144 0.0319476  0.163583 -0.865345 0.0265279  0.171952 -0.81856 0.0238087  0.13562 -0.793997 0.0285075  0.123503 -0.845792 0.0236831  0.132672 -0.799533 0.021224  0.173387 -0.816101 0.0278587  0.134104 -0.797015 0.0248451  0.100518 -0.942049 0.0245912  0.0979501 -0.946739 0.0183322  0.154058 -0.912342 0.0289259  0.140758 -0.965016 0.0239899  0.151381 -0.9172 0.0215895  0.11325 -0.892288 0.025862  0.0992241 -0.944584 0.0214481  0.110552 -0.897249 0.0192707  0.152693 -0.914995 0.0252447  0.111863 -0.894992 0.0225475  0.0723485 -1.04245 0.0221651  0.0700423 -1.04664 0.0165377  0.129069 -1.01296 0.0260835  0.113997 -1.06594 0.0215981  0.126652 -1.01731 0.0194833  0.0869017 -0.992081 0.02336  0.0711892 -1.04471 0.0193393  0.0844644 -0.996517 0.0174229  0.127844 -1.01534 0.0227711  0.0856532 -0.9945 0.0203764  0.0408449 -1.14381 0.0198956  0.0388035 -1.14755 0.0148523  0.100389 -1.11463 0.0234308  0.0837495 -1.16777 0.019362  0.0982244 -1.11851 0.0175123  0.0570166 -1.093 0.0210176  0.0398248 -1.14584 0.0173652  0.0548391 -1.09697 0.0156834  0.0992874 -1.11675 0.0204632  0.0559014 -1.09517 0.0183389  0.00640392 -1.24589 0.0177662  0.00461888 -1.24922 0.0132682  0.068418 -1.21706 0.0209389  0.0504129 -1.27024 0.0172548  0.0665128 -1.22051 0.0156636  0.0239943 -1.19475 0.0188148  0.00551724 -1.24769 0.0155094  0.0220853 -1.19828 0.01405  0.0674505 -1.21894 0.0182946  0.0230201 -1.19668 0.0164225  -0.0306172 -1.34843 0.0157626  -0.0321577 -1.3514 0.0117812  0.0335586 -1.31998 0.0186095  0.0143769 -1.37314 0.015291  0.0318997 -1.32305 0.0139294  -0.0117769 -1.29709 0.016747  -0.031373 -1.35004 0.013768  -0.0134413 -1.30023 0.0125148  0.0327148 -1.32165 0.0162671  -0.012619 -1.29881 0.0146215  -0.0698898 -1.45128 0.0138969  -0.0711913 -1.4539 0.0103962  -0.00384688 -1.42319 0.0164318  -0.0240397 -1.47627 0.0134623  -0.00525475 -1.42592 0.0123127  -0.0499699 -1.39981 0.0148175  -0.0705214 -1.4527 0.0121388  -0.0513797 -1.4026 0.0110803  -0.00455141 -1.42469 0.0143678  -0.0506816 -1.40133 0.012943  -0.111115 -1.55427 0.0121536  -0.112175 -1.55658 0.00909758  -0.0434444 -1.52655 0.0143876  -0.0645113 -1.57947 0.0117502  -0.0446186 -1.52896 0.0107956  -0.0902483 -1.50274 0.0130117  -0.111619 -1.55552 0.0106208  -0.0914297 -1.50521 0.00973463  -0.0440378 -1.52787 0.0125883  -0.090842 -1.50409 0.011369  -0.153992 -1.65726 0.0105374  -0.154845 -1.6593 0.00789022  -0.0849473 -1.6299 0.0125101  -0.106744 -1.68263 0.0101612  -0.0858929 -1.63203 0.0093832  -0.132333 -1.60575 0.0113337  -0.154392 -1.65836 0.00921154  -0.13329 -1.60792 0.00847936  -0.0854218 -1.63106 0.0109427  -0.132808 -1.60694 0.00990462  -0.198277 -1.76016 0.00904393  -0.198943 -1.76194 0.00677252  -0.128059 -1.73314 0.0107613  -0.150474 -1.78564 0.00869155  -0.128817 -1.735 0.00808096  -0.175948 -1.70871 0.00978017  -0.198578 -1.76112 0.00790524  -0.176706 -1.71062 0.00732207  -0.128432 -1.73416 0.00941825  -0.176318 -1.70975 0.00854659  -0.24375 -1.86289 0.00766826  -0.244236 -1.86443 0.00574207  -0.172556 -1.83618 0.00914383  -0.195478 -1.88841 0.00735402  -0.173119 -1.83779 0.00687981  -0.220858 -1.81154 0.00833726  -0.24396 -1.86372 0.00670338  -0.221425 -1.81319 0.00624537  -0.17283 -1.83705 0.00801015  -0.221129 -1.81244 0.00728893  -0.290188 -1.96537 0.00639653  -0.290517 -1.9667 0.00479579  -0.218185 -1.93895 0.00767398  -0.241528 -1.9909 0.00611496  -0.218585 -1.94034 0.00576997  -0.266841 -1.91415 0.00702095  -0.290312 -1.96608 0.00559306  -0.267238 -1.91558 0.00525856  -0.218377 -1.93969 0.00671816  -0.26702 -1.91493 0.00613785  -0.337409 -2.06755 0.0052433  -0.3376 -2.06868 0.00393152  -0.264764 -2.04137 0.00632453  -0.288417 -2.09303 0.00498438  -0.265009 -2.04256 0.0047636  -0.313686 -2.01648 0.00580597  -0.337457 -2.06815 0.0045867  -0.313944 -2.01771 0.00435281  -0.264875 -2.04202 0.00554252  -0.313796 -2.01716 0.00507808  -0.385231 -2.16938 0.00420213  -0.385302 -2.17033 0.00315142  -0.312086 -2.14343 0.00509214  -0.335998 -2.19479 0.00396991  -0.3122 -2.14442 0.00384688  -0.36123 -2.1185 0.00470924  -0.385225 -2.16988 0.00367308  -0.361354 -2.11953 0.00352979  -0.312125 -2.14395 0.00447083  -0.361271 -2.11906 0.00411677  -0.433504 -2.27084 0.00327539  -0.433474 -2.27162 0.00246072  -0.359983 -2.24507 0.00399876  -0.384076 -2.29613 0.00307369  -0.359994 -2.2459 0.00302577  -0.409297 -2.22014 0.00372791  -0.433448 -2.27125 0.00286722  -0.409312 -2.221 0.00279665  -0.359975 -2.24552 0.0035131  -0.409285 -2.22061 0.00325799  -0.48209 -2.3719 0.0024507  -0.481983 -2.37253 0.00184655  -0.408308 -2.3463 0.00302505  -0.432526 -2.39706 0.00228763  -0.408221 -2.34698 0.00230336  -0.45774 -2.3214 0.00285292  -0.481991 -2.37222 0.00214839  -0.457668 -2.32211 0.00213933  -0.408257 -2.34665 0.00266218  -0.45768 -2.32178 0.00249434  -0.530868 -2.47254 0.0017519  -0.530711 -2.47305 0.00131965  -0.456933 -2.44707 0.00218415  -0.481218 -2.49755 0.0016067  -0.456778 -2.44763 0.00167298  -0.506433 -2.42226 0.00208592  -0.530743 -2.4728 0.00153399  -0.506299 -2.42282 0.00157309  -0.456842 -2.44736 0.00192809  -0.506345 -2.42256 0.00182676  -0.57972 -2.57278 0.00116038  -0.579545 -2.57318 0.000880241  -0.505719 -2.54744 0.00147772  -0.530043 -2.59763 0.00106025  -0.50553 -2.54787 0.00116324  -0.555265 -2.52269 0.00144386  -0.579596 -2.57298 0.00101876  -0.555095 -2.52315 0.00108981  -0.505616 -2.54764 0.00132203  -0.555156 -2.52293 0.00126481  -0.628591 -2.67263 0.000659704  -0.628398 -2.67295 0.000508785  -0.554583 -2.64737 0.000905752  -0.578906 -2.69732 0.00059557  -0.554372 -2.64772 0.000720501  -0.604142 -2.62274 0.00090313  -0.628459 -2.67277 0.000583887  -0.603949 -2.6231 0.000689507  -0.554476 -2.64752 0.000813723  -0.604027 -2.62292 0.000794649  -0.677406 -2.7721 0.000255108  -0.677221 -2.77239 0.000205517  -0.603413 -2.74693 0.000453472  -0.627736 -2.79669 0.000243664  -0.603217 -2.74722 0.000374079  -0.652977 -2.72239 0.000452757  -0.677285 -2.77222 0.000228405  -0.652787 -2.72269 0.000351191  -0.603324 -2.74704 0.000409603  -0.652873 -2.72253 0.000401974  -0.72618 -2.87131 -0.000106096  -0.726015 -2.87159 -8.65459e-05  -0.652208 -2.84618 9.32217e-05  -0.676538 -2.89587 -7.24792e-05  -0.652021 -2.84648 8.44002e-05  -0.701763 -2.8217 7.72476e-05  -0.726068 -2.87143 -9.56059e-05  -0.701593 -2.82199 6.38962e-05  -0.652133 -2.84629 8.72612e-05  -0.701676 -2.82184 6.93798e-05  -0.0390141 -0.0305676 -0.0249469  -0.0208061 -0.0216898 -0.0106435  0 0 0  -0.0257908 -0.0238068 -0.0162468  0 0 0  -0.0171312 -0.0134573 -0.0177298  -0.00682444 -0.0059372 -0.00739408  0 0 0  -0.0196315 -0.0201587 -0.0139966  -0.0255673 -0.0211041 -0.0212526  -0.00986253 -0.0109268 -0.00889969  0 0 0  -0.00678705 -0.00482949 -0.00966954  -0.00970266 -0.00973354 -0.0116725  -0.0774643 -0.0497162 -0.0390189  -0.059058 -0.0436532 -0.0255055  -0.0599227 -0.0474 -0.0258965  -0.0450251 -0.0374988 -0.0282967  -0.0304148 -0.0279961 -0.0184679  -0.0577613 -0.0394096 -0.0333204  -0.0596587 -0.0427627 -0.0334911  -0.042639 -0.0350044 -0.0219135  -0.0306102 -0.0246963 -0.0240192  -0.0423657 -0.0311505 -0.0285378  -0.11745 -0.0761764 -0.0434275  -0.0982541 -0.0671576 -0.0328887  -0.0951785 -0.0773084 -0.0295985  -0.0744533 -0.0695806 -0.0316765  -0.059801 -0.0568255 -0.02406  -0.097391 -0.0617787 -0.042135  -0.0944327 -0.0721998 -0.0373952  -0.0774453 -0.0612874 -0.028378  -0.0596479 -0.0523926 -0.030643  -0.0770194 -0.056313 -0.0362244  -0.157519 -0.111714 -0.042311  -0.138675 -0.0982561 -0.0344572  -0.131076 -0.115542 -0.0293493  -0.104836 -0.11056 -0.0309932  -0.0904405 -0.0935546 -0.0253313  -0.137515 -0.0928761 -0.0433121  -0.129669 -0.110756 -0.036541  -0.113039 -0.095379 -0.0298152  -0.0894828 -0.0890114 -0.0316653  -0.111971 -0.090414 -0.0373547  -0.197437 -0.155284 -0.0388074  -0.179115 -0.137419 -0.0327682  -0.167572 -0.161331 -0.0271511  -0.136647 -0.159287 -0.0284774  -0.122185 -0.138203 -0.0241385  -0.177493 -0.132597 -0.0407333  -0.165649 -0.157145 -0.033561  -0.149229 -0.137525 -0.0283942  -0.120545 -0.134037 -0.0298753  -0.147558 -0.133058 -0.0352042  -0.237416 -0.205685 -0.0345557  -0.219383 -0.183826 -0.0296903  -0.204705 -0.213654 -0.0242403  -0.170001 -0.214505 -0.0253396  -0.155209 -0.189775 -0.0218663  -0.217408 -0.179713 -0.0367155  -0.20248 -0.210107 -0.0298836  -0.186037 -0.186701 -0.0257289  -0.153129 -0.186149 -0.0269439  -0.183952 -0.182868 -0.0317519  -0.277721 -0.261969 -0.03034  -0.25967 -0.236588 -0.0262675  -0.242569 -0.271663 -0.021261  -0.204866 -0.275253 -0.022192  -0.189536 -0.247304 -0.0192883  -0.257522 -0.233153 -0.0324166  -0.240231 -0.268714 -0.0262091  -0.223517 -0.241957 -0.0227351  -0.187241 -0.244229 -0.0237508  -0.22123 -0.238745 -0.028023  -0.318587 -0.323438 -0.0264924  -0.300268 -0.294942 -0.0229774  -0.281302 -0.334748 -0.0185134  -0.241209 -0.340844 -0.0193005  -0.225187 -0.310057 -0.0168009  -0.298072 -0.292104 -0.0283663  -0.278976 -0.332289 -0.0228519  -0.261796 -0.302577 -0.0198498  -0.222848 -0.307469 -0.0207102  -0.259469 -0.299906 -0.0244837  -0.360192 -0.389534 -0.023104  -0.341423 -0.358305 -0.0200257  -0.321019 -0.402372 -0.0160863  -0.279012 -0.410768 -0.0167465  -0.2622 -0.377457 -0.0145586  -0.339293 -0.355943 -0.0247459  -0.318803 -0.400326 -0.0198879  -0.301009 -0.367992 -0.0172541  -0.259925 -0.375288 -0.0179861  -0.298748 -0.365772 -0.0213187  -0.402643 -0.459816 -0.0201521  -0.383318 -0.426158 -0.017442  -0.361822 -0.474111 -0.0139692  -0.318245 -0.484584 -0.0145245  -0.300588 -0.449031 -0.0126021  -0.381309 -0.424186 -0.0215816  -0.359744 -0.472387 -0.017303  -0.341261 -0.437725 -0.0149889  -0.298447 -0.447207 -0.0155981  -0.339128 -0.435875 -0.0185511  -0.446014 -0.533889 -0.017576  -0.426069 -0.49807 -0.0151935  -0.403739 -0.549556 -0.0121367  -0.358879 -0.561916 -0.0125875  -0.340363 -0.524371 -0.0109076  -0.424213 -0.496406 -0.018822  -0.401832 -0.548097 -0.0150535  -0.382615 -0.511366 -0.01302  -0.338383 -0.522827 -0.0135217  -0.380643 -0.509806 -0.0161381  -0.490316 -0.611394 -0.0153165  -0.469742 -0.573645 -0.0132284  -0.446775 -0.628343 -0.0105314  -0.400852 -0.642417 -0.0108984  -0.381494 -0.6031 -0.00943565  -0.468046 -0.572231 -0.0164132  -0.445043 -0.627106 -0.0130839  -0.425093 -0.588523 -0.0113068  -0.379695 -0.601784 -0.0117161  -0.423292 -0.587205 -0.0140364  -0.53553 -0.692018 -0.0133109  -0.514349 -0.652543 -0.0115068  -0.490897 -0.710143 -0.00912452  -0.444098 -0.725761 -0.009413  -0.423941 -0.684867 -0.00814748  -0.512808 -0.651335 -0.0142863  -0.489337 -0.70909 -0.0113435  -0.468678 -0.668862 -0.00980711  -0.422315 -0.68375 -0.0101342  -0.467057 -0.667742 -0.0121872  -0.581623 -0.775441 -0.0115273  -0.559842 -0.734428 -0.00997305  -0.536046 -0.79465 -0.00787425  -0.488516 -0.81165 -0.00809288  -0.467616 -0.769362 -0.00701499  -0.558469 -0.7334 -0.0123937  -0.534649 -0.793749 -0.009794  -0.513324 -0.752054 -0.00848079  -0.46616 -0.768402 -0.00873232  -0.511866 -0.751098 -0.0105467  -0.628528 -0.861392 -0.00994015  -0.606196 -0.819005 -0.00861287  -0.582143 -0.881568 -0.00676584  -0.534017 -0.89981 -0.00691795  -0.51243 -0.856281 -0.00601554  -0.604979 -0.818116 -0.0107124  -0.580903 -0.8808 -0.00841856  -0.558954 -0.837803 -0.00730109  -0.511135 -0.855461 -0.00749111  -0.55766 -0.836988 -0.00908494  -0.676156 -0.949589 -0.00850081  -0.653323 -0.905988 -0.00739622  -0.629085 -0.970628 -0.00576353  -0.580478 -0.989973 -0.0058682  -0.558274 -0.945357 -0.00512123  -0.652255 -0.905224 -0.00919628  -0.627989 -0.969974 -0.00717545  -0.605488 -0.925823 -0.00624895  -0.557129 -0.944655 -0.00637913  -0.604343 -0.925132 -0.00778103  -0.724423 -1.03979 -0.00721622  -0.701155 -0.995116 -0.00630808  -0.676781 -1.06159 -0.00486827  -0.627786 -1.08191 -0.00493002  -0.605033 -1.03633 -0.00432181  -0.70022 -0.994461 -0.00784016  -0.675817 -1.06103 -0.00606346  -0.65282 -1.01587 -0.00530481  -0.60403 -1.03573 -0.00538921  -0.651817 -1.01528 -0.00660515  -0.773244 -1.13177 -0.00604868  -0.749586 -1.08613 -0.00530887  -0.725116 -1.15422 -0.00406384  -0.675816 -1.17538 -0.00408602  -0.652583 -1.12897 -0.00360632  -0.748774 -1.08558 -0.00661182  -0.724278 -1.15375 -0.00506091  -0.70085 -1.10769 -0.00445771  -0.651712 -1.12845 -0.00449634  -0.699972 -1.10719 -0.00554991  -0.822512 -1.22528 -0.00501227  -0.798521 -1.17882 -0.00443006  -0.773977 -1.2483 -0.00334978  -0.724444 -1.27018 -0.00333643  -0.700808 -1.22305 -0.00296426  -0.797824 -1.17834 -0.00551796  -0.773256 -1.2479 -0.00417256  -0.74946 -1.20107 -0.00369573  -0.700056 -1.22262 -0.00370407  -0.748703 -1.20065 -0.00460505  -0.872127 -1.32014 -0.00407958  -0.847868 -1.27296 -0.00364351  -0.823271 -1.34363 -0.00270581  -0.773565 -1.36614 -0.00266957  -0.749585 -1.31839 -0.00239968  -0.847284 -1.27256 -0.00453353  -0.822657 -1.3433 -0.0033741  -0.798551 -1.2958 -0.0030179  -0.748947 -1.31803 -0.00299764  -0.797908 -1.29545 -0.00376058  -0.922017 -1.41616 -0.00325823  -0.897534 -1.36835 -0.00294161  -0.872896 -1.44004 -0.00214911  -0.823066 -1.46306 -0.00209403  -0.798807 -1.4148 -0.00190187  -0.897043 -1.36802 -0.00365829  -0.872374 -1.43976 -0.00267529  -0.848021 -1.39169 -0.00241733  -0.798271 -1.41449 -0.00237441  -0.847478 -1.3914 -0.00301123  -0.972067 -1.51314 -0.00253201  -0.947424 -1.46481 -0.00232625  -0.922743 -1.53734 -0.00165176  -0.872838 -1.56079 -0.00157619  -0.848359 -1.51209 -0.00146294  -0.947021 -1.46454 -0.00288272  -0.92231 -1.5371 -0.00205708  -0.897766 -1.48856 -0.00188804  -0.847919 -1.51183 -0.00182462  -0.897314 -1.48833 -0.00235343  -1.02221 -1.61094 -0.0019052  -0.99746 -1.56218 -0.00178051  -0.972734 -1.63537 -0.00122213  -0.922787 -1.65917 -0.00113964  -0.898157 -1.61012 -0.00108552  -0.997131 -1.56195 -0.00221038  -0.972378 -1.63518 -0.00152421  -0.947704 -1.58625 -0.00142908  -0.89779 -1.60991 -0.00135303  -0.947329 -1.58606 -0.00177956  -1.07239 -1.70938 -0.00137377  -1.04756 -1.66029 -0.00131488  -1.02279 -1.734 -0.000861883  -0.972834 -1.75807 -0.000773907  -0.948087 -1.70874 -0.000758886  -1.04729 -1.66008 -0.00163126  -1.02251 -1.73384 -0.00107431  -0.997735 -1.6846 -0.00103474  -0.947798 -1.70857 -0.000946045  -0.997435 -1.68444 -0.00128627  -1.12249 -1.80834 -0.000923872  -1.09764 -1.75898 -0.000920296  -1.07282 -1.83308 -0.000559092  -1.02289 -1.85736 -0.000463724  -0.998082 -1.80782 -0.000489235  -1.09745 -1.75881 -0.00113726  -1.07261 -1.83295 -0.00069356  -1.04779 -1.78347 -0.000705481  -0.997856 -1.80767 -0.000608921  -1.04756 -1.78335 -0.000872374  -1.17251 -1.90768 -0.000559568  -1.14765 -1.85811 -0.000590086  -1.1228 -1.93249 -0.00031805  -1.07289 -1.95691 -0.000226498  -1.04805 -1.90724 -0.000271797  -1.14751 -1.85797 -0.000725985  -1.12263 -1.93239 -0.000385284  -1.0978 -1.88273 -0.000430346  -1.04789 -1.90711 -0.000336409  -1.09763 -1.88263 -0.000532627  -1.22238 -2.00728 -0.000276089  -1.19754 -1.95757 -0.00033927  -1.17265 -2.03212 -0.000136852  -1.12279 -2.05663 -4.48227e-05  -1.09796 -2.00686 -0.000106096  -1.19746 -1.95746 -0.000402212  -1.17253 -2.03204 -0.000161171  -1.14772 -1.98227 -0.000218153  -1.09785 -2.00676 -0.000128508  -1.14759 -1.98219 -0.000263929  -1.27207 -2.10703 -7.22408e-05  -1.24729 -2.05724 -0.000145435  -1.22236 -2.13186 -1.33514e-05  -1.17254 -2.1564 6.79493e-05  -1.14775 -2.1066 1.54972e-05  -1.24724 -2.05714 -0.000163555  -1.22227 -2.13178 -2.14577e-06  -1.1975 -2.08197 -6.24657e-05  -1.14768 -2.10651 2.07424e-05  -1.19741 -2.0819 -7.05719e-05  -1.32156 -2.20682 4.05312e-05  -1.29686 -2.15701 -2.3365e-05  -1.27189 -2.2316 6.81877e-05  -1.22212 -2.25616 0.000128508  -1.19739 -2.20637 7.67708e-05  -1.29683 -2.15692 -1.12057e-05  -1.27182 -2.23154 8.9407e-05  -1.24712 -2.18172 3.12328e-05  -1.19735 -2.20629 0.000105143  -1.24706 -2.18167 4.88758e-05  -1.37089 -2.30656 9.799e-05  -1.34625 -2.25676 5.19753e-05  -1.32123 -2.33127 8.79765e-05  -1.2715 -2.35582 0.000137806  -1.24684 -2.30607 0.000107288  -1.34625 -2.2567 8.4877e-05  -1.32119 -2.33122 0.000121355  -1.29655 -2.28143 8.46386e-05  -1.24683 -2.306 0.00014329  -1.29652 -2.28139 0.000114202  -1.42005 -2.40616 9.13143e-05  -1.39548 -2.35644 6.29425e-05  -1.37042 -2.4308 8.17776e-05  -1.32071 -2.45532 0.000126123  -1.29612 -2.40564 0.000108957  -1.39549 -2.35637 9.05991e-05  -1.37038 -2.43076 0.000108004  -1.34582 -2.38104 8.65459e-05  -1.29612 -2.40559 0.000134706  -1.3458 -2.38101 0.000119209  -1.46916 -2.50558 8.39233e-05  -1.44461 -2.45594 5.62668e-05  -1.41952 -2.53016 6.86646e-05  -1.36979 -2.55465 0.000105381  -1.34525 -2.50506 8.58307e-05  -1.4446 -2.45589 8.27312e-05  -1.41948 -2.53013 9.63211e-05  -1.39495 -2.48048 7.89165e-05  -1.34526 -2.505 0.000113726  -1.39493 -2.48046 0.000101566  -0.0120306 -0.0116687 -0.0110793  0 0 0  -0.00832845 -0.00783205 -0.0114038  -0.0032504 -0.00226404 -0.00467348  0 0 0  -0.0122338 -0.00965586 -0.0144889  -0.00460697 -0.00344197 -0.00596905  0 0 0  -0.00325457 -0.00137709 -0.00613904  -0.00461696 -0.00244696 -0.00783587  -0.0329452 -0.0376007 -0.0181072  -0.0231792 -0.0322985 -0.0184767  -0.0149619 -0.0209874 -0.0120323  -0.0331371 -0.0340589 -0.0233157  -0.0217158 -0.0233725 -0.0151875  -0.0151412 -0.0185245 -0.0155973  -0.0219792 -0.0205409 -0.0197232  -0.0574996 -0.0723068 -0.0208282  -0.0415249 -0.0678894 -0.0208244  -0.0321957 -0.052358 -0.0158637  -0.0569983 -0.0681571 -0.0261784  -0.0449545 -0.0538423 -0.0199184  -0.0320489 -0.0488784 -0.0200932  -0.0448601 -0.0499311 -0.0252957  -0.0838231 -0.115239 -0.0206852  -0.0621841 -0.112561 -0.0204136  -0.0524328 -0.0929788 -0.0167601  -0.0825244 -0.111141 -0.0256388  -0.0704364 -0.0927401 -0.0210009  -0.0515561 -0.0891641 -0.0208433  -0.0695294 -0.088592 -0.0261829  -0.111922 -0.165587 -0.01912  -0.0853589 -0.165002 -0.0187299  -0.0749762 -0.141579 -0.0159628  -0.110045 -0.161859 -0.0235522  -0.0976237 -0.139512 -0.0200093  -0.0734371 -0.137885 -0.019666  -0.0960163 -0.135608 -0.0247073  -0.141913 -0.222315 -0.0170164  -0.111199 -0.223976 -0.0165868  -0.0999106 -0.197081 -0.0144064  -0.139703 -0.219068 -0.020921  -0.12666 -0.193175 -0.0180988  -0.0979419 -0.193734 -0.0176859  -0.124605 -0.189712 -0.0222623  -0.173779 -0.284553 -0.0148542  -0.139646 -0.288473 -0.0144198  -0.127284 -0.258511 -0.0126238  -0.171441 -0.28178 -0.0182745  -0.15759 -0.252755 -0.0159218  -0.1251 -0.255582 -0.0154955  -0.155315 -0.249778 -0.0195837  -0.20747 -0.351622 -0.0128407  -0.170544 -0.357741 -0.0124092  -0.157028 -0.325069 -0.010885  -0.205144 -0.349271 -0.0158324  -0.190374 -0.317482 -0.0138175  -0.154795 -0.322542 -0.0133915  -0.188046 -0.314954 -0.0170209  -0.242943 -0.422991 -0.0110657  -0.203718 -0.431198 -0.0106308  -0.189028 -0.396129 -0.00932264  -0.240713 -0.421001 -0.0136735  -0.224964 -0.386765 -0.0119216  -0.186849 -0.393971 -0.0114968  -0.222696 -0.38463 -0.0147178  -0.28014 -0.498211 -0.00952673  -0.239018 -0.508365 -0.009094  -0.223171 -0.47118 -0.00796199  -0.278056 -0.496526 -0.0117974  -0.261303 -0.460114 -0.0102646  -0.221105 -0.469337 -0.00984073  -0.259164 -0.458309 -0.0127015  -0.318996 -0.576883 -0.0081923  -0.276299 -0.58884 -0.00776386  -0.259323 -0.549781 -0.00678658  -0.317077 -0.57545 -0.0101664  -0.299338 -0.537108 -0.00883293  -0.257412 -0.548207 -0.00840998  -0.297355 -0.535579 -0.0109513  -0.359427 -0.658644 -0.00704575  -0.315416 -0.672254 -0.00661731  -0.297377 -0.631546 -0.00577807  -0.35768 -0.657424 -0.00875235  -0.338994 -0.617369 -0.00759721  -0.295631 -0.630195 -0.00717258  -0.337181 -0.61607 -0.00943542  -0.401332 -0.743164 -0.00603342  -0.356222 -0.758281 -0.00561643  -0.337191 -0.716115 -0.00490808  -0.399757 -0.742118 -0.00750875  -0.380175 -0.700554 -0.00652027  -0.335613 -0.714957 -0.00609756  -0.378537 -0.699445 -0.00810909  -0.444598 -0.830133 -0.00514722  -0.398572 -0.846619 -0.00473642  -0.378627 -0.80317 -0.00414801  -0.44319 -0.829235 -0.00641108  -0.422775 -0.786333 -0.00557685  -0.377209 -0.802173 -0.00516295  -0.421309 -0.785386 -0.00694084  -0.489105 -0.919265 -0.00436521  -0.442304 -0.936981 -0.00396729  -0.421533 -0.892418 -0.00348592  -0.487844 -0.918499 -0.00544071  -0.466678 -0.874421 -0.00474691  -0.420271 -0.891557 -0.00434232  -0.465367 -0.873612 -0.00591302  -0.534711 -1.01031 -0.00367045  -0.487279 -1.02913 -0.00328732  -0.465759 -0.983582 -0.00290418  -0.533599 -1.00965 -0.00457835  -0.511752 -0.964541 -0.00400805  -0.464639 -0.982841 -0.00361824  -0.510591 -0.963852 -0.00499654  -0.581283 -1.10302 -0.00304914  -0.533326 -1.12281 -0.00268173  -0.511149 -1.07642 -0.00238228  -0.580311 -1.10246 -0.00380373  -0.557857 -1.05645 -0.00335479  -0.51017 -1.07578 -0.00297427  -0.556837 -1.05586 -0.00418067  -0.628697 -1.19718 -0.00249791  -0.580305 -1.21782 -0.00215602  -0.557555 -1.1707 -0.00193  -0.627847 -1.1967 -0.00311971  -0.604869 -1.14991 -0.00276685  -0.556705 -1.17016 -0.00240564  -0.603978 -1.14941 -0.00345421  -0.676804 -1.29258 -0.0020113  -0.628069 -1.31398 -0.00168276  -0.604833 -1.26623 -0.00153112  -0.676069 -1.29218 -0.00251269  -0.652642 -1.24471 -0.00225067  -0.604094 -1.26577 -0.00191021  -0.651875 -1.24429 -0.00280857  -0.725488 -1.38904 -0.00158143  -0.676481 -1.41108 -0.00127411  -0.652822 -1.36281 -0.00117826  -0.724856 -1.38871 -0.00197792  -0.701055 -1.34067 -0.00179124  -0.652196 -1.36242 -0.00147295  -0.700396 -1.34032 -0.0022366  -0.774628 -1.48639 -0.00120974  -0.725401 -1.50897 -0.000927925  -0.701401 -1.46027 -0.000874281  -0.774089 -1.48611 -0.0015099  -0.749982 -1.43759 -0.00138617  -0.700876 -1.45994 -0.00109148  -0.749421 -1.4373 -0.0017364  -0.824097 -1.58447 -0.000883102  -0.774714 -1.60751 -0.000623703  -0.750452 -1.55845 -0.000616312  -0.823654 -1.58424 -0.00110221  -0.799298 -1.53533 -0.00103831  -0.750011 -1.55817 -0.000771284  -0.798833 -1.53509 -0.00129795  -0.873812 -1.68314 -0.000602722  -0.824312 -1.70656 -0.000374317  -0.799835 -1.65721 -0.000393391  -0.873446 -1.68294 -0.000755787  -0.848906 -1.63372 -0.000739574  -0.799478 -1.65697 -0.000490904  -0.848521 -1.63352 -0.000924349  -0.923667 -1.78226 -0.000381231  -0.874088 -1.80597 -0.000165701  -0.849458 -1.75642 -0.000210047  -0.923372 -1.7821 -0.000473261  -0.898698 -1.73263 -0.000482798  -0.849176 -1.75622 -0.000264406  -0.898394 -1.73247 -0.00060606  -0.973579 -1.88171 -0.000191212  -0.923949 -1.90566 -6.19888e-06  -0.899223 -1.85596 -6.60419e-05  -0.973344 -1.88158 -0.000239611  -0.948596 -1.83193 -0.000275612  -0.899008 -1.85579 -8.24928e-05  -0.948351 -1.8318 -0.000345945  -1.02347 -1.98138 -4.95911e-05  -0.973823 -2.0055 0.000109196  -0.949037 -1.95571 4.79221e-05  -1.02329 -1.98127 -6.12736e-05  -0.998504 -1.9315 -0.000113249  -0.94888 -1.95556 5.4121e-05  -0.99832 -1.9314 -0.000142813  -1.0733 -2.08116 5.4121e-05  -1.02364 -2.10541 0.000183582  -0.998842 -2.05557 0.000118971  -1.07316 -2.08107 6.65188e-05  -1.04837 -2.03124 6.67572e-06  -0.998736 -2.05545 0.00014782  -1.04824 -2.03116 1.07288e-05  -1.123 -2.18098 0.000112534  -1.07334 -2.20532 0.000213623  -1.04857 -2.15547 0.000161648  -1.1229 -2.1809 0.00014019  -1.09814 -2.13105 8.84533e-05  -1.0485 -2.15537 0.000205517  -1.09805 -2.13099 0.000111103  -1.17255 -2.28074 0.000130653  -1.1229 -2.30513 0.000218391  -1.09817 -2.25532 0.000175476  -1.17248 -2.28068 0.0001719  -1.14777 -2.23085 0.000127077  -1.09813 -2.25523 0.00022006  -1.14771 -2.2308 0.000160694  -1.22192 -2.38039 0.000128031  -1.17228 -2.4048 0.000192165  -1.14762 -2.35506 0.000163317  -1.22187 -2.38033 0.000166178  -1.19723 -2.33057 0.000136852  -1.14761 -2.35498 0.000205994  -1.1972 -2.33052 0.000171661  -1.27111 -2.47987 0.000105381  -1.22146 -2.50428 0.000148058  -1.19688 -2.45464 0.000134706  -1.27107 -2.47982 0.000136852  -1.2465 -2.43013 0.00012207  -1.19689 -2.45456 0.0001719  -1.24649 -2.4301 0.000153542  -1.32017 -2.57916 8.32081e-05  -1.27047 -2.60353 0.000106573  -1.24597 -2.55401 0.000100136  -1.32012 -2.57911 0.000112295  -1.29562 -2.52953 9.67979e-05  -1.24597 -2.55394 0.000128508  -1.2956 -2.52949 0.000125647  -0.00506437 -0.00892913 -0.0064497  0 0 0  -0.0022624 -0.00777799 -0.00542212  -0.000960216 -0.00205144 -0.00223041  0 0 0  -0.00510432 -0.00735986 -0.00838661  -0.00199674 -0.00189188 -0.00343943  0 0 0  -0.000919923 -0.00136235 -0.0028801  -0.00197817 -0.0011124 -0.00449467  -0.0147532 -0.0348053 -0.0107253  -0.0070281 -0.0329958 -0.00905228  -0.00440641 -0.0205774 -0.00588942  -0.0146871 -0.0320395 -0.0137129  -0.00935262 -0.0201737 -0.00892806  -0.0042758 -0.0186243 -0.00753379  -0.00937857 -0.0179992 -0.0115199  -0.0282466 -0.072181 -0.0124714  -0.0148231 -0.0706946 -0.010421  -0.0110016 -0.0533859 -0.00795698  -0.0276294 -0.0687505 -0.0155694  -0.021091 -0.0522359 -0.0118754  -0.0105439 -0.050519 -0.00996947  -0.020796 -0.0491048 -0.014976  -0.0446721 -0.118439 -0.0124218  -0.0258171 -0.118021 -0.0102751  -0.0208869 -0.0965903 -0.00851321  -0.0434211 -0.114845 -0.0152955  -0.036094 -0.0942542 -0.0125997  -0.0199035 -0.0932705 -0.0104783  -0.0351608 -0.0907222 -0.0156093  -0.0639796 -0.172222 -0.0114341  -0.0402772 -0.173292 -0.00934601  -0.0340622 -0.148116 -0.00809598  -0.0622291 -0.168793 -0.013998  -0.0539442 -0.144419 -0.011997  -0.0325976 -0.144743 -0.00986981  -0.0524303 -0.140912 -0.014725  -0.0862369 -0.232437 -0.0100777  -0.0583489 -0.235249 -0.00812006  -0.0506615 -0.206681 -0.00720263  -0.0841969 -0.229336 -0.012327  -0.0747185 -0.201545 -0.010778  -0.0488562 -0.203495 -0.00875211  -0.0728135 -0.198297 -0.0131867  -0.111421 -0.298193 -0.00867081  -0.0799646 -0.302861 -0.00684333  -0.0707022 -0.271276 -0.00615358  -0.109251 -0.295459 -0.0106177  -0.0984493 -0.264635 -0.0093689  -0.0687198 -0.268395 -0.00747919  -0.0963434 -0.261746 -0.011466  -0.13938 -0.368746 -0.00735092  -0.104921 -0.375314 -0.00566459  -0.0940643 -0.341063 -0.00512314  -0.137217 -0.366378 -0.00902653  -0.125038 -0.33287 -0.00799155  -0.0920351 -0.338522 -0.00624132  -0.12288 -0.330353 -0.00980186  -0.169953 -0.443502 -0.00619221  -0.132972 -0.451938 -0.00462413  -0.120558 -0.415351 -0.00419855  -0.167875 -0.441465 -0.00762606  -0.154326 -0.405597 -0.00675273  -0.118568 -0.413134 -0.00513005  -0.152218 -0.403425 -0.00830388  -0.202972 -0.521966 -0.00519681  -0.163866 -0.532189 -0.00373864  -0.149959 -0.493558 -0.00339961  -0.201015 -0.520209 -0.00641656  -0.186141 -0.482264 -0.00567508  -0.148073 -0.491633 -0.00416732  -0.18414 -0.480399 -0.00699806  -0.238251 -0.603692 -0.00434422  -0.197357 -0.615608 -0.00298977  -0.182056 -0.575189 -0.00272608  -0.236444 -0.602182 -0.00538087  -0.22031 -0.56241 -0.00475478  -0.180295 -0.573521 -0.00334787  -0.218448 -0.56081 -0.0058794  -0.275623 -0.688304 -0.00361967  -0.233222 -0.7018 -0.00236368  -0.216613 -0.659821 -0.00216031  -0.273976 -0.687006 -0.00448823  -0.256658 -0.645629 -0.00396895  -0.215001 -0.658374 -0.00266123  -0.254953 -0.644251 -0.00491786  -0.314913 -0.775463 -0.00300217  -0.271238 -0.790402 -0.0018301  -0.253429 -0.747071 -0.0016911  -0.313422 -0.774337 -0.0037291  -0.295008 -0.731555 -0.00329828  -0.251971 -0.745813 -0.00208855  -0.293465 -0.730373 -0.00409269  -0.355941 -0.864836 -0.00246572  -0.311191 -0.88111 -0.00139403  -0.292287 -0.836595 -0.00130129  -0.354608 -0.863868 -0.00306916  -0.33519 -0.819861 -0.00272298  -0.290979 -0.835506 -0.00161028  -0.333803 -0.818838 -0.00338578  -0.39854 -0.95616 -0.00200105  -0.352872 -0.973636 -0.00101972  -0.332994 -0.928104 -0.000965834  -0.397347 -0.955323 -0.00249004  -0.377032 -0.910247 -0.00222802  -0.331819 -0.92716 -0.00119781  -0.37579 -0.909366 -0.0027709  -0.442523 -1.04916 -0.00160122  -0.396094 -1.06772 -0.000695467  -0.375341 -1.02132 -0.00068593  -0.441469 -1.04845 -0.00199246  -0.420344 -1.00244 -0.00179577  -0.374299 -1.0205 -0.000852108  -0.41924 -1.00169 -0.00223708  -0.48773 -1.14362 -0.0012486  -0.440654 -1.16315 -0.000430584  -0.419125 -1.11599 -0.000449181  -0.486801 -1.143 -0.00155616  -0.464958 -1.0962 -0.00141931  -0.418214 -1.11528 -0.000556469  -0.463988 -1.09555 -0.00177026  -0.533985 -1.23932 -0.00094676  -0.486375 -1.2597 -0.000203371  -0.464171 -1.21191 -0.000247955  -0.533172 -1.23879 -0.00117683  -0.510711 -1.1913 -0.00109053  -0.463378 -1.21129 -0.000309467  -0.509863 -1.19075 -0.00136018  -0.58113 -1.33606 -0.000680685  -0.533083 -1.35719 -1.23978e-05  -0.510297 -1.30886 -8.36849e-05  -0.58043 -1.33561 -0.000850916  -0.557428 -1.28755 -0.000809193  -0.509611 -1.30834 -0.000104427  -0.556698 -1.28708 -0.00101089  -0.629017 -1.43368 -0.000455141  -0.580606 -1.45545 0.000140905  -0.557334 -1.40668 4.95911e-05  -0.628415 -1.4333 -0.000564814  -0.604963 -1.38475 -0.000563383  -0.556748 -1.40623 6.17504e-05  -0.604336 -1.38436 -0.000705957  -0.677496 -1.53202 -0.000270605  -0.628801 -1.55434 0.000257254  -0.605112 -1.50521 0.000161648  -0.676985 -1.53169 -0.000335932  -0.65316 -1.48275 -0.000357628  -0.604624 -1.50482 0.000200987  -0.652631 -1.48242 -0.000448465  -0.726438 -1.63092 -0.00010848  -0.67751 -1.6537 0.000351906  -0.653498 -1.6043 0.000248909  -0.726017 -1.63064 -0.000137329  -0.701891 -1.58139 -0.000182629  -0.65309 -1.60397 0.000307322  -0.701447 -1.5811 -0.000233412  -0.775736 -1.73026 1.64509e-05  -0.726624 -1.75343 0.000415325  -0.702347 -1.70382 0.000310421  -0.775384 -1.73003 1.57356e-05  -0.751023 -1.68052 -4.19617e-05  -0.702022 -1.70353 0.000381708  -0.750664 -1.68028 -5.57899e-05  -0.825264 -1.82992 0.000118017  -0.776017 -1.85341 0.000447035  -0.751547 -1.80363 0.000352383  -0.82498 -1.82972 0.000142097  -0.800449 -1.78004 6.93798e-05  -0.751289 -1.80339 0.000437021  -0.800155 -1.77984 8.13007e-05  -0.874924 -1.92979 0.000182152  -0.825572 -1.95353 0.000466585  -0.800971 -1.90367 0.000371695  -0.874703 -1.92962 0.00022459  -0.850055 -1.87981 0.00015521  -0.800775 -1.90345 0.00046134  -0.849827 -1.87965 0.000190735  -0.924643 -2.02977 0.000225306  -0.875221 -2.05371 0.000458241  -0.850525 -2.00379 0.000374079  -0.924472 -2.02963 0.000279903  -0.899753 -1.97975 0.00020647  -0.850385 -2.00361 0.000465393  -0.899581 -1.97961 0.000257969  -0.974334 -2.12977 0.000246286  -0.924862 -2.15387 0.000426769  -0.900131 -2.10394 0.000353336  -0.974208 -2.12966 0.000306129  -0.949467 -2.07975 0.000236511  -0.900037 -2.10379 0.00044322  -0.949341 -2.07965 0.000295877  -1.02395 -2.22974 0.000240326  -0.974442 -2.25393 0.000380993  -0.949713 -2.20404 0.00031805  -1.02386 -2.22964 0.000297308  -0.999129 -2.17975 0.000241756  -0.949654 -2.20391 0.000402451  -0.999046 -2.17966 0.000304222  -1.07344 -2.32959 0.000211239  -1.02391 -2.35385 0.000312567  -0.999217 -2.30402 0.000278711  -1.07338 -2.3295 0.00026226  -1.04869 -2.27967 0.000226498  -0.999187 -2.30391 0.00034833  -1.04864 -2.27959 0.000282526  -1.12278 -2.42928 0.000166178  -1.07323 -2.45359 0.00023675  -1.04859 -2.40384 0.000219822  -1.12274 -2.42921 0.000208139  -1.0981 -2.37944 0.000190973  -1.04858 -2.40374 0.000271559  -1.09808 -2.37938 0.000235558  -1.17192 -2.52876 0.000114202  -1.12235 -2.55307 0.000154018  -1.0978 -2.50345 0.000156879  -1.17189 -2.52869 0.000149727  -1.14734 -2.47903 0.000144005  -1.09781 -2.50336 0.000192642  -1.14733 -2.47897 0.000182152  -1.22088 -2.62798 6.58035e-05  -1.17126 -2.65228 7.05719e-05  -1.14682 -2.6028 8.58307e-05  -1.22085 -2.62791 9.41753e-05  -1.1964 -2.57839 9.58443e-05  -1.14683 -2.60271 0.000113249  -1.19639 -2.57834 0.00012207  0.000216976 -0.0101527 -0.00202179  0 0 0  0.00294614 -0.0105675 0.000368834  0.00098937 -0.00343758 0.000137806  0 0 0  0.000391364 -0.00888631 -0.00250435  3.88175e-05 -0.00258052 -0.0010376  0 0 0  0.00107114 -0.0028995 0.000315905  0.00010027 -0.00198001 -0.00127316  -0.00038062 -0.0373071 -0.00360394  0.00695822 -0.0379203 -5.24521e-06  0.00457142 -0.0241576 3.02792e-05  9.16123e-05 -0.0349942 -0.0044713  0.000165552 -0.0219448 -0.00289321  0.00504777 -0.0225185 0.00022769  0.000475258 -0.0201714 -0.00360584  -0.00364476 -0.0766666 -0.00440192  0.00888211 -0.0776304 -0.000447512  0.00746647 -0.0589573 -0.000351906  -0.00276813 -0.0736707 -0.00536799  -0.00160828 -0.0556512 -0.00410533  0.00830117 -0.0564413 -0.000268936  -0.000953257 -0.0529892 -0.00505447  -0.0103583 -0.125366 -0.00444365  0.00719571 -0.127054 -0.000509024  0.00738108 -0.104259 -0.000571251  -0.0090563 -0.122092 -0.00534177  -0.0065296 -0.0999232 -0.00449705  0.00854501 -0.101239 -0.00052619  -0.00544897 -0.0967823 -0.00544238  -0.0208521 -0.181787 -0.00399518  0.00127953 -0.184565 -0.000253677  0.00333649 -0.158043 -0.000488043  -0.0192105 -0.178542 -0.00476575  -0.0151015 -0.152644 -0.00425863  0.00479108 -0.154873 -0.000411272  -0.0136293 -0.14939 -0.0050981  -0.0352597 -0.244798 -0.00333095  -0.00906658 -0.248953 0.000161648  -0.00500506 -0.219042 -0.000197887  -0.0334026 -0.241766 -0.00395799  -0.0275469 -0.212487 -0.00367355  -0.00333595 -0.21596 -6.03199e-05  -0.0257985 -0.209367 -0.00437832  -0.0535113 -0.313484 -0.0026195  -0.0237817 -0.319196 0.000610113  -0.0176703 -0.286252 0.000183344  -0.0515614 -0.310748 -0.00310898  -0.0438929 -0.278446 -0.0029707  -0.0158877 -0.283397 0.000383615  -0.0419937 -0.275587 -0.00353122  -0.07542 -0.387048 -0.00195336  -0.0426382 -0.394411 0.00102353  -0.0345153 -0.358802 0.00056076  -0.0734713 -0.384627 -0.00231743  -0.0639989 -0.349661 -0.00227642  -0.0327066 -0.356226 0.00082469  -0.0620589 -0.347115 -0.00270224  -0.100741 -0.464823 -0.00137687  -0.0653389 -0.473857 0.00136328  -0.0552912 -0.435931 0.000890017  -0.098863 -0.462699 -0.00163245  -0.0876452 -0.42541 -0.00165224  -0.0535209 -0.433639 0.00120163  -0.0857446 -0.423169 -0.00196385  -0.129215 -0.546241 -0.000900984  -0.0915699 -0.556912 0.00161743  -0.0797144 -0.516981 0.00114417  -0.127443 -0.544388 -0.0010643  -0.114571 -0.505072 -0.00112844  -0.0780277 -0.514962 0.00149703  -0.112767 -0.503118 -0.00133538  -0.160579 -0.630817 -0.00051713  -0.121017 -0.643061 0.00179601  -0.10748 -0.601396 0.00133419  -0.158936 -0.629195 -0.000602007  -0.144523 -0.588127 -0.000696182  -0.105906 -0.599623 0.0017159  -0.142838 -0.58642 -0.000819921  -0.194571 -0.718117 -0.000214577  -0.153377 -0.731852 0.00190258  -0.138291 -0.688704 0.00145435  -0.19307 -0.716712 -0.000237226  -0.177233 -0.674117 -0.000353813  -0.136844 -0.687147 0.00185657  -0.175684 -0.672634 -0.000408888  -0.230955 -0.807778 3.12328e-05  -0.188363 -0.822894 0.00195956  -0.171869 -0.778471 0.00152826  -0.229593 -0.806554 5.6982e-05  -0.212453 -0.762646 -7.89165e-05  -0.170552 -0.777108 0.00193572  -0.211042 -0.761358 -7.77245e-05  -0.26948 -0.899473 0.000218153  -0.2257 -0.91586 0.0019753  -0.207932 -0.870344 0.00156403  -0.26826 -0.898408 0.000287056  -0.249937 -0.853361 0.000129223  -0.206745 -0.869149 0.00197005  -0.248664 -0.85224 0.000178099  -0.309932 -0.992907 0.000368357  -0.265135 -1.01045 0.00195432  -0.246223 -0.964011 0.0015676  -0.308837 -0.991976 0.000465393  -0.289454 -0.945962 0.000297546  -0.245164 -0.962962 0.00196886  -0.288317 -0.944986 0.000382662  -0.352083 -1.08782 0.00048089  -0.30642 -1.10641 0.00190997  -0.2865 -1.05918 0.00154161  -0.351108 -1.08701 0.00060463  -0.330786 -1.04017 0.000424385  -0.285555 -1.05827 0.00193572  -0.32977 -1.03932 0.000535965  -0.395716 -1.18398 0.000566959  -0.349325 -1.2035 0.00184536  -0.328508 -1.15562 0.00149894  -0.39486 -1.18328 0.000709057  -0.373697 -1.13573 0.00052619  -0.327678 -1.15482 0.00187993  -0.372807 -1.135 0.000660896  -0.440637 -1.28119 0.000619888  -0.393632 -1.30154 0.00176549  -0.372027 -1.25311 0.00144577  -0.439888 -1.28058 0.00077939  -0.418 -1.23244 0.000595808  -0.37131 -1.25242 0.00181055  -0.417222 -1.23181 0.000746489  -0.48665 -1.37925 0.000656605  -0.439136 -1.40034 0.00167084  -0.416859 -1.35146 0.00137138  -0.486008 -1.37874 0.000822544  -0.46349 -1.3301 0.000641823  -0.416241 -1.35085 0.00171709  -0.462819 -1.32956 0.000804424  -0.533591 -1.47802 0.00067997  -0.485647 -1.49973 0.00156927  -0.462795 -1.4505 0.00129414  -0.533039 -1.47757 0.00084734  -0.509991 -1.42854 0.00066781  -0.462269 -1.44996 0.00162053  -0.509414 -1.42807 0.000838518  -0.581286 -1.57733 0.000683069  -0.532989 -1.59958 0.00146008  -0.509661 -1.55006 0.00120997  -0.580817 -1.57695 0.000854731  -0.557326 -1.52759 0.000687838  -0.509223 -1.54961 0.0015142  -0.556839 -1.52719 0.000853539  -0.629577 -1.67705 0.00067544  -0.580998 -1.69977 0.00133729  -0.557273 -1.65003 0.00111413  -0.629191 -1.67672 0.000843525  -0.605338 -1.62712 0.000681162  -0.556916 -1.64964 0.00139737  -0.604933 -1.62678 0.000849724  -0.678334 -1.77707 0.00065136  -0.629526 -1.80017 0.00121617  -0.605488 -1.75029 0.00102019  -0.678021 -1.77679 0.000810385  -0.65388 -1.72701 0.000667095  -0.605201 -1.74995 0.00127411  -0.653553 -1.72673 0.000829697  -0.727438 -1.87729 0.000612736  -0.678447 -1.9007 0.00108409  -0.654164 -1.85071 0.000920057  -0.727188 -1.87705 0.000766277  -0.702823 -1.82714 0.000632286  -0.65394 -1.85042 0.0011487  -0.702565 -1.8269 0.000790358  -0.776758 -1.97758 0.000565767  -0.727619 -2.00125 0.00095129  -0.70317 -1.95122 0.000815868  -0.776558 -1.97739 0.000706673  -0.752052 -1.92741 0.00059247  -0.703005 -1.95097 0.00102162  -0.751847 -1.92721 0.000739098  -0.826207 -2.07791 0.000509024  -0.776968 -2.10177 0.000821114  -0.752394 -2.05173 0.000705957  -0.826061 -2.07774 0.000635147  -0.801445 -2.02773 0.000539303  -0.752273 -2.05152 0.000883818  -0.801295 -2.02756 0.00067234  -0.875698 -2.17816 0.00043726  -0.826373 -2.20217 0.00068593  -0.801732 -2.15217 0.000602007  -0.875592 -2.17802 0.000554085  -0.850924 -2.12802 0.000478029  -0.80166 -2.15198 0.000752449  -0.850821 -2.12789 0.000597954  -0.925165 -2.27829 0.000369549  -0.87578 -2.30242 0.000543356  -0.851108 -2.25248 0.00049305  -0.925092 -2.27818 0.000460386  -0.900412 -2.22823 0.000406027  -0.851075 -2.25232 0.000616074  -0.900344 -2.22811 0.000506639  -0.97455 -2.37826 0.000292301  -0.925113 -2.40246 0.000411987  -0.90046 -2.3526 0.0003829  -0.974499 -2.37816 0.000362158  -0.949845 -2.32828 0.00033021  -0.900451 -2.35247 0.000479221  -0.949804 -2.32819 0.000409842  -1.02379 -2.47801 0.000205278  -0.974329 -2.50225 0.000276327  -0.949721 -2.4525 0.000273943  -1.02377 -2.47792 0.000258446  -0.999163 -2.42815 0.000244379  -0.949737 -2.45238 0.000346422  -0.999148 -2.42807 0.000308037  -1.07288 -2.5775 0.000118971  -1.02338 -2.60176 0.000141382  -0.998845 -2.55215 0.000166893  -1.07286 -2.57742 0.000150442  -1.04834 -2.52777 0.000162363  -0.998878 -2.55204 0.000210047  -1.04833 -2.5277 0.000201941  -1.12174 -2.67669 2.67029e-05  -1.0722 -2.70095 1.74046e-05  -1.0478 -2.6515 6.12736e-05  -1.12172 -2.67661 5.17368e-05  -1.09731 -2.62712 7.9155e-05  -1.04782 -2.6514 7.96318e-05  -1.09732 -2.62705 9.84669e-05  0.0051229 -0.0138704 0.00223684  0 0 0  0.0081799 -0.0155931 0.00588894  0.0029292 -0.00608724 0.00240183  0 0 0  0.005518 -0.0127917 0.00317025  0.00193481 -0.00458503 0.0012846  0 0 0  0.00305726 -0.00562471 0.00340319  0.00204648 -0.0041008 0.00187731  0.0129243 -0.0437826 0.00319266  0.0207959 -0.046413 0.00848389  0.0135407 -0.0309881 0.0056181  0.0137982 -0.0417264 0.00431752  0.00897694 -0.0271643 0.0028758  0.0143446 -0.0294849 0.00755262  0.00962803 -0.0256152 0.00395608  0.0192377 -0.0852881 0.00329733  0.0320198 -0.0883574 0.00897169  0.0256243 -0.0684977 0.00681901  0.0203935 -0.0825349 0.00434136  0.0164599 -0.0632449 0.00329971  0.0268039 -0.0661389 0.00885582  0.0174807 -0.0608311 0.00437784  0.0218139 -0.13598 0.00322366  0.0392227 -0.139593 0.00882339  0.0348664 -0.115746 0.00697827  0.0232021 -0.132893 0.00421619  0.0210756 -0.109538 0.00325894  0.0362051 -0.11288 0.00892806  0.022342 -0.106612 0.00427103  0.0198615 -0.194497 0.00321221  0.0415006 -0.198959 0.00855231  0.0395421 -0.171369 0.00682735  0.0214329 -0.191369 0.00418544  0.0214449 -0.164281 0.00321126  0.0410029 -0.168317 0.00869083  0.0229152 -0.161184 0.00418973  0.0131699 -0.25981 0.00326705  0.0386298 -0.265411 0.00827217  0.0391601 -0.234368 0.00662017  0.0148611 -0.256824 0.00423551  0.0171255 -0.22632 0.00323915  0.0407119 -0.231356 0.00840759  0.0187506 -0.223283 0.00420594  0.00181228 -0.330986 0.0033493  0.0306841 -0.337937 0.00799036  0.033684 -0.303804 0.00641489  0.00355476 -0.328242 0.00431061  0.00808483 -0.294677 0.00331521  0.0352856 -0.300969 0.00812912  0.00979143 -0.29184 0.00427413  -0.0139824 -0.407183 0.00341082  0.0178882 -0.415604 0.00768065  0.0232776 -0.378777 0.00619745  -0.0122566 -0.404714 0.00435805  -0.00552368 -0.36847 0.00338626  0.0248784 -0.376176 0.00783849  -0.0038023 -0.36589 0.00433946  -0.0339283 -0.487662 0.00342631  0.000564933 -0.497598 0.00735235  0.00821269 -0.458441 0.00595927  -0.0322633 -0.48546 0.00435543  -0.0234321 -0.446896 0.00342655  0.00977409 -0.4561 0.00752139  -0.0217501 -0.444589 0.00436449  -0.0576963 -0.571775 0.00339746  -0.0209262 -0.583225 0.00699258  -0.0111667 -0.54208 0.00569034  -0.0561236 -0.56983 0.00429988  -0.0453311 -0.529268 0.00342035  -0.0096761 -0.539993 0.00717354  -0.0437267 -0.527222 0.00433517  -0.0849663 -0.658973 0.00332761  -0.0462205 -0.671888 0.006603  -0.0345105 -0.629059 0.00540543  -0.083497 -0.657261 0.00419617  -0.0708894 -0.614988 0.00336838  -0.033115 -0.627203 0.00679755  -0.0693841 -0.613186 0.00425386  -0.115403 -0.748785 0.0032177  -0.0749561 -0.763092 0.00619578  -0.061464 -0.718841 0.00509477  -0.114052 -0.747281 0.00404906  -0.0997808 -0.70355 0.00327468  -0.0601774 -0.717196 0.00639987  -0.0983917 -0.701967 0.00412607  -0.148697 -0.84081 0.00307798  -0.106787 -0.856413 0.00578237  -0.0916785 -0.81096 0.00477433  -0.147468 -0.839481 0.00386524  -0.131685 -0.794519 0.00315094  -0.0905017 -0.809507 0.00598693  -0.130415 -0.793124 0.00396299  -0.184554 -0.934688 0.00291538  -0.141388 -0.951505 0.00536489  -0.124821 -0.905039 0.00444055  -0.183446 -0.933525 0.00366497  -0.166297 -0.887509 0.00300264  -0.123758 -0.903756 0.0055716  -0.165151 -0.886286 0.00376868  -0.222697 -1.03013 0.00275183  -0.178454 -1.04804 0.00494742  -0.160577 -1.00074 0.00411463  -0.221706 -1.02911 0.00345111  -0.203329 -0.982207 0.0028379  -0.159625 -0.999604 0.00515532  -0.202302 -0.981136 0.00355864  -0.262859 -1.12685 0.00257349  -0.217692 -1.14576 0.00453877  -0.198654 -1.09776 0.0037868  -0.261978 -1.12596 0.0032258  -0.242515 -1.07832 0.00266123  -0.197812 -1.09676 0.00474262  -0.241602 -1.07738 0.00333929  -0.304787 -1.22465 0.00238562  -0.258833 -1.24444 0.0041368  -0.23878 -1.19587 0.00345922  -0.30401 -1.22386 0.00298905  -0.28359 -1.17561 0.00248313  -0.238035 -1.19499 0.0043354  -0.282786 -1.17479 0.00310755  -0.348244 -1.3233 0.00220132  -0.301628 -1.34388 0.0037446  -0.280676 -1.29485 0.00314546  -0.347568 -1.32262 0.00275517  -0.326309 -1.27385 0.00229383  -0.280034 -1.29407 0.00393963  -0.325609 -1.27314 0.00287271  -0.393018 -1.42263 0.00201416  -0.345833 -1.4439 0.00337386  -0.324116 -1.3945 0.00283694  -0.392433 -1.42203 0.00251961  -0.370454 -1.37287 0.00210643  -0.323562 -1.39382 0.00355411  -0.369846 -1.37225 0.00263453  -0.438899 -1.52248 0.0018301  -0.391251 -1.54435 0.00300765  -0.368868 -1.49467 0.00255179  -0.438408 -1.52197 0.00228906  -0.415807 -1.47248 0.00192261  -0.368399 -1.49407 0.00319004  -0.415288 -1.47194 0.00240231  -0.485703 -1.62273 0.00164628  -0.437667 -1.64511 0.00266457  -0.414721 -1.59522 0.00226474  -0.485294 -1.62228 0.00206375  -0.462173 -1.57255 0.00173593  -0.414342 -1.5947 0.00283718  -0.461742 -1.57208 0.0021708  -0.533263 -1.72324 0.00147104  -0.484902 -1.74606 0.00233293  -0.461497 -1.69602 0.00199223  -0.532923 -1.72286 0.00183296  -0.509372 -1.67294 0.00155663  -0.461188 -1.69557 0.00249529  -0.509019 -1.67254 0.0019455  -0.58141 -1.82391 0.00129032  -0.532788 -1.84709 0.00201416  -0.509017 -1.79696 0.00174093  -0.581135 -1.82358 0.00161362  -0.557248 -1.77354 0.00138116  -0.508768 -1.79657 0.00217319  -0.556961 -1.7732 0.00172544  -0.630006 -1.92465 0.00112343  -0.581172 -1.94813 0.00172305  -0.557105 -1.89795 0.00149369  -0.62979 -1.92437 0.00140142  -0.605633 -1.87426 0.00120521  -0.55692 -1.89761 0.00187302  -0.60541 -1.87397 0.00150967  -0.678929 -2.02538 0.000961065  -0.629923 -2.04909 0.00143838  -0.605635 -1.99891 0.00126863  -0.678757 -2.02513 0.00120044  -0.654407 -1.975 0.00104046  -0.605504 -1.99862 0.00158286  -0.654237 -1.97476 0.0013032  -0.728054 -2.12601 0.000803471  -0.67892 -2.14991 0.00118184  -0.654484 -2.09976 0.00104737  -0.727931 -2.12581 0.00100183  -0.703444 -2.07569 0.000878572  -0.654388 -2.09952 0.00131106  -0.703319 -2.07548 0.00109744  -0.777292 -2.22651 0.000649214  -0.728057 -2.25055 0.000938654  -0.703517 -2.20046 0.000846863  -0.777208 -2.22634 0.000813007  -0.752642 -2.17626 0.0007236  -0.70347 -2.20025 0.00105977  -0.752557 -2.17609 0.000906229  -0.82656 -2.32681 0.000504971  -0.777249 -2.35094 0.000715733  -0.752658 -2.30095 0.000664711  -0.826513 -2.32667 0.000629187  -0.801901 -2.27667 0.000577927  -0.752643 -2.30077 0.000829935  -0.801852 -2.27652 0.00072217  -0.875795 -2.42688 0.000365973  -0.826427 -2.45107 0.000509977  -0.801828 -2.4012 0.000487328  -0.87577 -2.42675 0.000455618  -0.85116 -2.37686 0.000433445  -0.801837 -2.40104 0.000609159  -0.851144 -2.37674 0.000539541  -0.924939 -2.52668 0.000237226  -0.875523 -2.55091 0.000318766  -0.85095 -2.50116 0.000330925  -0.924929 -2.52657 0.00029707  -0.900355 -2.47679 0.00030303  -0.850985 -2.50103 0.000411987  -0.900362 -2.47669 0.000378132  -0.973943 -2.62619 0.000117302  -0.924494 -2.65044 0.000138998  -0.899983 -2.60083 0.000178814  -0.973936 -2.62609 0.000140905  -0.949439 -2.57645 0.000173807  -0.900023 -2.60071 0.00022316  -0.949449 -2.57636 0.000217676  -1.02274 -2.72539 -5.48363e-06  -0.973264 -2.74963 -4.14848e-05  -0.948861 -2.7002 4.43459e-05  -1.02273 -2.72528 -1.35899e-05  -0.998345 -2.67581 5.62668e-05  -0.948903 -2.70007 5.34058e-05  -0.998361 -2.67572 6.34193e-05  0.0104648 -0.0201337 0.00619721  0 0 0  0.0142721 -0.0234395 0.0108898  0.00516012 -0.0105889 0.00445414  0 0 0  0.0110657 -0.0190829 0.0084703  0.00396343 -0.00801712 0.00346184  0 0 0  0.00533082 -0.0100656 0.006217  0.00411806 -0.00755274 0.00485444  0.0269716 -0.0540392 0.00950003  0.0361714 -0.0586594 0.0161963  0.0238667 -0.0415189 0.0106809  0.0281982 -0.0520357 0.0124505  0.0184422 -0.0357218 0.00822306  0.02496 -0.0399343 0.0141759  0.0194079 -0.0342118 0.0109642  0.0425974 -0.0977618 0.0105054  0.0565342 -0.1027 0.0176973  0.0454074 -0.0819587 0.0134048  0.044 -0.0950913 0.0134232  0.0351949 -0.0747309 0.0101919  0.0468566 -0.0795738 0.0172207  0.0365328 -0.0723847 0.0131404  0.0539938 -0.150109 0.010505  0.0721303 -0.155446 0.017657  0.0635293 -0.13082 0.0140426  0.0554587 -0.14712 0.0133038  0.0489303 -0.122848 0.0105751  0.0650023 -0.127989 0.0177808  0.0503563 -0.120018 0.013433  0.0601588 -0.210358 0.0101664  0.0821576 -0.216423 0.0170314  0.0764004 -0.187935 0.013797  0.061675 -0.207311 0.0128365  0.0577704 -0.179252 0.0103571  0.0778619 -0.184945 0.0173845  0.0592476 -0.176243 0.0130937  0.0608677 -0.277648 0.00971413  0.0864291 -0.284735 0.0161817  0.0835614 -0.252672 0.0132143  0.0624189 -0.274708 0.0122528  0.0612141 -0.24314 0.00995064  0.08502 -0.249718 0.0166223  0.0627334 -0.240166 0.0125525  0.0562053 -0.351036 0.00923085  0.0849996 -0.359358 0.0152471  0.0849627 -0.324119 0.0125039  0.0577673 -0.348297 0.0116332  0.0592185 -0.313595 0.00948071  0.0864218 -0.321316 0.0157192  0.0607606 -0.310785 0.0119464  0.0464071 -0.42961 0.0087316  0.0780964 -0.439292 0.0142834  0.0807817 -0.401307 0.0117517  0.0479425 -0.427114 0.0109916  0.0519549 -0.389689 0.00898814  0.0822179 -0.398714 0.0147665  0.0534873 -0.387101 0.0113165  0.0317949 -0.512554 0.00822067  0.0660446 -0.523654 0.0133145  0.071297 -0.483324 0.0109859  0.0332743 -0.510308 0.0103357  0.0397071 -0.470549 0.00847936  0.0726964 -0.480967 0.0137949  0.0411961 -0.468205 0.0106649  0.0127349 -0.599151 0.00769901  0.0492338 -0.611663 0.0123556  0.0568869 -0.56936 0.010221  0.0141381 -0.597143 0.0096724  0.0228242 -0.555403 0.00796151  0.0582149 -0.56724 0.012831  0.0242448 -0.553304 0.0100069  -0.010389 -0.688783 0.00717545  0.028072 -0.702664 0.0114136  0.0379319 -0.658723 0.00946832  -0.00908315 -0.686995 0.00900865  0.00168276 -0.64359 0.00743961  0.0391788 -0.656818 0.0118787  0.00302112 -0.64172 0.00934029  -0.0372063 -0.780931 0.0066514  0.00296688 -0.796118 0.0104921  0.01484 -0.75081 0.00872779  -0.0359968 -0.779342 0.00834608  -0.0233321 -0.73454 0.00691509  0.01599 -0.749112 0.0109472  -0.0220973 -0.732882 0.00867867  -0.0673442 -0.875158 0.00613666  -0.0256927 -0.891562 0.00961232  -0.0119939 -0.845126 0.00801468  -0.0662366 -0.87375 0.00769687  -0.0518528 -0.827779 0.00639462  -0.0109376 -0.843615 0.010047  -0.0507206 -0.82631 0.00801992  -0.100447 -0.971085 0.00563169  -0.0575242 -0.988616 0.00875401  -0.0421829 -0.941255 0.0073216  -0.0994521 -0.969839 0.00705886  -0.0835154 -0.9229 0.00588393  -0.0412296 -0.939905 0.00917816  -0.0824882 -0.9216 0.00737643  -0.136209 -1.06839 0.00514436  -0.0921807 -1.08696 0.00794458  -0.0753701 -1.03884 0.00666165  -0.135313 -1.06729 0.00644493  -0.117987 -1.01956 0.00539064  -0.074515 -1.03764 0.00834298  -0.117066 -1.01841 0.00675154  -0.174298 -1.16682 0.00467229  -0.12933 -1.18631 0.00716662  -0.111218 -1.13758 0.00602484  -0.173507 -1.16585 0.00585198  -0.154951 -1.11746 0.00490522  -0.110457 -1.13652 0.00754452  -0.154132 -1.11644 0.006145  -0.214445 -1.26613 0.00421715  -0.168664 -1.28644 0.00642467  -0.149403 -1.23723 0.00542665  -0.213747 -1.26527 0.00528193  -0.194106 -1.21635 0.00444365  -0.148733 -1.23629 0.00678992  -0.193383 -1.21546 0.0055654  -0.256372 -1.36612 0.00378776  -0.209904 -1.38716 0.00572538  -0.189636 -1.33757 0.00485253  -0.255768 -1.36537 0.00474143  -0.235175 -1.31603 0.00400114  -0.189059 -1.33674 0.00607347  -0.234546 -1.31524 0.00500703  -0.29983 -1.46663 0.00337362  -0.252779 -1.4883 0.0050652  -0.231636 -1.43842 0.00430608  -0.299309 -1.46596 0.00421786  -0.277896 -1.4163 0.00357556  -0.231148 -1.43769 0.00539303  -0.277358 -1.41561 0.00447512  -0.344597 -1.56749 0.00298142  -0.29705 -1.58972 0.0044508  -0.275161 -1.53963 0.00380135  -0.344156 -1.56691 0.00373054  -0.322033 -1.517 0.00317597  -0.274749 -1.53899 0.00475693  -0.32158 -1.5164 0.00397134  -0.390459 -1.6686 0.0026114  -0.342504 -1.6913 0.00387001  -0.319972 -1.64106 0.00331974  -0.390096 -1.66809 0.00326777  -0.367371 -1.618 0.00279331  -0.319638 -1.64049 0.00415349  -0.366997 -1.61748 0.00349426  -0.437222 -1.76982 0.00226307  -0.388925 -1.79291 0.00332594  -0.365868 -1.7426 0.00287151  -0.436921 -1.76939 0.00283337  -0.413713 -1.71918 0.00243473  -0.3656 -1.74211 0.00359392  -0.413401 -1.71873 0.00304651  -0.484707 -1.87109 0.00193834  -0.436133 -1.8945 0.00281811  -0.412643 -1.84414 0.00245142  -0.484472 -1.87071 0.00242281  -0.460859 -1.82044 0.00209618  -0.412436 -1.84372 0.00306964  -0.460613 -1.82005 0.00262403  -0.532766 -1.9723 0.00162935  -0.483964 -1.99597 0.00236082  -0.460131 -1.94562 0.00206923  -0.532582 -1.97197 0.00204086  -0.508648 -1.92168 0.00178146  -0.459976 -1.94525 0.00258923  -0.508462 -1.92135 0.00222898  -0.581241 -2.07338 0.00135255  -0.532265 -2.09727 0.00192904  -0.508161 -2.04696 0.00170898  -0.581107 -2.07312 0.00169015  -0.556929 -2.02284 0.00148797  -0.50806 -2.04664 0.00214028  -0.556796 -2.02256 0.00186205  -0.630025 -2.1743 0.00108695  -0.580903 -2.19833 0.00154114  -0.556603 -2.1481 0.00138164  -0.629922 -2.17407 0.0013628  -0.605579 -2.12385 0.00121617  -0.556543 -2.14783 0.00173306  -0.605483 -2.12361 0.00152349  -0.678985 -2.27499 0.00085187  -0.629756 -2.29913 0.00119042  -0.605329 -2.249 0.00108838  -0.678924 -2.2748 0.00106549  -0.654458 -2.22465 0.000968933  -0.605301 -2.24876 0.00135922  -0.654399 -2.22446 0.00121045  -0.72804 -2.37542 0.000637531  -0.678728 -2.39963 0.00088191  -0.654229 -2.34961 0.000825167  -0.728004 -2.37525 0.000797033  -0.703477 -2.32522 0.000742435  -0.654228 -2.34942 0.00103188  -0.703449 -2.32505 0.000928402  -0.777101 -2.47556 0.000443459  -0.727736 -2.49981 0.000605345  -0.703199 -2.44993 0.000592947  -0.777094 -2.47541 0.000560284  -0.752549 -2.4255 0.00054121  -0.70323 -2.44976 0.000737906  -0.752545 -2.42537 0.000676632  -0.826128 -2.57539 0.000267029  -0.776713 -2.59967 0.000356197  -0.752182 -2.54993 0.000380993  -0.82613 -2.57527 0.000334978  -0.8016 -2.5255 0.00035429  -0.752227 -2.54978 0.000477076  -0.801616 -2.52537 0.00044322  -0.875052 -2.6749 0.000114441  -0.825609 -2.69918 0.000139475  -0.801116 -2.6496 0.000200272  -0.875059 -2.67479 0.000134945  -0.850579 -2.62517 0.000188589  -0.801164 -2.64946 0.000249863  -0.850605 -2.62506 0.000235081  -0.923817 -2.77412 -4.33922e-05  -0.874368 -2.79841 -7.08103e-05  -0.849941 -2.74896 2.98023e-05  -0.92382 -2.774 -5.67436e-05  -0.89943 -2.72453 3.91006e-05  -0.850004 -2.74882 3.62396e-05  -0.899462 -2.72443 4.52995e-05  0.0173732 -0.0302773 0.00968289  0 0 0  0.0226638 -0.0361935 0.0151434  0.00819112 -0.0189579 0.00620198  0 0 0  0.0181368 -0.0290054 0.013108  0.00647552 -0.0140662 0.00535178  0 0 0  0.00839043 -0.0181535 0.00855207  0.00666679 -0.0134371 0.00743079  0.043605 -0.068594 0.0151527  0.0551181 -0.0751579 0.0230494  0.037763 -0.057164 0.0151312  0.0450856 -0.0663955 0.019716  0.030205 -0.0485895 0.0129704  0.0390167 -0.0551928 0.0199447  0.0314106 -0.0468534 0.0171499  0.0682488 -0.113896 0.0171423  0.0839893 -0.120375 0.025728  0.0686023 -0.0993164 0.0193729  0.0698171 -0.111155 0.0217848  0.056472 -0.0901774 0.0164564  0.0701918 -0.0967063 0.0248053  0.0580239 -0.0877048 0.0210993  0.0878608 -0.167497 0.0173523  0.107349 -0.174311 0.0259724  0.094855 -0.149119 0.0206032  0.0893742 -0.164524 0.0218751  0.0787707 -0.139594 0.0173862  0.0964022 -0.146225 0.0260403  0.0803022 -0.136744 0.0219812  0.101632 -0.229257 0.0168097  0.12467 -0.23681 0.0251341  0.115322 -0.207494 0.0203834  0.103103 -0.226259 0.0211339  0.0955153 -0.197352 0.0171428  0.116786 -0.20453 0.0256386  0.09699 -0.194384 0.0215704  0.109355 -0.298368 0.0159533  0.135724 -0.306961 0.0238168  0.129574 -0.273884 0.0195186  0.110809 -0.295481 0.020035  0.106269 -0.262909 0.0164082  0.130985 -0.270992 0.0245087  0.107713 -0.259993 0.0206125  0.111099 -0.373827 0.0149829  0.140526 -0.383647 0.0223086  0.137521 -0.347288 0.0183892  0.112527 -0.371132 0.0188074  0.110986 -0.335329 0.015476  0.138905 -0.34455 0.0230727  0.11241 -0.332559 0.0194316  0.107088 -0.454648 0.0139756  0.139279 -0.465789 0.0207403  0.139303 -0.426632 0.0171571  0.108486 -0.452169 0.0175338  0.109816 -0.413591 0.0144808  0.140644 -0.424094 0.0215242  0.111212 -0.411031 0.0181739  0.097658 -0.539917 0.0129578  0.132309 -0.55242 0.0191669  0.135195 -0.510911 0.015908  0.0990014 -0.537671 0.0162561  0.103053 -0.496746 0.0134661  0.13649 -0.508594 0.0199497  0.104404 -0.49441 0.0168951  0.0832094 -0.628843 0.0119667  0.12003 -0.642688 0.0176351  0.125579 -0.599239 0.0146732  0.0844803 -0.626822 0.0150092  0.0910623 -0.583933 0.0124609  0.126813 -0.597141 0.0183947  0.09235 -0.581828 0.0156307  0.0641555 -0.720749 0.0110052  0.102876 -0.735893 0.0161579  0.110881 -0.690845 0.0134723  0.0653436 -0.718938 0.013793  0.0742589 -0.67443 0.0114822  0.112039 -0.688955 0.0168879  0.0754678 -0.672539 0.0143967  0.040917 -0.815078 0.0100727  0.0813048 -0.831442 0.0147359  0.0915443 -0.785097 0.01232  0.0420212 -0.813462 0.0126274  0.0530589 -0.767612 0.010536  0.0926218 -0.783399 0.0154395  0.0541844 -0.765923 0.0132048  0.0139265 -0.91134 0.00918198  0.0557548 -0.928848 0.0133874  0.0680118 -0.881448 0.0112197  0.0149324 -0.909904 0.0115061  0.0278946 -0.862968 0.00962496  0.0690069 -0.879937 0.0140548  0.0289303 -0.861462 0.0120599  -0.0164471 -1.00916 0.00833273  0.0266397 -1.02771 0.0121098  0.0407258 -0.979472 0.0101731  -0.0155314 -1.00788 0.010437  -0.000837803 -0.960057 0.00875306  0.0416189 -0.978116 0.0127385  0.00010097 -0.958716 0.010963  -0.0498135 -1.1082 0.00752735  -0.00564516 -1.1277 0.0109086  0.0100716 -1.07878 0.0091846  -0.0489942 -1.10706 0.00942588  -0.0327483 -1.05852 0.00792575  0.0108737 -1.07758 0.0114956  -0.0319059 -1.05734 0.00992393  -0.0858283 -1.20819 0.00676894  -0.0407312 -1.22853 0.00976562  -0.0235676 -1.17909 0.00824833  -0.0851038 -1.20718 0.0084691  -0.0674828 -1.15807 0.00713944  -0.0228523 -1.17802 0.0103245  -0.0667335 -1.15702 0.00894141  -0.124173 -1.30888 0.00604844  -0.0782723 -1.32998 0.00869513  -0.0598342 -1.28014 0.00736856  -0.123538 -1.30799 0.00756741  -0.104705 -1.25844 0.00640106  -0.0592115 -1.27919 0.00921965  -0.104043 -1.2575 0.0080092  -0.16455 -1.41009 0.00535822  -0.117962 -1.43185 0.00768781  -0.0984044 -1.38171 0.0065434  -0.163999 -1.4093 0.00670934  -0.144103 -1.35941 0.00569963  -0.0978634 -1.38087 0.00818467  -0.143526 -1.35858 0.00713277  -0.206676 -1.51165 0.00472498  -0.159509 -1.53397 0.00674629  -0.138977 -1.48363 0.00576377  -0.206203 -1.51095 0.00590944  -0.185377 -1.46081 0.00503945  -0.138516 -1.48288 0.0072124  -0.184892 -1.46009 0.00630426  -0.250301 -1.61341 0.00412536  -0.202641 -1.63622 0.00587463  -0.181268 -1.58575 0.00503826  -0.249902 -1.61281 0.00516319  -0.228289 -1.56249 0.00442171  -0.180887 -1.58509 0.00630021  -0.227876 -1.56186 0.00553226  -0.295194 -1.71527 0.0035677  -0.247129 -1.73849 0.00505972  -0.225037 -1.68794 0.00436687  -0.294868 -1.71474 0.00446343  -0.272575 -1.66432 0.00384426  -0.224727 -1.68736 0.00545907  -0.272236 -1.66377 0.00480652  -0.341153 -1.81712 0.00304794  -0.292739 -1.84066 0.00430226  -0.270045 -1.7901 0.0037353  -0.340882 -1.81666 0.00381899  -0.318027 -1.76618 0.00330353  -0.269799 -1.78959 0.00466943  -0.317752 -1.7657 0.00413442  -0.387963 -1.91888 0.00257325  -0.339283 -1.94268 0.00361109  -0.316088 -1.89214 0.00315976  -0.387756 -1.91847 0.00322008  -0.364435 -1.86799 0.00280499  -0.315903 -1.8917 0.00395155  -0.364219 -1.86758 0.00350928  -0.435465 -2.02047 0.00212979  -0.38656 -2.04448 0.00297666  -0.362967 -1.99399 0.00262952  -0.435312 -2.02012 0.0026679  -0.411613 -1.96967 0.00234842  -0.362836 -1.99361 0.00328708  -0.411454 -1.96932 0.00293732  -0.483499 -2.12184 0.00173807  -0.434426 -2.14601 0.00239563  -0.410512 -2.09561 0.00214553  -0.48339 -2.12155 0.00216794  -0.4594 -2.07117 0.00192881  -0.410423 -2.09528 0.00268197  -0.459289 -2.07086 0.00241137  -0.531921 -2.22295 0.00137472  -0.482711 -2.24721 0.00188613  -0.458565 -2.19692 0.00171494  -0.53185 -2.2227 0.00171828  -0.507641 -2.17241 0.00154877  -0.458517 -2.19665 0.00213671  -0.507572 -2.17215 0.00193524  -0.580606 -2.32376 0.00105071  -0.531304 -2.34809 0.00143075  -0.506982 -2.29793 0.00132489  -0.580569 -2.32355 0.00131249  -0.556214 -2.27337 0.00120282  -0.50697 -2.2977 0.00165057  -0.556175 -2.27316 0.00150561  -0.629455 -2.42425 0.000767708  -0.580078 -2.44861 0.00103283  -0.555649 -2.39859 0.000980854  -0.629437 -2.42407 0.000957012  -0.604988 -2.37403 0.000907898  -0.555668 -2.39839 0.00122213  -0.604984 -2.37385 0.00113201  -0.678366 -2.5244 0.000524998  -0.628945 -2.54876 0.000698328  -0.604464 -2.4989 0.000688314  -0.678366 -2.52425 0.00065136  -0.653886 -2.47435 0.0006423  -0.6045 -2.49873 0.000854969  -0.653894 -2.4742 0.000801802  -0.727275 -2.62422 0.000311613  -0.677814 -2.64856 0.000413656  -0.653324 -2.59886 0.000446081  -0.727285 -2.62408 0.000388622  -0.702801 -2.57434 0.000411272  -0.653379 -2.5987 0.000548601  -0.702827 -2.57421 0.000513554  -0.77612 -2.72372 0.00012207  -0.726652 -2.74804 0.000164986  -0.702168 -2.69848 0.00023675  -0.776148 -2.72359 0.000147343  -0.751679 -2.67399 0.000217438  -0.702235 -2.69833 0.00028801  -0.751718 -2.67387 0.000268221  -0.824887 -2.82295 -6.12736e-05  -0.775431 -2.84726 -7.65324e-05  -0.750974 -2.79781 3.88622e-05  -0.824917 -2.82282 -7.82013e-05  -0.800497 -2.77335 3.31402e-05  -0.751041 -2.79767 4.41074e-05  -0.800539 -2.77323 3.74317e-05  0.0287615 -0.0478588 0.0127864  0 0 0  0.0394881 -0.0571907 0.0192602  0.0168101 -0.0379997 0.00796318  0 0 0  0.0295134 -0.0460209 0.0171609  0.0105864 -0.0260283 0.00698018  0 0 0  0.0168457 -0.0364411 0.0109661  0.0107618 -0.0249788 0.00957513  0.0649115 -0.0874916 0.0202932  0.0790423 -0.0951123 0.029639  0.0584603 -0.0781827 0.0194018  0.0664272 -0.084846 0.0263047  0.0471304 -0.067232 0.0172305  0.0595112 -0.0754532 0.0255699  0.048352 -0.0649198 0.022676  0.0974439 -0.133179 0.0232604  0.115085 -0.140678 0.0333185  0.0960834 -0.119667 0.0249853  0.0990713 -0.130252 0.0295517  0.0817959 -0.109218 0.0221987  0.0976557 -0.116688 0.0320377  0.0833998 -0.106435 0.0284197  0.124551 -0.187756 0.023747  0.145746 -0.1958 0.0337775  0.129579 -0.170045 0.0266962  0.126112 -0.184745 0.0299397  0.111756 -0.159287 0.0237105  0.131172 -0.167014 0.0338094  0.11334 -0.156337 0.0299807  0.145467 -0.251002 0.0230765  0.170069 -0.259991 0.032726  0.157212 -0.229751 0.0264904  0.146951 -0.248054 0.0290015  0.135837 -0.218294 0.0235071  0.158748 -0.22679 0.0333736  0.137336 -0.215341 0.0295794  0.159861 -0.321973 0.0218866  0.187661 -0.332135 0.0310104  0.178262 -0.297941 0.0253897  0.161294 -0.319171 0.0274799  0.153506 -0.285548 0.0225194  0.179733 -0.295119 0.0319245  0.154949 -0.282699 0.0282886  0.167718 -0.399537 0.0204871  0.198445 -0.410994 0.0289996  0.192489 -0.37342 0.0239055  0.169114 -0.396923 0.0257075  0.16462 -0.359962 0.0212047  0.193907 -0.370782 0.0300238  0.166017 -0.35728 0.0266144  0.169247 -0.482577 0.0190229  0.2026 -0.495383 0.0268919  0.19996 -0.454972 0.0222685  0.170601 -0.480175 0.0238621  0.16928 -0.440399 0.0197618  0.201343 -0.45255 0.0279479  0.170638 -0.437919 0.0247917  0.164781 -0.570105 0.0175555  0.200459 -0.584252 0.0247822  0.200976 -0.541511 0.0205941  0.166082 -0.56793 0.0220127  0.167769 -0.5258 0.0182879  0.202302 -0.539304 0.025831  0.169073 -0.523542 0.0229332  0.154748 -0.661259 0.0161223  0.192487 -0.676709 0.0227261  0.195919 -0.63206 0.0189381  0.155985 -0.659298 0.0202093  0.160462 -0.615245 0.0168357  0.197184 -0.630073 0.0237424  0.161708 -0.613202 0.0211055  0.13961 -0.755312 0.0147457  0.179146 -0.771998 0.0207484  0.185276 -0.725817 0.0173357  0.140765 -0.753554 0.0184743  0.147813 -0.707931 0.0154309  0.186457 -0.724033 0.0217235  0.148993 -0.706099 0.0193348  0.119828 -0.851677 0.0134268  0.160936 -0.869513 0.018867  0.169521 -0.822104 0.015801  0.120901 -0.850104 0.016819  0.130295 -0.803212 0.0140817  0.170619 -0.820508 0.0197942  0.13139 -0.801571 0.0176401  0.0958681 -0.949838 0.0121794  0.138342 -0.96873 0.017077  0.149147 -0.920353 0.0143404  0.0968497 -0.948435 0.0152481  0.108371 -0.900532 0.0127947  0.15016 -0.918932 0.0179515  0.109377 -0.899069 0.0160227  0.0681608 -1.0494 0.0109901  0.111814 -1.06924 0.0153842  0.124625 -1.02011 0.0129566  0.0690497 -1.04814 0.0137599  0.0824833 -0.999443 0.0115755  0.125544 -1.01884 0.0162125  0.0833977 -0.998132 0.0144918  0.0371252 -1.15 0.00987554  0.0818031 -1.17071 0.0138006  0.0963978 -1.12099 0.0116522  0.037919 -1.14889 0.0123587  0.0530624 -1.09956 0.0104287  0.0972205 -1.11987 0.01458  0.0538827 -1.0984 0.0130494  0.00312853 -1.25139 0.00883079  0.0487058 -1.27286 0.0123143  0.0648856 -1.22271 0.0104287  0.00384164 -1.2504 0.0110443  0.0204972 -1.20059 0.00934649  0.0656176 -1.22171 0.0130446  0.0212332 -1.19956 0.0116942  -0.0334523 -1.35332 0.0078423  0.0128825 -1.37544 0.0109184  0.0304639 -1.325 0.00928283  -0.0328279 -1.35244 0.00980854  -0.0148356 -1.30228 0.00832653  0.0311139 -1.32411 0.0116062  -0.0141873 -1.30137 0.0104182  -0.0723073 -1.45559 0.00692201  -0.0253153 -1.4783 0.00961685  -0.00649643 -1.42764 0.0082078  -0.071764 -1.45482 0.00865626  -0.0525901 -1.4044 0.00737691  -0.00593758 -1.42685 0.0102589  -0.0520298 -1.4036 0.00922441  -0.113123 -1.55806 0.0060575  -0.0655763 -1.58125 0.00839925  -0.045687 -1.53046 0.00720215  -0.112655 -1.55738 0.00757408  -0.0924573 -1.5068 0.00648379  -0.0452044 -1.52977 0.00900078  -0.0919807 -1.50609 0.00810862  -0.155626 -1.66059 0.00525737  -0.10762 -1.68419 0.00727248  -0.086797 -1.63334 0.0062654  -0.155238 -1.66 0.00657439  -0.134156 -1.60931 0.00564957  -0.0863907 -1.63273 0.00782514  -0.133749 -1.60869 0.00706387  -0.199575 -1.76307 0.00451565  -0.151179 -1.78698 0.00623393  -0.12955 -1.73614 0.00540352  -0.199254 -1.76255 0.00564075  -0.177412 -1.71182 0.00488162  -0.129223 -1.73561 0.00674391  -0.177079 -1.71128 0.00610042  -0.244729 -1.86541 0.00382924  -0.196016 -1.88958 0.00527477  -0.173704 -1.83878 0.00459766  -0.244469 -1.86495 0.00478697  -0.221989 -1.81424 0.0041697  -0.17345 -1.83831 0.00574255  -0.221723 -1.81377 0.00520825  -0.290891 -1.96753 0.00320721  -0.241922 -1.99189 0.00438929  -0.219038 -1.94118 0.00386381  -0.290692 -1.96714 0.00400066  -0.26767 -1.91649 0.00351167  -0.218841 -1.94077 0.00482106  -0.267463 -1.91608 0.0043838  -0.337855 -2.06939 0.0026257  -0.288684 -2.09387 0.00358248  -0.265341 -2.04328 0.0031929  -0.337704 -2.06905 0.00328064  -0.314253 -2.01847 0.00290751  -0.265206 -2.04292 0.00398207  -0.314103 -2.01813 0.00362968  -0.385464 -2.17092 0.00210857  -0.33614 -2.19549 0.00286341  -0.312431 -2.14502 0.00258517  -0.385358 -2.17064 0.00263238  -0.361564 -2.12018 0.00236177  -0.312335 -2.14473 0.0032208  -0.361454 -2.11988 0.00294614  -0.433558 -2.27211 0.0016458  -0.384124 -2.29671 0.00221729  -0.360121 -2.2464 0.00203061  -0.433486 -2.27187 0.0020535  -0.40943 -2.22154 0.00187373  -0.360072 -2.24615 0.00253415  -0.409367 -2.2213 0.0023365  -0.482005 -2.37294 0.00124216  -0.432497 -2.39753 0.00167346  -0.408289 -2.34738 0.0015626  -0.481964 -2.37273 0.00154495  -0.457719 -2.32255 0.00143981  -0.408271 -2.34717 0.00193548  -0.457688 -2.32235 0.00179172  -0.530671 -2.47339 0.000889778  -0.481142 -2.49792 0.00118709  -0.456769 -2.44796 0.00114274  -0.530659 -2.47321 0.00110626  -0.506286 -2.42319 0.00106096  -0.456794 -2.44777 0.00141644  -0.50629 -2.42301 0.00131893  -0.579465 -2.57346 0.000599861  -0.529923 -2.59795 0.000781536  -0.505471 -2.54815 0.000794888  -0.579473 -2.57332 0.000739574  -0.555035 -2.52345 0.000738144  -0.505511 -2.54798 0.000981092  -0.555055 -2.52331 0.000914335  -0.628295 -2.67319 0.000356436  -0.578754 -2.6976 0.000459909  -0.554273 -2.64796 0.000500441  -0.628314 -2.67306 0.000432014  -0.603858 -2.62335 0.000473261  -0.554332 -2.64782 0.000614166  -0.603892 -2.62323 0.000585318  -0.677107 -2.77262 0.000145674  -0.627579 -2.79696 0.000200987  -0.6031 -2.74745 0.000277042  -0.677135 -2.77249 0.000181675  -0.652679 -2.72293 0.000250816  -0.603167 -2.74732 0.000329494  -0.652726 -2.72281 0.000301838  -0.725906 -2.87183 -4.50611e-05  -0.67639 -2.89615 -4.41074e-05  -0.651901 -2.84671 7.24792e-05  -0.725933 -2.8717 -6.91414e-05  -0.701477 -2.82223 5.36442e-05  -0.651975 -2.84656 8.53539e-05  -0.701525 -2.82211 6.00815e-05  -0.0416307 -0.0353831 -0.0137367  -0.0221884 -0.0233114 -0.00502777  0 0 0  -0.0264073 -0.0268599 -0.00768828  0 0 0  -0.0169423 -0.01724 -0.00985146  -0.00687521 -0.00707835 -0.00351453  0 0 0  -0.0215678 -0.0226218 -0.00771928  -0.0261157 -0.0256069 -0.0117965  -0.0100445 -0.0122261 -0.00422573  0 0 0  -0.00681942 -0.00661997 -0.00537515  -0.00992724 -0.0117065 -0.00647497  -0.0795086 -0.058115 -0.0219021  -0.0611863 -0.0483901 -0.0120304  -0.0608704 -0.0528737 -0.0123751  -0.0450924 -0.0444283 -0.0160387  -0.0306052 -0.0318796 -0.00877786  -0.0602544 -0.046441 -0.0184793  -0.0604335 -0.0506303 -0.0189185  -0.0434695 -0.0394532 -0.0103893  -0.03049 -0.0303273 -0.0134375  -0.0430738 -0.0376638 -0.0159285  -0.119335 -0.08575 -0.0253184  -0.0999311 -0.0736813 -0.0158377  -0.0963166 -0.0836671 -0.0144744  -0.0755118 -0.0775597 -0.0186572  -0.060386 -0.0622767 -0.0116663  -0.0992088 -0.07102 -0.0241349  -0.0958205 -0.0810304 -0.0219309  -0.0784557 -0.0673568 -0.0137184  -0.060136 -0.060053 -0.0177345  -0.0780059 -0.0648886 -0.0208735  -0.159962 -0.120835 -0.025373  -0.140254 -0.105152 -0.0169976  -0.132673 -0.121786 -0.0146656  -0.107093 -0.118308 -0.0187509  -0.0916055 -0.0994019 -0.0125732  -0.13962 -0.102323 -0.0256569  -0.132024 -0.119164 -0.0220213  -0.114381 -0.101767 -0.0147557  -0.091152 -0.0969779 -0.0189373  -0.113835 -0.0991339 -0.0222452  -0.200551 -0.163301 -0.0236206  -0.181012 -0.143872 -0.0164335  -0.169707 -0.166989 -0.0137315  -0.139851 -0.166247 -0.0174625  -0.124029 -0.14376 -0.0121782  -0.180284 -0.14119 -0.0246367  -0.168848 -0.164582 -0.0205038  -0.151106 -0.143512 -0.0142872  -0.123322 -0.141429 -0.0182114  -0.150364 -0.141014 -0.0213859  -0.240994 -0.21247 -0.0211711  -0.221656 -0.18949 -0.0150321  -0.207247 -0.218542 -0.0123279  -0.173792 -0.220504 -0.0156093  -0.1576 -0.194733 -0.0111182  -0.220786 -0.187108 -0.0224328  -0.206223 -0.216443 -0.0183637  -0.188392 -0.191976 -0.013056  -0.156671 -0.192633 -0.0165656  -0.187462 -0.189753 -0.0194707  -0.281511 -0.267608 -0.0186214  -0.262222 -0.241388 -0.0133412  -0.24534 -0.275797 -0.0108261  -0.208915 -0.280322 -0.0136738  -0.192273 -0.251578 -0.00983191  -0.261231 -0.239343 -0.0198848  -0.244211 -0.274011 -0.016114  -0.226194 -0.24646 -0.0115719  -0.191199 -0.249755 -0.0146322  -0.225128 -0.244546 -0.0172319  -0.322372 -0.328107 -0.0162449  -0.302934 -0.298959 -0.0116858  -0.284124 -0.338204 -0.00941634  -0.245265 -0.345099 -0.0118535  -0.22807 -0.313675 -0.00855732  -0.301886 -0.29724 -0.0174043  -0.282963 -0.336697 -0.0140212  -0.26461 -0.306359 -0.010102  -0.226926 -0.31212 -0.0127389  -0.263477 -0.304742 -0.0150411  -0.363837 -0.393424 -0.0141332  -0.344072 -0.361648 -0.0101695  -0.323773 -0.405266 -0.00816369  -0.282911 -0.414335 -0.0102494  -0.265061 -0.380501 -0.00740075  -0.343023 -0.360205 -0.0151584  -0.322634 -0.404002 -0.0121675  -0.30381 -0.371154 -0.00877118  -0.263917 -0.37918 -0.0110235  -0.302671 -0.369798 -0.0130644  -0.406065 -0.463072 -0.0122993  -0.385866 -0.428949 -0.00884485  -0.364425 -0.476538 -0.00707984  -0.321894 -0.487585 -0.00885916  -0.303331 -0.451597 -0.0063951  -0.384851 -0.427738 -0.0131884  -0.363339 -0.475471 -0.0105553  -0.343942 -0.440373 -0.00760031  -0.302228 -0.450477 -0.00952911  -0.342848 -0.439238 -0.0113335  -0.449166 -0.536628 -0.0106978  -0.428455 -0.500413 -0.00769067  -0.406147 -0.5516 -0.00613594  -0.362238 -0.56445 -0.00765777  -0.342926 -0.526535 -0.00552106  -0.427506 -0.49939 -0.0114746  -0.405136 -0.550694 -0.0091579  -0.385123 -0.513589 -0.00659108  -0.341895 -0.525587 -0.00823522  -0.384096 -0.512635 -0.00983596  -0.493181 -0.613721 -0.00930738  -0.471934 -0.57564 -0.00668645  -0.448978 -0.630078 -0.00531745  -0.403906 -0.644567 -0.00660992  -0.383854 -0.604931 -0.00476241  -0.471063 -0.574757 -0.00998187  -0.448051 -0.629306 -0.00794029  -0.4274 -0.590408 -0.00571299  -0.382903 -0.604119 -0.00711632  -0.42645 -0.589594 -0.00853062  -0.538124 -0.69399 -0.00807428  -0.516334 -0.654233 -0.00580144  -0.492885 -0.711619 -0.00460005  -0.446851 -0.727591 -0.00570059  -0.426079 -0.686422 -0.00410914  -0.515539 -0.653482 -0.00867605  -0.492048 -0.710962 -0.00687456  -0.470773 -0.670461 -0.00494456  -0.425218 -0.685732 -0.0061388  -0.469912 -0.669769 -0.00739121  -0.583932 -0.777135 -0.00698447  -0.561635 -0.735874 -0.00503659  -0.537827 -0.795908 -0.00396609  -0.49098 -0.81321 -0.00489593  -0.469542 -0.770685 -0.0035336  -0.560921 -0.735224 -0.00751853  -0.537073 -0.795342 -0.00592852  -0.515207 -0.753416 -0.00427365  -0.468768 -0.77009 -0.00528264  -0.51443 -0.752824 -0.00638962  -0.630574 -0.862838 -0.00601816  -0.607794 -0.820243 -0.00433898  -0.583718 -0.882636 -0.00340223  -0.536207 -0.90113 -0.00417972  -0.514146 -0.857407 -0.00302386  -0.607153 -0.819687 -0.00648952  -0.583046 -0.882151 -0.00508714  -0.560633 -0.838965 -0.00367737  -0.513461 -0.856896 -0.00452518  -0.559942 -0.838456 -0.00549793  -0.677956 -0.950821 -0.00514078  -0.654738 -0.907048 -0.00372267  -0.630479 -0.971541 -0.00290036  -0.58241 -0.991096 -0.00353956  -0.559791 -0.946318 -0.00257397  -0.654172 -0.906561 -0.00556636  -0.629883 -0.971124 -0.00433898  -0.606972 -0.926813 -0.0031445  -0.559188 -0.945869 -0.00385332  -0.60636 -0.926378 -0.00470352  -0.726004 -1.04084 -0.00436378  -0.702388 -0.996016 -0.00317526  -0.677996 -1.06236 -0.00244951  -0.629474 -1.08285 -0.0029757  -0.60637 -1.03714 -0.00217104  -0.701901 -0.995591 -0.00475049  -0.677474 -1.062 -0.00366211  -0.654126 -1.01671 -0.0026679  -0.605836 -1.03676 -0.00325084  -0.653584 -1.01634 -0.0039897  -0.774606 -1.13265 -0.00366235  -0.750659 -1.0869 -0.00267839  -0.726169 -1.15488 -0.00204515  -0.677283 -1.17617 -0.00246191  -0.653751 -1.12966 -0.00181079  -0.750237 -1.08653 -0.00400448  -0.725713 -1.15457 -0.00305986  -0.701982 -1.1084 -0.00224352  -0.65329 -1.12933 -0.00271153  -0.701514 -1.10809 -0.00335264  -0.823678 -1.22602 -0.0030334  -0.799449 -1.17947 -0.00223279  -0.774883 -1.24885 -0.00167871  -0.725713 -1.27086 -0.00200939  -0.701817 -1.22364 -0.00149107  -0.799091 -1.17916 -0.00334048  -0.774495 -1.24859 -0.00251698  -0.750444 -1.20167 -0.00185633  -0.701419 -1.22335 -0.00222802  -0.750037 -1.2014 -0.00277901  -0.87312 -1.32076 -0.00247073  -0.848657 -1.27352 -0.00183535  -0.824044 -1.3441 -0.00136232  -0.774642 -1.36669 -0.00160718  -0.750455 -1.31888 -0.00120354  -0.848357 -1.27324 -0.00274205  -0.823707 -1.34387 -0.00203848  -0.799392 -1.29631 -0.0015204  -0.750114 -1.31864 -0.00180387  -0.799046 -1.29608 -0.00227237  -0.922836 -1.41667 -0.0019784  -0.8982 -1.36882 -0.00148249  -0.873538 -1.44041 -0.00108051  -0.82397 -1.46352 -0.00126171  -0.799538 -1.4152 -0.000955582  -0.897949 -1.36858 -0.00221491  -0.873254 -1.44023 -0.00161552  -0.848731 -1.39211 -0.00121498  -0.79926 -1.41499 -0.00142837  -0.848439 -1.39192 -0.00181866  -0.972746 -1.51356 -0.00154543  -0.947979 -1.4652 -0.00117135  -0.923275 -1.53765 -0.000831604  -0.873585 -1.56116 -0.000952244  -0.848973 -1.51243 -0.000737429  -0.94777 -1.465 -0.00175047  -0.923036 -1.53748 -0.00124407  -0.89836 -1.48891 -0.000951767  -0.848742 -1.51225 -0.00110102  -0.898115 -1.48875 -0.00141954  -1.02276 -1.61127 -0.00115919  -0.997908 -1.56249 -0.000900507  -0.973166 -1.63563 -0.000613213  -0.923398 -1.65947 -0.000686407  -0.898656 -1.61039 -0.000544548  -0.997742 -1.56232 -0.00134015  -0.972969 -1.63549 -0.000917912  -0.948179 -1.58653 -0.000719786  -0.898468 -1.61024 -0.000814676  -0.947983 -1.5864 -0.00107574  -1.07281 -1.70966 -0.000841141  -1.0479 -1.66053 -0.000669003  -1.02312 -1.7342 -0.000435114  -0.973314 -1.75831 -0.000463486  -0.948486 -1.70897 -0.000385761  -1.04778 -1.66039 -0.000993252  -1.02297 -1.73409 -0.000647783  -0.998114 -1.68483 -0.000524044  -0.948344 -1.70883 -0.000575304  -0.99796 -1.68472 -0.000782251  -1.12281 -1.80856 -0.000577688  -1.0979 -1.75916 -0.000471592  -1.07309 -1.83324 -0.000283957  -1.02326 -1.85755 -0.000277042  -0.99839 -1.808 -0.000245333  -1.09781 -1.75905 -0.00069952  -1.07296 -1.83314 -0.000423431  -1.04808 -1.78365 -0.000357628  -0.998281 -1.80789 -0.000366449  -1.04796 -1.78356 -0.000535727  -1.17274 -1.90786 -0.000347614  -1.14784 -1.85827 -0.00030899  -1.12299 -1.93262 -0.000162125  -1.07317 -1.95706 -0.000135422  -1.04829 -1.90737 -0.000138521  -1.14778 -1.85816 -0.000454187  -1.12289 -1.93254 -0.000241041  -1.09802 -1.88288 -0.000219107  -1.04822 -1.90728 -0.000202894  -1.09793 -1.88281 -0.00032711  -1.22252 -2.00741 -0.000184298  -1.19768 -1.95769 -0.000180006  -1.17279 -2.03222 -7.31945e-05  -1.12299 -2.05674 -3.02792e-05  -1.09814 -2.00697 -5.62668e-05  -1.19764 -1.9576 -0.000259161  -1.17271 -2.03215 -0.000105619  -1.14788 -1.98238 -0.000112772  -1.09808 -2.00688 -8.32081e-05  -1.14781 -1.98232 -0.000169754  -1.27216 -2.10712 -6.69956e-05  -1.24738 -2.05733 -7.86781e-05  -1.22245 -2.13193 -9.29832e-06  -1.17267 -2.15649 3.50475e-05  -1.14787 -2.10669 4.52995e-06  -1.24736 -2.05726 -0.000115633  -1.22239 -2.13187 -1.43051e-05  -1.19761 -2.08205 -4.14848e-05  -1.14784 -2.10661 8.34465e-06  -1.19756 -2.082 -5.36442e-05  -1.32162 -2.20689 1.19209e-05  -1.29691 -2.15707 -1.74046e-05  -1.27194 -2.23166 2.59876e-05  -1.2222 -2.25622 6.86646e-05  -1.19746 -2.20643 3.14713e-05  -1.29691 -2.15701 -2.40803e-05  -1.27189 -2.2316 4.64916e-05  -1.24719 -2.18177 7.39098e-06  -1.19745 -2.20636 5.24521e-05  -1.24716 -2.18174 1.64509e-05  -1.37092 -2.3066 4.31538e-05  -1.34628 -2.25681 1.40667e-05  -1.32127 -2.33131 4.07696e-05  -1.27155 -2.35587 7.82013e-05  -1.24689 -2.30612 4.95911e-05  -1.34629 -2.25675 2.71797e-05  -1.32123 -2.33127 6.34193e-05  -1.2966 -2.28147 3.26633e-05  -1.24689 -2.30606 7.55787e-05  -1.29658 -2.28144 5.4121e-05  -1.42009 -2.40618 3.83854e-05  -1.39551 -2.35646 2.59876e-05  -1.37046 -2.43084 3.8147e-05  -1.32075 -2.45536 7.00951e-05  -1.29616 -2.40569 5.03063e-05  -1.39551 -2.35642 4.19617e-05  -1.37042 -2.43079 5.96046e-05  -1.34585 -2.38108 4.26769e-05  -1.29617 -2.40563 7.84397e-05  -1.34584 -2.38105 6.22272e-05  -1.4692 -2.50561 2.74181e-05  -1.44464 -2.45596 1.40667e-05  -1.41955 -2.5302 2.7895e-05  -1.36984 -2.55469 5.38826e-05  -1.34529 -2.5051 4.36306e-05  -1.44465 -2.45592 3.57628e-05  -1.41952 -2.53016 4.60148e-05  -1.39498 -2.48052 3.02792e-05  -1.34529 -2.50504 6.36578e-05  -1.39497 -2.48049 5.36442e-05  -0.0120337 -0.0138958 -0.00526261  0 0 0  -0.0081865 -0.0107478 -0.00635147  -0.00326322 -0.00321482 -0.00222301  0 0 0  -0.0120084 -0.0129792 -0.00805855  -0.00459414 -0.00449656 -0.00283432  0 0 0  -0.00324304 -0.00283751 -0.00339818  -0.00457053 -0.00408444 -0.00434113  -0.0331136 -0.0418157 -0.00869775  -0.0231463 -0.0375516 -0.0105517  -0.0150132 -0.0238764 -0.00573683  -0.0330146 -0.0400724 -0.0132654  -0.0217473 -0.0267069 -0.00723004  -0.0149797 -0.0227249 -0.00877237  -0.0217006 -0.0253758 -0.0110621  -0.0581995 -0.0774909 -0.0102506  -0.0424371 -0.0743442 -0.0123794  -0.0325603 -0.0566215 -0.00773549  -0.0579002 -0.0753255 -0.0154905  -0.0453424 -0.0586685 -0.00968075  -0.0324099 -0.0548826 -0.0117314  -0.0451636 -0.0567021 -0.0147028  -0.085268 -0.120549 -0.010396  -0.0642866 -0.119215 -0.0124478  -0.0534771 -0.0978326 -0.00837278  -0.0846814 -0.118301 -0.0155718  -0.0714996 -0.0980645 -0.0104537  -0.053076 -0.0958215 -0.0125742  -0.0710734 -0.0958627 -0.0157282  -0.114045 -0.170547 -0.00971484  -0.0884068 -0.171257 -0.0115633  -0.0767457 -0.146416 -0.00809717  -0.113188 -0.16843 -0.0144813  -0.0994239 -0.144683 -0.0101171  -0.0760559 -0.14439 -0.0120816  -0.0987141 -0.14252 -0.0151157  -0.1445 -0.226718 -0.00868273  -0.114837 -0.22956 -0.010282  -0.102248 -0.201563 -0.00735998  -0.143446 -0.224829 -0.0129168  -0.129044 -0.197867 -0.00922298  -0.101329 -0.199673 -0.0109439  -0.128094 -0.195892 -0.0137293  -0.176606 -0.288357 -0.007586  -0.14354 -0.293329 -0.00892425  -0.129969 -0.262489 -0.00645995  -0.175445 -0.286714 -0.011277  -0.160324 -0.256856 -0.00813222  -0.128901 -0.260797 -0.00959897  -0.159224 -0.255118 -0.0120897  -0.210361 -0.354862 -0.00654483  -0.174452 -0.361903 -0.0076468  -0.159849 -0.328518 -0.00556779  -0.209161 -0.353453 -0.00973415  -0.193253 -0.320995 -0.00705242  -0.158717 -0.327043 -0.00827122  -0.192083 -0.3195 -0.0104847  -0.245756 -0.425738 -0.00562477  -0.207489 -0.434746 -0.00652575  -0.191832 -0.399092 -0.00475264  -0.244583 -0.424537 -0.00837469  -0.227826 -0.389747 -0.00606632  -0.190705 -0.397813 -0.00707102  -0.226654 -0.388472 -0.00903082  -0.282798 -0.500534 -0.00482821  -0.242559 -0.511392 -0.00555825  -0.22586 -0.473708 -0.00404549  -0.281681 -0.499518 -0.00719666  -0.264049 -0.462638 -0.00520897  -0.22477 -0.472614 -0.00602603  -0.262917 -0.461557 -0.00776196  -0.321456 -0.578855 -0.00414515  -0.279562 -0.591421 -0.00472569  -0.261837 -0.551939 -0.00343704  -0.320417 -0.577985 -0.00618172  -0.3019 -0.53925 -0.00446987  -0.26082 -0.550999 -0.00512838  -0.300843 -0.538331 -0.00667071  -0.361673 -0.660326 -0.00355482  -0.318393 -0.674465 -0.00401616  -0.299692 -0.633388 -0.00291872  -0.360722 -0.659581 -0.00530863  -0.341348 -0.619193 -0.00383449  -0.298753 -0.632583 -0.00435877  -0.340374 -0.618409 -0.00572824  -0.403359 -0.744597 -0.00303984  -0.358913 -0.760169 -0.00340247  -0.339294 -0.717692 -0.00247145  -0.402503 -0.743958 -0.00454307  -0.38231 -0.702104 -0.00328684  -0.338443 -0.716996 -0.00369978  -0.381427 -0.701434 -0.00491285  -0.446419 -0.83136 -0.00258803  -0.400979 -0.848233 -0.00286627  -0.380519 -0.804524 -0.00209236  -0.445644 -0.830807 -0.00387335  -0.424698 -0.787662 -0.00280738  -0.379755 -0.80392 -0.00312352  -0.423905 -0.787085 -0.00419807  -0.490716 -0.92031 -0.00219154  -0.444448 -0.938366 -0.00239611  -0.423224 -0.893572 -0.00175333  -0.490031 -0.919838 -0.00328207  -0.468396 -0.875551 -0.00238514  -0.42254 -0.893053 -0.00262213  -0.467684 -0.87506 -0.0035696  -0.536138 -1.01119 -0.00184298  -0.489169 -1.0303 -0.00197697  -0.467257 -0.984569 -0.00145268  -0.535525 -1.01079 -0.00275874  -0.513271 -0.965505 -0.00201344  -0.466655 -0.984118 -0.00218105  -0.512642 -0.965086 -0.00301313  -0.582541 -1.10378 -0.00153518  -0.534986 -1.12381 -0.00161839  -0.512475 -1.07727 -0.00119662  -0.581999 -1.10342 -0.00229287  -0.5592 -1.05727 -0.0016818  -0.511943 -1.07687 -0.0017941  -0.558643 -1.05691 -0.00251842  -0.629786 -1.19782 -0.0012548  -0.58175 -1.21867 -0.00129056  -0.55871 -1.17142 -0.000970125  -0.629311 -1.19751 -0.0018785  -0.606037 -1.1506 -0.00139022  -0.558251 -1.17108 -0.00145054  -0.605552 -1.1503 -0.00208116  -0.677743 -1.29312 -0.00100875  -0.629315 -1.31469 -0.00101471  -0.605832 -1.26684 -0.000766039  -0.677333 -1.29286 -0.00151181  -0.653654 -1.2453 -0.0011282  -0.605436 -1.26655 -0.00114846  -0.653236 -1.24504 -0.00168896  -0.726289 -1.38949 -0.000788212  -0.677534 -1.41168 -0.000766516  -0.653678 -1.36332 -0.000588417  -0.725935 -1.38927 -0.00118518  -0.701924 -1.34116 -0.000896931  -0.653344 -1.36307 -0.000883341  -0.701564 -1.34094 -0.00134158  -0.775301 -1.48676 -0.000602961  -0.726293 -1.50947 -0.000555277  -0.70213 -1.4607 -0.000434399  -0.774996 -1.48658 -0.000905037  -0.750715 -1.438 -0.000692129  -0.701851 -1.46048 -0.000654697  -0.75041 -1.43782 -0.00103951  -0.824658 -1.58478 -0.000440359  -0.775456 -1.60792 -0.000371695  -0.751054 -1.55881 -0.000308514  -0.824405 -1.58462 -0.000661373  -0.799912 -1.53567 -0.000520229  -0.750823 -1.55862 -0.00046134  -0.799658 -1.53551 -0.000780106  -0.874267 -1.68339 -0.000305176  -0.824914 -1.70689 -0.00022006  -0.800334 -1.65751 -0.000191689  -0.874061 -1.68325 -0.000455618  -0.849409 -1.634 -0.000370026  -0.800147 -1.65735 -0.000292301  -0.849201 -1.63387 -0.000555515  -0.924025 -1.78246 -0.000186682  -0.874564 -1.80625 -0.000103474  -0.84986 -1.75666 -0.000104427  -0.923853 -1.78235 -0.000284195  -0.899106 -1.73286 -0.000242472  -0.849715 -1.75652 -0.000155687  -0.898938 -1.73275 -0.00036335  -0.97386 -1.88187 -9.72748e-05  -0.924321 -1.90588 -7.15256e-06  -0.899539 -1.85615 -3.09944e-05  -0.973717 -1.88178 -0.000148296  -0.94891 -1.83211 -0.000138521  -0.899428 -1.85603 -4.91142e-05  -0.948778 -1.83202 -0.000207663  -1.02368 -1.9815 -2.59876e-05  -0.974094 -2.00567 6.50883e-05  -0.949281 -1.95586 2.0504e-05  -1.02357 -1.98142 -3.57628e-05  -0.998747 -1.93165 -6.05583e-05  -0.9492 -1.95576 3.60012e-05  -0.998646 -1.93158 -8.74996e-05  -1.07345 -2.08126 2.43187e-05  -1.02383 -2.10556 0.00010848  -0.999016 -2.0557 5.6982e-05  -1.07336 -2.08119 3.95775e-05  -1.04855 -2.03136 0  -0.998968 -2.05561 8.96454e-05  -1.04848 -2.0313 4.76837e-06  -1.1231 -2.18106 5.126e-05  -1.07347 -2.20542 0.000130653  -1.04869 -2.15557 7.77245e-05  -1.12304 -2.181 8.01086e-05  -1.09826 -2.13114 4.12464e-05  -1.04866 -2.15549 0.000118732  -1.09821 -2.13109 6.62804e-05  -1.17261 -2.2808 6.46114e-05  -1.12297 -2.30522 0.000128508  -1.09825 -2.2554 8.72612e-05  -1.17256 -2.28075 9.89437e-05  -1.14785 -2.23092 6.27041e-05  -1.09824 -2.25533 0.000129938  -1.14781 -2.23088 9.29832e-05  -1.22196 -2.38044 6.48499e-05  -1.17232 -2.40488 0.00011301  -1.14767 -2.35513 7.98702e-05  -1.22192 -2.3804 0.000100136  -1.19728 -2.33062 6.50883e-05  -1.14766 -2.35506 0.000123262  -1.19726 -2.33059 9.82285e-05  -1.27114 -2.47992 4.88758e-05  -1.22149 -2.50435 7.89165e-05  -1.19691 -2.45469 6.53267e-05  -1.2711 -2.47987 7.55787e-05  -1.24655 -2.43019 5.93662e-05  -1.19692 -2.45463 9.91821e-05  -1.24653 -2.43015 9.15527e-05  -1.3202 -2.57921 4.02927e-05  -1.2705 -2.60361 4.95911e-05  -1.246 -2.55407 4.31538e-05  -1.32016 -2.57916 6.41346e-05  -1.29565 -2.52957 4.41074e-05  -1.246 -2.55401 7.05719e-05  -1.29564 -2.52954 7.15256e-05  -0.00514173 -0.0106372 -0.00308061  0 0 0  -0.00241699 -0.0100498 -0.00310302  -0.00101082 -0.00278792 -0.0010848  0 0 0  -0.00509957 -0.0099262 -0.00470996  -0.00201942 -0.00273252 -0.00164127  0 0 0  -0.000987556 -0.00249627 -0.00164175  -0.00199549 -0.00240201 -0.00250578  -0.0150212 -0.0380322 -0.00518751  -0.00754072 -0.0371824 -0.00527811  -0.00468618 -0.0227986 -0.00284863  -0.0149005 -0.0366906 -0.0078907  -0.00949217 -0.0226953 -0.00427723  -0.0045733 -0.021917 -0.00433016  -0.00942244 -0.0216935 -0.00652838  -0.0289974 -0.0763781 -0.00618148  -0.0160817 -0.0761072 -0.00630331  -0.0116413 -0.0568116 -0.00392938  -0.0286814 -0.0746189 -0.0093174  -0.0215598 -0.0560315 -0.00581479  -0.011389 -0.0554234 -0.00592899  -0.0213632 -0.0544895 -0.00880527  -0.0461133 -0.123003 -0.00628543  -0.0279593 -0.123914 -0.00637245  -0.0220734 -0.100707 -0.00429702  -0.0455256 -0.121078 -0.00939083  -0.0371827 -0.0987008 -0.00631833  -0.0216048 -0.099013 -0.00643229  -0.0367444 -0.0968676 -0.00947618  -0.0660284 -0.176679 -0.00585151  -0.0431567 -0.179083 -0.00587082  -0.0358388 -0.152433 -0.00415707  -0.0651917 -0.174787 -0.00869846  -0.0557063 -0.148972 -0.00611162  -0.0351389 -0.150636 -0.00617194  -0.0550002 -0.147078 -0.00910115  -0.0887091 -0.236549 -0.00517631  -0.0616977 -0.24061 -0.00511241  -0.0528949 -0.21085 -0.00372601  -0.0876918 -0.234793 -0.00767875  -0.0770102 -0.20585 -0.00553012  -0.0520054 -0.209097 -0.00551176  -0.0760829 -0.204047 -0.00820756  -0.114107 -0.301846 -0.0044539  -0.0835271 -0.307657 -0.00430918  -0.0732075 -0.275097 -0.00318718  -0.11299 -0.300277 -0.00660324  -0.101055 -0.26852 -0.00481534  -0.0722028 -0.27348 -0.00470972  -0.0999926 -0.266885 -0.00713992  -0.142114 -0.371934 -0.00376773  -0.108497 -0.379524 -0.00355196  -0.0966797 -0.344473 -0.00265241  -0.140973 -0.370555 -0.00559139  -0.127766 -0.336294 -0.00410223  -0.095625 -0.34302 -0.00392127  -0.126649 -0.334843 -0.0060842  -0.172624 -0.446254 -0.0031662  -0.136433 -0.455595 -0.0028801  -0.123152 -0.418334 -0.00216579  -0.171502 -0.445061 -0.00470018  -0.15704 -0.408559 -0.0034554  -0.122101 -0.417062 -0.00320268  -0.155923 -0.407303 -0.00513053  -0.205496 -0.524326 -0.00264359  -0.167128 -0.535354 -0.00231743  -0.152455 -0.496148 -0.00174665  -0.20443 -0.523298 -0.00393486  -0.188746 -0.484817 -0.00289059  -0.151442 -0.495036 -0.00258899  -0.187667 -0.483732 -0.00430226  -0.240591 -0.605723 -0.00220346  -0.200379 -0.618345 -0.00184155  -0.184392 -0.577433 -0.00139451  -0.239599 -0.604833 -0.00328231  -0.222748 -0.564601 -0.00241399  -0.18344 -0.576466 -0.00207186  -0.221738 -0.56367 -0.00359678  -0.277765 -0.690055 -0.00183129  -0.235985 -0.704162 -0.00145054  -0.218766 -0.661762 -0.00110197  -0.276855 -0.689289 -0.00273323  -0.258901 -0.647512 -0.00201106  -0.217895 -0.660919 -0.0016377  -0.25797 -0.646713 -0.00299716  -0.316854 -0.776959 -0.00151348  -0.273739 -0.79245 -0.00112796  -0.255394 -0.748748 -0.000860691  -0.316025 -0.776301 -0.00226116  -0.297055 -0.733181 -0.00166702  -0.254598 -0.748012 -0.00128102  -0.296204 -0.732484 -0.00248933  -0.357685 -0.866133 -0.00124383  -0.313433 -0.882878 -0.000850201  -0.294069 -0.838048 -0.000660181  -0.356942 -0.865557 -0.00185657  -0.337035 -0.821256 -0.00137138  -0.293348 -0.837409 -0.000984192  -0.336269 -0.820658 -0.00205112  -0.400092 -0.95727 -0.00100756  -0.354878 -0.975163 -0.000619411  -0.334587 -0.929356 -0.000487566  -0.399426 -0.956771 -0.00150561  -0.378677 -0.911447 -0.00112104  -0.333946 -0.9288 -0.000729561  -0.377992 -0.91093 -0.00167704  -0.443899 -1.05012 -0.000803709  -0.397866 -1.06904 -0.000423431  -0.37675 -1.0224 -0.000345469  -0.443306 -1.04969 -0.00120449  -0.421803 -1.00348 -0.000902414  -0.376183 -1.02191 -0.00051403  -0.421196 -1.00303 -0.0013504  -0.488937 -1.14444 -0.000627041  -0.442209 -1.16427 -0.000256538  -0.420367 -1.11692 -0.00022912  -0.488414 -1.14407 -0.000937462  -0.466249 -1.09709 -0.000711918  -0.419874 -1.11649 -0.000339985  -0.465712 -1.0967 -0.00106525  -0.535028 -1.24002 -0.000473976  -0.487726 -1.26066 -0.000123024  -0.465259 -1.2127 -0.000126123  -0.534576 -1.2397 -0.000711441  -0.511832 -1.19206 -0.000546694  -0.464828 -1.21234 -0.000190258  -0.511366 -1.19173 -0.000819683  -0.582036 -1.33666 -0.000346422  -0.534241 -1.35801 -8.82149e-06  -0.511235 -1.30955 -4.3869e-05  -0.581636 -1.33638 -0.000510693  -0.558404 -1.28819 -0.000408173  -0.510867 -1.30922 -6.27041e-05  -0.558 -1.28791 -0.000607967  -0.629784 -1.43419 -0.000228167  -0.581599 -1.45615 8.4877e-05  -0.558138 -1.40727 2.74181e-05  -0.629443 -1.43395 -0.000343084  -0.605798 -1.3853 -0.00028491  -0.557821 -1.40699 3.91006e-05  -0.605451 -1.38506 -0.000423431  -0.678138 -1.53243 -0.000132799  -0.629631 -1.55493 0.000156879  -0.605795 -1.50571 8.08239e-05  -0.677855 -1.53223 -0.000200272  -0.653869 -1.48321 -0.000179291  -0.605532 -1.50546 0.00012064  -0.653574 -1.483 -0.000267744  -0.726981 -1.63127 -5.4121e-05  -0.678197 -1.6542 0.0002141  -0.654068 -1.60472 0.000123262  -0.726734 -1.63109 -7.96318e-05  -0.702484 -1.58177 -9.03606e-05  -0.653849 -1.60451 0.000188589  -0.702239 -1.58159 -0.000135899  -0.776176 -1.73055 1.40667e-05  -0.727186 -1.75384 0.00025177  -0.702818 -1.70416 0.000157595  -0.775973 -1.7304 1.5974e-05  -0.751513 -1.68084 -1.64509e-05  -0.702642 -1.70398 0.000236034  -0.751312 -1.68069 -2.69413e-05  -0.825611 -1.83015 5.98431e-05  -0.776453 -1.85375 0.000274897  -0.751922 -1.80392 0.000178337  -0.82544 -1.83003 8.84533e-05  -0.800841 -1.78029 3.6478e-05  -0.751785 -1.80377 0.000266552  -0.800679 -1.78017 5.22137e-05  -0.875193 -1.92998 9.17912e-05  -0.825909 -1.95381 0.000282049  -0.801264 -1.9039 0.00018239  -0.87506 -1.92987 0.000138998  -0.85036 -1.88003 7.48634e-05  -0.801158 -1.90376 0.000280619  -0.85023 -1.87993 0.000114918  -0.924839 -2.02992 0.000112772  -0.875463 -2.05393 0.000276566  -0.850748 -2.00398 0.000183582  -0.924732 -2.02983 0.000171185  -0.899984 -1.97992 0.000104666  -0.850671 -2.00387 0.000279427  -0.899888 -1.97983 0.000154734  -0.974471 -2.1299 0.000121832  -0.925032 -2.15405 0.000259161  -0.900293 -2.10409 0.000179291  -0.974399 -2.12982 0.000183105  -0.949636 -2.07989 0.000117302  -0.900245 -2.10399 0.000267982  -0.949568 -2.07982 0.000178337  -1.02405 -2.22984 0.00011754  -0.974555 -2.25408 0.000229836  -0.949822 -2.20416 0.00015974  -1.02398 -2.22977 0.000180721  -0.999249 -2.17986 0.00012517  -0.949797 -2.20407 0.000238657  -0.999196 -2.1798 0.000181437  -1.0735 -2.32967 9.9659e-05  -1.02398 -2.35397 0.000190258  -0.999282 -2.30412 0.00013423  -1.07345 -2.32961 0.000156641  -1.04876 -2.27975 0.000108957  -0.999273 -2.30404 0.000203133  -1.04873 -2.2797 0.000169516  -1.12281 -2.42935 8.24928e-05  -1.07325 -2.45369 0.000138521  -1.04862 -2.40393 0.000108004  -1.12277 -2.42929 0.000125647  -1.09815 -2.37951 9.58443e-05  -1.04862 -2.40385 0.000165462  -1.09813 -2.37947 0.00014329  -1.17195 -2.52882 5.53131e-05  -1.12236 -2.55317 8.98838e-05  -1.09781 -2.50352 7.7486e-05  -1.17191 -2.52877 8.4877e-05  -1.14737 -2.47909 7.10487e-05  -1.09783 -2.50345 0.000114441  -1.14736 -2.47906 0.000107765  -1.22092 -2.62805 2.90871e-05  -1.17128 -2.65237 4.00543e-05  -1.14683 -2.60288 4.05312e-05  -1.22087 -2.628 4.91142e-05  -1.19643 -2.57845 4.55379e-05  -1.14684 -2.60281 6.50883e-05  -1.19641 -2.57842 7.03335e-05  -2.31341e-05 -0.0114881 -0.00102615  0 0 0  0.00246619 -0.0124194 1.66893e-05  0.000885941 -0.0040105 2.38419e-07  0 0 0  7.6592e-05 -0.0109222 -0.00152659  -4.10862e-05 -0.00322625 -0.000534773  0 0 0  0.000917122 -0.00378031 4.05312e-05  -6.00144e-06 -0.00297353 -0.000791788  -0.00100368 -0.0399064 -0.00180101  0.00579613 -0.0414796 -0.000188589  0.00399682 -0.0259833 -7.72476e-05  -0.000741094 -0.0388233 -0.00270271  -0.000257522 -0.0239404 -0.00144649  0.0042202 -0.0252603 -5.65052e-05  -8.25524e-05 -0.0231504 -0.00216985  -0.00471455 -0.080221 -0.00224161  0.00712436 -0.0824336 -0.000441074  0.00641483 -0.0618893 -0.000253916  -0.00426662 -0.0787338 -0.00334001  -0.00244707 -0.0587875 -0.00206947  0.00683254 -0.0607086 -0.000333309  -0.00210515 -0.0575249 -0.00309801  -0.0119197 -0.129415 -0.0023067  0.00489092 -0.132472 -0.000504494  0.00591567 -0.107932 -0.000367165  -0.0112716 -0.127713 -0.00341225  -0.00784898 -0.103792 -0.00231504  0.00650343 -0.106431 -0.00050211  -0.00731182 -0.10221 -0.0034349  -0.0228599 -0.185913 -0.00210333  -0.00148398 -0.190063 -0.000353575  0.00150269 -0.162035 -0.000334501  -0.0220277 -0.184166 -0.00309134  -0.0169042 -0.156777 -0.0022285  0.00223756 -0.160384 -0.000449896  -0.0161688 -0.155068 -0.00328422  -0.0375667 -0.248732 -0.0017674  -0.0121371 -0.254182 -8.55923e-05  -0.00712639 -0.22301 -0.000188828  -0.0366078 -0.247057 -0.00258541  -0.0297226 -0.216543 -0.00194168  -0.00627285 -0.221353 -0.000229359  -0.0288359 -0.214852 -0.00284672  -0.0559758 -0.317078 -0.00139689  -0.0269865 -0.323979 0.000220776  -0.0199758 -0.289984 1.33514e-05  -0.0549408 -0.315534 -0.00203586  -0.0462942 -0.282217 -0.00157857  -0.0190444 -0.288416 6.60419e-05  -0.0453099 -0.280637 -0.00230932  -0.0779124 -0.390253 -0.00104189  -0.0458387 -0.398697 0.00050211  -0.036885 -0.362199 0.000217676  -0.0768633 -0.388872 -0.00152016  -0.0664911 -0.353061 -0.00121403  -0.0359232 -0.36076 0.000365496  -0.0654628 -0.35163 -0.00177097  -0.103169 -0.46764 -0.000736952  -0.0684364 -0.477648 0.000735521  -0.0576335 -0.438962 0.000393391  -0.102144 -0.466424 -0.00107455  -0.0901135 -0.428419 -0.000883102  -0.0566818 -0.437672 0.000624895  -0.0890939 -0.42715 -0.00128818  -0.13152 -0.548705 -0.000485182  -0.0945011 -0.560242 0.000911951  -0.0819614 -0.519659 0.000538111  -0.130541 -0.547638 -0.00070262  -0.116949 -0.507709 -0.000603676  -0.0810494 -0.518516 0.000828743  -0.115963 -0.506597 -0.000880241  -0.162723 -0.632952 -0.000280619  -0.123738 -0.645973 0.00103617  -0.109593 -0.603746 0.0006423  -0.161808 -0.632023 -0.000406504  -0.146751 -0.590425 -0.000374794  -0.108732 -0.602738 0.000977516  -0.145824 -0.589453 -0.000546455  -0.196542 -0.719979 -0.000120163  -0.155873 -0.734396 0.00111628  -0.140252 -0.690753 0.000709295  -0.195701 -0.719166 -0.000173569  -0.179292 -0.676115 -0.000195265  -0.139457 -0.68987 0.00107837  -0.178437 -0.675268 -0.00028038  -0.232743 -0.809399 3.8147e-06  -0.190627 -0.825115 0.00115991  -0.173661 -0.780261 0.00075388  -0.231977 -0.808686 1.52588e-05  -0.214334 -0.764382 -5.38826e-05  -0.172933 -0.779486 0.00113702  -0.21355 -0.763645 -7.15256e-05  -0.271098 -0.900877 0.000106335  -0.22774 -0.917795 0.00116706  -0.209556 -0.87191 0.000770807  -0.270402 -0.90026 0.000157833  -0.251636 -0.854872 5.34058e-05  -0.2089 -0.871227 0.00116467  -0.25093 -0.854232 8.84533e-05  -0.311375 -0.994125 0.000180006  -0.266957 -1.01214 0.00116515  -0.247682 -0.965376 0.000772238  -0.310753 -0.993587 0.000274658  -0.290981 -0.947271 0.000141144  -0.247094 -0.964771 0.00116873  -0.290346 -0.946715 0.000217676  -0.353353 -1.08888 0.000237942  -0.30803 -1.10788 0.00114083  -0.287788 -1.06038 0.000766277  -0.352801 -1.0884 0.000357628  -0.332133 -1.0413 0.000211954  -0.28727 -1.05985 0.00114799  -0.331572 -1.04082 0.000317335  -0.396831 -1.1849 0.000281334  -0.350738 -1.20478 0.00110459  -0.32964 -1.15666 0.000750065  -0.396344 -1.18448 0.000424862  -0.374888 -1.13671 0.000261784  -0.329188 -1.15619 0.00112128  -0.374395 -1.1363 0.000392437  -0.441606 -1.28197 0.000310898  -0.394858 -1.30265 0.00105953  -0.373024 -1.25401 0.000719547  -0.44118 -1.28162 0.000464678  -0.419041 -1.23329 0.000297308  -0.372629 -1.2536 0.00108361  -0.418608 -1.23293 0.000446796  -0.487486 -1.37993 0.000332117  -0.440192 -1.40129 0.0010016  -0.417719 -1.35224 0.000686407  -0.48712 -1.37962 0.000496626  -0.464392 -1.33084 0.000323057  -0.417377 -1.35188 0.00103021  -0.464015 -1.33052 0.000481606  -0.534302 -1.47859 0.0003407  -0.486541 -1.50055 0.000941753  -0.463532 -1.45116 0.000647306  -0.533984 -1.47833 0.000511646  -0.510764 -1.42917 0.000336647  -0.463246 -1.45085 0.000974894  -0.51044 -1.42889 0.000500917  -0.581876 -1.57782 0.000338078  -0.533738 -1.60028 0.000872612  -0.510278 -1.55063 0.000607729  -0.581611 -1.57759 0.000510931  -0.557977 -1.52812 0.000341892  -0.510036 -1.55036 0.000909328  -0.557703 -1.52789 0.000514984  -0.630072 -1.67747 0.000338316  -0.581611 -1.70036 0.000806332  -0.557791 -1.65051 0.00056076  -0.629841 -1.67727 0.000510931  -0.605882 -1.62757 0.000339746  -0.557595 -1.65028 0.000837564  -0.605652 -1.62738 0.000509977  -0.678735 -1.77742 0.000326872  -0.630019 -1.80067 0.00073123  -0.605903 -1.7507 0.000510693  -0.678547 -1.77725 0.000488043  -0.654323 -1.72739 0.000335693  -0.60575 -1.75049 0.000766277  -0.654136 -1.72722 0.000501633  -0.727748 -1.87757 0.000301123  -0.678827 -1.90111 0.000653505  -0.654497 -1.85106 0.000458956  -0.727597 -1.87742 0.000458717  -0.703181 -1.82746 0.000317335  -0.654374 -1.85088 0.00069046  -0.703033 -1.82731 0.000475645  -0.776995 -1.97783 0.00028491  -0.727911 -2.0016 0.000572681  -0.703418 -1.95151 0.000405788  -0.776872 -1.9777 0.000426292  -0.752323 -1.92767 0.000295877  -0.703338 -1.95135 0.000611782  -0.752208 -1.92755 0.000443459  -0.826387 -2.0781 0.000253439  -0.777169 -2.10206 0.000491619  -0.752582 -2.05197 0.000353336  -0.826284 -2.07799 0.000383854  -0.801651 -2.02795 0.000270367  -0.752519 -2.05183 0.000531197  -0.801563 -2.02784 0.000403881  -0.875818 -2.17832 0.00022316  -0.826513 -2.20241 0.000407934  -0.801866 -2.15237 0.000300884  -0.875748 -2.17823 0.000330925  -0.851079 -2.1282 0.000241518  -0.801829 -2.15225 0.000451565  -0.851012 -2.12812 0.00035882  -0.925244 -2.27842 0.000183105  -0.875855 -2.30262 0.000331402  -0.851198 -2.25264 0.000246286  -0.92519 -2.27834 0.000277042  -0.900514 -2.22837 0.00020504  -0.851184 -2.25253 0.000369549  -0.90047 -2.2283 0.000305653  -0.974588 -2.37836 0.000141621  -0.925147 -2.40262 0.00024581  -0.900506 -2.35273 0.000186682  -0.974549 -2.3783 0.000217199  -0.949904 -2.3284 0.000163794  -0.900506 -2.35264 0.000286341  -0.949874 -2.32834 0.000248432  -1.02381 -2.4781 0.000100136  -0.974334 -2.50239 0.000165462  -0.949738 -2.45261 0.000135899  -1.02379 -2.47804 0.000152349  -0.999191 -2.42824 0.000121355  -0.949752 -2.45253 0.000204563  -0.999178 -2.42819 0.000183105  -1.07289 -2.57759 6.00815e-05  -1.02337 -2.60189 8.7738e-05  -0.998848 -2.55224 8.58307e-05  -1.07286 -2.57753 9.08375e-05  -1.04834 -2.52786 8.27312e-05  -0.998867 -2.55217 0.000128031  -1.04834 -2.52781 0.000122786  -1.12176 -2.67679 1.66893e-05  -1.0722 -2.70108 1.14441e-05  -1.04779 -2.65161 2.83718e-05  -1.12173 -2.67672 2.19345e-05  -1.09733 -2.62721 3.6478e-05  -1.04781 -2.65152 4.55379e-05  -1.09732 -2.62716 5.91278e-05  0.00471556 -0.0150037 0.000940561  0 0 0  0.00738038 -0.0172684 0.00296688  0.00277922 -0.00660598 0.00102115  0 0 0  0.00487497 -0.0145215 0.00152159  0.00180872 -0.00511396 0.000518322  0 0 0  0.00282206 -0.00639242 0.00163555  0.00185104 -0.00490254 0.000850916  0.0119069 -0.0460694 0.00142956  0.0190124 -0.0497193 0.00460458  0.0126673 -0.0326781 0.00254011  0.0123236 -0.0451142 0.00225115  0.00825386 -0.0288855 0.00125432  0.0129976 -0.0320058 0.00397491  0.00853798 -0.028204 0.00199246  0.0177832 -0.0885031 0.00154233  0.0297813 -0.0928833 0.0051105  0.0241622 -0.0712352 0.00322104  0.0183879 -0.0871634 0.00237989  0.0151954 -0.066043 0.00151491  0.0247431 -0.0701336 0.00495362  0.0157087 -0.0649188 0.00235677  0.0200649 -0.139741 0.00152445  0.0367274 -0.144756 0.0051136  0.0331157 -0.119215 0.00337958  0.0207987 -0.138162 0.00234127  0.0194624 -0.113079 0.00153327  0.0338265 -0.117804 0.00514126  0.0201264 -0.111639 0.00235939  0.0178741 -0.198424 0.00152445  0.0388098 -0.204273 0.00498343  0.037627 -0.175179 0.00333476  0.0187066 -0.196763 0.00233912  0.0195647 -0.168164 0.00152016  0.0384032 -0.173609 0.0050509  0.0203392 -0.16657 0.00233316  0.0110116 -0.263627 0.00156188  0.0358081 -0.270545 0.00483346  0.0371206 -0.238209 0.00324392  0.0119221 -0.262005 0.002388  0.0150463 -0.230215 0.00154352  0.0379467 -0.236612 0.00490713  0.0159023 -0.228602 0.00236154  -0.000423312 -0.33454 0.00161481  0.0278068 -0.342714 0.0046885  0.0315625 -0.307473 0.00315332  0.000521362 -0.333028 0.00246024  0.00587589 -0.298379 0.00158858  0.0324264 -0.305937 0.00475955  0.00679004 -0.296835 0.00242734  -0.0162215 -0.410413 0.00165987  0.0150458 -0.419942 0.00452733  0.0211418 -0.382163 0.00305223  -0.0152743 -0.409031 0.00251889  -0.00776875 -0.371863 0.00163889  0.0220078 -0.380737 0.00460625  -0.00683588 -0.370444 0.00249338  -0.0361028 -0.490541 0.00167561  -0.00218022 -0.501487 0.00434089  0.00611901 -0.461511 0.00294089  -0.0351791 -0.48931 0.00254083  -0.025649 -0.449948 0.0016706  0.00697351 -0.460213 0.00443625  -0.0247254 -0.448668 0.00253248  -0.0597664 -0.574325 0.00167227  -0.0235287 -0.586673 0.00414205  -0.0131755 -0.544825 0.00281549  -0.0588863 -0.573226 0.00252867  -0.0474596 -0.531981 0.00167537  -0.0123582 -0.543654 0.0042429  -0.0465715 -0.530841 0.0025351  -0.0868964 -0.661223 0.00164247  -0.0486453 -0.674945 0.00392199  -0.0364028 -0.631491 0.00267649  -0.0860682 -0.660249 0.00247931  -0.07289 -0.617384 0.00165892  -0.0356308 -0.630455 0.00403547  -0.0720577 -0.616371 0.00250554  -0.117179 -0.750759 0.00159192  -0.0771909 -0.765791 0.00368762  -0.0632185 -0.720993 0.00253367  -0.116414 -0.749906 0.00239968  -0.101634 -0.705661 0.00161862  -0.0625072 -0.720069 0.0038085  -0.100862 -0.704771 0.00244093  -0.150314 -0.842542 0.00152874  -0.108821 -0.858792 0.00344753  -0.093284 -0.812858 0.00237536  -0.149619 -0.841785 0.0023036  -0.13338 -0.796364 0.00156379  -0.0926359 -0.812041 0.00356841  -0.132672 -0.795585 0.00235367  -0.186016 -0.936208 0.00145078  -0.143227 -0.953594 0.00320172  -0.126282 -0.906709 0.00221181  -0.185383 -0.935544 0.00218153  -0.167834 -0.889132 0.00148916  -0.125693 -0.905983 0.00332379  -0.167194 -0.888445 0.0022428  -0.224003 -1.03146 0.0013721  -0.180093 -1.04988 0.00295663  -0.161896 -1.0022 0.00204968  -0.223436 -1.03088 0.0020597  -0.204713 -0.983629 0.00141072  -0.161364 -1.00156 0.00307775  -0.204135 -0.983025 0.00212121  -0.264011 -1.12802 0.00128245  -0.219143 -1.14737 0.00271916  -0.199829 -1.09905 0.00188446  -0.26351 -1.12751 0.00192595  -0.243744 -1.07956 0.00132418  -0.199356 -1.09848 0.00283337  -0.243232 -1.07904 0.00199294  -0.305792 -1.22566 0.00118971  -0.260104 -1.24585 0.00247502  -0.239805 -1.197 0.00172734  -0.305349 -1.22521 0.00178695  -0.284672 -1.17669 0.00123739  -0.239395 -1.1965 0.00259352  -0.284217 -1.17623 0.00186038  -0.349125 -1.32418 0.00109863  -0.302729 -1.34511 0.00224471  -0.281573 -1.29584 0.00157142  -0.348734 -1.32379 0.0016489  -0.327253 -1.2748 0.00114465  -0.281216 -1.29539 0.00235796  -0.326858 -1.2744 0.00171709  -0.393772 -1.42339 0.00100827  -0.346782 -1.44497 0.00201678  -0.324888 -1.39536 0.00141859  -0.393434 -1.42305 0.00150943  -0.37127 -1.37368 0.00104976  -0.324584 -1.39497 0.00212646  -0.370925 -1.37333 0.00157762  -0.439539 -1.52314 0.000914574  -0.392044 -1.54528 0.00180078  -0.369529 -1.49542 0.00127435  -0.439251 -1.52284 0.00137281  -0.416501 -1.47319 0.000959396  -0.369267 -1.49507 0.00191212  -0.41621 -1.47288 0.00144172  -0.486242 -1.62329 0.000823736  -0.438326 -1.64591 0.00159478  -0.415275 -1.59586 0.00113487  -0.485995 -1.62303 0.00123668  -0.462754 -1.57315 0.000867844  -0.415064 -1.59556 0.00169826  -0.462512 -1.57289 0.00130129  -0.533702 -1.72372 0.000733137  -0.485434 -1.74674 0.00140357  -0.461954 -1.69657 0.000997305  -0.533495 -1.7235 0.00110388  -0.50986 -1.67346 0.000778198  -0.461782 -1.69631 0.00149679  -0.509656 -1.67323 0.00116658  -0.581759 -1.82433 0.000640869  -0.53321 -1.84768 0.0012114  -0.509375 -1.79743 0.000867605  -0.581589 -1.82413 0.000963449  -0.557634 -1.77399 0.000689268  -0.509243 -1.7972 0.00130296  -0.55747 -1.77379 0.00103545  -0.630276 -1.92499 0.000561237  -0.581491 -1.94862 0.00103331  -0.55739 -1.89835 0.000742674  -0.630142 -1.92483 0.00084281  -0.605941 -1.87463 0.000604153  -0.55729 -1.89815 0.00111675  -0.605812 -1.87447 0.000904083  -0.679124 -2.02566 0.000486612  -0.630155 -2.0495 0.00086236  -0.605852 -1.99925 0.000637054  -0.679022 -2.02552 0.000721693  -0.65464 -1.97531 0.000520706  -0.605779 -1.99907 0.000948668  -0.654542 -1.97517 0.000783205  -0.728194 -2.12625 0.000397921  -0.679076 -2.15025 0.00070858  -0.654629 -2.10005 0.000527859  -0.728112 -2.12612 0.000600815  -0.70361 -2.07595 0.000440598  -0.654588 -2.09989 0.00078702  -0.703545 -2.07583 0.000660658  -0.777388 -2.22671 0.000326872  -0.728152 -2.25083 0.000560045  -0.70362 -2.2007 0.000425816  -0.777324 -2.2266 0.000488997  -0.752755 -2.17648 0.000361681  -0.703594 -2.20056 0.000636578  -0.752703 -2.17638 0.000541687  -0.826613 -2.32697 0.000254631  -0.777292 -2.35118 0.000431299  -0.752717 -2.30114 0.000329971  -0.826571 -2.32688 0.000378609  -0.801974 -2.27684 0.000289679  -0.752716 -2.30103 0.000495434  -0.801945 -2.27676 0.000433683  -0.875816 -2.42701 0.000183821  -0.826427 -2.45126 0.00030756  -0.801851 -2.40135 0.000243902  -0.875787 -2.42693 0.000272036  -0.851195 -2.377 0.00021553  -0.801858 -2.40125 0.000367165  -0.85118 -2.37693 0.000324726  -0.924937 -2.52679 0.000120401  -0.875497 -2.55108 0.000192642  -0.850954 -2.5013 0.000162601  -0.924916 -2.52672 0.000178337  -0.900366 -2.47692 0.000152826  -0.850975 -2.5012 0.000246286  -0.90036 -2.47686 0.000226974  -0.973931 -2.6263 5.81741e-05  -0.924456 -2.65059 8.98838e-05  -0.899959 -2.60096 8.60691e-05  -0.973914 -2.62623 8.58307e-05  -0.949429 -2.57657 8.9407e-05  -0.899989 -2.60087 0.000135422  -0.949429 -2.57651 0.000132799  -1.02273 -2.72551 -6.67572e-06  -0.973237 -2.74981 -1.88351e-05  -0.948838 -2.70032 2.24113e-05  -1.02271 -2.72543 -5.48363e-06  -0.998336 -2.67593 3.09944e-05  -0.948867 -2.70023 3.31402e-05  -0.998336 -2.67587 4.22001e-05  0.00990009 -0.0212808 0.00276184  0 0 0  0.0131881 -0.0252743 0.00563884  0.00496629 -0.0112063 0.0019455  0 0 0  0.0101205 -0.0207854 0.00434709  0.00379103 -0.00856531 0.00149632  0 0 0  0.00502113 -0.010949 0.00308108  0.00384326 -0.0083409 0.00238228  0.0255878 -0.0563164 0.00444102  0.0338894 -0.0621061 0.00898886  0.0227419 -0.0433757 0.00491738  0.0261506 -0.0553616 0.00685596  0.0174352 -0.0374538 0.00375724  0.0231702 -0.0426295 0.00763345  0.017829 -0.0367657 0.00585365  0.0408146 -0.1009 0.00508571  0.0539265 -0.107243 0.0102639  0.0436147 -0.084792 0.00642991  0.0415598 -0.0995908 0.00773835  0.033556 -0.0774813 0.00486517  0.0443304 -0.0836463 0.00981784  0.0342205 -0.0763739 0.00744462  0.0520835 -0.153755 0.00515985  0.0694966 -0.160526 0.0104074  0.0615725 -0.13428 0.00688863  0.0528906 -0.152225 0.00780177  0.0470676 -0.12629 0.00516343  0.06237 -0.132862 0.0104187  0.0478387 -0.12489 0.00782609  0.0581765 -0.214165 0.00501466  0.0795332 -0.221625 0.0100956  0.0744228 -0.191668 0.0068202  0.059016 -0.212565 0.00756717  0.055821 -0.183016 0.00510406  0.0752355 -0.190131 0.0102808  0.0566308 -0.181471 0.00770307  0.0588406 -0.281382 0.00479937  0.083801 -0.289778 0.00960946  0.0815768 -0.256423 0.00655317  0.0597005 -0.279797 0.00723982  0.0592073 -0.246934 0.00491595  0.0823905 -0.254866 0.00986409  0.0600405 -0.245365 0.00741076  0.0541621 -0.35455 0.00457048  0.0823869 -0.364084 0.00906682  0.082985 -0.327714 0.00620508  0.0550338 -0.353056 0.00688601  0.0571786 -0.317233 0.00469279  0.0837935 -0.326214 0.00934005  0.0580296 -0.315724 0.00706625  0.0443939 -0.432837 0.00433183  0.0755368 -0.443631 0.008497  0.0788348 -0.404658 0.00584102  0.0452532 -0.431457 0.00651813  0.0499209 -0.393065 0.00445342  0.0796293 -0.40325 0.00878453  0.0507672 -0.391657 0.00670552  0.0298448 -0.515464 0.00408053  0.0635829 -0.527572 0.00793099  0.0694054 -0.48638 0.00546145  0.0306809 -0.514218 0.00613856  0.0377188 -0.473618 0.00420499  0.0701814 -0.485089 0.00821328  0.0385485 -0.472332 0.00633121  0.0108844 -0.601756 0.00382876  0.0469016 -0.61518 0.0073626  0.055073 -0.572124 0.0050869  0.011677 -0.600638 0.00575662  0.0209172 -0.55816 0.0039525  0.0558125 -0.570953 0.00764394  0.0217153 -0.557003 0.00594926  -0.0121243 -0.691105 0.00357032  0.02589 -0.705802 0.0068047  0.0362191 -0.661193 0.00471425  -0.011375 -0.690103 0.00536561  -0.000107765 -0.646051 0.00369668  0.0369154 -0.660142 0.00708532  0.000640392 -0.645018 0.00556016  -0.0388004 -0.782982 0.00331068  0.000954151 -0.798906 0.00626516  0.013247 -0.753006 0.00434875  -0.0381129 -0.782096 0.00497603  -0.0249984 -0.736722 0.00344014  0.013894 -0.752069 0.006531  -0.0243003 -0.735807 0.00517201  -0.0687996 -0.876971 0.003057  -0.0275283 -0.894042 0.0057354  -0.0134555 -0.847081 0.00398946  -0.0681663 -0.876185 0.00459528  -0.0533812 -0.82971 0.00318265  -0.0128635 -0.846241 0.0059967  -0.0527419 -0.828898 0.00478268  -0.101767 -0.972684 0.00280595  -0.0591868 -0.990811 0.00523281  -0.0435175 -0.94298 0.00365233  -0.101195 -0.971988 0.00421572  -0.0849056 -0.924605 0.00293398  -0.0429771 -0.942235 0.00548339  -0.0843233 -0.923888 0.00440502  -0.137387 -1.06981 0.00256228  -0.0936663 -1.08889 0.00475454  -0.0765728 -1.04037 0.00332236  -0.136869 -1.06919 0.00385261  -0.119241 -1.02106 0.00268364  -0.0760885 -1.0397 0.00498915  -0.118716 -1.02043 0.00403428  -0.175344 -1.16806 0.00233006  -0.130641 -1.18802 0.00429058  -0.112283 -1.13893 0.00300813  -0.174884 -1.16752 0.00349951  -0.156063 -1.11879 0.00244617  -0.111857 -1.13834 0.00451326  -0.155596 -1.11822 0.00367355  -0.21536 -1.26722 0.00210452  -0.169816 -1.28795 0.00384808  -0.15034 -1.23842 0.0027082  -0.214953 -1.26674 0.00315881  -0.195086 -1.21752 0.00221729  -0.149969 -1.23789 0.00406718  -0.194676 -1.21702 0.00332975  -0.257162 -1.36708 0.00188994  -0.210898 -1.38849 0.00343037  -0.19045 -1.33862 0.00242209  -0.256811 -1.36665 0.00284004  -0.236026 -1.31705 0.00199723  -0.190127 -1.33815 0.00363517  -0.235669 -1.31661 0.00299835  -0.300508 -1.46746 0.00168061  -0.253623 -1.48946 0.00303745  -0.232338 -1.43934 0.00215268  -0.300203 -1.46709 0.00252771  -0.278633 -1.41719 0.00178742  -0.232063 -1.43893 0.00322556  -0.278321 -1.41681 0.0026803  -0.34517 -1.56822 0.00148678  -0.29776 -1.59074 0.0026629  -0.275758 -1.54044 0.00189757  -0.344906 -1.56789 0.00223255  -0.322664 -1.51778 0.00158525  -0.275524 -1.54007 0.00284791  -0.322397 -1.51744 0.00238109  -0.390932 -1.66922 0.00130463  -0.34308 -1.69217 0.00231838  -0.32047 -1.64176 0.00165844  -0.390709 -1.66894 0.00195694  -0.367895 -1.61867 0.00139666  -0.320279 -1.64144 0.00249004  -0.367678 -1.61839 0.00209308  -0.437606 -1.77037 0.0011313  -0.38939 -1.79367 0.00199413  -0.366268 -1.7432 0.00143218  -0.437418 -1.77012 0.00169802  -0.414135 -1.71976 0.00121617  -0.36612 -1.74292 0.00214934  -0.413958 -1.71951 0.00182533  -0.485008 -1.87155 0.000966549  -0.436498 -1.89515 0.0016923  -0.412962 -1.84466 0.00122356  -0.484863 -1.87133 0.00145316  -0.461197 -1.82094 0.00104904  -0.412851 -1.84442 0.00183582  -0.461056 -1.82072 0.00157046  -0.53299 -1.97268 0.000813961  -0.484232 -1.99652 0.00141048  -0.460377 -1.94606 0.00103045  -0.532875 -1.9725 0.00122309  -0.508914 -1.92211 0.000889301  -0.460287 -1.94585 0.0015471  -0.508802 -1.92192 0.00133538  -0.581411 -2.07372 0.000673532  -0.532452 -2.09773 0.001158  -0.508345 -2.04733 0.000855446  -0.581315 -2.07355 0.00101304  -0.557127 -2.0232 0.000742674  -0.508284 -2.04714 0.00127864  -0.557044 -2.02304 0.0011158  -0.630131 -2.17457 0.000546694  -0.581022 -2.19872 0.000925303  -0.556728 -2.14841 0.000690222  -0.630061 -2.17443 0.000816107  -0.605712 -2.12415 0.000607491  -0.556694 -2.14825 0.00103354  -0.605655 -2.12401 0.000912189  -0.679046 -2.27521 0.000427723  -0.629818 -2.29945 0.000714779  -0.605401 -2.24926 0.00054431  -0.678997 -2.27509 0.000641346  -0.654546 -2.2249 0.000486851  -0.605389 -2.24911 0.000816584  -0.654505 -2.22479 0.000726461  -0.728061 -2.37561 0.000321865  -0.678745 -2.3999 0.000529766  -0.654259 -2.34983 0.000413179  -0.728033 -2.3755 0.000481606  -0.70352 -2.32542 0.000372171  -0.654264 -2.34971 0.000616074  -0.703503 -2.32533 0.000557899  -0.777102 -2.47572 0.00022316  -0.727714 -2.50003 0.000361204  -0.7032 -2.45011 0.000294447  -0.777079 -2.47562 0.000331163  -0.752555 -2.42568 0.000267506  -0.703222 -2.45 0.000445366  -0.75255 -2.4256 0.000403643  -0.826108 -2.57553 0.000138998  -0.776667 -2.59985 0.000225306  -0.752161 -2.55008 0.000195265  -0.826093 -2.57545 0.000201464  -0.801587 -2.52564 0.00017333  -0.75219 -2.54998 0.000288725  -0.801591 -2.52557 0.000266314  -0.87502 -2.67504 5.88894e-05  -0.825541 -2.69936 9.46522e-05  -0.801076 -2.64974 0.000103474  -0.875009 -2.67496 8.55923e-05  -0.850548 -2.6253 9.60827e-05  -0.801112 -2.64964 0.000150681  -0.850562 -2.62523 0.000145435  -0.923791 -2.77427 -2.09808e-05  -0.87431 -2.79859 -4.02927e-05  -0.849903 -2.7491 1.93119e-05  -0.923776 -2.77418 -2.69413e-05  -0.899403 -2.72466 2.28882e-05  -0.849942 -2.74901 2.81334e-05  -0.899412 -2.7246 3.17097e-05  0.0166836 -0.0317121 0.00438476  0 0 0  0.0214144 -0.0386477 0.0079906  0.00798017 -0.0198466 0.00275874  0 0 0  0.0169487 -0.0310935 0.00685167  0.00626536 -0.0147985 0.00236011  0 0 0  0.0080355 -0.019477 0.00433779  0.00632812 -0.0144992 0.00372124  0.0419759 -0.0711636 0.00716281  0.0525829 -0.079197 0.0129213  0.036527 -0.0595107 0.00705123  0.0426358 -0.0700878 0.0110059  0.0289931 -0.0506492 0.00601006  0.0369929 -0.0585606 0.0108886  0.0294642 -0.0498201 0.00930381  0.066247 -0.117185 0.00835538  0.0811871 -0.12519 0.0149848  0.066662 -0.102505 0.00933981  0.0670847 -0.115808 0.0126758  0.054579 -0.0931552 0.00791883  0.0674387 -0.101205 0.014231  0.0553462 -0.0919502 0.0120766  0.0858314 -0.171141 0.00857472  0.104627 -0.179427 0.0153613  0.0927716 -0.152708 0.0101311  0.0866991 -0.169612 0.0129275  0.076739 -0.143101 0.00854206  0.0936252 -0.151235 0.0153086  0.0775865 -0.141668 0.0129142  0.0996472 -0.232993 0.00834298  0.122053 -0.24193 0.0149424  0.113286 -0.211214 0.0101006  0.100494 -0.231417 0.0125544  0.0935075 -0.201071 0.00849199  0.114123 -0.209675 0.0152094  0.0943508 -0.199544 0.0127876  0.107407 -0.302011 0.00792789  0.13319 -0.311881 0.0141828  0.127607 -0.277554 0.00969768  0.108243 -0.300467 0.0119228  0.104305 -0.26662 0.00815058  0.128418 -0.27603 0.0145862  0.105129 -0.265088 0.0122595  0.109187 -0.377268 0.00744987  0.138054 -0.388256 0.013298  0.13561 -0.350786 0.00914645  0.110007 -0.375809 0.0112045  0.109053 -0.33888 0.00769615  0.136397 -0.349326 0.0137508  0.109865 -0.337409 0.0115712  0.105223 -0.457819 0.00694776  0.136877 -0.470028 0.0123641  0.137443 -0.429887 0.00853801  0.106026 -0.456471 0.0104482  0.107928 -0.416901 0.00720119  0.138205 -0.428523 0.012836  0.108719 -0.415524 0.0108275  0.0958694 -0.542801 0.0064528  0.130006 -0.556272 0.0114408  0.133398 -0.513894 0.00792027  0.0966434 -0.541571 0.00969386  0.101224 -0.499772 0.00670123  0.134137 -0.512638 0.0119026  0.101993 -0.498509 0.0100725  0.0815084 -0.631443 0.00595641  0.117844 -0.646162 0.01053  0.123868 -0.601942 0.00730681  0.0822401 -0.630332 0.00895309  0.0893139 -0.586678 0.00620508  0.124565 -0.600798 0.0109792  0.0900469 -0.585534 0.00932312  0.0625563 -0.723077 0.00548172  0.100831 -0.738999 0.0096488  0.109261 -0.693276 0.00671482  0.0632491 -0.722077 0.00823665  0.0726062 -0.676892 0.00571775  0.109923 -0.692244 0.0100849  0.073297 -0.675863 0.00859118  0.0394411 -0.817149 0.00502276  0.0794116 -0.834216 0.00880933  0.0900358 -0.787267 0.00614572  0.0400867 -0.816256 0.00754452  0.0515186 -0.769808 0.00524783  0.0906497 -0.786339 0.0092268  0.0521674 -0.76889 0.00788546  0.0125746 -0.913188 0.00458241  0.0540197 -0.931323 0.00800776  0.066625 -0.883381 0.00559783  0.01316 -0.912393 0.00687909  0.0264778 -0.864923 0.00479913  0.0671914 -0.882555 0.0084064  0.0270748 -0.864101 0.00720811  -0.0176727 -1.0108 0.00415587  0.025069 -1.02991 0.00724506  0.0394592 -0.981189 0.00507355  -0.0171329 -1.01009 0.00624251  -0.00212383 -0.961794 0.00436592  0.0399699 -0.98045 0.00761819  -0.00158548 -0.961063 0.00655603  -0.0509099 -1.10965 0.00375605  -0.00704527 -1.12965 0.00652242  0.00892973 -1.08031 0.00458026  -0.0504272 -1.10902 0.00563884  -0.0339087 -1.06006 0.0039556  0.00939012 -1.07965 0.00688028  -0.0334185 -1.05942 0.00593734  -0.0868026 -1.20946 0.00337625  -0.0419689 -1.23026 0.00584936  -0.0245873 -1.18045 0.00411725  -0.0863688 -1.20891 0.00506902  -0.0685173 -1.15943 0.00356483  -0.0241789 -1.17986 0.00618172  -0.0680835 -1.15886 0.00534987  -0.125024 -1.31001 0.0030179  -0.0793564 -1.3315 0.00521088  -0.0607285 -1.28133 0.00367808  -0.124644 -1.30952 0.00453162  -0.105612 -1.25964 0.00319672  -0.060374 -1.28081 0.00552368  -0.105229 -1.25913 0.00479794  -0.165285 -1.41109 0.00267911  -0.1189 -1.43319 0.00460482  -0.0991809 -1.38276 0.00326848  -0.164952 -1.41065 0.00401807  -0.144888 -1.36047 0.00284648  -0.0988722 -1.3823 0.00490594  -0.144555 -1.36002 0.00427198  -0.207303 -1.51252 0.00235915  -0.160303 -1.53515 0.0040462  -0.139646 -1.48456 0.00287819  -0.207016 -1.51213 0.00354195  -0.186063 -1.46175 0.00251555  -0.139381 -1.48414 0.00432134  -0.185775 -1.46135 0.00377607  -0.250832 -1.61417 0.00205874  -0.203309 -1.63725 0.00352097  -0.181838 -1.58656 0.00251341  -0.250585 -1.61384 0.00309277  -0.228868 -1.56331 0.00220537  -0.181617 -1.58619 0.00377679  -0.228622 -1.56296 0.00331163  -0.295628 -1.71593 0.00177979  -0.247671 -1.73938 0.00303316  -0.225512 -1.68864 0.00217962  -0.295422 -1.71563 0.00267506  -0.273058 -1.66503 0.00191712  -0.225329 -1.68831 0.00327182  -0.272853 -1.66473 0.00288129  -0.341495 -1.81769 0.00152421  -0.293172 -1.84143 0.00257921  -0.270427 -1.79071 0.00186658  -0.341327 -1.81743 0.00228524  -0.318419 -1.7668 0.00165319  -0.270286 -1.79042 0.00280166  -0.318248 -1.76653 0.00247884  -0.388232 -1.91936 0.00128627  -0.33961 -1.94335 0.00217438  -0.316385 -1.89266 0.00158024  -0.388097 -1.91913 0.00192976  -0.364742 -1.86852 0.00140095  -0.316282 -1.89241 0.00237131  -0.36461 -1.86829 0.00210452  -0.435668 -2.02088 0.00106692  -0.386797 -2.04504 0.00178242  -0.363192 -1.99444 0.00131464  -0.43556 -2.02068 0.00159645  -0.411844 -1.97013 0.00117207  -0.363114 -1.99422 0.00197172  -0.411747 -1.96993 0.00176048  -0.483636 -2.12219 0.000865936  -0.434582 -2.14647 0.00144005  -0.410674 -2.09598 0.00107741  -0.483559 -2.12202 0.00130343  -0.459569 -2.07154 0.00096488  -0.410621 -2.09579 0.0016098  -0.459496 -2.07137 0.00144815  -0.532007 -2.22324 0.000689507  -0.482804 -2.2476 0.00113535  -0.458669 -2.19724 0.000856876  -0.531947 -2.22309 0.00102925  -0.507755 -2.17273 0.000772476  -0.45864 -2.19708 0.0012846  -0.507706 -2.17259 0.00115967  -0.580653 -2.324 0.000529289  -0.531338 -2.34841 0.000867128  -0.50704 -2.29819 0.000664949  -0.580613 -2.32387 0.000786781  -0.556275 -2.27364 0.00060606  -0.507034 -2.29805 0.000993967  -0.556249 -2.27352 0.000905514  -0.629466 -2.42446 0.000386477  -0.580079 -2.44887 0.000618696  -0.555674 -2.39881 0.000495911  -0.629441 -2.42434 0.000578403  -0.605016 -2.37425 0.000454187  -0.555684 -2.39868 0.000739574  -0.605009 -2.37414 0.000678062  -0.678345 -2.52458 0.000264645  -0.628903 -2.54899 0.000421286  -0.604451 -2.49908 0.000346422  -0.67833 -2.52448 0.00039649  -0.653873 -2.47453 0.000322819  -0.604479 -2.49897 0.000518322  -0.653873 -2.47445 0.000483274  -0.727237 -2.62437 0.000158072  -0.677753 -2.64876 0.000251532  -0.653286 -2.59902 0.000223875  -0.727228 -2.62428 0.000234604  -0.702765 -2.57449 0.000211  -0.653322 -2.59891 0.000337362  -0.702779 -2.57442 0.000310659  -0.776077 -2.72386 6.58035e-05  -0.726571 -2.74822 0.000110626  -0.702122 -2.69862 0.000118017  -0.776075 -2.72377 9.34601e-05  -0.751637 -2.67413 0.000108719  -0.70216 -2.69853 0.000174046  -0.751657 -2.67406 0.000163794  -0.824854 -2.82309 -2.12193e-05  -0.775353 -2.84745 -3.88622e-05  -0.750924 -2.79795 2.40803e-05  -0.824843 -2.82301 -4.26769e-05  -0.800452 -2.77348 2.19345e-05  -0.750967 -2.79785 3.62396e-05  -0.800468 -2.77342 3.00407e-05  0.0281653 -0.0498934 0.00584483  0 0 0  0.0388196 -0.0609204 0.0101874  0.016849 -0.0395913 0.00354695  0 0 0  0.0283905 -0.0490167 0.00910282  0.0104289 -0.0271366 0.00312877  0 0 0  0.0168252 -0.0388876 0.00558329  0.0104715 -0.0266677 0.00490522  0.0632808 -0.0906702 0.00962687  0.0767171 -0.100095 0.0165951  0.0575407 -0.0814242 0.00900197  0.063931 -0.089327 0.0147693  0.0459691 -0.0699551 0.00803494  0.057882 -0.0800464 0.0139382  0.0464103 -0.0688364 0.0124109  0.0953652 -0.136792 0.011338  0.11224 -0.145945 0.0193288  0.0941996 -0.123443 0.012002  0.0962343 -0.135268 0.0171988  0.0798563 -0.112664 0.0106993  0.0949506 -0.121865 0.0183191  0.0806386 -0.111248 0.0163071  0.122443 -0.191486 0.0117204  0.142902 -0.201034 0.0198982  0.127409 -0.173888 0.0130801  0.123344 -0.189909 0.0176845  0.109635 -0.162988 0.0116467  0.128301 -0.172289 0.0198002  0.11052 -0.161465 0.0176053  0.143431 -0.254699 0.0114436  0.167339 -0.265035 0.0194061  0.155065 -0.233521 0.0130873  0.144305 -0.253133 0.0172274  0.133759 -0.222026 0.0116403  0.155959 -0.231948 0.0197341  0.134633 -0.220483 0.0175333  0.157895 -0.325518 0.0108769  0.18502 -0.336895 0.01843  0.176189 -0.301546 0.0125897  0.158741 -0.324015 0.0163574  0.151507 -0.289181 0.0111847  0.177049 -0.300036 0.0189497  0.152351 -0.287675 0.0168254  0.165817 -0.402854 0.0101933  0.195892 -0.4154 0.0172696  0.190481 -0.376781 0.0118766  0.166639 -0.40144 0.0153244  0.162688 -0.363398 0.0105441  0.191311 -0.375375 0.0178659  0.163505 -0.361972 0.0158546  0.167407 -0.485628 0.00946712  0.200127 -0.499408 0.0160272  0.198027 -0.458069 0.0110767  0.168204 -0.484329 0.0142305  0.167413 -0.443584 0.0098331  0.198826 -0.456769 0.0166512  0.168198 -0.442259 0.0147805  0.16302 -0.572878 0.00874066  0.1981 -0.587889 0.014791  0.199116 -0.54433 0.0102513  0.163782 -0.571695 0.0131366  0.165961 -0.528714 0.00910664  0.199883 -0.543139 0.0154059  0.166723 -0.527499 0.0136843  0.153077 -0.663759 0.00803638  0.190247 -0.679979 0.0135722  0.194157 -0.634607 0.00943637  0.153802 -0.662693 0.0120695  0.158742 -0.617876 0.00838327  0.194877 -0.63353 0.0141761  0.159467 -0.616779 0.0125983  0.138041 -0.757555 0.00735092  0.177047 -0.774926 0.0124025  0.183602 -0.728094 0.00863934  0.138721 -0.756595 0.0110404  0.14619 -0.7103 0.00769091  0.184289 -0.727124 0.0129769  0.146878 -0.709309 0.0115511  0.118374 -0.853669 0.00669837  0.158992 -0.872116 0.0112784  0.167965 -0.824134 0.00788522  0.119009 -0.852815 0.0100579  0.128782 -0.805328 0.00702333  0.168602 -0.823267 0.0118375  0.129423 -0.804443 0.0105443  0.0945303 -0.951615 0.00607824  0.136556 -0.971037 0.0102155  0.147708 -0.922155 0.00715613  0.0951167 -0.950852 0.00912428  0.106974 -0.902417 0.0063827  0.148296 -0.921381 0.010746  0.107563 -0.901629 0.0095818  0.0669514 -1.05097 0.00548911  0.110203 -1.07129 0.00921488  0.12331 -1.02171 0.0064671  0.0674813 -1.05029 0.00823736  0.081208 -1.00112 0.00577641  0.123844 -1.02102 0.00970554  0.0817473 -1.00041 0.00867367  0.0360339 -1.1514 0.00493145  0.0803604 -1.17252 0.00827265  0.095216 -1.12241 0.0058217  0.0365163 -1.15079 0.00740266  0.0519102 -1.10104 0.00520682  0.0956943 -1.1218 0.00873661  0.0523958 -1.10042 0.00781465  0.00216722 -1.25262 0.00441313  0.0474193 -1.27446 0.00738549  0.0638285 -1.22396 0.00521302  0.00259328 -1.25209 0.00662136  0.0194707 -1.20191 0.00466609  0.0642543 -1.22341 0.00782132  0.0199065 -1.20135 0.00700498  -0.0343029 -1.3544 0.00392151  0.0117521 -1.37686 0.00654769  0.0295329 -1.32609 0.00463915  -0.0339208 -1.35393 0.00588155  -0.0157363 -1.30343 0.00416255  0.0299037 -1.32561 0.00696087  -0.0153551 -1.30295 0.00624275  -0.0730381 -1.45655 0.00346065  -0.026293 -1.47953 0.00577211  -0.00731611 -1.4286 0.00410676  -0.0727053 -1.45613 0.00518894  -0.0533783 -1.40542 0.003685  -0.00698614 -1.42817 0.00615478  -0.0530422 -1.40499 0.00553203  -0.113749 -1.5589 0.00302815  -0.0664122 -1.58233 0.00504208  -0.0463963 -1.5313 0.00360274  -0.113462 -1.55853 0.00453973  -0.0931342 -1.50769 0.00324345  -0.0461071 -1.53093 0.00540066  -0.0928507 -1.50731 0.00486183  -0.156153 -1.66132 0.00263023  -0.108322 -1.68512 0.00437236  -0.0873928 -1.63406 0.00313568  -0.155909 -1.66099 0.00394154  -0.134732 -1.61009 0.00282192  -0.0871587 -1.63373 0.00470018  -0.134483 -1.60976 0.00423861  -0.200004 -1.7637 0.00225925  -0.151752 -1.78779 0.00374413  -0.130052 -1.73677 0.00270152  -0.199801 -1.76342 0.00338793  -0.17789 -1.71251 0.00244093  -0.129853 -1.73648 0.0040524  -0.177683 -1.71221 0.00366163  -0.245075 -1.86595 0.00191736  -0.196472 -1.89027 0.00316453  -0.174116 -1.83932 0.00230289  -0.244904 -1.8657 0.0028739  -0.222376 -1.81483 0.00208235  -0.173962 -1.83906 0.00345445  -0.222208 -1.81458 0.00312352  -0.291157 -1.96799 0.00160336  -0.242269 -1.99248 0.0026412  -0.21936 -1.94163 0.00193596  -0.291018 -1.96778 0.00240684  -0.267974 -1.91698 0.00175548  -0.219247 -1.94141 0.00290251  -0.267847 -1.91677 0.00263429  -0.338047 -2.06978 0.00131822  -0.288941 -2.09437 0.00216293  -0.265589 -2.04366 0.0016067  -0.337944 -2.06959 0.0019722  -0.314485 -2.0189 0.00145674  -0.265503 -2.04347 0.0024004  -0.314385 -2.01872 0.00218487  -0.385598 -2.17125 0.0010643  -0.336312 -2.1959 0.00173402  -0.312603 -2.14535 0.00129414  -0.385518 -2.17109 0.00158596  -0.361729 -2.12054 0.0011878  -0.312544 -2.14518 0.00194263  -0.361657 -2.12038 0.00177598  -0.433639 -2.27238 0.000830173  -0.384232 -2.29705 0.00134325  -0.360238 -2.24667 0.00102973  -0.433582 -2.27225 0.00123835  -0.409538 -2.22184 0.000941038  -0.360208 -2.24653 0.00153518  -0.409491 -2.22171 0.00141025  -0.482036 -2.37317 0.000627756  -0.43254 -2.3978 0.00101495  -0.408351 -2.34761 0.000789881  -0.481997 -2.37305 0.000939369  -0.457778 -2.3228 0.000729322  -0.408342 -2.34748 0.00118136  -0.457751 -2.32269 0.001086  -0.530667 -2.47358 0.000443935  -0.481121 -2.49817 0.000726938  -0.456793 -2.44815 0.00058341  -0.53065 -2.47347 0.000671864  -0.50631 -2.4234 0.000538349  -0.456801 -2.44803 0.00086689  -0.506294 -2.4233 0.000801086  -0.579439 -2.57363 0.000303984  -0.529871 -2.59815 0.00049305  -0.505458 -2.54832 0.000410318  -0.579431 -2.57354 0.000454426  -0.55502 -2.52363 0.000373125  -0.505481 -2.54821 0.000603199  -0.555028 -2.52355 0.000559568  -0.628249 -2.67335 0.000186205  -0.578683 -2.69779 0.000299215  -0.554236 -2.64811 0.000259638  -0.628245 -2.67326 0.000272989  -0.603816 -2.62351 0.000243664  -0.554273 -2.64801 0.000386  -0.603831 -2.62344 0.000358105  -0.677043 -2.77276 7.9155e-05  -0.627498 -2.79715 0.000130177  -0.603044 -2.7476 0.000149012  -0.677048 -2.77268 0.000113964  -0.652625 -2.72307 0.000131845  -0.603088 -2.74749 0.00020957  -0.652647 -2.723 0.000194311  -0.725853 -2.87199 -2.5034e-05  -0.676311 -2.89635 -1.38283e-05  -0.65184 -2.84686 4.55379e-05  -0.725854 -2.8719 -3.00407e-05  -0.701419 -2.82237 3.12328e-05  -0.651888 -2.84676 6.07967e-05  -0.701444 -2.8223 4.3869e-05  -0.0430729 -0.0374318 -0.00440717  -0.0226597 -0.0238041 -1.19209e-06  0 0 0  -0.026651 -0.0277688 -2.14577e-06  0 0 0  -0.0170338 -0.0188042 -0.00318003  -0.00690757 -0.00740445 -4.76837e-06  0 0 0  -0.022534 -0.0236515 -0.00247884  -0.0265732 -0.0275017 -0.00379443  -0.0101268 -0.0126078 0  0 0 0  -0.00689331 -0.00731174 -0.00173616  -0.0100944 -0.0125031 -0.00208783  -0.0808667 -0.0617512 -0.00706863  -0.0619463 -0.0498144 9.53674e-07  -0.0612582 -0.0545492 -1.43051e-06  -0.0454199 -0.0475017 -0.00519609  -0.0307327 -0.0330496 1.90735e-06  -0.061752 -0.0494183 -0.00592923  -0.0611506 -0.0540915 -0.00611877  -0.0438089 -0.040797 -1.66893e-06  -0.0306997 -0.0327542 -0.0043354  -0.0437131 -0.0404533 -0.00512719  -0.120423 -0.0901308 -0.00828409  -0.100569 -0.0756867 2.6226e-06  -0.0967393 -0.0856805 4.29153e-06  -0.0761077 -0.081297 -0.00612998  -0.0606374 -0.0639849 -2.6226e-06  -0.100413 -0.0751471 -0.00784159  -0.0966245 -0.0851349 -0.00718784  -0.0788619 -0.069248 4.52995e-06  -0.0605918 -0.0635511 -0.00578475  -0.0787598 -0.0687691 -0.00679493  -0.161061 -0.125252 -0.00841689  -0.140787 -0.107363 3.33786e-06  -0.133173 -0.12383 2.6226e-06  -0.108045 -0.12211 -0.00624657  -0.0919893 -0.101294 3.09944e-06  -0.140671 -0.106782 -0.00846052  -0.13304 -0.123275 -0.00731969  -0.114831 -0.103825 3.09944e-06  -0.0919155 -0.100806 -0.00626659  -0.114724 -0.1033 -0.00734854  -0.201853 -0.167365 -0.00791645  -0.181585 -0.146004 5.24521e-06  -0.170338 -0.168884 -2.86102e-06  -0.14118 -0.169783 -0.00586796  -0.124576 -0.145602 2.14577e-06  -0.181468 -0.145455 -0.00821304  -0.17017 -0.16837 -0.00688052  -0.151663 -0.145496 1.19209e-06  -0.124464 -0.145124 -0.00609612  -0.151531 -0.144987 -0.00714588  -0.242515 -0.216001 -0.00712347  -0.222345 -0.191404 7.15256e-07  -0.208009 -0.220212 -4.05312e-06  -0.175413 -0.223626 -0.0052669  -0.158314 -0.196412 -7.15256e-07  -0.222201 -0.190907 -0.00753355  -0.207806 -0.219754 -0.00618863  -0.189093 -0.193767 -4.05312e-06  -0.158158 -0.195968 -0.00558138  -0.188925 -0.193306 -0.00655079  -0.283169 -0.270614 -0.00627542  -0.262999 -0.243038 -2.38419e-06  -0.246184 -0.27723 -1.19209e-06  -0.210708 -0.283005 -0.00461435  -0.193107 -0.253045 -2.14577e-06  -0.262833 -0.242612 -0.00670147  -0.245958 -0.276831 -0.00543833  -0.227004 -0.248009 -1.66893e-06  -0.192921 -0.252657 -0.00494003  -0.226808 -0.247613 -0.00581074  -0.324084 -0.330626 -0.00547552  -0.303763 -0.300353 1.90735e-06  -0.285004 -0.339409 -2.38419e-06  -0.247118 -0.34737 -0.00399446  -0.228964 -0.314929 1.19209e-06  -0.303582 -0.299989 -0.0058651  -0.284769 -0.339073 -0.00472951  -0.265479 -0.307674 0  -0.228763 -0.31459 -0.00429916  -0.265267 -0.307333 -0.00507307  -0.365517 -0.395523 -0.00476336  -0.344907 -0.362814 -1.19209e-06  -0.324641 -0.406277 -7.15256e-07  -0.284733 -0.416249 -0.00345349  -0.265968 -0.38156 4.76837e-07  -0.344726 -0.362504 -0.00510693  -0.324409 -0.405991 -0.00409698  -0.304687 -0.372258 -1.43051e-06  -0.265766 -0.381268 -0.0037179  -0.30447 -0.371968 -0.00440383  -0.407673 -0.464832 -0.0041368  -0.386677 -0.429926 1.19209e-06  -0.365255 -0.477387 -4.05312e-06  -0.323631 -0.489199 -0.00298333  -0.304209 -0.452489 1.43051e-06  -0.3865 -0.429659 -0.00443745  -0.365026 -0.477143 -0.00355196  -0.344799 -0.441302 -1.43051e-06  -0.304013 -0.452236 -0.00320673  -0.344582 -0.441059 -0.00381708  -0.450661 -0.538119 -0.0035975  -0.429229 -0.501241 -3.57628e-06  -0.40693 -0.552325 -2.38419e-06  -0.36385 -0.565819 -0.00256896  -0.343752 -0.527288 -3.8147e-06  -0.42906 -0.501007 -0.00385714  -0.406712 -0.552109 -0.00307751  -0.38593 -0.514377 -1.90735e-06  -0.343567 -0.52707 -0.00276971  -0.385728 -0.514169 -0.00330687  -0.494557 -0.614984 -0.0031209  -0.472649 -0.576333 3.8147e-06  -0.449689 -0.630689 -2.6226e-06  -0.405385 -0.645728 -0.00221992  -0.384621 -0.605573 -1.43051e-06  -0.472495 -0.576132 -0.00335026  -0.449494 -0.630506 -0.00266361  -0.428147 -0.591073 1.43051e-06  -0.384452 -0.605384 -0.00238609  -0.427961 -0.590896 -0.00286412  -0.539355 -0.695081 -0.00271201  -0.516979 -0.654833 -2.38419e-06  -0.493533 -0.712142 -4.76837e-07  -0.448188 -0.72858 -0.00190878  -0.42678 -0.686967 1.90735e-06  -0.516841 -0.654653 -0.00290918  -0.49335 -0.711979 -0.00230384  -0.471454 -0.671028 -1.43051e-06  -0.426628 -0.686801 -0.00205731  -0.471285 -0.670874 -0.00247884  -0.585046 -0.778062 -0.00234604  -0.562213 -0.736389 -8.34465e-06  -0.538404 -0.796354 -3.57628e-06  -0.492183 -0.814053 -0.00163865  -0.47017 -0.771153 -9.53674e-07  -0.562092 -0.736228 -0.00252795  -0.538241 -0.796212 -0.00198841  -0.515819 -0.753899 -3.57628e-06  -0.470036 -0.771002 -0.0017705  -0.515665 -0.753767 -0.00214219  -0.631558 -0.863625 -0.00202084  -0.608311 -0.820683 0  -0.584236 -0.883019 -5.24521e-06  -0.537268 -0.90185 -0.00140238  -0.514711 -0.857806 -1.19209e-06  -0.608202 -0.820538 -0.0021739  -0.584085 -0.882894 -0.00170422  -0.561182 -0.839377 -5.72205e-06  -0.514591 -0.857678 -0.00151682  -0.561044 -0.839259 -0.00184512  -0.678826 -0.951498 -0.00172687  -0.65519 -0.907417 9.53674e-07  -0.630933 -0.971867 2.38419e-07  -0.583351 -0.991709 -0.00118566  -0.560289 -0.946655 4.76837e-07  -0.655102 -0.907288 -0.00186467  -0.630797 -0.971758 -0.00144935  -0.607452 -0.927164 -3.33786e-06  -0.560188 -0.946531 -0.00128841  -0.607332 -0.927065 -0.00157785  -0.726758 -1.04142 -0.00146079  -0.702796 -0.996336 4.76837e-07  -0.678398 -1.06264 -1.90735e-06  -0.630299 -1.08337 -0.000990868  -0.606809 -1.03743 -4.76837e-07  -0.702712 -0.996221 -0.00159287  -0.678274 -1.06255 -0.00122643  -0.654552 -1.01701 0  -0.606719 -1.03733 -0.00108671  -0.654444 -1.01692 -0.00133467  -0.775263 -1.13314 -0.00122166  -0.751009 -1.08717 -3.33786e-06  -0.726513 -1.15511 2.38419e-07  -0.677998 -1.17662 -0.000826597  -0.654132 -1.1299 -2.38419e-07  -0.750943 -1.08707 -0.00134158  -0.726407 -1.15502 -0.0010252  -0.702351 -1.10866 0  -0.654056 -1.12981 -0.000906944  -0.702259 -1.10858 -0.00112224  -0.824241 -1.22644 -0.00101447  -0.79975 -1.1797 6.67572e-06  -0.775184 -1.24905 1.43051e-06  -0.726324 -1.27122 -0.00067234  -0.702143 -1.22385 1.19209e-06  -0.799698 -1.17961 -0.00112271  -0.775088 -1.24897 -0.000839949  -0.750764 -1.20189 -2.38419e-07  -0.702084 -1.22376 -0.000745296  -0.750684 -1.20182 -0.000930309  -0.873597 -1.32111 -0.00082612  -0.848915 -1.27371 -7.15256e-07  -0.824295 -1.34426 -1.66893e-06  -0.775169 -1.367 -0.000538588  -0.750735 -1.31906 -1.90735e-06  -0.848878 -1.27362 -0.000922203  -0.824215 -1.34419 -0.000685692  -0.799666 -1.29649 -4.05312e-06  -0.750687 -1.31897 -0.000604391  -0.7996 -1.29643 -0.000761509  -0.923235 -1.41697 -0.000663757  -0.898409 -1.36898 1.66893e-06  -0.873748 -1.44056 9.53674e-07  -0.824412 -1.46378 -0.000415802  -0.79978 -1.41535 -4.76837e-06  -0.898382 -1.36891 -0.000741959  -0.873676 -1.4405 -0.000541687  -0.848959 -1.39226 -1.90735e-06  -0.79974 -1.41527 -0.000480413  -0.848905 -1.39221 -0.000609636  -0.973064 -1.51381 -0.00051856  -0.948151 -1.46534 -2.86102e-06  -0.923445 -1.53776 -4.76837e-07  -0.873952 -1.56137 -0.000324011  -0.84917 -1.51255 -2.14577e-06  -0.948128 -1.46527 -0.00058794  -0.923386 -1.53771 -0.00041604  -0.898547 -1.48904 1.66893e-06  -0.849145 -1.51248 -0.000370026  -0.898502 -1.48899 -0.000479221  -1.02301 -1.61147 -0.000381708  -0.998044 -1.5626 7.15256e-07  -0.973308 -1.63572 1.43051e-06  -0.923693 -1.65965 -0.000228882  -0.898816 -1.6105 1.90735e-06  -0.998026 -1.56255 -0.000453234  -0.973248 -1.63567 -0.000306845  -0.948338 -1.58664 4.29153e-06  -0.898796 -1.61043 -0.00027132  -0.948298 -1.5866 -0.000359058  -1.07301 -1.70981 -0.000277996  -1.04801 -1.66063 -2.38419e-07  -1.02323 -1.73428 1.19209e-06  -0.973546 -1.75845 -0.000159264  -0.948617 -1.70905 2.6226e-06  -1.048 -1.66057 -0.000335455  -1.02319 -1.73423 -0.000220299  -0.998242 -1.68491 -3.8147e-06  -0.948604 -1.70899 -0.00019002  -0.998206 -1.68488 -0.000264883  -1.12296 -1.80869 -0.000198841  -1.09799 -1.75925 -3.8147e-06  -1.07317 -1.8333 -6.91414e-06  -1.02344 -1.85766 -9.98974e-05  -0.998493 -1.80806 -1.66893e-06  -1.09799 -1.75919 -0.000242233  -1.07313 -1.83327 -0.000145435  -1.04818 -1.78372 -4.52995e-06  -0.998485 -1.80801 -0.000121355  -1.04816 -1.7837 -0.000179529  -1.17284 -1.90796 -0.000119925  -1.14791 -1.85833 -7.62939e-06  -1.12305 -1.93267 7.15256e-07  -1.0733 -1.95715 -4.88758e-05  -1.04837 -1.90743 -3.33786e-06  -1.14791 -1.85828 -0.00015831  -1.12301 -1.93263 -8.01086e-05  -1.0981 -1.88293 -4.52995e-06  -1.04837 -1.90737 -7.03335e-05  -1.09808 -1.88291 -0.000114441  -1.2226 -2.00749 -6.55651e-05  -1.19772 -1.95774 9.53674e-07  -1.17283 -2.03226 -7.15256e-07  -1.12308 -2.05681 -1.14441e-05  -1.09819 -2.00701 -1.66893e-06  -1.19773 -1.9577 -8.7738e-05  -1.1728 -2.03222 -3.95775e-05  -1.14792 -1.98242 -4.76837e-07  -1.0982 -2.00696 -2.90871e-05  -1.14792 -1.98241 -5.6982e-05  -1.27221 -2.10718 -2.64645e-05  -1.24741 -2.05737 2.38419e-07  -1.22247 -2.13196 -5.48363e-06  -1.17273 -2.15655 7.86781e-06  -1.14791 -2.10672 -5.72205e-06  -1.24742 -2.05732 -4.55379e-05  -1.22244 -2.13192 -1.14441e-05  -1.19764 -2.08208 -4.29153e-06  -1.14792 -2.10667 -4.76837e-07  -1.19763 -2.08206 -2.36034e-05  -1.32165 -2.20693 4.76837e-07  -1.29693 -2.15709 -6.91414e-06  -1.27196 -2.23167 -4.76837e-06  -1.22224 -2.25627 1.88351e-05  -1.19749 -2.20646 -2.38419e-07  -1.29695 -2.15706 -1.95503e-05  -1.27193 -2.23164 1.21593e-05  -1.24721 -2.1818 -4.29153e-06  -1.1975 -2.20641 1.07288e-05  -1.2472 -2.18178 -1.90735e-06  -1.37094 -2.30664 6.4373e-06  -1.3463 -2.25682 -8.82149e-06  -1.32128 -2.33133 -9.77516e-06  -1.27158 -2.3559 2.57492e-05  -1.24691 -2.30613 -1.19209e-06  -1.34631 -2.25679 -1.90735e-06  -1.32126 -2.3313 1.50204e-05  -1.29661 -2.28149 -5.00679e-06  -1.24693 -2.3061 2.57492e-05  -1.29661 -2.28148 1.38283e-05  -1.42011 -2.40621 8.10623e-06  -1.39552 -2.35648 1.90735e-06  -1.37046 -2.43085 1.43051e-06  -1.32077 -2.45539 2.45571e-05  -1.29616 -2.4057 2.38419e-06  -1.39553 -2.35645 1.50204e-05  -1.37044 -2.43082 1.54972e-05  -1.34586 -2.38109 -2.14577e-06  -1.29619 -2.40566 2.38419e-05  -1.34586 -2.38108 2.0504e-05  -1.46924 -2.50562 9.53674e-07  -1.44466 -2.45597 -6.19888e-06  -1.41957 -2.53022 0  -1.36986 -2.55472 1.66893e-05  -1.3453 -2.50511 -2.38419e-06  -1.44467 -2.45594 8.10623e-06  -1.41955 -2.53019 1.62125e-05  -1.395 -2.48053 0  -1.34531 -2.50508 2.14577e-05  -1.39499 -2.48052 1.66893e-05  -0.0120591 -0.0145433 -4.76837e-06  0 0 0  -0.00822125 -0.0119409 -0.00205159  -0.00327493 -0.00348009 -1.19209e-06  0 0 0  -0.012043 -0.0143436 -0.00260043  -0.00460531 -0.00479233 -4.76837e-07  0 0 0  -0.0032696 -0.00340247 -0.00110006  -0.00459519 -0.00471193 -0.00140095  -0.0332229 -0.0431185 -7.15256e-07  -0.0232932 -0.0398819 -0.00343323  -0.0150573 -0.0247484 2.6226e-06  -0.0331884 -0.0427489 -0.00430274  -0.0218023 -0.0277109 4.76837e-07  -0.0150502 -0.0245284 -0.00283742  -0.0217825 -0.0274591 -0.0035727  -0.0584485 -0.0791475 4.76837e-07  -0.0428928 -0.0773619 -0.00408387  -0.0327132 -0.0579584 -2.14577e-06  -0.0583818 -0.0786905 -0.00509834  -0.0455149 -0.0601835 2.14577e-06  -0.0326876 -0.0576181 -0.00383902  -0.0454736 -0.059799 -0.00480318  -0.0857034 -0.122285 -1.66893e-06  -0.065181 -0.12244 -0.00416136  -0.0538027 -0.0993927 2.86102e-06  -0.0855872 -0.121806 -0.00519943  -0.0718372 -0.0997837 7.15256e-07  -0.0537437 -0.0989903 -0.00418019  -0.071758 -0.0993496 -0.00521612  -0.114675 -0.172199 4.76837e-07  -0.0897185 -0.174374 -0.00390124  -0.077278 -0.148009 -2.6226e-06  -0.114507 -0.171745 -0.00487471  -0.0999609 -0.146392 -1.19209e-06  -0.0771701 -0.147591 -0.00406027  -0.0998335 -0.145959 -0.00507116  -0.145282 -0.228213 -2.14577e-06  -0.116446 -0.232405 -0.00347519  -0.102965 -0.20306 7.15256e-07  -0.145072 -0.227798 -0.00436401  -0.12976 -0.199449 -3.57628e-06  -0.102805 -0.202666 -0.00370002  -0.129583 -0.199042 -0.00463104  -0.177485 -0.289662 -4.52995e-06  -0.145319 -0.295835 -0.00302005  -0.130795 -0.263838 -3.33786e-06  -0.177248 -0.289292 -0.00381422  -0.161164 -0.258256 -1.90735e-06  -0.130613 -0.263477 -0.00324988  -0.160956 -0.257894 -0.00408721  -0.211266 -0.355979 2.38419e-07  -0.176284 -0.364075 -0.00258899  -0.160741 -0.329701 -1.19209e-06  -0.211023 -0.355659 -0.00328612  -0.194153 -0.322206 -1.43051e-06  -0.16054 -0.329379 -0.00279951  -0.19393 -0.321889 -0.00354505  -0.246657 -0.426688 7.15256e-07  -0.20929 -0.436606 -0.0022018  -0.192737 -0.400109 0  -0.246411 -0.426412 -0.00282383  -0.228733 -0.390782 1.90735e-06  -0.192529 -0.399827 -0.00238991  -0.228509 -0.39051 -0.00304675  -0.283657 -0.501341 -2.86102e-06  -0.244276 -0.512976 -0.00187135  -0.226735 -0.474576 2.86102e-06  -0.283421 -0.501107 -0.00242329  -0.264931 -0.463518 -1.19209e-06  -0.226533 -0.474332 -0.00202918  -0.264709 -0.463286 -0.00261784  -0.322254 -0.579545 -2.38419e-07  -0.28116 -0.592774 -0.00158596  -0.262665 -0.552678 -1.90735e-06  -0.322038 -0.579338 -0.00207853  -0.302732 -0.539996 -4.76837e-07  -0.262479 -0.552465 -0.00172639  -0.302525 -0.539796 -0.00224233  -0.362411 -0.660913 -3.57628e-06  -0.319854 -0.67562 -0.00134802  -0.300448 -0.634026 -3.8147e-06  -0.362206 -0.660729 -0.00178552  -0.342116 -0.619828 -1.66893e-06  -0.300285 -0.633833 -0.00146365  -0.341926 -0.619655 -0.00192451  -0.404032 -0.745095 -4.52995e-06  -0.360233 -0.761164 -0.0011425  -0.339989 -0.718237 -1.43051e-06  -0.403842 -0.744942 -0.00152564  -0.383015 -0.702641 -3.09944e-06  -0.339837 -0.718073 -0.00123978  -0.38284 -0.702499 -0.00164986  -0.447015 -0.83178 -7.15256e-07  -0.402167 -0.849084 -0.000959158  -0.381147 -0.804987 1.43051e-06  -0.44685 -0.831645 -0.00129509  -0.425334 -0.788121 4.76837e-07  -0.381008 -0.804841 -0.00104666  -0.425173 -0.787992 -0.00140643  -0.491257 -0.920677 -2.38419e-07  -0.445509 -0.939092 -0.000799894  -0.423781 -0.893978 -2.86102e-06  -0.491097 -0.920553 -0.00109696  -0.468962 -0.87595 -9.53674e-07  -0.423668 -0.893841 -0.000878096  -0.468823 -0.875836 -0.00119591  -0.53661 -1.01151 -3.33786e-06  -0.490103 -1.03093 -0.000661612  -0.46775 -0.98491 -1.43051e-06  -0.536475 -1.0114 -0.00092268  -0.513775 -0.965843 -1.43051e-06  -0.467652 -0.984793 -0.000727654  -0.513647 -0.965744 -0.00100636  -0.582954 -1.10404 -4.29153e-06  -0.535808 -1.12434 -0.000542402  -0.512912 -1.07756 -7.15256e-07  -0.582826 -1.10394 -0.000769854  -0.559637 -1.05755 -4.76837e-07  -0.51282 -1.07745 -0.000598192  -0.559531 -1.05747 -0.000840902  -0.63014 -1.19804 -1.66893e-06  -0.582466 -1.21913 -0.00043416  -0.559093 -1.17167 -4.29153e-06  -0.630035 -1.19796 -0.000627995  -0.606422 -1.15084 -3.33786e-06  -0.55902 -1.17157 -0.000490665  -0.606328 -1.15078 -0.000694036  -0.678051 -1.29331 -3.09944e-06  -0.62993 -1.31507 -0.000337362  -0.60616 -1.26705 -1.90735e-06  -0.677952 -1.29323 -0.000505686  -0.653989 -1.24551 -1.19209e-06  -0.606096 -1.26696 -0.000382423  -0.653907 -1.24544 -0.00056529  -0.726551 -1.38965 -1.19209e-06  -0.678062 -1.412 -0.000255346  -0.653965 -1.3635 -1.90735e-06  -0.726466 -1.38958 -0.000394344  -0.702211 -1.34133 -4.76837e-07  -0.653915 -1.36342 -0.000294447  -0.702139 -1.34128 -0.000449896  -0.775517 -1.4869 -1.43051e-06  -0.726737 -1.50974 -0.000184536  -0.702374 -1.46084 -2.6226e-06  -0.775443 -1.48684 -0.000302792  -0.750957 -1.43815 -2.38419e-07  -0.702335 -1.46077 -0.000218868  -0.750896 -1.4381 -0.000344276  -0.824844 -1.58489 -2.6226e-06  -0.775823 -1.60815 -0.000123501  -0.751257 -1.55894 -1.43051e-06  -0.824775 -1.58483 -0.000220776  -0.800115 -1.53579 9.53674e-07  -0.751228 -1.55887 -0.000154018  -0.800066 -1.53575 -0.000262737  -0.874416 -1.68348 3.33786e-06  -0.825213 -1.70708 -7.1764e-05  -0.800503 -1.65761 3.57628e-06  -0.874359 -1.68343 -0.00014782  -0.849575 -1.6341 -2.38419e-07  -0.80048 -1.65755 -9.32217e-05  -0.849534 -1.63406 -0.000184774  -0.924145 -1.78253 -2.86102e-06  -0.874802 -1.80639 -3.38554e-05  -0.849993 -1.75675 3.33786e-06  -0.924092 -1.78249 -9.20296e-05  -0.899237 -1.73294 4.76837e-07  -0.849984 -1.75669 -5.29289e-05  -0.899208 -1.73291 -0.000120878  -0.973948 -1.88193 -6.91414e-06  -0.9245 -1.906 -5.72205e-06  -0.899644 -1.85622 -2.6226e-06  -0.973906 -1.88189 -5.34058e-05  -0.949015 -1.83218 1.66893e-06  -0.899636 -1.85616 -2.09808e-05  -0.948988 -1.83215 -6.91414e-05  -1.02375 -1.98155 -2.86102e-06  -0.974231 -2.00577 2.14577e-05  -0.949364 -1.95592 2.38419e-07  -1.02371 -1.98151 -1.43051e-05  -0.998832 -1.9317 -7.15256e-07  -0.949361 -1.95587 1.04904e-05  -0.998809 -1.93168 -3.14713e-05  -1.07349 -2.0813 -2.86102e-06  -1.02393 -2.10563 3.21865e-05  -0.999076 -2.05574 -2.38419e-06  -1.07347 -2.08127 7.86781e-06  -1.04861 -2.03139 -1.19209e-06  -0.999082 -2.05569 2.74181e-05  -1.04859 -2.03137 4.76837e-07  -1.12313 -2.18108 -4.05312e-06  -1.07353 -2.20548 3.88622e-05  -1.04873 -2.15561 -3.33786e-06  -1.1231 -2.18105 2.26498e-05  -1.09831 -2.13117 -5.72205e-06  -1.04874 -2.15556 3.74317e-05  -1.09829 -2.13116 1.54972e-05  -1.17263 -2.28083 -3.33786e-06  -1.12302 -2.30527 3.8147e-05  -1.09828 -2.25543 -4.52995e-06  -1.17261 -2.2808 3.05176e-05  -1.14788 -2.23095 -1.66893e-06  -1.09829 -2.25538 4.31538e-05  -1.14787 -2.23093 3.48091e-05  -1.22197 -2.38046 -4.76837e-07  -1.17235 -2.40491 3.21865e-05  -1.14768 -2.35515 -3.09944e-06  -1.22195 -2.38043 3.26633e-05  -1.1973 -2.33065 -1.19209e-06  -1.1477 -2.35511 3.93391e-05  -1.19729 -2.33063 3.17097e-05  -1.27115 -2.47994 1.66893e-06  -1.22151 -2.50439 2.31266e-05  -1.19692 -2.45471 -3.8147e-06  -1.27112 -2.47991 2.69413e-05  -1.24655 -2.4302 0  -1.19694 -2.45467 3.17097e-05  -1.24655 -2.43019 2.74181e-05  -1.32022 -2.57922 2.86102e-06  -1.27053 -2.60364 1.66893e-05  -1.246 -2.55408 -2.14577e-06  -1.32019 -2.57919 1.52588e-05  -1.29566 -2.52959 -2.86102e-06  -1.24602 -2.55404 1.85966e-05  -1.29566 -2.52957 1.93119e-05  -0.00518134 -0.0111383 -4.76837e-07  0 0 0  -0.00252656 -0.0109663 -0.00101471  -0.00103166 -0.00299805 -2.14577e-06  0 0 0  -0.00516593 -0.0109726 -0.00152421  -0.00203343 -0.0029709 -2.6226e-06  0 0 0  -0.00102789 -0.00293383 -0.000540257  -0.00202733 -0.00290459 -0.000813007  -0.0151375 -0.0390192 4.76837e-07  -0.00783771 -0.0389897 -0.00173116  -0.00478762 -0.0234584 -4.76837e-07  -0.0150998 -0.0387323 -0.00256991  -0.00956059 -0.0234502 -1.66893e-06  -0.00476949 -0.0232973 -0.00141311  -0.00954103 -0.0232643 -0.00211668  -0.0292508 -0.0777049 -1.19209e-06  -0.0166664 -0.0785723 -0.00209141  -0.011858 -0.0578673 -1.66893e-06  -0.0291816 -0.0773291 -0.00308108  -0.0217372 -0.0572104 2.14577e-06  -0.0118171 -0.0575996 -0.00195551  -0.0216945 -0.0569157 -0.0028882  -0.0465487 -0.12448 2.14577e-06  -0.028913 -0.126696 -0.00214481  -0.0224426 -0.10202 0  -0.0464335 -0.124064 -0.0031476  -0.0375251 -0.100127 2.38419e-07  -0.022373 -0.101681 -0.00215268  -0.0374436 -0.0997654 -0.00315499  -0.0666549 -0.17815 -1.19209e-06  -0.0444489 -0.181898 -0.00199151  -0.0363846 -0.153833 -2.86102e-06  -0.0664858 -0.17774 -0.00293851  -0.0562425 -0.150461 -2.86102e-06  -0.0362707 -0.153469 -0.00208759  -0.0561123 -0.150079 -0.00306916  -0.0894805 -0.237926 -1.90735e-06  -0.0632358 -0.243274 -0.00174785  -0.0535911 -0.212219 -2.14577e-06  -0.089271 -0.237537 -0.00260639  -0.0777116 -0.207281 -4.76837e-07  -0.0534356 -0.211859 -0.00188088  -0.0775383 -0.206914 -0.00278068  -0.114956 -0.303083 -3.57628e-06  -0.0852004 -0.310079 -0.00147176  -0.0740045 -0.27637 -3.09944e-06  -0.114728 -0.302734 -0.00224638  -0.101867 -0.269826 -2.14577e-06  -0.0738212 -0.276035 -0.00160837  -0.101665 -0.269492 -0.002424  -0.142996 -0.373018 -2.86102e-06  -0.110213 -0.38167 -0.00121331  -0.0975212 -0.345616 -4.52995e-06  -0.142755 -0.372707 -0.00189757  -0.128637 -0.337451 -2.38419e-06  -0.0973301 -0.345305 -0.00133824  -0.128419 -0.337148 -0.00206447  -0.173488 -0.447194 2.6226e-06  -0.138119 -0.457466 -0.000977039  -0.124002 -0.419344 -1.19209e-06  -0.173253 -0.446923 -0.00158882  -0.157918 -0.409574 -1.66893e-06  -0.12381 -0.419066 -0.00109291  -0.157697 -0.409308 -0.00173831  -0.206321 -0.525134 -7.15256e-07  -0.168729 -0.536976 -0.000784397  -0.153271 -0.497024 -2.38419e-07  -0.206094 -0.524898 -0.00132751  -0.189594 -0.485688 2.38419e-06  -0.15309 -0.496783 -0.000877619  -0.189383 -0.485459 -0.00145125  -0.241367 -0.606418 -1.90735e-06  -0.201872 -0.619749 -0.000627041  -0.18516 -0.578196 2.14577e-06  -0.241152 -0.60621 -0.0011065  -0.223549 -0.56535 -9.53674e-07  -0.18499 -0.577976 -0.000699282  -0.22335 -0.565153 -0.0012114  -0.278475 -0.690652 -1.66893e-06  -0.237358 -0.705379 -0.000491381  -0.219487 -0.662418 -2.14577e-06  -0.27828 -0.690469 -0.000918388  -0.259645 -0.648159 -9.53674e-07  -0.219329 -0.662226 -0.000555754  -0.259461 -0.647986 -0.00101066  -0.317495 -0.777474 -1.19209e-06  -0.274979 -0.793498 -0.000377178  -0.256055 -0.749315 -4.76837e-07  -0.317317 -0.777316 -0.000759602  -0.297732 -0.733732 -9.53674e-07  -0.255907 -0.749145 -0.000433207  -0.297563 -0.733582 -0.000836849  -0.358271 -0.866576 -1.19209e-06  -0.314557 -0.883785 -0.000283957  -0.294655 -0.838539 -1.90735e-06  -0.358097 -0.86643 -0.000625134  -0.337646 -0.821733 -2.14577e-06  -0.294532 -0.838385 -0.000330925  -0.337494 -0.821603 -0.000689507  -0.400608 -0.95765 -7.15256e-07  -0.355874 -0.975941 -0.000208616  -0.335114 -0.929781 -4.76837e-06  -0.400459 -0.957525 -0.000505686  -0.379226 -0.911854 -7.15256e-07  -0.335003 -0.929642 -0.000247478  -0.379089 -0.911745 -0.000560045  -0.444355 -1.05045 -2.6226e-06  -0.398745 -1.06971 -0.000144958  -0.377217 -1.02277 -3.33786e-06  -0.44422 -1.05034 -0.000402451  -0.422286 -1.00382 -2.14577e-06  -0.377123 -1.02264 -0.000175953  -0.422167 -1.00373 -0.000451803  -0.489338 -1.14472 -4.76837e-06  -0.442986 -1.16486 -8.58307e-05  -0.420788 -1.11724 0  -0.489214 -1.14462 -0.000315666  -0.466676 -1.09739 -3.09944e-06  -0.420701 -1.11713 -0.000114202  -0.466567 -1.0973 -0.000359774  -0.535382 -1.24026 -7.15256e-07  -0.4884 -1.26116 -4.48227e-05  -0.465623 -1.21297 -2.38419e-06  -0.535272 -1.24017 -0.00023675  -0.512208 -1.19232 7.15256e-07  -0.465553 -1.21287 -6.38962e-05  -0.512114 -1.19225 -0.000275612  -0.582335 -1.33686 -9.53674e-07  -0.534826 -1.35844 -7.15256e-06  -0.511553 -1.30977 1.43051e-06  -0.582237 -1.33678 -0.000174046  -0.558727 -1.28841 -1.19209e-06  -0.511494 -1.30968 -2.12193e-05  -0.558645 -1.28835 -0.000206232  -0.630038 -1.43435 -2.86102e-06  -0.582091 -1.45651 2.64645e-05  -0.55841 -1.40746 -4.76837e-07  -0.629955 -1.43428 -0.000115395  -0.606081 -1.38549 -3.33786e-06  -0.558362 -1.40738 1.57356e-05  -0.606008 -1.38543 -0.000142813  -0.678363 -1.53258 -3.33786e-06  -0.630046 -1.55523 5.38826e-05  -0.606023 -1.50587 -1.43051e-06  -0.678288 -1.53252 -6.53267e-05  -0.654103 -1.48336 -1.90735e-06  -0.605986 -1.5058 3.86238e-05  -0.654047 -1.48331 -9.01222e-05  -0.727161 -1.63139 -9.53674e-07  -0.678544 -1.65445 7.00951e-05  -0.654257 -1.60486 -1.43051e-06  -0.727096 -1.63133 -2.76566e-05  -0.702682 -1.5819 7.15256e-07  -0.654229 -1.60479 6.05583e-05  -0.702633 -1.58185 -4.45843e-05  -0.776322 -1.73065 1.43051e-06  -0.727465 -1.75406 8.51154e-05  -0.702972 -1.70428 -4.76837e-07  -0.776265 -1.7306 5.48363e-06  -0.751676 -1.68095 4.05312e-06  -0.702959 -1.70422 7.9155e-05  -0.751635 -1.68091 -5.72205e-06  -0.825724 -1.83023 3.09944e-06  -0.77668 -1.85393 9.15527e-05  -0.752044 -1.80402 -1.43051e-06  -0.825675 -1.83019 3.31402e-05  -0.800973 -1.78039 1.43051e-06  -0.752035 -1.80397 8.70228e-05  -0.800938 -1.78035 1.95503e-05  -0.875282 -1.93004 -1.66893e-06  -0.826083 -1.95395 9.25064e-05  -0.801362 -1.90398 -3.33786e-06  -0.875241 -1.93 4.64916e-05  -0.850465 -1.8801 2.86102e-06  -0.801358 -1.90392 9.36985e-05  -0.850438 -1.88007 3.88622e-05  -0.924906 -2.02997 -1.90735e-06  -0.875592 -2.05405 9.29832e-05  -0.850827 -2.00405 -1.66893e-06  -0.924869 -2.02994 5.96046e-05  -0.900068 -1.97998 -2.86102e-06  -0.850826 -2.004 9.46522e-05  -0.900045 -1.97996 5.03063e-05  -0.974522 -2.12995 -7.15256e-07  -0.925123 -2.15414 8.32081e-05  -0.900349 -2.10415 -7.15256e-07  -0.97449 -2.12991 6.1512e-05  -0.949695 -2.07994 -2.38419e-07  -0.900353 -2.1041 9.13143e-05  -0.949681 -2.07992 5.74589e-05  -1.02408 -2.22988 -3.57628e-06  -0.974614 -2.25416 7.43866e-05  -0.949861 -2.20421 1.43051e-06  -1.02405 -2.22984 5.96046e-05  -0.999287 -2.1799 2.86102e-06  -0.949872 -2.20416 8.41618e-05  -0.999278 -2.17988 6.17504e-05  -1.07352 -2.3297 -9.77516e-06  -1.02401 -2.35404 6.1512e-05  -0.999308 -2.30416 -2.6226e-06  -1.07349 -2.32967 4.60148e-05  -1.04879 -2.27978 -2.6226e-06  -0.99932 -2.30411 6.60419e-05  -1.04878 -2.27976 5.24521e-05  -1.12281 -2.42937 -1.90735e-06  -1.07327 -2.45374 4.22001e-05  -1.04864 -2.40396 -8.58307e-06  -1.12279 -2.42934 4.1008e-05  -1.09816 -2.37954 0  -1.04865 -2.40391 5.26905e-05  -1.09816 -2.37952 4.62532e-05  -1.17195 -2.52884 -3.33786e-06  -1.12238 -2.55322 2.57492e-05  -1.09782 -2.50355 -1.19209e-06  -1.17193 -2.52881 2.81334e-05  -1.14738 -2.47912 -2.14577e-06  -1.09784 -2.50351 4.1008e-05  -1.14738 -2.4791 3.40939e-05  -1.22092 -2.62807 -4.29153e-06  -1.1713 -2.65243 6.91414e-06  -1.14683 -2.60291 -3.09944e-06  -1.22091 -2.62805 1.3113e-05  -1.19643 -2.57847 -1.90735e-06  -1.14686 -2.60286 1.54972e-05  -1.19643 -2.57846 2.02656e-05  -9.799e-05 -0.0118756 1.66893e-06  0 0 0  0.00226776 -0.0131524 -2.36034e-05  0.00085482 -0.00417295 -3.33786e-06  0 0 0  -7.53105e-05 -0.0117327 -0.000513792  -6.55726e-05 -0.00341165 -1.90735e-06  0 0 0  0.000858732 -0.00412184 -8.82149e-06  -5.60582e-05 -0.00335702 -0.00026989  -0.00120674 -0.0406935 -2.38419e-07  0.00527334 -0.0429833 -8.91685e-05  0.00382186 -0.0265183 -1.19209e-06  -0.00114782 -0.0404513 -0.000899792  -0.000394076 -0.0245263 -1.19209e-06  0.00385758 -0.026383 -5.14984e-05  -0.000359491 -0.0243789 -0.0007236  -0.00505668 -0.0813256 -4.52995e-06  0.00630873 -0.0845636 -0.000166178  0.00608453 -0.0627834 -4.76837e-07  -0.00496405 -0.0810063 -0.00112176  -0.00272098 -0.0597505 -1.66893e-06  0.00615779 -0.062555 -0.000136375  -0.00265187 -0.0595079 -0.00103498  -0.012417 -0.130709 -9.53674e-07  0.00381625 -0.134975 -0.000197649  0.00545114 -0.109085 -3.09944e-06  -0.0122842 -0.130336 -0.00115943  -0.00826842 -0.105011 -2.38419e-07  0.00555536 -0.108787 -0.000195503  -0.00816557 -0.104697 -0.00116324  -0.0234911 -0.187255 -2.38419e-06  -0.00277901 -0.192685 -0.000147343  0.000916064 -0.163313 7.15256e-07  -0.0233203 -0.186874 -0.00106764  -0.0174675 -0.158102 -4.76837e-07  0.0010463 -0.16298 -0.000177622  -0.0173298 -0.157764 -0.00112367  -0.0383067 -0.250029 9.53674e-07  -0.01359 -0.256741 -5.24521e-05  -0.00780845 -0.224303 -4.76837e-07  -0.0381017 -0.24966 -0.000893831  -0.0304149 -0.217868 -1.90735e-06  -0.00765926 -0.223964 -0.000108004  -0.0302429 -0.217529 -0.000986814  -0.056772 -0.318277 -1.43051e-06  -0.0285288 -0.326359 5.17368e-05  -0.0207161 -0.29122 0  -0.0565503 -0.317931 -0.000707865  -0.0470672 -0.28347 -1.66893e-06  -0.0205492 -0.29089 -3.8147e-06  -0.0468733 -0.283147 -0.000801086  -0.078726 -0.391325 -5.72205e-06  -0.0474003 -0.400838 0.000149012  -0.0376578 -0.363328 -9.53674e-07  -0.0785033 -0.391018 -0.000531912  -0.0672986 -0.354196 -2.14577e-06  -0.0374815 -0.363026 9.82285e-05  -0.0670969 -0.353905 -0.000618458  -0.10397 -0.468586 2.38419e-07  -0.0699639 -0.47955 0.000228167  -0.0584041 -0.439973 -7.15256e-07  -0.10375 -0.468315 -0.000372648  -0.0909272 -0.429428 -1.66893e-06  -0.0582322 -0.439696 0.00019002  -0.0907198 -0.429165 -0.000448942  -0.13228 -0.549533 0  -0.0959516 -0.561923 0.000292778  -0.0827085 -0.520556 -1.90735e-06  -0.132071 -0.549287 -0.000245571  -0.117728 -0.508595 -7.15256e-07  -0.082539 -0.520303 0.000264883  -0.117534 -0.508363 -0.000308037  -0.163435 -0.633673 -2.14577e-06  -0.125095 -0.647439 0.000343084  -0.110295 -0.604532 -1.90735e-06  -0.163235 -0.633461 -0.000141859  -0.147491 -0.591199 1.19209e-06  -0.110142 -0.60431 0.000318289  -0.147307 -0.590995 -0.000191212  -0.197199 -0.720608 2.6226e-06  -0.157122 -0.735679 0.000365496  -0.140897 -0.691446 2.38419e-07  -0.197015 -0.720418 -6.07967e-05  -0.179978 -0.676788 4.76837e-07  -0.140758 -0.691243 0.000353098  -0.179806 -0.67661 -9.91821e-05  -0.233339 -0.80994 4.76837e-07  -0.191767 -0.826238 0.000380039  -0.174258 -0.780867 -3.57628e-06  -0.233171 -0.809775 2.38419e-07  -0.214962 -0.764969 -7.15256e-07  -0.174128 -0.780683 0.00037384  -0.214802 -0.76481 -2.83718e-05  -0.271632 -0.901358 -9.53674e-07  -0.228764 -0.918778 0.000385523  -0.210096 -0.872442 -1.19209e-06  -0.271479 -0.901204 5.00679e-05  -0.252202 -0.855384 -4.05312e-06  -0.209979 -0.872275 0.000384569  -0.252062 -0.855242 2.40803e-05  -0.311856 -0.994537 -1.66893e-06  -0.267869 -1.01299 0.000387192  -0.248163 -0.965832 -3.09944e-06  -0.311707 -0.994402 8.7738e-05  -0.291485 -0.947712 -3.09944e-06  -0.248063 -0.965689 0.000381708  -0.29136 -0.947592 6.81877e-05  -0.353774 -1.08923 1.90735e-06  -0.308841 -1.10862 0.000377178  -0.288221 -1.06077 7.15256e-07  -0.353648 -1.08911 0.000119209  -0.332586 -1.04168 -2.38419e-07  -0.288129 -1.06064 0.0003829  -0.332472 -1.04158 0.000104666  -0.397205 -1.1852 -1.66893e-06  -0.351454 -1.20543 0.000365496  -0.330022 -1.157 1.43051e-06  -0.397091 -1.1851 0.00013876  -0.37529 -1.13705 -9.53674e-07  -0.329949 -1.15688 0.000375509  -0.375189 -1.13695 0.000131845  -0.441929 -1.28224 1.90735e-06  -0.395481 -1.3032 0.000351906  -0.373357 -1.25431 0  -0.441829 -1.28214 0.000156164  -0.419389 -1.23358 4.76837e-07  -0.373293 -1.2542 0.000357389  -0.419304 -1.23349 0.000148773  -0.487769 -1.38016 0  -0.440724 -1.40177 0.000335693  -0.418006 -1.35249 -3.09944e-06  -0.487682 -1.38008 0.000166178  -0.464694 -1.33108 -7.15256e-07  -0.417955 -1.3524 0.000342846  -0.464621 -1.33101 0.000160694  -0.53454 -1.47879 -4.76837e-07  -0.486993 -1.50096 0.00031352  -0.463776 -1.45138 1.19209e-06  -0.534459 -1.47871 0.000171661  -0.511019 -1.42937 -1.66893e-06  -0.463737 -1.45129 0.000321865  -0.510958 -1.42931 0.0001688  -0.582079 -1.57799 -3.33786e-06  -0.534119 -1.60063 0.000292301  -0.510487 -1.55082 -1.66893e-06  -0.58201 -1.57791 0.000170946  -0.558195 -1.5283 -2.14577e-06  -0.510455 -1.55074 0.000302553  -0.558142 -1.52825 0.0001688  -0.630239 -1.67761 -4.29153e-06  -0.581922 -1.70066 0.000267744  -0.557959 -1.65068 -1.19209e-06  -0.630171 -1.67754 0.00016737  -0.60606 -1.62773 -4.76837e-06  -0.557939 -1.6506 0.000278711  -0.606018 -1.62768 0.000166655  -0.678872 -1.77754 -4.05312e-06  -0.630272 -1.80092 0.000245333  -0.60605 -1.75083 -2.6226e-06  -0.678815 -1.77748 0.000163555  -0.654472 -1.72752 -2.6226e-06  -0.606032 -1.75077 0.000250578  -0.654439 -1.72748 0.000167131  -0.727855 -1.87767 -4.29153e-06  -0.679025 -1.90133 0.000215054  -0.654613 -1.85118 0  -0.727809 -1.87762 0.000148535  -0.703301 -1.82757 -3.09944e-06  -0.6546 -1.85111 0.000227928  -0.703269 -1.82753 0.000156403  -0.777078 -1.97791 7.15256e-07  -0.728061 -2.00177 0.00019455  -0.703508 -1.95161 -1.43051e-06  -0.777036 -1.97786 0.000143051  -0.752416 -1.92776 -2.38419e-06  -0.703511 -1.95155 0.00020051  -0.752395 -1.92773 0.000147581  -0.826445 -2.07817 -2.38419e-07  -0.777282 -2.1022 0.000159264  -0.752647 -2.05205 4.76837e-07  -0.826411 -2.07812 0.000127316  -0.801722 -2.02802 -1.19209e-06  -0.752648 -2.05199 0.000175953  -0.801705 -2.02799 0.000135422  -0.875862 -2.17837 -1.90735e-06  -0.826586 -2.20253 0.000141859  -0.801915 -2.15243 2.38419e-06  -0.875832 -2.17833 0.000112772  -0.851125 -2.12826 1.90735e-06  -0.801923 -2.15238 0.000151873  -0.851115 -2.12824 0.00012064  -0.92527 -2.27847 -2.14577e-06  -0.875903 -2.30272 0.000106812  -0.851229 -2.25269 -2.14577e-06  -0.925239 -2.27843 9.2268e-05  -0.900545 -2.22842 9.53674e-07  -0.851242 -2.25264 0.000123501  -0.900538 -2.2284 0.000103712  -0.974604 -2.3784 -4.29153e-06  -0.925174 -2.4027 8.01086e-05  -0.900525 -2.35278 -2.38419e-06  -0.974576 -2.37837 6.93798e-05  -0.949923 -2.32844 -2.86102e-06  -0.900543 -2.35273 8.84533e-05  -0.949916 -2.32842 8.08239e-05  -1.02382 -2.47813 -2.14577e-06  -0.97434 -2.50246 5.84126e-05  -0.949752 -2.45265 -3.09944e-06  -1.0238 -2.4781 4.86374e-05  -0.999199 -2.42828 -5.24521e-06  -0.949766 -2.45261 6.58035e-05  -0.9992 -2.42826 5.81741e-05  -1.07289 -2.57762 -1.66893e-06  -1.02337 -2.60195 2.90871e-05  -0.998851 -2.55228 5.24521e-06  -1.07286 -2.57759 2.90871e-05  -1.04835 -2.52788 -7.15256e-07  -0.998872 -2.55223 4.33922e-05  -1.04835 -2.52787 3.88622e-05  -1.12176 -2.67682 -4.76837e-07  -1.07221 -2.70115 5.72205e-06  -1.04779 -2.65164 4.76837e-07  -1.12174 -2.67679 7.15256e-06  -1.09733 -2.62724 7.15256e-07  -1.04782 -2.65159 1.66893e-05  -1.09733 -2.62723 1.83582e-05  0.00459735 -0.0153305 -2.6226e-06  0 0 0  0.00708908 -0.0179462 0.000904322  0.00273746 -0.00675452 -1.43051e-06  0 0 0  0.00463176 -0.0152107 0.000450134  0.00177006 -0.00526398 -2.38419e-07  0 0 0  0.00273748 -0.00670958 0.00048995  0.00177658 -0.00522012 0.00024581  0.0115987 -0.0467541 -1.66893e-06  0.0182607 -0.0511171 0.00145888  0.0124154 -0.0331781 -3.09944e-06  0.0116798 -0.0465407 0.000695705  0.00803946 -0.0293913 9.53674e-07  0.0124695 -0.0330472 0.00123501  0.00809231 -0.0292623 0.000604391  0.0173267 -0.0894903 1.66893e-06  0.0287303 -0.0948783 0.00165367  0.0237096 -0.0720671 4.76837e-07  0.0174518 -0.0891997 0.000759363  0.0148046 -0.0668914 2.38419e-07  0.023816 -0.0718572 0.00158644  0.0149022 -0.0666759 0.000743151  0.0195041 -0.140924 -3.09944e-06  0.0355182 -0.147123 0.00167084  0.0325536 -0.120295 -4.76837e-07  0.0196558 -0.140583 0.000752211  0.0189466 -0.114186 0  0.0326853 -0.120014 0.00167751  0.0190789 -0.113903 0.000755787  0.0172286 -0.199686 -3.57628e-06  0.0375019 -0.206781 0.00163698  0.0369981 -0.176388 -3.8147e-06  0.0174063 -0.199323 0.000752687  0.0189595 -0.169403 -2.86102e-06  0.0371417 -0.176072 0.00165629  0.0191127 -0.169087 0.000748396  0.0103117 -0.264874 -1.19209e-06  0.0344284 -0.273025 0.00158954  0.0364462 -0.239446 -2.38419e-06  0.0105054 -0.26452 0.000774622  0.0143713 -0.231479 -9.53674e-07  0.0366002 -0.239122 0.0016129  0.014539 -0.231158 0.000762701  -0.00115281 -0.335714 7.15256e-07  0.026396 -0.345043 0.00154805  0.0308672 -0.308674 7.15256e-07  -0.000950456 -0.335382 0.00080204  0.00515866 -0.299594 -1.66893e-06  0.0310242 -0.308354 0.0015676  0.00534046 -0.299282 0.000786304  -0.0169592 -0.411487 -9.53674e-07  0.0136355 -0.422085 0.00149632  0.0204367 -0.38328 -3.09944e-06  -0.0167521 -0.411175 0.000822067  -0.00850582 -0.372988 2.14577e-06  0.0205919 -0.382978 0.0015204  -0.00832248 -0.372699 0.000814676  -0.0368247 -0.491507 -1.90735e-06  -0.00354826 -0.503415 0.001436  0.00542402 -0.462528 -2.14577e-06  -0.0366228 -0.491227 0.000832796  -0.0263768 -0.450964 -1.19209e-06  0.00558043 -0.462251 0.00146461  -0.0261922 -0.450703 0.000828981  -0.0604556 -0.57518 -1.66893e-06  -0.0248317 -0.5884 0.00137591  -0.0138423 -0.545734 -3.33786e-06  -0.0602616 -0.57493 0.000831366  -0.0481632 -0.532886 -2.86102e-06  -0.013694 -0.545483 0.0014019  -0.0479847 -0.53265 0.000834465  -0.0875356 -0.661974 -4.76837e-07  -0.049868 -0.676467 0.00130463  -0.0370307 -0.632305 -1.19209e-06  -0.0873541 -0.661751 0.000819206  -0.0735531 -0.618182 -2.86102e-06  -0.0368955 -0.632074 0.00133395  -0.0733888 -0.617972 0.000825405  -0.117767 -0.751426 1.66893e-06  -0.078315 -0.767137 0.00122237  -0.0638056 -0.721708 -1.43051e-06  -0.1176 -0.751222 0.000793457  -0.102248 -0.706365 -9.53674e-07  -0.0636804 -0.721501 0.00126529  -0.102098 -0.706178 0.000807524  -0.150856 -0.843124 -2.86102e-06  -0.109849 -0.85998 0.00114632  -0.0938256 -0.813492 2.6226e-06  -0.1507 -0.842945 0.000760078  -0.133945 -0.796986 -2.14577e-06  -0.0937107 -0.813305 0.00118518  -0.133807 -0.796818 0.000777483  -0.186506 -0.936719 -2.6226e-06  -0.144153 -0.954635 0.00106335  -0.126771 -0.90727 -1.19209e-06  -0.186361 -0.936559 0.000722885  -0.16835 -0.889677 -4.05312e-06  -0.126669 -0.907099 0.00110197  -0.168222 -0.889529 0.000741482  -0.224437 -1.0319 1.90735e-06  -0.180923 -1.05079 0.000982046  -0.162334 -1.0027 1.90735e-06  -0.224307 -1.03176 0.000687838  -0.205177 -0.984101 -3.57628e-06  -0.162244 -1.00254 0.00102401  -0.20506 -0.983973 0.000701904  -0.264397 -1.1284 -1.90735e-06  -0.219881 -1.14817 0.000897884  -0.200217 -1.09948 1.66893e-06  -0.264282 -1.12828 0.000639677  -0.244155 -1.07998 -2.14577e-06  -0.200142 -1.09934 0.000941038  -0.244049 -1.07986 0.000661135  -0.306138 -1.22599 -9.53674e-07  -0.260751 -1.24655 0.000826597  -0.240152 -1.19737 -1.66893e-06  -0.306032 -1.22588 0.000596285  -0.285033 -1.17706 -1.90735e-06  -0.240088 -1.19725 0.000862837  -0.284942 -1.17696 0.000618219  -0.34942 -1.32447 -3.09944e-06  -0.303289 -1.34572 0.000748396  -0.281874 -1.29616 0  -0.349322 -1.32437 0.000547171  -0.327571 -1.27512 -1.43051e-06  -0.28182 -1.29605 0.000785351  -0.327494 -1.27502 0.000573635  -0.39403 -1.42365 -2.14577e-06  -0.347262 -1.4455 0.00066781  -0.325145 -1.39565 -7.15256e-07  -0.393942 -1.42355 0.000502586  -0.371543 -1.37396 7.15256e-07  -0.325108 -1.39554 0.000708342  -0.371477 -1.37388 0.000525951  -0.439755 -1.52336 -2.86102e-06  -0.392454 -1.54574 0.000602722  -0.369753 -1.49566 -4.76837e-07  -0.43968 -1.52328 0.000453234  -0.416736 -1.47342 -1.90735e-06  -0.369715 -1.49557 0.000636816  -0.416679 -1.47335 0.000479937  -0.486418 -1.62348 4.76837e-07  -0.438664 -1.64631 0.000535727  -0.415461 -1.59608 1.19209e-06  -0.486354 -1.62341 0.000407934  -0.462956 -1.57336 -3.8147e-06  -0.415437 -1.59599 0.000566483  -0.462903 -1.57329 0.000432968  -0.533847 -1.72388 9.53674e-07  -0.485716 -1.74709 0.000464916  -0.462106 -1.69676 1.90735e-06  -0.53379 -1.72382 0.000367165  -0.510025 -1.67364 -7.15256e-07  -0.462091 -1.69667 0.000497818  -0.509982 -1.67358 0.000389814  -0.581872 -1.82445 -1.90735e-06  -0.533425 -1.84796 0.000402212  -0.509496 -1.79759 -3.09944e-06  -0.581828 -1.82439 0.000320196  -0.557766 -1.77413 -2.38419e-07  -0.509489 -1.79751 0.000430346  -0.557736 -1.77409 0.000344753  -0.630372 -1.92511 -3.33786e-06  -0.581664 -1.94886 0.000351191  -0.557488 -1.89848 -1.66893e-06  -0.630327 -1.92506 0.00028038  -0.606054 -1.87476 -2.86102e-06  -0.557485 -1.89841 0.00037241  -0.606023 -1.87472 0.000300407  -0.679193 -2.02576 -1.90735e-06  -0.63028 -2.0497 0.000292301  -0.605927 -1.99936 3.33786e-06  -0.679155 -2.02571 0.000241995  -0.654723 -1.97542 1.66893e-06  -0.605928 -1.99929 0.000318289  -0.654702 -1.97538 0.00026226  -0.728247 -2.12634 4.76837e-07  -0.679166 -2.15043 0.000242233  -0.654687 -2.10014 -1.19209e-06  -0.728216 -2.12629 0.000200748  -0.703673 -2.07604 1.90735e-06  -0.654691 -2.10008 0.000264406  -0.703656 -2.07601 0.000221252  -0.77742 -2.22677 -1.66893e-06  -0.728207 -2.25097 0.000189066  -0.703657 -2.20077 1.19209e-06  -0.77739 -2.22673 0.000161409  -0.752795 -2.17655 2.14577e-06  -0.703668 -2.20072 0.000212193  -0.752787 -2.17652 0.000183105  -0.826632 -2.32703 -1.90735e-06  -0.777323 -2.35129 0.000144482  -0.752741 -2.30121 9.53674e-07  -0.826608 -2.32698 0.000123501  -0.801999 -2.2769 -1.90735e-06  -0.752756 -2.30116 0.000166416  -0.801994 -2.27688 0.000140905  -0.875825 -2.42706 -5.24521e-06  -0.826435 -2.45137 0.000100374  -0.801857 -2.40142 1.43051e-06  -0.875805 -2.42702 8.82149e-05  -0.851211 -2.37705 -4.76837e-07  -0.801876 -2.40136 0.000119925  -0.851208 -2.37703 0.000107527  -0.924938 -2.52684 2.14577e-06  -0.875498 -2.55116 6.58035e-05  -0.850955 -2.50134 -2.38419e-07  -0.924919 -2.5268 6.12736e-05  -0.900369 -2.47696 -3.09944e-06  -0.85097 -2.5013 8.22544e-05  -0.900368 -2.47694 7.72476e-05  -0.973931 -2.62634 -1.43051e-06  -0.924444 -2.65067 2.57492e-05  -0.899955 -2.601 2.38419e-07  -0.973908 -2.6263 2.76566e-05  -0.949426 -2.5766 4.05312e-06  -0.899982 -2.60095 4.48227e-05  -0.949425 -2.57658 4.673e-05  -1.02274 -2.72555 -1.19209e-06  -0.973235 -2.74989 -1.28746e-05  -0.948835 -2.70037 7.15256e-07  -1.02272 -2.72551 -2.14577e-06  -0.998333 -2.67596 -4.52995e-06  -0.94886 -2.70032 1.28746e-05  -0.998338 -2.67594 1.33514e-05  0.00974846 -0.0216239 -2.38419e-07  0 0 0  0.0128141 -0.0260525 0.00175524  0.00491703 -0.0113879 -2.38419e-06  0 0 0  0.00978583 -0.0214965 0.00134134  0.00374546 -0.0087238 -1.43051e-06  0 0 0  0.00491652 -0.0113335 0.000941753  0.00374951 -0.00867772 0.000721455  0.0251812 -0.0570011 7.15256e-07  0.032945 -0.063605 0.00287461  0.0224315 -0.0439318 -7.15256e-07  0.0252891 -0.0567856 0.00218296  0.0171525 -0.0379713 1.66893e-06  0.0224991 -0.0437869 0.0024085  0.0172202 -0.037838 0.00183773  0.040248 -0.101871 4.76837e-07  0.0526878 -0.109274 0.0033536  0.0430699 -0.08566 2.14577e-06  0.0404035 -0.101585 0.00252271  0.0330521 -0.0783206 -1.43051e-06  0.0431974 -0.0854377 0.00317836  0.0331779 -0.0781087 0.00240254  0.0514523 -0.154895 -3.09944e-06  0.0681826 -0.162866 0.00343561  0.0609273 -0.135356 9.53674e-07  0.0516254 -0.154567 0.00256824  0.04646 -0.127361 2.38419e-06  0.0610785 -0.135074 0.00342703  0.0466134 -0.127087 0.00256658  0.0575213 -0.215387 2.38419e-07  0.0782081 -0.224067 0.00334573  0.0737606 -0.192854 -2.86102e-06  0.0577024 -0.215036 0.00250196  0.0551749 -0.184206 -4.76837e-07  0.0739111 -0.192544 0.0033989  0.0553399 -0.1839 0.00254178  0.0581673 -0.282589 -3.09944e-06  0.0824763 -0.292191 0.00318456  0.0809158 -0.257629 4.76837e-07  0.0583537 -0.282246 0.00239277  0.0585421 -0.248158 -1.43051e-06  0.0810654 -0.257313 0.00327206  0.0587069 -0.247841 0.00244975  0.053488 -0.355695 -2.38419e-07  0.0810727 -0.366373 0.00300503  0.0823238 -0.328885 -2.38419e-06  0.0536739 -0.355365 0.00228214  0.0565 -0.318417 4.76837e-07  0.0824736 -0.328573 0.00309539  0.056671 -0.31811 0.00234222  0.043726 -0.433895 -3.57628e-06  0.0742506 -0.445742 0.0028224  0.0781801 -0.405747 -1.19209e-06  0.0439123 -0.433593 0.00216293  0.0492468 -0.394169 -2.86102e-06  0.0783241 -0.405456 0.00291491  0.0494139 -0.393883 0.00222158  0.0291973 -0.51643 -2.86102e-06  0.0623403 -0.529498 0.00263143  0.0687722 -0.487386 1.19209e-06  0.0293791 -0.516152 0.00203586  0.0370585 -0.474632 -2.6226e-06  0.0689132 -0.487115 0.00272608  0.0372261 -0.474369 0.00209832  0.0102639 -0.602619 -1.19209e-06  0.0457176 -0.616909 0.00244713  0.054463 -0.573031 1.19209e-06  0.0104415 -0.602368 0.00190949  0.0202842 -0.559074 -3.57628e-06  0.0545971 -0.572781 0.00253987  0.0204432 -0.558835 0.00197196  -0.0127022 -0.691866 -1.66893e-06  0.0247798 -0.707348 0.0022614  0.0356454 -0.662009 0  -0.0125351 -0.691644 0.00178003  -0.000710726 -0.646864 0  0.0357691 -0.661779 0.00235271  -0.000560522 -0.646649 0.00184584  -0.0393379 -0.78367 -1.43051e-06  -7.62939e-05 -0.80028 0.00208354  0.0127083 -0.753734 -2.38419e-06  -0.0391831 -0.783465 0.00165296  -0.0255557 -0.737451 -1.90735e-06  0.0128232 -0.753528 0.00217295  -0.025417 -0.737258 0.00171828  -0.0692921 -0.877573 1.19209e-06  -0.0284724 -0.895257 0.00190616  -0.0139517 -0.847728 -5.96046e-06  -0.0691482 -0.877394 0.00152707  -0.053897 -0.830356 -3.09944e-06  -0.0138505 -0.847534 0.00199294  -0.0537655 -0.830183 0.00158954  -0.102214 -0.973223 -9.53674e-07  -0.0600387 -0.991888 0.00174141  -0.0439675 -0.943555 -3.57628e-06  -0.102078 -0.973056 0.00140262  -0.0853771 -0.925177 -2.38419e-06  -0.0438768 -0.943383 0.00182152  -0.0852573 -0.925024 0.00146627  -0.137786 -1.07027 0  -0.0944321 -1.08985 0.00158048  -0.0769743 -1.04087 2.38419e-07  -0.137665 -1.07013 0.00127769  -0.11966 -1.02157 -1.19209e-06  -0.0768945 -1.04072 0.00166011  -0.119556 -1.02143 0.00134063  -0.175695 -1.16847 4.76837e-07  -0.131316 -1.18886 0.00142503  -0.112646 -1.13938 0  -0.175589 -1.16834 0.00116444  -0.156436 -1.11922 -2.6226e-06  -0.112577 -1.13923 0.00150108  -0.156346 -1.1191 0.00122404  -0.215669 -1.26758 1.90735e-06  -0.170412 -1.28869 0.00127602  -0.150659 -1.23881 -4.29153e-06  -0.215574 -1.26746 0.00105238  -0.195418 -1.2179 2.38419e-06  -0.150603 -1.23868 0.00135112  -0.195337 -1.2178 0.00110555  -0.257434 -1.36739 7.15256e-07  -0.21141 -1.38914 0.00114703  -0.190731 -1.33896 -4.76837e-07  -0.257347 -1.36729 0.000946999  -0.236317 -1.31739 -1.43051e-06  -0.190684 -1.33884 0.00121045  -0.236245 -1.31729 0.000996828  -0.300742 -1.46773 -2.86102e-06  -0.25406 -1.49003 0.00100565  -0.23258 -1.43964 -4.05312e-06  -0.300659 -1.46764 0.000839472  -0.27888 -1.41749 -1.43051e-06  -0.232537 -1.43954 0.0010736  -0.278819 -1.4174 0.000893354  -0.345366 -1.56845 -4.05312e-06  -0.298131 -1.59123 0.000887394  -0.275964 -1.5407 -9.53674e-07  -0.345294 -1.56837 0.000740767  -0.322875 -1.51803 2.38419e-07  -0.27593 -1.54059 0.000948429  -0.322822 -1.51796 0.00079155  -0.391097 -1.66943 -1.90735e-06  -0.343386 -1.6926 0.000775576  -0.320641 -1.64199 0  -0.391029 -1.66935 0.000652075  -0.368078 -1.6189 5.00679e-06  -0.320617 -1.6419 0.000829458  -0.368028 -1.61883 0.000700474  -0.437735 -1.77054 -1.66893e-06  -0.389639 -1.79404 0.00066185  -0.366407 -1.7434 4.76837e-07  -0.437685 -1.77047 0.000564098  -0.414283 -1.71996 -1.43051e-06  -0.366395 -1.74331 0.00071764  -0.414248 -1.7199 0.000607967  -0.485112 -1.8717 -2.38419e-07  -0.43669 -1.89546 0.000564575  -0.413079 -1.84483 -9.53674e-07  -0.485064 -1.87164 0.000479937  -0.461317 -1.8211 -7.15256e-07  -0.413069 -1.84476 0.000613213  -0.461288 -1.82105 0.000524044  -0.533073 -1.97281 1.66893e-06  -0.48438 -1.99679 0.000471354  -0.460463 -1.9462 -7.15256e-07  -0.533035 -1.97276 0.000406504  -0.509006 -1.92224 1.66893e-06  -0.460458 -1.94614 0.000516653  -0.50898 -1.9222 0.000445366  -0.581462 -2.07382 -5.00679e-06  -0.532561 -2.09795 0.000382185  -0.508407 -2.04745 -2.14577e-06  -0.581433 -2.07377 0.000334501  -0.557198 -2.02331 2.38419e-07  -0.508411 -2.04739 0.000426054  -0.557182 -2.02328 0.000371695  -0.630172 -2.17466 -1.43051e-06  -0.581086 -2.1989 0.000309944  -0.55677 -2.14852 -3.57628e-06  -0.630137 -2.17461 0.00027585  -0.60576 -2.12425 -1.43051e-06  -0.556782 -2.14845 0.000340939  -0.605747 -2.12421 0.000304222  -0.679073 -2.27529 1.19209e-06  -0.629856 -2.29961 0.000237942  -0.605432 -2.24934 5.72205e-06  -0.679047 -2.27525 0.000216007  -0.654578 -2.22499 1.43051e-06  -0.60544 -2.24928 0.000268936  -0.654568 -2.22495 0.000244379  -0.728076 -2.37567 2.38419e-07  -0.678758 -2.40003 0.000178337  -0.654276 -2.34991 7.15256e-07  -0.728051 -2.37563 0.000159025  -0.703543 -2.3255 1.66893e-06  -0.654291 -2.34985 0.000207901  -0.703535 -2.32547 0.000188112  -0.777102 -2.47577 4.05312e-06  -0.727711 -2.50014 0.000124931  -0.703207 -2.45017 7.15256e-07  -0.777084 -2.47573 0.000112772  -0.752566 -2.42573 0  -0.703228 -2.45012 0.000147581  -0.752563 -2.42571 0.000134468  -0.826102 -2.57557 9.53674e-07  -0.776649 -2.59995 7.51019e-05  -0.752161 -2.55013 2.14577e-06  -0.82608 -2.57554 6.8903e-05  -0.801588 -2.52569 -1.66893e-06  -0.752181 -2.55008 9.60827e-05  -0.801586 -2.52567 8.58307e-05  -0.875014 -2.67508 4.76837e-06  -0.825528 -2.69945 3.24249e-05  -0.80107 -2.64978 -1.90735e-06  -0.874999 -2.67505 3.55244e-05  -0.850546 -2.62535 0  -0.801089 -2.64974 5.26905e-05  -0.850548 -2.62532 4.76837e-05  -0.923785 -2.77431 3.09944e-06  -0.87429 -2.7987 -1.64509e-05  -0.849898 -2.74915 -5.96046e-06  -0.92377 -2.77428 -1.28746e-05  -0.899396 -2.72471 -1.19209e-06  -0.849918 -2.7491 6.67572e-06  -0.899397 -2.72469 1.21593e-05  0.0165091 -0.032138 -4.76837e-07  0 0 0  0.0210175 -0.0396916 0.0025115  0.00793623 -0.0201079 -3.09944e-06  0 0 0  0.0165534 -0.0319871 0.00214148  0.00621772 -0.0150127 -9.53674e-07  0 0 0  0.00793199 -0.0200244 0.00134277  0.00621972 -0.0149509 0.00114512  0.0415007 -0.0719545 -2.86102e-06  0.0515621 -0.0809968 0.00415349  0.0361989 -0.060223 -1.19209e-06  0.0416326 -0.071714 0.00353074  0.0286653 -0.0512691 2.86102e-06  0.0362676 -0.0600333 0.00346422  0.0287453 -0.0511089 0.00294828  0.0656102 -0.118207 0  0.0798515 -0.127385 0.00490808  0.0660697 -0.103494 2.86102e-06  0.0657817 -0.117904 0.00414681  0.0540032 -0.0940817 -2.14577e-06  0.0662113 -0.103237 0.0046289  0.0541501 -0.0938424 0.00391793  0.0851542 -0.17229 -2.14577e-06  0.103247 -0.181804 0.00507689  0.0920817 -0.153836 -1.90735e-06  0.0853442 -0.171962 0.00427508  0.0760683 -0.144198 -2.14577e-06  0.0922446 -0.153544 0.00504065  0.0762398 -0.143918 0.00424933  0.0989796 -0.234186 -7.15256e-07  0.120707 -0.24434 0.00495458  0.112594 -0.212399 0  0.0991614 -0.233842 0.00416541  0.0928324 -0.202254 1.43051e-06  0.112754 -0.21209 0.00503898  0.0930036 -0.201952 0.00423622  0.10675 -0.303189 -1.43051e-06  0.131878 -0.314232 0.00470972  0.126935 -0.278733 -2.38419e-06  0.106933 -0.302852 0.00395846  0.103643 -0.267814 -2.38419e-07  0.127088 -0.278423 0.0048418  0.103807 -0.267505 0.00406742  0.108542 -0.378386 -1.19209e-06  0.136779 -0.390479 0.00441575  0.134961 -0.351914 -3.09944e-06  0.108721 -0.378067 0.00371981  0.108403 -0.34003 -4.05312e-06  0.135106 -0.351617 0.00456691  0.108566 -0.339734 0.00384235  0.104596 -0.45886 1.43051e-06  0.135646 -0.472086 0.0041101  0.136809 -0.430947 -3.09944e-06  0.104777 -0.458563 0.00347137  0.107292 -0.41798 -2.86102e-06  0.136953 -0.430666 0.00426435  0.10745 -0.417703 0.00359583  0.0952601 -0.543747 -1.43051e-06  0.12882 -0.558144 0.00380039  0.13279 -0.51487 -2.38419e-06  0.0954374 -0.543477 0.00322318  0.100602 -0.500765 -1.43051e-06  0.132925 -0.514605 0.00395465  0.100761 -0.500509 0.00334573  0.0809317 -0.632295 1.43051e-06  0.116718 -0.647847 0.00349879  0.123276 -0.602824 9.53674e-07  0.0810963 -0.632047 0.00297666  0.0887228 -0.587578 0  0.123407 -0.602579 0.00365186  0.0888712 -0.587343 0.00310016  0.0620141 -0.723842 1.90735e-06  0.0997733 -0.740515 0.00320768  0.108712 -0.694067 -4.76837e-07  0.0621742 -0.723618 0.00274038  0.0720471 -0.677699 -2.38419e-06  0.108829 -0.693844 0.00335526  0.0721868 -0.677487 0.00285435  0.0389383 -0.817834 -2.14577e-06  0.0784302 -0.835566 0.00293231  0.0895222 -0.787977 2.38419e-07  0.0390896 -0.817628 0.00250745  0.051002 -0.770533 -4.76837e-07  0.0896294 -0.78777 0.00306964  0.0511304 -0.770342 0.00262332  0.0121138 -0.913793 -7.15256e-07  0.0531225 -0.932524 0.0026648  0.0661486 -0.884019 4.76837e-07  0.0122471 -0.913611 0.00228882  0.0259974 -0.865567 -2.86102e-06  0.0662525 -0.88383 0.0027976  0.0261186 -0.865393 0.00239635  -0.0180849 -1.01134 -2.6226e-06  0.0242517 -1.03097 0.00241232  0.0390279 -0.981752 -2.6226e-06  -0.0179592 -1.01117 0.00207615  -0.00256324 -0.962365 -4.52995e-06  0.0391124 -0.981581 0.00253582  -0.00245333 -0.962214 0.0021801  -0.0512836 -1.11013 -7.15256e-07  -0.0077796 -1.13059 0.00217319  0.0085386 -1.08081 1.66893e-06  -0.0511655 -1.10998 0.00187612  -0.0343034 -1.06057 -2.38419e-07  0.00861287 -1.08065 0.00228977  -0.0342038 -1.06043 0.00197697  -0.0871333 -1.20989 -2.38419e-07  -0.0426239 -1.23109 0.00194788  -0.0249346 -1.18089 -1.90735e-06  -0.0870284 -1.20975 0.00168657  -0.0688694 -1.15988 -9.53674e-07  -0.0248675 -1.18074 0.00205779  -0.068782 -1.15976 0.00178242  -0.125317 -1.31038 -4.05312e-06  -0.0799313 -1.33224 0.00173354  -0.0610399 -1.28173 2.38419e-07  -0.125222 -1.31026 0.00150728  -0.105924 -1.26003 -1.43051e-06  -0.060982 -1.28159 0.00183916  -0.105843 -1.25992 0.00159597  -0.165535 -1.4114 -1.66893e-06  -0.119398 -1.43384 0.00153422  -0.0994506 -1.38311 -4.29153e-06  -0.165455 -1.4113 0.00133753  -0.145165 -1.36081 -1.19209e-06  -0.0994024 -1.38299 0.00163102  -0.145095 -1.36072 0.00142217  -0.207517 -1.5128 -4.29153e-06  -0.160726 -1.53572 0.00134754  -0.139877 -1.48486 -2.14577e-06  -0.207442 -1.5127 0.0011816  -0.186295 -1.46205 -2.38419e-07  -0.139839 -1.48475 0.00143671  -0.186237 -1.46196 0.00125647  -0.251012 -1.61443 7.15256e-07  -0.203666 -1.63774 0.00117278  -0.182036 -1.58682 -8.10623e-06  -0.250942 -1.61434 0.00102854  -0.229064 -1.56357 -2.14577e-06  -0.182006 -1.58672 0.00125456  -0.229012 -1.5635 0.00110173  -0.29578 -1.71615 -4.76837e-07  -0.24797 -1.73981 0.00100446  -0.225674 -1.68887 -5.24521e-06  -0.29572 -1.71607 0.000888586  -0.273221 -1.66526 -2.6226e-06  -0.225656 -1.68877 0.00108576  -0.273182 -1.66519 0.000956535  -0.341614 -1.81787 -2.6226e-06  -0.293406 -1.8418 0.000859737  -0.270563 -1.7909 -9.53674e-07  -0.341565 -1.8178 0.000759602  -0.31855 -1.76699 0  -0.270551 -1.79081 0.000929117  -0.318513 -1.76694 0.000826359  -0.388328 -1.91952 -1.90735e-06  -0.339793 -1.94366 0.000724077  -0.316494 -1.89283 -9.53674e-07  -0.388284 -1.91945 0.0006423  -0.364848 -1.86869 1.43051e-06  -0.316491 -1.89275 0.000786543  -0.364823 -1.86864 0.000701666  -0.43574 -2.02101 -2.86102e-06  -0.386936 -2.04531 0.000593662  -0.363277 -1.99458 -1.90735e-06  -0.435696 -2.02095 0.000533104  -0.411927 -1.97027 4.76837e-07  -0.363276 -1.99451 0.000658989  -0.411909 -1.97022 0.000584126  -0.483687 -2.1223 1.90735e-06  -0.434677 -2.1467 0.000483751  -0.410733 -2.0961 3.09944e-06  -0.483656 -2.12225 0.000430346  -0.459629 -2.07167 -4.76837e-07  -0.410739 -2.09604 0.000537157  -0.459612 -2.07163 0.000482321  -0.532038 -2.22333 0  -0.482863 -2.24779 0.000377178  -0.458706 -2.19734 2.38419e-06  -0.532007 -2.22328 0.00034523  -0.507799 -2.17283 0  -0.458722 -2.19728 0.000428915  -0.507787 -2.17279 0.000386477  -0.580675 -2.32408 9.53674e-07  -0.531368 -2.34857 0.000292063  -0.507067 -2.29827 0  -0.580644 -2.32403 0.000264645  -0.556303 -2.27372 7.15256e-07  -0.507079 -2.29822 0.000334263  -0.556296 -2.27369 0.000303745  -0.62947 -2.42451 -2.38419e-06  -0.58008 -2.449 0.000201464  -0.555682 -2.39888 1.43051e-06  -0.629446 -2.42447 0.000192642  -0.605032 -2.37431 4.52995e-06  -0.555701 -2.39883 0.000248432  -0.605028 -2.37429 0.000228882  -0.678349 -2.52463 5.24521e-06  -0.628889 -2.5491 0.000145674  -0.604454 -2.49914 2.86102e-06  -0.678322 -2.52459 0.000133991  -0.653876 -2.47459 1.19209e-06  -0.604472 -2.49909 0.00017333  -0.653873 -2.47457 0.000163555  -0.727222 -2.62442 1.66893e-06  -0.677725 -2.64887 9.03606e-05  -0.653286 -2.59907 2.14577e-06  -0.727209 -2.62438 7.86781e-05  -0.702764 -2.57455 9.53674e-07  -0.653302 -2.59902 0.000113964  -0.702764 -2.57452 0.000104904  -0.776067 -2.72391 -1.66893e-06  -0.72654 -2.74832 3.83854e-05  -0.702111 -2.69867 1.90735e-06  -0.776047 -2.72387 2.74181e-05  -0.751627 -2.67419 9.53674e-07  -0.702129 -2.69863 6.03199e-05  -0.75163 -2.67416 5.55515e-05  -0.824844 -2.82315 1.19209e-06  -0.775317 -2.84756 -8.10623e-06  -0.750904 -2.79801 0  -0.824819 -2.8231 -1.28746e-05  -0.800441 -2.77353 -1.19209e-06  -0.75093 -2.79795 9.53674e-06  -0.800439 -2.77351 1.14441e-05  0.0280326 -0.0505077 3.33786e-06  0 0 0  0.038713 -0.0625511 0.00319242  0.0168827 -0.0400672 2.38419e-06  0 0 0  0.0280746 -0.0502974 0.00285912  0.0104033 -0.0274639 -1.90735e-06  0 0 0  0.0168779 -0.0399028 0.00172806  0.0104062 -0.0273624 0.00152421  0.0628237 -0.0916587 -2.6226e-06  0.0758363 -0.102404 0.00532436  0.0573317 -0.0824314 -1.19209e-06  0.0629499 -0.0913501 0.00474739  0.0456737 -0.0707894 1.66893e-06  0.0573834 -0.0821181 0.0044198  0.0457502 -0.0705595 0.00394845  0.0947038 -0.137939 -1.90735e-06  0.110888 -0.148438 0.00631785  0.0936391 -0.124642 -3.33786e-06  0.0948872 -0.137597 0.00562882  0.0792765 -0.113741 0  0.093777 -0.124292 0.00593138  0.0794253 -0.113457 0.00529647  0.12173 -0.192681 -2.6226e-06  0.141448 -0.203531 0.00655985  0.126699 -0.175127 1.90735e-06  0.12193 -0.192335 0.00583839  0.108939 -0.16416 -2.6226e-06  0.126873 -0.174782 0.00650501  0.109119 -0.163853 0.00579357  0.142734 -0.255881 2.14577e-06  0.165911 -0.267457 0.0064249  0.154328 -0.234739 2.38419e-06  0.142927 -0.255542 0.00571299  0.133049 -0.223221 2.38419e-07  0.154513 -0.234411 0.00652432  0.133234 -0.222912 0.00580454  0.157222 -0.326661 1.90735e-06  0.183649 -0.339182 0.00611758  0.175479 -0.302701 -1.66893e-06  0.15741 -0.326331 0.00543141  0.150826 -0.290347 -1.66893e-06  0.175646 -0.302395 0.00628257  0.150997 -0.290047 0.00558376  0.165165 -0.403932 -1.66893e-06  0.194559 -0.417525 0.00573325  0.189799 -0.377877 1.66893e-06  0.165349 -0.403617 0.00508976  0.162029 -0.364509 -4.76837e-07  0.189957 -0.377583 0.00592709  0.162194 -0.364222 0.00526524  0.166779 -0.486624 -4.29153e-06  0.198847 -0.501357 0.00532675  0.19737 -0.459086 -2.86102e-06  0.166955 -0.486333 0.00472856  0.166772 -0.44462 -3.8147e-06  0.19752 -0.45881 0.00553036  0.166929 -0.444353 0.00490952  0.162421 -0.573781 -1.43051e-06  0.196866 -0.589658 0.00490928  0.198476 -0.545251 -4.76837e-06  0.162586 -0.57352 0.00436568  0.165344 -0.529665 -1.66893e-06  0.198619 -0.544993 0.00511694  0.1655 -0.529417 0.00454664  0.152508 -0.664569 -1.66893e-06  0.189079 -0.681559 0.00451469  0.193549 -0.635429 4.76837e-07  0.152669 -0.664334 0.00401568  0.158156 -0.618739 -3.09944e-06  0.193677 -0.635197 0.00471449  0.1583 -0.618514 0.0041883  0.137506 -0.758285 -7.15256e-07  0.175953 -0.776333 0.00412202  0.18304 -0.728837 4.76837e-06  0.13766 -0.758069 0.00367212  0.145644 -0.711073 0  0.183159 -0.728624 0.00431871  0.145779 -0.71087 0.00384355  0.117878 -0.854325 -2.38419e-07  0.157979 -0.87337 0.00375819  0.167432 -0.824788 1.66893e-06  0.118024 -0.854131 0.00334501  0.128268 -0.806021 -7.15256e-07  0.167547 -0.824599 0.00393796  0.128398 -0.805834 0.00351  0.0940744 -0.952198 -1.19209e-06  0.135628 -0.972156 0.00340343  0.147216 -0.922743 -6.4373e-06  0.0942135 -0.95202 0.00303817  0.106495 -0.903035 0  0.147323 -0.922568 0.00357556  0.106616 -0.902869 0.00319123  0.0665319 -1.05148 -1.19209e-06  0.109353 -1.07227 0.00307035  0.122863 -1.02222 -7.15256e-07  0.0666623 -1.05132 0.00274158  0.0807742 -1.00166 7.15256e-07  0.122958 -1.02207 0.00323129  0.0808843 -1.00151 0.00288796  0.0356597 -1.15185 -2.6226e-06  0.0795934 -1.17339 0.00275254  0.0948063 -1.12287 1.43051e-06  0.0357735 -1.15171 0.00246286  0.051519 -1.10153 -4.76837e-07  0.0948905 -1.12272 0.00290632  0.0516157 -1.1014 0.00260377  0.00183344 -1.25302 -2.14577e-06  0.0467443 -1.27521 0.00246239  0.0634642 -1.22436 -1.43051e-06  0.00194001 -1.25289 0.00220609  0.0191191 -1.20233 -2.6226e-06  0.0635331 -1.22423 0.00260735  0.0192083 -1.20221 0.00233173  -0.0345955 -1.35476 -4.76837e-06  0.0111549 -1.37752 0.00218201  0.029213 -1.32644 7.15256e-07  -0.034497 -1.35464 0.00196004  -0.0160511 -1.30381 1.66893e-06  0.0292666 -1.32632 0.00231791  -0.0159736 -1.3037 0.00208116  -0.0732913 -1.45686 -7.15256e-07  -0.0268147 -1.48013 0.00192952  -0.00759649 -1.42891 -1.66893e-06  -0.0732083 -1.45676 0.00172925  -0.0536518 -1.40575 -2.14577e-06  -0.00754428 -1.4288 0.00205302  -0.0535796 -1.40566 0.00184345  -0.113963 -1.55918 -4.76837e-07  -0.0668633 -1.58284 0.00168061  -0.0466332 -1.53158 -1.19209e-06  -0.113889 -1.55908 0.00151277  -0.0933723 -1.50798 -9.53674e-07  -0.0465903 -1.53147 0.00180149  -0.093312 -1.5079 0.00162125  -0.156339 -1.66156 -5.00679e-06  -0.108696 -1.68556 0.00146031  -0.0876 -1.6343 -4.76837e-07  -0.156271 -1.66147 0.00131345  -0.134929 -1.61034 -5.00679e-06  -0.0875702 -1.63421 0.00156784  -0.134879 -1.61027 0.00140858  -0.200162 -1.76391 -6.4373e-06  -0.152064 -1.78817 0.00125265  -0.130229 -1.73697 -5.24521e-06  -0.200099 -1.76383 0.00112844  -0.17806 -1.71272 -4.76837e-06  -0.1302 -1.73689 0.00134778  -0.178016 -1.71266 0.0012176  -0.245201 -1.86612 -7.15256e-07  -0.19672 -1.8906 0.00106049  -0.174258 -1.83949 -1.66893e-06  -0.245145 -1.86606 0.00096035  -0.222516 -1.81502 -2.38419e-07  -0.174245 -1.83942 0.00115204  -0.222477 -1.81496 0.00104284  -0.291249 -1.96814 7.15256e-07  -0.242467 -1.99275 0.000883579  -0.219481 -1.94178 7.15256e-07  -0.291209 -1.96808 0.000803232  -0.268085 -1.91714 2.14577e-06  -0.219473 -1.94171 0.000970602  -0.268058 -1.91709 0.000879526  -0.33812 -2.0699 -2.14577e-06  -0.289092 -2.0946 0.000725269  -0.265672 -2.04378 -2.38419e-07  -0.338084 -2.06984 0.000658512  -0.314564 -2.01904 -4.76837e-06  -0.265678 -2.04371 0.000799656  -0.314549 -2.01899 0.000727415  -0.385651 -2.17135 -2.38419e-07  -0.336416 -2.19609 0.000582933  -0.312666 -2.14545 4.52995e-06  -0.385612 -2.1713 0.000534058  -0.361789 -2.12065 1.66893e-06  -0.312671 -2.14539 0.000648499  -0.361771 -2.12061 0.000593901  -0.433666 -2.27247 -1.90735e-06  -0.384298 -2.29721 0.000452995  -0.360281 -2.24675 5.72205e-06  -0.433644 -2.27242 0.000417471  -0.40958 -2.22194 4.52995e-06  -0.360295 -2.2467 0.000519991  -0.409572 -2.2219 0.000474691  -0.482049 -2.37324 4.76837e-06  -0.432573 -2.39794 0.000342607  -0.408375 -2.34768 6.91414e-06  -0.482029 -2.37319 0.000314951  -0.457798 -2.32288 3.33786e-06  -0.408388 -2.34762 0.000400543  -0.457792 -2.32285 0.000365496  -0.530676 -2.47364 4.29153e-06  -0.481133 -2.49829 0.000243425  -0.456802 -2.44821 0  -0.530653 -2.4736 0.000223398  -0.506314 -2.42347 4.76837e-07  -0.456825 -2.44816 0.000293732  -0.506313 -2.42344 0.000269413  -0.579435 -2.57369 3.09944e-06  -0.529856 -2.59826 0.000174522  -0.505456 -2.54836 4.76837e-06  -0.579414 -2.57365 0.000154018  -0.555018 -2.52369 3.57628e-06  -0.505479 -2.54831 0.000211239  -0.555019 -2.52367 0.000188828  -0.628234 -2.6734 4.52995e-06  -0.578657 -2.69788 0.000113249  -0.554227 -2.64815 2.14577e-06  -0.628223 -2.67336 9.65595e-05  -0.603807 -2.62357 5.48363e-06  -0.554251 -2.64811 0.000132322  -0.603812 -2.62354 0.000123978  -0.677038 -2.77283 1.43051e-06  -0.627453 -2.79725 5.31673e-05  -0.603029 -2.74765 7.39098e-06  -0.677015 -2.77278 4.1008e-05  -0.65261 -2.72312 3.33786e-06  -0.603057 -2.74759 7.77245e-05  -0.652615 -2.7231 6.84261e-05  -0.725833 -2.87204 2.6226e-06  -0.676273 -2.89647 8.58307e-06  -0.651821 -2.84691 -9.53674e-07  -0.72582 -2.872 -1.16825e-05  -0.701401 -2.82242 1.43051e-06  -0.651847 -2.84686 2.21729e-05  -0.701408 -2.8224 1.81198e-05  -0.0430762 -0.0374332 0.00440383  -0.0221906 -0.0233143 0.00503016  0 0 0  -0.0264104 -0.0268545 0.00768566  0 0 0  -0.0170381 -0.0188058 0.00317216  -0.00687657 -0.00708112 0.00351  0 0 0  -0.0225367 -0.0236557 0.00247812  -0.0265743 -0.0275062 0.00379062  -0.0100463 -0.0122337 0.00422525  0 0 0  -0.00689574 -0.00731265 0.00173259  -0.0100949 -0.0125061 0.00208545  -0.0808663 -0.0617488 0.00706363  -0.0611843 -0.0483881 0.0120301  -0.0608703 -0.0528723 0.0123777  -0.0454208 -0.0475012 0.00519633  -0.0306106 -0.0318781 0.00877428  -0.0617552 -0.0494193 0.00592923  -0.0611508 -0.0540891 0.00612164  -0.0434706 -0.0394495 0.0103884  -0.0307036 -0.0327542 0.00433278  -0.0437139 -0.0404538 0.00512862  -0.120426 -0.0901355 0.00828958  -0.0999374 -0.0736778 0.0158434  -0.0963172 -0.0836711 0.014483  -0.0761115 -0.0812962 0.00613499  -0.060388 -0.0622768 0.0116706  -0.100414 -0.0751484 0.0078423  -0.0966276 -0.0851358 0.0071969  -0.0784564 -0.0673606 0.013721  -0.060594 -0.0635518 0.00578833  -0.0787614 -0.0687688 0.00680041  -0.161064 -0.125248 0.00841856  -0.140247 -0.105154 0.0169921  -0.132675 -0.121787 0.0146618  -0.108045 -0.122107 0.00624681  -0.0916058 -0.0993989 0.012578  -0.140674 -0.106785 0.00845957  -0.133039 -0.123272 0.00732136  -0.114382 -0.101765 0.0147548  -0.0919189 -0.100806 0.00627089  -0.114726 -0.103299 0.00735188  -0.201854 -0.167364 0.00791597  -0.181008 -0.14387 0.0164304  -0.169706 -0.16699 0.013732  -0.14118 -0.169781 0.00586605  -0.124029 -0.143759 0.0121765  -0.181473 -0.145455 0.00821757  -0.170169 -0.168368 0.00687957  -0.151103 -0.14351 0.0142846  -0.124463 -0.145121 0.00609517  -0.15153 -0.14499 0.00714922  -0.242516 -0.216006 0.00712061  -0.22166 -0.189487 0.0150199  -0.207248 -0.21854 0.012321  -0.175413 -0.223628 0.00526023  -0.157603 -0.194731 0.0111127  -0.222202 -0.19091 0.00752902  -0.207809 -0.219754 0.00618362  -0.188394 -0.191977 0.0130544  -0.15816 -0.195971 0.00557899  -0.188927 -0.193308 0.00654507  -0.283171 -0.270609 0.00627589  -0.262226 -0.241389 0.0133424  -0.245339 -0.275796 0.0108223  -0.21071 -0.283006 0.00461388  -0.192274 -0.251581 0.00983191  -0.262834 -0.24261 0.00669146  -0.245957 -0.276829 0.00543642  -0.226199 -0.246461 0.0115666  -0.19292 -0.252654 0.00494003  -0.22681 -0.24761 0.00580716  -0.324087 -0.330624 0.00547028  -0.302934 -0.29896 0.0116806  -0.284123 -0.338206 0.00941372  -0.247114 -0.347372 0.00399971  -0.22807 -0.313677 0.00855875  -0.30359 -0.299989 0.00586414  -0.284768 -0.33907 0.00472522  -0.264611 -0.306357 0.0100989  -0.228762 -0.314589 0.0042994  -0.265266 -0.307333 0.00507283  -0.36552 -0.395522 0.00475764  -0.344076 -0.361646 0.010169  -0.323772 -0.405269 0.00816631  -0.284734 -0.416251 0.00345564  -0.265062 -0.380501 0.00740337  -0.344732 -0.362502 0.00510335  -0.32441 -0.405992 0.00409889  -0.303806 -0.371156 0.0087676  -0.265763 -0.38127 0.00371647  -0.304471 -0.371972 0.0044024  -0.407667 -0.464833 0.00413442  -0.385862 -0.428952 0.00883627  -0.364419 -0.476537 0.00707531  -0.32363 -0.4892 0.00297356  -0.30333 -0.451595 0.00639248  -0.3865 -0.429662 0.00443339  -0.365027 -0.477141 0.00354743  -0.34394 -0.440379 0.00760317  -0.304014 -0.45224 0.00320983  -0.344586 -0.441061 0.00381565  -0.450658 -0.538119 0.00359464  -0.428453 -0.500416 0.00769043  -0.406147 -0.551601 0.00613213  -0.363849 -0.565822 0.00256944  -0.342925 -0.526535 0.00551796  -0.429056 -0.501012 0.00385642  -0.406711 -0.552106 0.00307393  -0.385119 -0.513593 0.00658464  -0.343569 -0.527071 0.00276637  -0.385728 -0.514166 0.00330114  -0.494549 -0.614989 0.0031209  -0.471937 -0.575636 0.00668669  -0.448975 -0.630083 0.00531101  -0.405383 -0.64573 0.00221682  -0.383855 -0.604933 0.0047636  -0.472497 -0.576135 0.00335097  -0.449492 -0.630506 0.00266075  -0.427401 -0.590413 0.0057106  -0.38445 -0.605383 0.002388  -0.427962 -0.590897 0.00286388  -0.539355 -0.695075 0.00270486  -0.516334 -0.654235 0.00580406  -0.492887 -0.711622 0.00459766  -0.448186 -0.728579 0.00190783  -0.42608 -0.686424 0.00410986  -0.516844 -0.654655 0.00290537  -0.493349 -0.71198 0.00230265  -0.470772 -0.670462 0.00494289  -0.426625 -0.686804 0.00205922  -0.471284 -0.670875 0.00247598  -0.585046 -0.778056 0.00233507  -0.561631 -0.735869 0.00502777  -0.537829 -0.79591 0.0039587  -0.492182 -0.814052 0.00163627  -0.469539 -0.770689 0.00353193  -0.562092 -0.736229 0.00251245  -0.538239 -0.79621 0.00198174  -0.515205 -0.753417 0.00426674  -0.470036 -0.771001 0.00176811  -0.515667 -0.753765 0.00213361  -0.631558 -0.863626 0.00201225  -0.607792 -0.820244 0.00433111  -0.583722 -0.882638 0.00340033  -0.537272 -0.901851 0.00139499  -0.514144 -0.857413 0.00302219  -0.608203 -0.820539 0.00216532  -0.584087 -0.882895 0.00169992  -0.560634 -0.838963 0.00367022  -0.514589 -0.857677 0.00151229  -0.561044 -0.83926 0.00183582  -0.67883 -0.951502 0.001719  -0.654735 -0.907048 0.0037241  -0.630476 -0.971544 0.00289917  -0.583349 -0.991708 0.00117993  -0.559791 -0.946318 0.00257111  -0.655102 -0.90729 0.00186849  -0.6308 -0.971759 0.00145078  -0.606972 -0.926815 0.0031395  -0.560189 -0.946534 0.00128722  -0.607335 -0.927065 0.00157094  -0.726762 -1.04142 0.00146556  -0.702385 -0.996015 0.00317144  -0.677996 -1.06236 0.00245047  -0.630298 -1.08337 0.000991821  -0.606364 -1.03714 0.00217009  -0.702715 -0.99622 0.00158525  -0.678272 -1.06255 0.00122762  -0.654122 -1.01671 0.00266218  -0.606719 -1.03733 0.00108671  -0.654443 -1.01692 0.00133443  -0.775259 -1.13314 0.00122356  -0.750654 -1.0869 0.00267267  -0.726171 -1.15488 0.00203943  -0.677995 -1.17662 0.000818729  -0.653748 -1.12966 0.00180626  -0.750944 -1.08707 0.00133657  -0.726403 -1.15502 0.00102067  -0.70198 -1.1084 0.00223875  -0.654052 -1.12981 0.000905037  -0.702261 -1.10858 0.00111938  -0.824244 -1.22644 0.00101304  -0.799447 -1.17947 0.00223064  -0.774887 -1.24886 0.00168037  -0.726324 -1.27123 0.000671148  -0.70181 -1.22364 0.00148582  -0.799697 -1.17961 0.00111985  -0.775088 -1.24898 0.000842333  -0.750441 -1.20167 0.00185299  -0.702084 -1.22376 0.00074625  -0.750679 -1.20182 0.000930786  -0.873597 -1.32112 0.000828505  -0.84866 -1.27351 0.00183487  -0.824045 -1.34409 0.00135946  -0.775167 -1.36701 0.000533581  -0.750448 -1.31888 0.00120258  -0.848874 -1.27362 0.000919104  -0.824216 -1.3442 0.000680447  -0.799392 -1.29631 0.00151825  -0.750683 -1.31898 0.000603676  -0.799598 -1.29643 0.000758648  -0.923233 -1.41696 0.000663996  -0.898198 -1.36882 0.00148058  -0.873538 -1.44042 0.00108194  -0.824408 -1.46378 0.000416279  -0.799539 -1.4152 0.000953197  -0.89838 -1.3689 0.000745773  -0.873677 -1.44049 0.000545263  -0.848728 -1.39211 0.00121737  -0.799739 -1.41528 0.000475645  -0.848903 -1.39221 0.000608444  -0.973069 -1.5138 0.00051713  -0.947978 -1.4652 0.00117064  -0.923276 -1.53765 0.000833988  -0.873951 -1.56137 0.000320673  -0.848973 -1.51242 0.000736237  -0.948125 -1.46527 0.00058651  -0.923384 -1.53771 0.000420094  -0.898357 -1.48891 0.000951767  -0.849144 -1.51248 0.000369549  -0.8985 -1.48899 0.000475407  -1.02302 -1.61148 0.000388861  -0.997902 -1.56249 0.000898361  -0.973166 -1.63562 0.000614643  -0.923693 -1.65965 0.000229359  -0.898653 -1.6104 0.000541687  -0.998033 -1.56254 0.000450134  -0.973253 -1.63568 0.000306606  -0.948184 -1.58653 0.00071907  -0.898797 -1.61043 0.000272274  -0.948297 -1.5866 0.000362635  -1.07301 -1.70982 0.000277042  -1.0479 -1.66054 0.000665188  -1.02312 -1.73421 0.000436783  -0.973545 -1.75846 0.000152349  -0.948488 -1.70897 0.000381947  -1.04801 -1.66058 0.000333071  -1.02319 -1.73424 0.00021863  -0.998118 -1.68483 0.00052166  -0.948604 -1.70899 0.000193119  -0.99821 -1.68488 0.00026226  -1.12296 -1.80869 0.000185728  -1.0979 -1.75918 0.000463963  -1.07309 -1.83324 0.000281334  -1.02344 -1.85766 8.70228e-05  -0.998388 -1.808 0.000244617  -1.09798 -1.75919 0.000232697  -1.07313 -1.83326 0.000140429  -1.04809 -1.78366 0.000354767  -0.998488 -1.80801 0.000119925  -1.04816 -1.78369 0.00017333  -1.17284 -1.90796 0.000109673  -1.14785 -1.85827 0.000299931  -1.12299 -1.93262 0.000161171  -1.0733 -1.95715 4.43459e-05  -1.04829 -1.90737 0.000136375  -1.14791 -1.85828 0.000147104  -1.12302 -1.93263 7.93934e-05  -1.09802 -1.88288 0.0002141  -1.04837 -1.90738 6.62804e-05  -1.09808 -1.88291 0.000107527  -1.2226 -2.00749 6.1512e-05  -1.19769 -1.95769 0.000175953  -1.17279 -2.03222 6.77109e-05  -1.12307 -2.05681 1.45435e-05  -1.09814 -2.00697 5.24521e-05  -1.19773 -1.9577 8.74996e-05  -1.1728 -2.03222 3.57628e-05  -1.14788 -1.98238 0.000108719  -1.0982 -2.00696 2.7895e-05  -1.14792 -1.9824 5.50747e-05  -1.2722 -2.10719 2.76566e-05  -1.24738 -2.05733 8.10623e-05  -1.22244 -2.13193 6.19888e-06  -1.17273 -2.15655 -1.66893e-05  -1.14787 -2.10669 -4.76837e-06  -1.24742 -2.05732 4.14848e-05  -1.22245 -2.13192 -2.38419e-07  -1.19761 -2.08205 3.62396e-05  -1.14792 -2.10668 -6.67572e-06  -1.19764 -2.08206 1.64509e-05  -1.32165 -2.20693 -3.8147e-06  -1.29691 -2.15708 1.23978e-05  -1.27193 -2.23165 -2.81334e-05  -1.22224 -2.25627 -2.12193e-05  -1.19746 -2.20643 -3.48091e-05  -1.29695 -2.15706 3.33786e-06  -1.27193 -2.23164 -1.66893e-05  -1.24719 -2.18178 -1.4782e-05  -1.1975 -2.20641 -1.90735e-05  -1.2472 -2.18178 -4.52995e-06  -1.37094 -2.30663 -1.33514e-05  -1.34629 -2.25681 -2.00272e-05  -1.32127 -2.33131 -3.86238e-05  -1.27158 -2.3559 -3.19481e-05  -1.24689 -2.30612 -5.34058e-05  -1.34631 -2.25679 -1.45435e-05  -1.32126 -2.3313 -2.26498e-05  -1.2966 -2.28148 -3.91006e-05  -1.24693 -2.3061 -2.86102e-05  -1.29661 -2.28148 -2.14577e-05  -1.42012 -2.40621 -1.3113e-05  -1.39551 -2.35647 -2.81334e-05  -1.37045 -2.43083 -4.33922e-05  -1.32077 -2.45539 -2.43187e-05  -1.29616 -2.40569 -5.53131e-05  -1.39554 -2.35644 -1.52588e-05  -1.37045 -2.43082 -2.0504e-05  -1.34586 -2.38107 -4.48227e-05  -1.29619 -2.40566 -2.76566e-05  -1.34586 -2.38107 -2.24113e-05  -1.46925 -2.50564 -1.69277e-05  -1.44464 -2.45597 -2.57492e-05  -1.41955 -2.5302 -3.67165e-05  -1.36987 -2.55472 -2.36034e-05  -1.34529 -2.5051 -4.19617e-05  -1.44467 -2.45594 -1.45435e-05  -1.41956 -2.53019 -1.83582e-05  -1.39499 -2.48052 -3.76701e-05  -1.34532 -2.50507 -2.24113e-05  -1.395 -2.48052 -1.74046e-05  -0.0120318 -0.0138972 0.00525713  0 0 0  -0.00822544 -0.0119436 0.00205135  -0.00326152 -0.00321513 0.00222158  0 0 0  -0.0120415 -0.0143446 0.00259757  -0.00459279 -0.00449927 0.0028348  0 0 0  -0.00326992 -0.00340277 0.00109768  -0.00459548 -0.00471506 0.00139928  -0.0331137 -0.0418152 0.00869226  -0.023293 -0.0398814 0.00342894  -0.015012 -0.0238742 0.00573778  -0.0331855 -0.0427506 0.00430465  -0.0217463 -0.0267073 0.0072279  -0.0150513 -0.0245286 0.0028379  -0.0217819 -0.0274601 0.00357246  -0.0581994 -0.0774916 0.0102482  -0.042892 -0.0773585 0.00408053  -0.0325555 -0.0566228 0.00773478  -0.0583818 -0.0786905 0.00509834  -0.0453438 -0.0586675 0.00968456  -0.0326872 -0.0576202 0.00383973  -0.0454722 -0.0598 0.00480604  -0.0852634 -0.120546 0.0103898  -0.065179 -0.122441 0.0041616  -0.0534741 -0.0978365 0.00836945  -0.085586 -0.121808 0.00519323  -0.0714962 -0.0980635 0.0104551  -0.0537414 -0.0989922 0.00417709  -0.0717588 -0.09935 0.00521684  -0.114042 -0.170545 0.00971413  -0.0897166 -0.174373 0.00389576  -0.076745 -0.14641 0.00809908  -0.114506 -0.171745 0.00487232  -0.0994222 -0.144682 0.0101185  -0.0771667 -0.147592 0.00406122  -0.0998325 -0.145956 0.00507092  -0.144502 -0.226727 0.0086813  -0.116448 -0.232407 0.003474  -0.102252 -0.201562 0.00735903  -0.145076 -0.227797 0.00435972  -0.129043 -0.197868 0.00921917  -0.102808 -0.202666 0.00369787  -0.129584 -0.199042 0.00462842  -0.176606 -0.288357 0.00757933  -0.145318 -0.295835 0.00302005  -0.129968 -0.26249 0.00645733  -0.177249 -0.289291 0.00380731  -0.160324 -0.256856 0.00812864  -0.130616 -0.263478 0.00324368  -0.160956 -0.257893 0.00408435  -0.210358 -0.354859 0.00654316  -0.176286 -0.364074 0.00258636  -0.159848 -0.32852 0.00556469  -0.211022 -0.355661 0.00329018  -0.193252 -0.320996 0.00705147  -0.160541 -0.32938 0.00279617  -0.19393 -0.321889 0.00354123  -0.245758 -0.425738 0.00562143  -0.209294 -0.436609 0.00220442  -0.191833 -0.399089 0.00475454  -0.246412 -0.426415 0.00282478  -0.227826 -0.389748 0.00606823  -0.192533 -0.399826 0.00238991  -0.228508 -0.39051 0.00304937  -0.282797 -0.500539 0.00482416  -0.244273 -0.512978 0.00186443  -0.225856 -0.473708 0.00404406  -0.28342 -0.501106 0.00242019  -0.264045 -0.462641 0.00520992  -0.226531 -0.474333 0.00203013  -0.264708 -0.463288 0.0026145  -0.321457 -0.578861 0.00414419  -0.28116 -0.592774 0.0015893  -0.261843 -0.551942 0.00343895  -0.322035 -0.579338 0.00207543  -0.301899 -0.539252 0.00446939  -0.262481 -0.552468 0.00172138  -0.302527 -0.539799 0.00224066  -0.361677 -0.660332 0.00355005  -0.319853 -0.67562 0.00134635  -0.299692 -0.63339 0.00291777  -0.362202 -0.660733 0.00177813  -0.341348 -0.61919 0.00383377  -0.300282 -0.633837 0.00146103  -0.341924 -0.619656 0.00192118  -0.403364 -0.744599 0.00303698  -0.360236 -0.761161 0.0011363  -0.339295 -0.717694 0.00247669  -0.403845 -0.744938 0.00151944  -0.382312 -0.702105 0.00328588  -0.339835 -0.71807 0.00124049  -0.382839 -0.702497 0.00164509  -0.44642 -0.831354 0.00258493  -0.402169 -0.849085 0.000956297  -0.380519 -0.804521 0.00208426  -0.446851 -0.831646 0.00129557  -0.424703 -0.787657 0.00280571  -0.381011 -0.804839 0.00104189  -0.425177 -0.787992 0.00140381  -0.490721 -0.92031 0.00218678  -0.445501 -0.939091 0.000798464  -0.423225 -0.893571 0.00174379  -0.491098 -0.920553 0.0010972  -0.468398 -0.875554 0.00238085  -0.423665 -0.893841 0.000872374  -0.468821 -0.875835 0.00119233  -0.536138 -1.0112 0.00184011  -0.490099 -1.03093 0.000659227  -0.467253 -0.984571 0.00145197  -0.53647 -1.0114 0.000919104  -0.51327 -0.965505 0.00200844  -0.467649 -0.984794 0.000727654  -0.513646 -0.965745 0.00100565  -0.582536 -1.10377 0.00153017  -0.535807 -1.12435 0.000537634  -0.512466 -1.07727 0.001194  -0.582829 -1.10395 0.000766754  -0.559194 -1.05726 0.00167704  -0.512819 -1.07745 0.000595331  -0.559531 -1.05747 0.000838518  -0.629783 -1.19782 0.00125122  -0.582459 -1.21913 0.00042963  -0.558709 -1.17143 0.000961304  -0.63003 -1.19796 0.000624418  -0.606035 -1.1506 0.00138426  -0.559018 -1.17158 0.000479937  -0.606326 -1.15077 0.000690937  -0.677744 -1.29312 0.00100565  -0.629927 -1.31507 0.000333786  -0.605827 -1.26684 0.000763893  -0.677953 -1.29323 0.000501871  -0.653654 -1.2453 0.00112581  -0.606094 -1.26696 0.000381708  -0.653905 -1.24544 0.000560284  -0.726285 -1.38949 0.00079155  -0.678064 -1.412 0.000251055  -0.653678 -1.36333 0.000586033  -0.726467 -1.38959 0.000396729  -0.701922 -1.34116 0.000895023  -0.653913 -1.36342 0.00029397  -0.702138 -1.34128 0.000448227  -0.775298 -1.48677 0.000608444  -0.726737 -1.50974 0.000182152  -0.702134 -1.4607 0.000435829  -0.775442 -1.48684 0.000303507  -0.750716 -1.43801 0.000692368  -0.702334 -1.46078 0.000216246  -0.750898 -1.43811 0.000344992  -0.824658 -1.58478 0.000441074  -0.775824 -1.60815 0.000122309  -0.751059 -1.55881 0.000311375  -0.824774 -1.58484 0.00022006  -0.799913 -1.53567 0.00052166  -0.751231 -1.55887 0.00015521  -0.800064 -1.53575 0.000261545  -0.87427 -1.68339 0.00030756  -0.825211 -1.70708 7.39098e-05  -0.800336 -1.65751 0.000189781  -0.874355 -1.68343 0.00015521  -0.849412 -1.634 0.000370026  -0.800479 -1.65755 9.82285e-05  -0.849534 -1.63407 0.000184298  -0.924026 -1.78246 0.000191212  -0.874804 -1.8064 3.67165e-05  -0.849861 -1.75667 0.000106335  -0.924094 -1.78249 9.63211e-05  -0.899105 -1.73286 0.000242233  -0.849981 -1.75669 5.38826e-05  -0.899206 -1.73291 0.00012207  -0.973856 -1.88187 9.15527e-05  -0.924505 -1.906 -3.57628e-06  -0.899537 -1.85615 3.19481e-05  -0.973906 -1.88189 4.31538e-05  -0.94891 -1.83211 0.000137329  -0.899637 -1.85617 1.64509e-05  -0.94899 -1.83215 6.84261e-05  -1.02368 -1.98151 2.09808e-05  -0.974236 -2.00577 -2.67029e-05  -0.949282 -1.95586 -2.71797e-05  -1.02372 -1.98151 1.14441e-05  -0.998748 -1.93165 5.53131e-05  -0.949363 -1.95587 -1.33514e-05  -0.998808 -1.93168 2.83718e-05  -1.07344 -2.08127 -2.6226e-05  -1.02393 -2.10563 -3.62396e-05  -0.99902 -2.0557 -6.58035e-05  -1.07346 -2.08127 -1.26362e-05  -1.04855 -2.03136 -1.90735e-06  -0.999086 -2.0557 -3.38554e-05  -1.04859 -2.03138 -1.90735e-06  -1.1231 -2.18106 -5.67436e-05  -1.07354 -2.20548 -4.88758e-05  -1.04869 -2.15557 -8.53539e-05  -1.12311 -2.18105 -3.33786e-05  -1.09826 -2.13115 -4.72069e-05  -1.04875 -2.15556 -4.33922e-05  -1.0983 -2.13116 -2.52724e-05  -1.17261 -2.2808 -7.10487e-05  -1.12302 -2.30527 -4.64916e-05  -1.09825 -2.2554 -9.05991e-05  -1.17261 -2.2808 -4.1008e-05  -1.14785 -2.23092 -6.81877e-05  -1.0983 -2.25538 -5.00679e-05  -1.14787 -2.23093 -3.3617e-05  -1.22196 -2.38044 -6.38962e-05  -1.17235 -2.40492 -4.02927e-05  -1.14766 -2.35512 -8.58307e-05  -1.22195 -2.38043 -3.12328e-05  -1.19728 -2.33062 -7.10487e-05  -1.1477 -2.35511 -4.43459e-05  -1.19729 -2.33063 -3.33786e-05  -1.27114 -2.47992 -5.8651e-05  -1.2215 -2.50438 -3.3617e-05  -1.19691 -2.45469 -7.05719e-05  -1.27112 -2.4799 -2.74181e-05  -1.24654 -2.43018 -6.00815e-05  -1.19694 -2.45467 -3.29018e-05  -1.24655 -2.43018 -3.19481e-05  -1.32021 -2.57921 -4.19617e-05  -1.27053 -2.60364 -2.31266e-05  -1.246 -2.55407 -5.14984e-05  -1.32019 -2.5792 -2.0504e-05  -1.29566 -2.52958 -4.62532e-05  -1.24602 -2.55404 -2.6226e-05  -1.29566 -2.52957 -2.40803e-05  -0.00514554 -0.0106408 0.00308228  0 0 0  -0.00252435 -0.0109725 0.0010097  -0.00101237 -0.00278869 0.00107813  0 0 0  -0.00516559 -0.0109745 0.00152421  -0.00202018 -0.00273302 0.00164175  0 0 0  -0.00102673 -0.00293657 0.000535011  -0.0020272 -0.00290358 0.000812292  -0.0150238 -0.0380299 0.0051856  -0.00783964 -0.0389922 0.0017283  -0.00468509 -0.0227984 0.00284672  -0.0151032 -0.0387315 0.00257206  -0.00949349 -0.0226944 0.00427532  -0.00476688 -0.0232948 0.00141311  -0.00954346 -0.0232617 0.0021143  -0.0289994 -0.0763815 0.00617981  -0.016666 -0.0785727 0.00209522  -0.0116423 -0.0568099 0.00392675  -0.029182 -0.0773297 0.00307965  -0.021565 -0.0560317 0.00581741  -0.0118151 -0.0575981 0.00195456  -0.0216958 -0.056914 0.00288987  -0.0461128 -0.122998 0.00628996  -0.0289089 -0.126698 0.00214767  -0.0220717 -0.100714 0.00430202  -0.0464315 -0.124062 0.00314927  -0.037182 -0.0987062 0.00631857  -0.0223685 -0.101681 0.00215316  -0.0374424 -0.0997627 0.00315738  -0.0660281 -0.176678 0.00585175  -0.0444509 -0.181896 0.00199294  -0.0358407 -0.15243 0.00415325  -0.066489 -0.177739 0.00293899  -0.0557057 -0.148972 0.00611067  -0.0362657 -0.15347 0.00208569  -0.0561131 -0.150079 0.00306559  -0.0887141 -0.236555 0.00517464  -0.0632387 -0.243276 0.00174069  -0.0528948 -0.21085 0.00372028  -0.0892739 -0.237538 0.00260425  -0.0770081 -0.205852 0.00552797  -0.0534363 -0.211856 0.00187612  -0.0775379 -0.206911 0.00278115  -0.114109 -0.301852 0.0044508  -0.0852031 -0.310083 0.00146723  -0.0732087 -0.275101 0.00318384  -0.114725 -0.302732 0.00223994  -0.101054 -0.268523 0.00481033  -0.0738251 -0.276034 0.00160408  -0.101667 -0.269493 0.00241923  -0.142115 -0.371934 0.00376654  -0.110214 -0.381668 0.00120425  -0.0966771 -0.344468 0.0026474  -0.142759 -0.372707 0.00189281  -0.127765 -0.336289 0.00409698  -0.0973311 -0.345307 0.00133276  -0.12842 -0.337149 0.00205946  -0.172622 -0.446255 0.00315809  -0.138119 -0.457462 0.000980377  -0.123152 -0.418334 0.00216436  -0.173254 -0.446921 0.00158763  -0.15704 -0.408559 0.00345182  -0.123811 -0.419067 0.00109029  -0.1577 -0.409308 0.00173593  -0.205496 -0.524327 0.00264406  -0.168728 -0.536978 0.000785351  -0.152456 -0.496149 0.00174475  -0.206094 -0.524898 0.00132751  -0.188747 -0.484818 0.00289202  -0.153092 -0.49678 0.00087738  -0.189381 -0.485457 0.00145245  -0.240593 -0.605724 0.00219965  -0.201871 -0.619751 0.000627518  -0.184396 -0.577435 0.00139236  -0.241152 -0.60621 0.00110197  -0.222753 -0.564607 0.00241327  -0.184989 -0.577978 0.000701666  -0.22335 -0.565156 0.0012114  -0.277767 -0.690057 0.00183058  -0.237355 -0.705378 0.000488043  -0.218768 -0.66176 0.00110102  -0.278275 -0.690467 0.000919819  -0.258904 -0.647517 0.0020051  -0.219328 -0.662223 0.000552416  -0.259459 -0.647988 0.0010066  -0.316851 -0.776959 0.00151587  -0.274983 -0.793499 0.000373125  -0.255398 -0.748748 0.0008564  -0.317318 -0.777319 0.000756979  -0.297053 -0.733181 0.0016675  -0.255908 -0.749144 0.000429153  -0.297561 -0.733586 0.00083518  -0.357685 -0.866126 0.00123882  -0.314556 -0.883787 0.000283718  -0.294067 -0.838043 0.000657082  -0.3581 -0.866431 0.000619888  -0.337038 -0.821256 0.00136995  -0.294531 -0.838384 0.000329256  -0.337495 -0.821603 0.000684261  -0.400095 -0.957269 0.00100374  -0.355873 -0.975942 0.000202656  -0.334583 -0.929358 0.000484943  -0.400456 -0.957523 0.000501156  -0.378677 -0.911443 0.00111723  -0.335002 -0.929644 0.000240803  -0.379089 -0.911743 0.000558615  -0.443896 -1.05012 0.000802517  -0.398748 -1.06971 0.000141382  -0.376751 -1.0224 0.00034523  -0.444219 -1.05033 0.00039959  -0.421805 -1.00347 0.000900745  -0.377123 -1.02264 0.0001719  -0.422167 -1.00372 0.000449896  -0.48893 -1.14444 0.000620842  -0.442984 -1.16486 8.36849e-05  -0.420368 -1.11692 0.000220776  -0.489216 -1.14462 0.000310659  -0.466245 -1.09708 0.000706673  -0.420701 -1.11712 0.000110388  -0.466569 -1.0973 0.000350952  -0.535034 -1.24002 0.000475883  -0.488406 -1.26116 3.71933e-05  -0.465255 -1.21271 0.000123501  -0.535274 -1.24017 0.000239849  -0.511836 -1.19206 0.000545979  -0.465552 -1.21287 5.93662e-05  -0.512116 -1.19225 0.000272989  -0.582035 -1.33666 0.000335217  -0.534824 -1.35844 2.86102e-06  -0.511239 -1.30954 3.8147e-05  -0.582237 -1.33678 0.000168085  -0.558401 -1.28819 0.000403404  -0.511495 -1.30969 1.95503e-05  -0.558646 -1.28835 0.000202179  -0.629787 -1.43419 0.000222683  -0.582098 -1.45651 -3.05176e-05  -0.558136 -1.40727 -3.24249e-05  -0.629958 -1.43428 0.000111103  -0.605798 -1.3853 0.000281811  -0.558359 -1.40738 -1.7643e-05  -0.606007 -1.38543 0.000138521  -0.67815 -1.53244 0.000135422  -0.630048 -1.55523 -5.57899e-05  -0.605799 -1.50571 -8.4877e-05  -0.678287 -1.53251 6.7234e-05  -0.653871 -1.48321 0.000175953  -0.60599 -1.5058 -4.19617e-05  -0.65405 -1.48332 8.53539e-05  -0.726985 -1.63127 5.38826e-05  -0.678546 -1.65446 -7.41482e-05  -0.654071 -1.60472 -0.000128269  -0.727096 -1.63133 2.81334e-05  -0.702485 -1.58177 8.96454e-05  -0.654232 -1.60479 -6.36578e-05  -0.702636 -1.58185 4.41074e-05  -0.776175 -1.73055 -8.58307e-06  -0.727467 -1.75406 -8.53539e-05  -0.702819 -1.70416 -0.000152111  -0.776261 -1.7306 -4.76837e-07  -0.751515 -1.68084 2.3365e-05  -0.702955 -1.70421 -7.67708e-05  -0.751634 -1.68091 1.26362e-05  -0.825608 -1.83015 -5.38826e-05  -0.776675 -1.85392 -9.03606e-05  -0.751915 -1.80392 -0.00017786  -0.825677 -1.83019 -2.59876e-05  -0.80084 -1.7803 -3.33786e-05  -0.752036 -1.80396 -9.01222e-05  -0.800938 -1.78036 -1.4782e-05  -0.875196 -1.92998 -0.00010252  -0.826085 -1.95395 -9.34601e-05  -0.80127 -1.9039 -0.000191212  -0.875237 -1.93 -5.26905e-05  -0.850362 -1.88003 -7.77245e-05  -0.801356 -1.90392 -9.5129e-05  -0.850441 -1.88007 -3.88622e-05  -0.924839 -2.02992 -0.000113964  -0.875594 -2.05405 -9.2268e-05  -0.850749 -2.00398 -0.000190735  -0.924868 -2.02994 -5.74589e-05  -0.899984 -1.97992 -0.000110149  -0.850825 -2.00399 -9.98974e-05  -0.900046 -1.97996 -5.57899e-05  -0.974474 -2.1299 -0.000123978  -0.925126 -2.15414 -9.01222e-05  -0.900295 -2.10409 -0.000181675  -0.974492 -2.12991 -6.17504e-05  -0.949636 -2.07989 -0.000120163  -0.900354 -2.1041 -8.9407e-05  -0.949683 -2.07992 -6.4373e-05  -1.02404 -2.22984 -0.000118256  -0.974614 -2.25416 -8.03471e-05  -0.949825 -2.20416 -0.000164986  -1.02405 -2.22984 -5.93662e-05  -0.999248 -2.17986 -0.000122547  -0.949872 -2.20416 -8.22544e-05  -0.999279 -2.17988 -6.07967e-05  -1.0735 -2.32968 -0.000113964  -1.02401 -2.35404 -6.55651e-05  -0.99928 -2.30413 -0.000144958  -1.07349 -2.32967 -6.19888e-05  -1.04876 -2.27976 -0.000117779  -0.999319 -2.30412 -7.39098e-05  -1.04878 -2.27977 -5.93662e-05  -1.1228 -2.42934 -8.86917e-05  -1.07327 -2.45374 -4.31538e-05  -1.04862 -2.40392 -0.000114441  -1.1228 -2.42934 -4.43459e-05  -1.09814 -2.37952 -9.63211e-05  -1.04865 -2.40391 -6.34193e-05  -1.09816 -2.37952 -4.95911e-05  -1.17195 -2.52882 -6.05583e-05  -1.12238 -2.55321 -3.31402e-05  -1.09781 -2.50352 -7.9155e-05  -1.17193 -2.52881 -3.26633e-05  -1.14737 -2.47909 -7.53403e-05  -1.09784 -2.5035 -4.26769e-05  -1.14738 -2.4791 -3.88622e-05  -1.22092 -2.62805 -3.91006e-05  -1.17131 -2.65243 -1.04904e-05  -1.14683 -2.60288 -4.52995e-05  -1.2209 -2.62804 -1.71661e-05  -1.19643 -2.57845 -4.76837e-05  -1.14686 -2.60286 -2.28882e-05  -1.19643 -2.57846 -2.36034e-05  -2.40132e-05 -0.0114846 0.00101852  0 0 0  0.00226521 -0.0131527 2.36034e-05  0.000883259 -0.00401017 -1.43051e-06  0 0 0  -7.8246e-05 -0.0117359 0.000512123  -4.01363e-05 -0.00322765 0.000534534  0 0 0  0.000858419 -0.00412318 4.05312e-06  -5.79134e-05 -0.00335869 0.000268221  -0.00100121 -0.0399008 0.00180101  0.0052737 -0.0429875 9.03606e-05  0.00399372 -0.0259842 7.53403e-05  -0.00114858 -0.0404552 0.000897646  -0.000258118 -0.0239379 0.00144482  0.00385857 -0.0263838 4.86374e-05  -0.000358403 -0.0243794 0.000723124  -0.00471428 -0.0802204 0.00223398  0.00631234 -0.0845677 0.000170469  0.00641829 -0.0618882 0.000247955  -0.00496501 -0.0810063 0.00111437  -0.00244614 -0.0587888 0.00206804  0.00615963 -0.0625565 0.000132084  -0.00265184 -0.0595078 0.00103283  -0.0119245 -0.129414 0.00231028  0.00381351 -0.134978 0.00019002  0.00591606 -0.107938 0.000369072  -0.0122806 -0.130339 0.00115895  -0.00785324 -0.103793 0.00231075  0.0055522 -0.108789 0.000190496  -0.00816545 -0.104699 0.00116038  -0.02286 -0.185912 0.00210476  -0.00278294 -0.192684 0.000145435  0.0014993 -0.162033 0.000335217  -0.0233206 -0.186874 0.00106144  -0.0169026 -0.156771 0.00222778  0.00104684 -0.162979 0.000178099  -0.0173292 -0.157765 0.00112557  -0.0375701 -0.24873 0.00176144  -0.0135931 -0.256739 5.19753e-05  -0.00713265 -0.22301 0.000188828  -0.0381055 -0.249661 0.000892878  -0.0297281 -0.216542 0.00194263  -0.007658 -0.223964 0.000104904  -0.0302445 -0.217528 0.000982523  -0.0559763 -0.317078 0.00139284  -0.0285313 -0.326358 -5.4121e-05  -0.0199733 -0.289989 -1.43051e-05  -0.0565525 -0.317936 0.000704288  -0.0462984 -0.282219 0.0015769  -0.0205516 -0.290889 1.19209e-06  -0.0468726 -0.283146 0.000798941  -0.0779123 -0.390253 0.00103855  -0.0474007 -0.400842 -0.000151396  -0.0368825 -0.362199 -0.000220776  -0.078501 -0.391016 0.000525713  -0.0664896 -0.353061 0.00120974  -0.037483 -0.363024 -0.000102758  -0.0670964 -0.353905 0.000613451  -0.10317 -0.46764 0.00073576  -0.0699583 -0.479549 -0.00023675  -0.0576351 -0.438963 -0.00040102  -0.10375 -0.468312 0.000370502  -0.0901149 -0.428417 0.000879288  -0.0582296 -0.439698 -0.000194788  -0.0907223 -0.429165 0.000445604  -0.131517 -0.548698 0.000484943  -0.0959495 -0.561919 -0.000298023  -0.0819622 -0.519656 -0.00054121  -0.132071 -0.549285 0.000247002  -0.11695 -0.507709 0.000599384  -0.0825404 -0.520303 -0.00026536  -0.117535 -0.508364 0.000305653  -0.162723 -0.632953 0.000279903  -0.125096 -0.647445 -0.000338316  -0.109595 -0.603743 -0.000644684  -0.163236 -0.633464 0.000142336  -0.146756 -0.590423 0.000375748  -0.110138 -0.604309 -0.000319719  -0.147306 -0.590994 0.000191927  -0.196547 -0.71998 0.00012207  -0.157122 -0.735682 -0.000364542  -0.140251 -0.690756 -0.000711918  -0.197013 -0.720418 6.46114e-05  -0.179294 -0.676112 0.000196934  -0.140759 -0.69124 -0.000353098  -0.179805 -0.676609 0.000100374  -0.232746 -0.809401 -8.10623e-06  -0.191764 -0.82624 -0.000382662  -0.173658 -0.780264 -0.000755787  -0.23317 -0.809773 -4.52995e-06  -0.214332 -0.764382 4.95911e-05  -0.174126 -0.780685 -0.000379801  -0.214802 -0.764809 2.5034e-05  -0.271094 -0.900879 -0.000103951  -0.228768 -0.918779 -0.000387907  -0.209556 -0.871912 -0.000775337  -0.271478 -0.901205 -5.19753e-05  -0.251637 -0.854873 -6.00815e-05  -0.209979 -0.872277 -0.000389576  -0.252063 -0.855243 -3.05176e-05  -0.311372 -0.994127 -0.000179768  -0.267873 -1.01299 -0.000394344  -0.24768 -0.965378 -0.000775337  -0.311711 -0.994403 -9.15527e-05  -0.29098 -0.947276 -0.000143051  -0.248066 -0.965687 -0.000387669  -0.291362 -0.947592 -7.22408e-05  -0.353355 -1.08887 -0.000238419  -0.308843 -1.10863 -0.00037837  -0.287787 -1.06037 -0.000766277  -0.353652 -1.08911 -0.000118017  -0.332133 -1.0413 -0.000212193  -0.288132 -1.06064 -0.000382185  -0.332476 -1.04158 -0.00010705  -0.396832 -1.18489 -0.000284195  -0.351451 -1.20543 -0.000367641  -0.329644 -1.15666 -0.000748158  -0.397088 -1.1851 -0.000145197  -0.374893 -1.13672 -0.00026226  -0.329949 -1.15688 -0.000373363  -0.375189 -1.13695 -0.000132322  -0.441611 -1.28198 -0.000310421  -0.395477 -1.3032 -0.000353098  -0.373022 -1.25401 -0.000720501  -0.441829 -1.28215 -0.000155687  -0.419044 -1.23329 -0.000299454  -0.373295 -1.2542 -0.000361204  -0.419303 -1.2335 -0.00014925  -0.487489 -1.37993 -0.000334263  -0.440725 -1.40177 -0.000334501  -0.417721 -1.35224 -0.000686646  -0.487678 -1.38007 -0.000164032  -0.464393 -1.33083 -0.000322342  -0.417956 -1.3524 -0.000346422  -0.464622 -1.33101 -0.000161409  -0.534304 -1.4786 -0.000342846  -0.486997 -1.50096 -0.000317335  -0.463533 -1.45116 -0.000650406  -0.534461 -1.47872 -0.000173092  -0.510763 -1.42916 -0.000340462  -0.463736 -1.45129 -0.000325441  -0.510954 -1.42931 -0.000170708  -0.58188 -1.57782 -0.000344753  -0.53412 -1.60063 -0.000297785  -0.51028 -1.55063 -0.000607014  -0.58201 -1.57792 -0.000175714  -0.557978 -1.52813 -0.00034523  -0.510455 -1.55074 -0.000302315  -0.558142 -1.52825 -0.000174284  -0.630069 -1.67747 -0.000341892  -0.581922 -1.70066 -0.000273705  -0.557788 -1.65052 -0.00056076  -0.630174 -1.67754 -0.000171423  -0.605881 -1.62758 -0.000346661  -0.557936 -1.6506 -0.000278711  -0.606016 -1.62768 -0.000173092  -0.678738 -1.77742 -0.000326633  -0.630274 -1.80092 -0.000246048  -0.605909 -1.75069 -0.000512123  -0.678818 -1.77748 -0.00016737  -0.654326 -1.72739 -0.00033617  -0.606033 -1.75076 -0.000260115  -0.654438 -1.72748 -0.000170946  -0.727748 -1.87757 -0.000309944  -0.679026 -1.90132 -0.000221014  -0.654497 -1.85106 -0.000463009  -0.727808 -1.87762 -0.000155687  -0.703177 -1.82746 -0.000318527  -0.654604 -1.85111 -0.000233889  -0.703273 -1.82753 -0.000159979  -0.776994 -1.97783 -0.000288486  -0.728063 -2.00178 -0.000194073  -0.703429 -1.95151 -0.000407696  -0.777037 -1.97786 -0.000145912  -0.752326 -1.92768 -0.000298977  -0.703508 -1.95155 -0.000204563  -0.752395 -1.92773 -0.000149965  -0.826383 -2.0781 -0.000257969  -0.777284 -2.1022 -0.000165462  -0.752584 -2.05197 -0.000359058  -0.826407 -2.07813 -0.000129461  -0.801654 -2.02795 -0.000272274  -0.752651 -2.05199 -0.000180006  -0.801706 -2.02799 -0.000135899  -0.875823 -2.17832 -0.000224113  -0.826587 -2.20253 -0.00014019  -0.801868 -2.15237 -0.000300407  -0.875836 -2.17834 -0.000114679  -0.851073 -2.1282 -0.000238895  -0.801923 -2.15238 -0.000149012  -0.85111 -2.12824 -0.000120878  -0.925243 -2.27843 -0.00018692  -0.875905 -2.30271 -0.000111341  -0.8512 -2.25264 -0.000244141  -0.925242 -2.27843 -9.56059e-05  -0.90051 -2.22838 -0.000205517  -0.851241 -2.25264 -0.000122786  -0.900537 -2.2284 -0.000102997  -0.974586 -2.37837 -0.000151157  -0.925175 -2.4027 -8.89301e-05  -0.900511 -2.35273 -0.000190258  -0.974576 -2.37837 -7.98702e-05  -0.949898 -2.3284 -0.000170708  -0.900543 -2.35273 -9.5129e-05  -0.949919 -2.32842 -8.58307e-05  -1.02381 -2.4781 -0.000104904  -0.974343 -2.50245 -5.07832e-05  -0.949741 -2.45261 -0.000137806  -1.0238 -2.4781 -5.22137e-05  -0.99919 -2.42824 -0.000127316  -0.949769 -2.45261 -7.08103e-05  -0.999201 -2.42826 -6.77109e-05  -1.07289 -2.57759 -6.24657e-05  -1.02337 -2.60196 -3.33786e-05  -0.998848 -2.55225 -8.67844e-05  -1.07287 -2.57759 -3.38554e-05  -1.04834 -2.52786 -8.86917e-05  -0.99887 -2.55223 -4.1008e-05  -1.04835 -2.52787 -4.48227e-05  -1.12176 -2.67679 -1.81198e-05  -1.07221 -2.70115 3.8147e-06  -1.0478 -2.6516 -3.57628e-05  -1.12174 -2.67679 -6.67572e-06  -1.09732 -2.62721 -3.95775e-05  -1.04781 -2.65159 -1.62125e-05  -1.09733 -2.62723 -1.78814e-05  0.00471207 -0.0150025 -0.000943661  0 0 0  0.0070872 -0.0179488 -0.000911951  0.00277714 -0.00660193 -0.00102234  0 0 0  0.00463176 -0.0152103 -0.000452518  0.00180223 -0.00511295 -0.000520706  0 0 0  0.00273818 -0.00670642 -0.000490904  0.0017774 -0.00521988 -0.000246048  0.0119039 -0.046073 -0.0014348  0.0182604 -0.0511187 -0.0014534  0.0126667 -0.0326775 -0.00253963  0.0116805 -0.0465435 -0.000698328  0.00824915 -0.0288846 -0.00125456  0.0124698 -0.0330464 -0.00123739  0.00809281 -0.0292619 -0.000605345  0.0177875 -0.088503 -0.00154305  0.0287306 -0.0948774 -0.00166035  0.0241615 -0.0712389 -0.00322676  0.0174535 -0.0892038 -0.000756979  0.0151953 -0.0660429 -0.0015192  0.0238145 -0.0718562 -0.00159049  0.0149026 -0.0666781 -0.000744581  0.0200654 -0.139741 -0.00152349  0.0355181 -0.147126 -0.00167489  0.033118 -0.119214 -0.00337982  0.019655 -0.140584 -0.000752449  0.0194647 -0.113084 -0.00153399  0.0326834 -0.120016 -0.00167465  0.0190797 -0.113906 -0.000755072  0.0178717 -0.198425 -0.00152636  0.0375002 -0.206782 -0.00163817  0.037624 -0.175177 -0.00333595  0.0174059 -0.199324 -0.000755548  0.019567 -0.168164 -0.00152206  0.0371407 -0.176073 -0.00165915  0.0191121 -0.169087 -0.000752449  0.0110101 -0.263631 -0.00156689  0.0344299 -0.273022 -0.00158858  0.0371134 -0.23821 -0.00324726  0.0105044 -0.264519 -0.000776529  0.0150413 -0.230219 -0.00154257  0.0365995 -0.239122 -0.00161719  0.014538 -0.231156 -0.000763893  -0.00042212 -0.334546 -0.00161505  0.0263973 -0.345048 -0.0015471  0.0315608 -0.307476 -0.00315189  -0.000953257 -0.335381 -0.000799656  0.005876 -0.298381 -0.00159407  0.0310245 -0.308355 -0.00157118  0.00533926 -0.299281 -0.000789642  -0.0162219 -0.41041 -0.00165939  0.0136349 -0.422079 -0.00150275  0.0211416 -0.382158 -0.00305271  -0.0167529 -0.411175 -0.000824213  -0.00776708 -0.371863 -0.00164127  0.0205917 -0.382977 -0.00152206  -0.00832307 -0.372698 -0.000812292  -0.0361023 -0.490542 -0.00167751  -0.00355136 -0.503415 -0.00143814  0.00612116 -0.461508 -0.00294399  -0.0366207 -0.491225 -0.000836611  -0.0256462 -0.449949 -0.00167513  0.00557828 -0.462248 -0.00146675  -0.026193 -0.4507 -0.000832319  -0.0597636 -0.574327 -0.00167418  -0.0248317 -0.588398 -0.00137639  -0.0131725 -0.544827 -0.00282001  -0.0602615 -0.57493 -0.000835896  -0.047457 -0.53198 -0.00168419  -0.0136962 -0.545479 -0.00141072  -0.0479844 -0.532649 -0.00083971  -0.0868927 -0.661217 -0.00164461  -0.0498695 -0.676472 -0.00130177  -0.036402 -0.63149 -0.00268364  -0.0873554 -0.661753 -0.000819445  -0.0728898 -0.617382 -0.00166416  -0.0368991 -0.632075 -0.00133896  -0.0733882 -0.617973 -0.000831366  -0.117177 -0.750759 -0.00159359  -0.0783166 -0.767134 -0.00122547  -0.0632191 -0.72099 -0.00253201  -0.117601 -0.751225 -0.000798464  -0.101634 -0.70566 -0.00162029  -0.0636802 -0.721501 -0.00126386  -0.102097 -0.706177 -0.000809193  -0.150313 -0.842545 -0.00153255  -0.109851 -0.859985 -0.00114536  -0.0932854 -0.812859 -0.00237799  -0.1507 -0.842948 -0.000765324  -0.13338 -0.796368 -0.0015645  -0.0937133 -0.813308 -0.00118685  -0.133806 -0.796821 -0.000778913  -0.186014 -0.93621 -0.00145388  -0.144151 -0.95464 -0.00106716  -0.126281 -0.906711 -0.00221491  -0.186361 -0.936562 -0.000726223  -0.167835 -0.889137 -0.00149632  -0.126668 -0.907102 -0.00110745  -0.168219 -0.889532 -0.000750065  -0.223998 -1.03146 -0.001369  -0.180926 -1.05079 -0.000987291  -0.161888 -1.00221 -0.00204992  -0.22431 -1.03176 -0.000684738  -0.204712 -0.983626 -0.00141478  -0.162242 -1.00254 -0.00102377  -0.205061 -0.983975 -0.000706434  -0.264013 -1.12802 -0.00128412  -0.219883 -1.14817 -0.000905514  -0.199823 -1.09905 -0.00189066  -0.264284 -1.12828 -0.000643015  -0.243742 -1.07956 -0.0013299  -0.20014 -1.09934 -0.000944376  -0.244053 -1.07987 -0.000665665  -0.305796 -1.22566 -0.00119114  -0.260752 -1.24655 -0.000824928  -0.239808 -1.197 -0.00172901  -0.306031 -1.22589 -0.00059557  -0.284672 -1.1767 -0.00123787  -0.240089 -1.19725 -0.000864983  -0.28494 -1.17695 -0.000618458  -0.349125 -1.32417 -0.00110197  -0.303291 -1.34572 -0.000747204  -0.281573 -1.29584 -0.0015769  -0.349325 -1.32437 -0.000551462  -0.327255 -1.2748 -0.00114584  -0.281826 -1.29604 -0.000788212  -0.327496 -1.27502 -0.000577927  -0.393773 -1.42339 -0.00101185  -0.347264 -1.4455 -0.000671625  -0.324889 -1.39536 -0.00142193  -0.393941 -1.42356 -0.000504732  -0.371269 -1.37368 -0.00105476  -0.325104 -1.39554 -0.000712395  -0.371475 -1.37388 -0.00052619  -0.439543 -1.52315 -0.000915527  -0.392452 -1.54574 -0.000602484  -0.369526 -1.49542 -0.00127411  -0.439682 -1.52328 -0.000460148  -0.4165 -1.47319 -0.000963211  -0.369715 -1.49557 -0.000638485  -0.416675 -1.47336 -0.000481844  -0.486243 -1.6233 -0.000826359  -0.438664 -1.64631 -0.000534773  -0.415277 -1.59587 -0.00113153  -0.486356 -1.62341 -0.000409365  -0.462763 -1.57316 -0.000871181  -0.415439 -1.59599 -0.000564337  -0.462905 -1.5733 -0.000437021  -0.533699 -1.72373 -0.000731945  -0.48571 -1.74708 -0.000470877  -0.461955 -1.69657 -0.00099802  -0.533789 -1.72382 -0.000364065  -0.509857 -1.67346 -0.000777721  -0.462088 -1.69667 -0.00049758  -0.509979 -1.67358 -0.000390291  -0.581759 -1.82432 -0.000647545  -0.533432 -1.84796 -0.000404358  -0.509377 -1.79743 -0.000870228  -0.581828 -1.8244 -0.000324965  -0.557633 -1.77399 -0.000687599  -0.509493 -1.79751 -0.000435829  -0.557736 -1.77409 -0.000344753  -0.630279 -1.925 -0.000564098  -0.58167 -1.94886 -0.000345707  -0.557389 -1.89836 -0.000747681  -0.63033 -1.92505 -0.000286579  -0.605947 -1.87464 -0.000607967  -0.557486 -1.89841 -0.000374079  -0.606023 -1.87472 -0.000307798  -0.679131 -2.02566 -0.000480652  -0.630284 -2.0497 -0.000289679  -0.605856 -1.99924 -0.000629425  -0.679156 -2.02571 -0.000242949  -0.654644 -1.97531 -0.000520229  -0.605929 -1.99929 -0.00031662  -0.654703 -1.97538 -0.000258207  -0.728196 -2.12625 -0.000399113  -0.679165 -2.15043 -0.000236511  -0.654634 -2.10004 -0.000522614  -0.728214 -2.12629 -0.000197649  -0.703616 -2.07595 -0.000439167  -0.654691 -2.10008 -0.000261784  -0.703658 -2.07601 -0.000218391  -0.77739 -2.22671 -0.000323772  -0.728204 -2.25097 -0.00018692  -0.703616 -2.2007 -0.000421524  -0.777388 -2.22673 -0.000159502  -0.752752 -2.17648 -0.000360966  -0.703666 -2.20072 -0.000207424  -0.752788 -2.17652 -0.000180006  -0.826617 -2.32697 -0.000251293  -0.777326 -2.35129 -0.000137806  -0.752722 -2.30115 -0.000326157  -0.826612 -2.32699 -0.000128031  -0.801975 -2.27685 -0.000288963  -0.752755 -2.30116 -0.000164509  -0.801996 -2.27688 -0.000145435  -0.875818 -2.42701 -0.000187874  -0.826438 -2.45137 -0.000100136  -0.801852 -2.40135 -0.000246525  -0.875802 -2.42702 -9.75132e-05  -0.851199 -2.377 -0.000220299  -0.801882 -2.40136 -0.000122309  -0.851208 -2.37703 -0.000109911  -0.924936 -2.52679 -0.000119686  -0.875497 -2.55116 -6.74725e-05  -0.850951 -2.50129 -0.000163078  -0.924915 -2.5268 -6.07967e-05  -0.900364 -2.47691 -0.000150204  -0.850974 -2.5013 -8.34465e-05  -0.900368 -2.47694 -7.62939e-05  -0.973927 -2.6263 -5.67436e-05  -0.924446 -2.65067 -2.47955e-05  -0.899966 -2.60095 -8.96454e-05  -0.97391 -2.6263 -2.98023e-05  -0.94943 -2.57656 -8.72612e-05  -0.899981 -2.60095 -4.57764e-05  -0.949425 -2.57658 -4.14848e-05  -1.02274 -2.7255 -9.53674e-07  -0.973234 -2.7499 7.62939e-06  -0.948839 -2.70031 -2.00272e-05  -1.02272 -2.72551 1.90735e-06  -0.998337 -2.67592 -2.52724e-05  -0.948857 -2.70031 -1.00136e-05  -0.998335 -2.67594 -1.50204e-05  0.00989865 -0.0212853 -0.00276136  0 0 0  0.0128134 -0.0260538 -0.00175452  0.00496596 -0.0112048 -0.00194502  0 0 0  0.00978716 -0.0214964 -0.00134397  0.00379069 -0.00856221 -0.00149679  0 0 0  0.00491539 -0.0113302 -0.000943184  0.00375228 -0.00867707 -0.000723839  0.0255902 -0.0563114 -0.00444746  0.0329416 -0.0636032 -0.00287437  0.0227401 -0.0433721 -0.00491476  0.0252909 -0.0567839 -0.00218391  0.0174345 -0.0374559 -0.00376081  0.0224969 -0.0437863 -0.00240588  0.0172206 -0.0378385 -0.00183797  0.0408194 -0.100902 -0.00508738  0.0526873 -0.109269 -0.00335264  0.0436172 -0.0847952 -0.00642681  0.0404036 -0.101579 -0.00251889  0.0335561 -0.0774843 -0.00486422  0.0431963 -0.0854368 -0.00317454  0.0331792 -0.0781088 -0.0024035  0.0520822 -0.15375 -0.00516272  0.0681885 -0.162861 -0.0034349  0.0615687 -0.134272 -0.00688791  0.0516234 -0.154567 -0.00257277  0.0470668 -0.126289 -0.00516844  0.0610804 -0.135074 -0.00342679  0.0466138 -0.127087 -0.00256634  0.0581789 -0.214168 -0.00501776  0.0782124 -0.22407 -0.0033462  0.0744232 -0.191668 -0.00682497  0.0577014 -0.215039 -0.00250101  0.0558221 -0.183017 -0.0051055  0.0739161 -0.192547 -0.00340223  0.0553386 -0.183902 -0.00254369  0.058838 -0.28138 -0.004807  0.0824765 -0.292194 -0.00318909  0.08158 -0.256423 -0.0065546  0.0583534 -0.282246 -0.00239706  0.0592048 -0.246934 -0.00491667  0.0810668 -0.257315 -0.00327063  0.0587074 -0.247842 -0.00245142  0.0541649 -0.354546 -0.00457859  0.0810754 -0.366369 -0.00301242  0.0829871 -0.327715 -0.00621271  0.0536749 -0.355366 -0.00228286  0.0571764 -0.317232 -0.00469112  0.0824803 -0.328572 -0.00310111  0.0566725 -0.31811 -0.00234032  0.0443935 -0.432831 -0.00433254  0.0742508 -0.445745 -0.00282359  0.0788326 -0.40465 -0.00584126  0.0439099 -0.433591 -0.00216341  0.049921 -0.393061 -0.00445747  0.0783253 -0.405453 -0.00291824  0.0494151 -0.393883 -0.00222611  0.0298487 -0.515468 -0.00408268  0.0623385 -0.529496 -0.00263548  0.0694051 -0.486384 -0.00546026  0.0293821 -0.516152 -0.00204015  0.0377191 -0.473619 -0.00421476  0.0689102 -0.487113 -0.00272655  0.0372251 -0.474369 -0.00210547  0.0108855 -0.601758 -0.00382853  0.0457165 -0.616909 -0.0024488  0.0550753 -0.572123 -0.00508547  0.0104414 -0.602371 -0.00191188  0.0209205 -0.558161 -0.0039587  0.0545996 -0.572781 -0.00254083  0.0204452 -0.558835 -0.00197577  -0.0121225 -0.691104 -0.0035696  0.02478 -0.707348 -0.0022645  0.0362239 -0.661193 -0.00471735  -0.0125357 -0.691644 -0.00178146  -0.000108838 -0.646048 -0.00370121  0.0357696 -0.661776 -0.00235391  -0.000557899 -0.646652 -0.00184894  -0.0388064 -0.782982 -0.00331545  -7.61747e-05 -0.800279 -0.00208783  0.0132467 -0.753012 -0.00434875  -0.039183 -0.783465 -0.00165415  -0.0250005 -0.736726 -0.00344276  0.0128238 -0.75353 -0.00217485  -0.025419 -0.737258 -0.00172138  -0.0687996 -0.876971 -0.00306273  -0.0284717 -0.895259 -0.00191426  -0.0134575 -0.847081 -0.0039959  -0.069149 -0.877393 -0.00153208  -0.0533824 -0.829712 -0.00318813  -0.0138481 -0.847536 -0.0019989  -0.053767 -0.830183 -0.00159264  -0.101771 -0.972687 -0.00281477  -0.0600369 -0.991887 -0.00174308  -0.0435183 -0.942982 -0.003654  -0.10208 -0.973053 -0.00140786  -0.0849063 -0.924608 -0.00293589  -0.0438727 -0.943385 -0.00182796  -0.0852597 -0.925022 -0.00146961  -0.137388 -1.0698 -0.00256824  -0.0944234 -1.08985 -0.00158095  -0.0765707 -1.04036 -0.00332594  -0.137663 -1.07013 -0.00128245  -0.119237 -1.02106 -0.00268936  -0.0768919 -1.04072 -0.00166368  -0.119554 -1.02143 -0.00134468  -0.175349 -1.16806 -0.00233221  -0.131317 -1.18886 -0.00143242  -0.112285 -1.13893 -0.00300837  -0.175589 -1.16834 -0.00116372  -0.156064 -1.11878 -0.00245237  -0.112574 -1.13923 -0.00150323  -0.156346 -1.1191 -0.00122786  -0.21536 -1.26722 -0.00210857  -0.17041 -1.28869 -0.00128388  -0.150342 -1.23842 -0.00270939  -0.215574 -1.26746 -0.0010519  -0.195089 -1.21752 -0.00221682  -0.150602 -1.23868 -0.00135326  -0.195337 -1.2178 -0.00110674  -0.257164 -1.36707 -0.00189209  -0.211413 -1.38914 -0.00114131  -0.190451 -1.33862 -0.00242519  -0.257347 -1.36729 -0.000946522  -0.236027 -1.31705 -0.00200033  -0.190684 -1.33884 -0.00121045  -0.236248 -1.31729 -0.00100112  -0.300511 -1.46746 -0.00168085  -0.254066 -1.49004 -0.00101042  -0.23234 -1.43934 -0.00215244  -0.300663 -1.46764 -0.000841379  -0.278632 -1.41719 -0.00178766  -0.23254 -1.43954 -0.00107884  -0.278819 -1.4174 -0.000894308  -0.345172 -1.56822 -0.00148821  -0.298135 -1.59122 -0.000892162  -0.275755 -1.54043 -0.00189734  -0.345295 -1.56837 -0.000743866  -0.32266 -1.51778 -0.00158882  -0.275929 -1.54059 -0.00095129  -0.322823 -1.51796 -0.000792503  -0.390931 -1.66922 -0.00130653  -0.343394 -1.6926 -0.000773907  -0.320473 -1.64176 -0.00165892  -0.391031 -1.66935 -0.000654459  -0.367896 -1.61867 -0.00139809  -0.320621 -1.64189 -0.000828981  -0.368033 -1.61883 -0.000696898  -0.437606 -1.77036 -0.00113153  -0.389635 -1.79404 -0.00066328  -0.366273 -1.7432 -0.00143003  -0.437677 -1.77047 -0.000564814  -0.414138 -1.71976 -0.00121832  -0.366398 -1.74331 -0.000716209  -0.414245 -1.7199 -0.000612259  -0.485015 -1.87155 -0.000968933  -0.436692 -1.89546 -0.000561476  -0.412966 -1.84466 -0.00122404  -0.485071 -1.87163 -0.000482321  -0.461202 -1.82093 -0.00104713  -0.413065 -1.84476 -0.000613689  -0.461288 -1.82105 -0.000525713  -0.532996 -1.97269 -0.000813961  -0.48438 -1.99678 -0.000473022  -0.460377 -1.94606 -0.00103283  -0.533033 -1.97276 -0.000407696  -0.508914 -1.92211 -0.000891209  -0.460461 -1.94614 -0.000516653  -0.508982 -1.9222 -0.000444174  -0.58141 -2.07372 -0.000674725  -0.53256 -2.09795 -0.000387669  -0.508346 -2.04733 -0.000853062  -0.581433 -2.07377 -0.000339508  -0.557133 -2.0232 -0.000745773  -0.508412 -2.04739 -0.000427485  -0.557182 -2.02327 -0.000373125  -0.630127 -2.17457 -0.00053978  -0.581091 -2.1989 -0.000305653  -0.556731 -2.14841 -0.000688076  -0.630139 -2.17462 -0.000273466  -0.605715 -2.12415 -0.000607967  -0.556783 -2.14845 -0.000344992  -0.605749 -2.12421 -0.000304461  -0.679047 -2.27522 -0.000426769  -0.62986 -2.2996 -0.000236988  -0.605404 -2.24926 -0.000543118  -0.679043 -2.27524 -0.000211  -0.654545 -2.22491 -0.000483036  -0.605445 -2.24928 -0.000270605  -0.654568 -2.22496 -0.000242472  -0.728062 -2.3756 -0.000320911  -0.67876 -2.40002 -0.000177622  -0.654261 -2.34983 -0.000408173  -0.728053 -2.37563 -0.000158548  -0.703523 -2.32543 -0.000370026  -0.65429 -2.34984 -0.000203609  -0.703532 -2.32547 -0.000185251  -0.777102 -2.47571 -0.000220776  -0.727715 -2.50014 -0.00011754  -0.703211 -2.45011 -0.000292301  -0.777088 -2.47573 -0.000111103  -0.752563 -2.42568 -0.000270367  -0.703231 -2.45012 -0.000143766  -0.752565 -2.42571 -0.000136137  -0.826107 -2.57553 -0.000139236  -0.776647 -2.59995 -7.7486e-05  -0.752161 -2.55008 -0.000195026  -0.826084 -2.57553 -7.10487e-05  -0.801585 -2.52564 -0.000181675  -0.75218 -2.55008 -9.75132e-05  -0.80159 -2.52566 -8.86917e-05  -0.87502 -2.67504 -5.38826e-05  -0.825519 -2.69945 -2.81334e-05  -0.801076 -2.64973 -0.000105381  -0.874992 -2.67505 -2.86102e-05  -0.850547 -2.6253 -9.82285e-05  -0.801091 -2.64974 -5.34058e-05  -0.850547 -2.62533 -4.86374e-05  -0.923795 -2.77427 2.86102e-05  -0.874297 -2.7987 1.14441e-05  -0.849909 -2.7491 -1.57356e-05  -0.92377 -2.77428 1.43051e-05  -0.899403 -2.72466 -1.81198e-05  -0.84992 -2.7491 -1.4782e-05  -0.899394 -2.72469 -9.53674e-06  0.0166822 -0.0317106 -0.00438404  0 0 0  0.0210212 -0.0396923 -0.00250506  0.00797755 -0.0198468 -0.00275993  0 0 0  0.0165548 -0.0319847 -0.00214243  0.00626638 -0.0148007 -0.0023613  0 0 0  0.00793198 -0.0200239 -0.00134444  0.00622396 -0.0149499 -0.00114608  0.0419756 -0.0711681 -0.007164  0.0515598 -0.0809974 -0.00415134  0.036527 -0.059509 -0.00704765  0.0416308 -0.0717124 -0.00353456  0.0289918 -0.0506451 -0.0060091  0.0362668 -0.0600281 -0.00346303  0.0287462 -0.0511084 -0.00294638  0.0662475 -0.117179 -0.0083499  0.079849 -0.127385 -0.0049088  0.0666599 -0.102503 -0.00934172  0.0657819 -0.117904 -0.00414681  0.0545802 -0.0931605 -0.00791979  0.0662145 -0.103237 -0.00462675  0.0541494 -0.0938423 -0.00392175  0.085838 -0.171144 -0.00857162  0.103247 -0.181806 -0.00507689  0.0927677 -0.152707 -0.0101299  0.0853436 -0.171959 -0.00427079  0.0767399 -0.143098 -0.00854301  0.092246 -0.153545 -0.00504541  0.0762386 -0.143915 -0.00425148  0.0996468 -0.232989 -0.00834274  0.120708 -0.244342 -0.00495863  0.113285 -0.211215 -0.0100965  0.0991623 -0.233845 -0.00416708  0.0935096 -0.201073 -0.00849199  0.112755 -0.21209 -0.00503731  0.0930051 -0.201951 -0.00423717  0.107407 -0.302011 -0.00793219  0.131877 -0.314235 -0.0047133  0.127606 -0.277552 -0.00970125  0.106932 -0.302853 -0.00396085  0.104305 -0.266618 -0.00815201  0.12709 -0.278421 -0.00484276  0.103807 -0.267506 -0.00407028  0.109191 -0.377267 -0.00744772  0.136781 -0.390478 -0.00441885  0.135615 -0.350785 -0.0091486  0.108726 -0.378064 -0.00372195  0.109059 -0.338879 -0.00769711  0.135107 -0.351617 -0.00457144  0.108569 -0.339734 -0.00384545  0.105225 -0.457821 -0.00695038  0.135643 -0.472088 -0.0041132  0.137444 -0.42989 -0.00853491  0.104777 -0.458559 -0.00347281  0.107928 -0.416899 -0.0072031  0.136952 -0.430662 -0.0042665  0.107453 -0.417701 -0.00359917  0.0958668 -0.542805 -0.00645161  0.128819 -0.558145 -0.00380397  0.133398 -0.513897 -0.00792265  0.0954344 -0.543476 -0.0032258  0.101221 -0.499778 -0.00670385  0.132922 -0.514605 -0.00395846  0.10076 -0.50051 -0.00334764  0.0815079 -0.631441 -0.00596189  0.116719 -0.647845 -0.00350595  0.123861 -0.601941 -0.00731182  0.0810945 -0.632046 -0.00297785  0.0893133 -0.58668 -0.00620556  0.123407 -0.602579 -0.00365257  0.088868 -0.587341 -0.00310087  0.0625559 -0.723077 -0.0054884  0.0997766 -0.740514 -0.00321198  0.109261 -0.693268 -0.00671673  0.062174 -0.723615 -0.00274348  0.0726054 -0.676889 -0.00572014  0.108827 -0.693843 -0.00335646  0.0721884 -0.677486 -0.00285888  0.0394449 -0.817145 -0.00502253  0.0784351 -0.83557 -0.00293589  0.0900347 -0.787262 -0.00614452  0.0390929 -0.817627 -0.00250745  0.0515201 -0.769808 -0.00525379  0.0896335 -0.787773 -0.00307274  0.0511324 -0.770343 -0.00262547  0.0125711 -0.913187 -0.00458527  0.0531236 -0.932525 -0.00266433  0.0666308 -0.883382 -0.00560141  0.0122496 -0.913613 -0.0022912  0.0264794 -0.864922 -0.00480318  0.0662543 -0.883833 -0.00279951  0.0261172 -0.865395 -0.00240183  -0.0176716 -1.0108 -0.0041604  0.0242519 -1.03098 -0.00241184  0.039457 -0.981187 -0.00507689  -0.0179613 -1.01117 -0.00208378  -0.00212681 -0.961793 -0.00436735  0.0391164 -0.981583 -0.0025394  -0.00245309 -0.962212 -0.00218463  -0.0509081 -1.10965 -0.00375414  -0.00777805 -1.13059 -0.00217342  0.00892675 -1.08031 -0.00458527  -0.0511643 -1.10998 -0.00187325  -0.0339099 -1.06006 -0.00395918  0.00861537 -1.08065 -0.00229025  -0.0342032 -1.06043 -0.00197744  -0.0868014 -1.20947 -0.00338125  -0.0426217 -1.23109 -0.00194788  -0.024586 -1.18044 -0.00411797  -0.0870259 -1.20975 -0.00168943  -0.0685151 -1.15943 -0.0035634  -0.0248665 -1.18074 -0.00205851  -0.0687798 -1.15976 -0.00178075  -0.12502 -1.31001 -0.00301743  -0.0799303 -1.33224 -0.00173783  -0.0607283 -1.28133 -0.00368595  -0.125223 -1.31026 -0.0015111  -0.105612 -1.25964 -0.00319719  -0.0609815 -1.28159 -0.00183964  -0.105844 -1.25992 -0.0015986  -0.165282 -1.41108 -0.00267744  -0.119397 -1.43383 -0.00153804  -0.0991821 -1.38277 -0.00326824  -0.165453 -1.4113 -0.00134015  -0.14489 -1.36047 -0.00284624  -0.0994072 -1.38299 -0.00163507  -0.145095 -1.36072 -0.00142455  -0.207304 -1.51252 -0.0023632  -0.160729 -1.53571 -0.00134683  -0.139646 -1.48455 -0.00287533  -0.207442 -1.51271 -0.00118375  -0.186064 -1.46175 -0.0025177  -0.13984 -1.48474 -0.00143409  -0.18624 -1.46196 -0.00125885  -0.250827 -1.61417 -0.00206423  -0.203664 -1.63774 -0.00117874  -0.181843 -1.58655 -0.00252247  -0.250944 -1.61434 -0.00102925  -0.228869 -1.56331 -0.00220823  -0.182006 -1.58672 -0.00126362  -0.229013 -1.56349 -0.00110674  -0.295631 -1.71593 -0.00178385  -0.247968 -1.73981 -0.00101614  -0.225511 -1.68864 -0.00218296  -0.295724 -1.71607 -0.000889301  -0.273057 -1.66503 -0.00192165  -0.225655 -1.68878 -0.00109506  -0.273179 -1.66519 -0.000962257  -0.341495 -1.81768 -0.00152349  -0.293411 -1.8418 -0.000861883  -0.27043 -1.79071 -0.0018692  -0.341569 -1.8178 -0.00075984  -0.318418 -1.7668 -0.00165176  -0.270551 -1.79082 -0.000932455  -0.318518 -1.76694 -0.00082612  -0.388231 -1.91936 -0.00128365  -0.339795 -1.94366 -0.000723839  -0.316388 -1.89265 -0.00158024  -0.388283 -1.91945 -0.000641584  -0.364739 -1.86852 -0.00140285  -0.316492 -1.89275 -0.000792742  -0.364825 -1.86864 -0.000699282  -0.435668 -2.02088 -0.00106668  -0.386939 -2.04531 -0.00059557  -0.363198 -1.99444 -0.00131655  -0.435697 -2.02096 -0.000534773  -0.411849 -1.97013 -0.00117683  -0.363277 -1.99451 -0.000660419  -0.411909 -1.97022 -0.000589848  -0.483641 -2.12219 -0.000867844  -0.434675 -2.1467 -0.000478029  -0.410675 -2.09598 -0.00107431  -0.483657 -2.12225 -0.000431538  -0.45957 -2.07154 -0.000960827  -0.410736 -2.09604 -0.000535727  -0.459614 -2.07163 -0.00048089  -0.53201 -2.22324 -0.000687599  -0.482863 -2.24779 -0.000378132  -0.458666 -2.19724 -0.000854015  -0.532012 -2.22328 -0.000344276  -0.507756 -2.17273 -0.00077486  -0.458719 -2.19728 -0.00042963  -0.507789 -2.17279 -0.000384808  -0.580655 -2.324 -0.000524044  -0.531373 -2.34857 -0.000290155  -0.507038 -2.29819 -0.000660896  -0.580649 -2.32403 -0.000259638  -0.556281 -2.27363 -0.000601292  -0.507082 -2.29822 -0.000330687  -0.556297 -2.27369 -0.000299931  -0.629467 -2.42444 -0.000382423  -0.580083 -2.449 -0.000209332  -0.555675 -2.39881 -0.00049305  -0.62945 -2.42447 -0.000192881  -0.605021 -2.37424 -0.000452995  -0.5557 -2.39882 -0.000244617  -0.605029 -2.37429 -0.000226021  -0.678348 -2.52457 -0.000261784  -0.62889 -2.5491 -0.000141621  -0.604453 -2.49909 -0.000347137  -0.678328 -2.52459 -0.00013113  -0.65388 -2.47453 -0.000319481  -0.604475 -2.49909 -0.000172615  -0.653878 -2.47457 -0.000157356  -0.727238 -2.62437 -0.000155926  -0.677723 -2.64886 -8.86917e-05  -0.653292 -2.59901 -0.000220776  -0.727206 -2.62438 -7.53403e-05  -0.702771 -2.5745 -0.000209808  -0.653307 -2.59902 -0.000107765  -0.702763 -2.57452 -0.00010252  -0.776082 -2.72386 -6.10352e-05  -0.726541 -2.74833 -3.55244e-05  -0.702123 -2.69862 -0.000120163  -0.776045 -2.72387 -2.95639e-05  -0.751636 -2.67413 -0.00011158  -0.702132 -2.69863 -6.34193e-05  -0.751631 -2.67416 -5.76973e-05  -0.824861 -2.82311 2.76566e-05  -0.775326 -2.84756 1.07288e-05  -0.750927 -2.79796 -2.0504e-05  -0.824828 -2.82311 1.74046e-05  -0.800453 -2.77349 -1.62125e-05  -0.75093 -2.79796 -9.53674e-06  -0.800442 -2.77351 -8.82149e-06  0.0281622 -0.049894 -0.00584793  0 0 0  0.0387108 -0.0625479 -0.00319052  0.0168527 -0.0395905 -0.00354767  0 0 0  0.0280708 -0.0502935 -0.00285983  0.0104267 -0.0271363 -0.00312519  0 0 0  0.0168755 -0.0399049 -0.0017252  0.0104043 -0.0273652 -0.00152326  0.0632848 -0.0906759 -0.00962591  0.075836 -0.102398 -0.00532269  0.0575465 -0.0814313 -0.00900412  0.0629503 -0.0913506 -0.00474954  0.0459727 -0.0699581 -0.00803041  0.0573867 -0.0821205 -0.00441813  0.0457502 -0.0705595 -0.00394464  0.0953668 -0.136794 -0.0113378  0.110887 -0.148437 -0.00631452  0.0942031 -0.12344 -0.0120087  0.094888 -0.137597 -0.00563145  0.0798595 -0.112661 -0.0107007  0.093779 -0.124292 -0.00593901  0.079426 -0.113455 -0.00529766  0.122443 -0.19149 -0.0117192  0.141444 -0.203527 -0.00655937  0.127408 -0.173885 -0.0130773  0.121929 -0.192335 -0.00584006  0.109639 -0.162987 -0.0116463  0.126876 -0.174788 -0.00650024  0.109116 -0.163855 -0.005795  0.14343 -0.254694 -0.0114489  0.165911 -0.267451 -0.00642419  0.155063 -0.233521 -0.0130877  0.142928 -0.255542 -0.00571322  0.133759 -0.222026 -0.0116377  0.154508 -0.234409 -0.00651979  0.133232 -0.222912 -0.00580263  0.157896 -0.325517 -0.0108776  0.18365 -0.339185 -0.00611734  0.176192 -0.301538 -0.0125966  0.157411 -0.326336 -0.00543118  0.151511 -0.289175 -0.0111871  0.175649 -0.302391 -0.00628901  0.151001 -0.290042 -0.00558448  0.165818 -0.402852 -0.0101972  0.194562 -0.417533 -0.00573373  0.190488 -0.376781 -0.0118804  0.165347 -0.403619 -0.00509191  0.162691 -0.363397 -0.0105453  0.189958 -0.377583 -0.00592899  0.162197 -0.364223 -0.005265  0.167407 -0.485632 -0.00947142  0.198845 -0.501358 -0.00532436  0.198036 -0.458074 -0.0110793  0.166954 -0.486335 -0.00473213  0.167412 -0.443584 -0.00983715  0.19752 -0.458809 -0.00553298  0.166931 -0.444354 -0.00491333  0.163017 -0.572876 -0.00874472  0.196868 -0.58966 -0.00491738  0.199113 -0.544329 -0.0102577  0.162588 -0.573522 -0.00436807  0.16596 -0.528716 -0.00910664  0.198619 -0.544995 -0.00512266  0.165498 -0.529417 -0.00454926  0.153079 -0.663754 -0.00803852  0.18908 -0.681564 -0.00451565  0.194144 -0.634607 -0.00943613  0.152671 -0.664333 -0.00401616  0.158738 -0.617881 -0.008389  0.19368 -0.6352 -0.00471187  0.158301 -0.618513 -0.00419211  0.138042 -0.757555 -0.00735378  0.175958 -0.776339 -0.0041275  0.183603 -0.728095 -0.00864697  0.137663 -0.758068 -0.00367475  0.146197 -0.710298 -0.00769043  0.183165 -0.728626 -0.00432205  0.145781 -0.710871 -0.00384259  0.118379 -0.85367 -0.00669813  0.157975 -0.873366 -0.00376081  0.167959 -0.824126 -0.00787783  0.118025 -0.854128 -0.00334716  0.128785 -0.805329 -0.00702286  0.167548 -0.824599 -0.00393987  0.128399 -0.805837 -0.00350952  0.0945352 -0.951612 -0.00607777  0.135624 -0.972153 -0.00340271  0.147715 -0.922157 -0.00715637  0.0942131 -0.952017 -0.00303578  0.106979 -0.902417 -0.00638199  0.147319 -0.922563 -0.00357866  0.106618 -0.902867 -0.00319195  0.0669463 -1.05097 -0.00548935  0.109357 -1.07227 -0.00307178  0.123314 -1.0217 -0.0064683  0.0666623 -1.05133 -0.00274372  0.0812118 -1.00111 -0.00577879  0.122955 -1.02206 -0.00323772  0.0808853 -1.00151 -0.00288725  0.0360357 -1.1514 -0.00493479  0.0795971 -1.17339 -0.00276303  0.0952146 -1.12241 -0.00582314  0.0357788 -1.15171 -0.00246668  0.0519127 -1.10104 -0.0052104  0.094889 -1.12272 -0.00290895  0.0516171 -1.1014 -0.00260425  0.00216579 -1.25262 -0.00441074  0.0467389 -1.27522 -0.00246048  0.0638239 -1.22395 -0.00520754  0.00193787 -1.2529 -0.00220728  0.0194733 -1.20191 -0.00466871  0.06354 -1.22423 -0.00260663  0.0192112 -1.20221 -0.00233507  -0.0342975 -1.35441 -0.00392151  0.0111594 -1.37753 -0.00218511  0.0295386 -1.32609 -0.00464106  -0.0344954 -1.35464 -0.00196242  -0.0157332 -1.30344 -0.00416279  0.0292666 -1.32632 -0.00231862  -0.0159698 -1.30371 -0.00208068  -0.0730414 -1.45656 -0.00345898  -0.0268121 -1.48013 -0.00192761  -0.00731134 -1.4286 -0.00410461  -0.0732033 -1.45676 -0.00172949  -0.053375 -1.40543 -0.0036869  -0.00754714 -1.4288 -0.00205493  -0.0535822 -1.40566 -0.00184345  -0.113748 -1.55891 -0.00303316  -0.0668592 -1.58284 -0.00168419  -0.0463841 -1.53131 -0.00360203  -0.113889 -1.55908 -0.0015161  -0.0931339 -1.50769 -0.00324202  -0.0465865 -1.53147 -0.00180173  -0.0933108 -1.5079 -0.00162196  -0.156162 -1.66132 -0.00263357  -0.108696 -1.68556 -0.00146484  -0.0873885 -1.63407 -0.0031395  -0.156271 -1.66147 -0.00132203  -0.134731 -1.61009 -0.00283146  -0.0875664 -1.63421 -0.00157404  -0.134879 -1.61027 -0.00141859  -0.20001 -1.76371 -0.00225878  -0.152066 -1.78818 -0.00124907  -0.130062 -1.73677 -0.0027132  -0.2001 -1.76383 -0.00113297  -0.177894 -1.7125 -0.00244522  -0.130203 -1.73689 -0.00136161  -0.178017 -1.71266 -0.00122619  -0.245077 -1.86595 -0.00191593  -0.19673 -1.8906 -0.00105858  -0.17412 -1.83932 -0.00230312  -0.245148 -1.86606 -0.000959873  -0.222382 -1.81483 -0.00208902  -0.174244 -1.83941 -0.00115466  -0.222479 -1.81496 -0.00104451  -0.291156 -1.968 -0.00160408  -0.242465 -1.99275 -0.000878811  -0.219363 -1.94163 -0.00193119  -0.291205 -1.96808 -0.000802755  -0.267975 -1.91698 -0.00175619  -0.21947 -1.94171 -0.000967503  -0.268058 -1.91709 -0.000878096  -0.338057 -2.06978 -0.00131845  -0.289094 -2.0946 -0.000720739  -0.265596 -2.04366 -0.00160599  -0.338089 -2.06984 -0.000659466  -0.314489 -2.0189 -0.00145483  -0.265682 -2.04372 -0.000803232  -0.314553 -2.01899 -0.000731707  -0.385601 -2.17125 -0.00105906  -0.33642 -2.19609 -0.000583649  -0.312609 -2.14535 -0.00129461  -0.385618 -2.1713 -0.000527382  -0.361732 -2.12054 -0.00118446  -0.312679 -2.14539 -0.00064683  -0.361777 -2.12061 -0.000591278  -0.433635 -2.27239 -0.000825405  -0.384294 -2.29721 -0.00045228  -0.360243 -2.24667 -0.00102043  -0.433635 -2.27243 -0.000414133  -0.409537 -2.22184 -0.0009408  -0.360291 -2.24669 -0.000511885  -0.409566 -2.2219 -0.000468493  -0.482036 -2.37316 -0.000621319  -0.432568 -2.39794 -0.000341892  -0.408344 -2.34761 -0.000781536  -0.482023 -2.37319 -0.000307322  -0.457768 -2.3228 -0.000723362  -0.408383 -2.34763 -0.000389576  -0.457791 -2.32285 -0.000360727  -0.530671 -2.47358 -0.000448704  -0.481132 -2.49828 -0.000236273  -0.456795 -2.44815 -0.000580788  -0.530655 -2.4736 -0.000223875  -0.506309 -2.4234 -0.000533581  -0.456818 -2.44816 -0.000291109  -0.506311 -2.42344 -0.000266314  -0.579439 -2.57363 -0.000301838  -0.529851 -2.59826 -0.00016427  -0.505455 -2.54831 -0.000400066  -0.579416 -2.57365 -0.000151157  -0.555019 -2.52363 -0.000373363  -0.505479 -2.54831 -0.000205278  -0.555018 -2.52366 -0.000183821  -0.628251 -2.67335 -0.000179768  -0.578654 -2.69789 -9.799e-05  -0.554235 -2.6481 -0.000258446  -0.62822 -2.67336 -8.65459e-05  -0.603818 -2.62351 -0.000240326  -0.554248 -2.64811 -0.000128746  -0.603815 -2.62354 -0.000119448  -0.677052 -2.77278 -8.01086e-05  -0.627458 -2.79726 -4.26769e-05  -0.603044 -2.7476 -0.00013876  -0.677015 -2.77279 -3.88622e-05  -0.65263 -2.72308 -0.000128746  -0.603056 -2.7476 -6.77109e-05  -0.652617 -2.7231 -6.12736e-05  -0.725857 -2.872 2.67029e-05  -0.676271 -2.89646 -1.19209e-06  -0.651842 -2.84686 -4.673e-05  -0.725815 -2.87201 1.3113e-05  -0.701422 -2.82238 -3.05176e-05  -0.651847 -2.84686 -2.59876e-05  -0.701406 -2.82241 -1.52588e-05  -0.0416307 -0.0353785 0.0137377  -0.020806 -0.0216866 0.010643  0 0 0  -0.0257897 -0.0238015 0.0162516  0 0 0  -0.0169486 -0.0172335 0.00985479  -0.00682684 -0.00593583 0.00739288  0 0 0  -0.0215646 -0.0226245 0.00772285  -0.0261128 -0.0256009 0.011796  -0.00986161 -0.0109216 0.00889826  0 0 0  -0.00682152 -0.00661699 0.00537586  -0.00992478 -0.0117054 0.00647736  -0.0795036 -0.0581103 0.0219021  -0.0590684 -0.0436466 0.0255022  -0.0599237 -0.0474057 0.0258946  -0.0450972 -0.0444261 0.0160341  -0.0304112 -0.0279933 0.0184631  -0.0602534 -0.0464387 0.0184832  -0.0604308 -0.0506301 0.0189176  -0.0426367 -0.034998 0.021914  -0.0304959 -0.0303243 0.0134363  -0.0430742 -0.037663 0.0159287  -0.119332 -0.085755 0.0253258  -0.0982586 -0.0671587 0.0328841  -0.0951758 -0.0773084 0.0296025  -0.0755118 -0.0775592 0.018661  -0.0598072 -0.056825 0.024055  -0.0992059 -0.0710221 0.024138  -0.0958198 -0.0810314 0.0219374  -0.0774447 -0.061289 0.0283809  -0.0601395 -0.0600546 0.0177345  -0.0780044 -0.0648907 0.0208735  -0.159967 -0.120829 0.0253696  -0.138672 -0.0982541 0.0344553  -0.131072 -0.115543 0.0293527  -0.107092 -0.118309 0.0187516  -0.0904379 -0.0935556 0.025331  -0.139618 -0.102321 0.0256577  -0.132023 -0.119163 0.022017  -0.113038 -0.0953778 0.0298171  -0.0911488 -0.0969795 0.0189385  -0.113833 -0.0991298 0.0222468  -0.200556 -0.163307 0.0236163  -0.17912 -0.137423 0.0327673  -0.167572 -0.161333 0.0271506  -0.139853 -0.166249 0.0174541  -0.122189 -0.138206 0.0241432  -0.180285 -0.141188 0.0246325  -0.168853 -0.164584 0.0205059  -0.149228 -0.137528 0.0283942  -0.123319 -0.141429 0.0182104  -0.150365 -0.141013 0.0213876  -0.240996 -0.21247 0.0211616  -0.219383 -0.18383 0.0296855  -0.20471 -0.213656 0.0242305  -0.173795 -0.220509 0.0156059  -0.155208 -0.189777 0.0218635  -0.220788 -0.187107 0.0224328  -0.206225 -0.216445 0.0183578  -0.186036 -0.186699 0.0257249  -0.15667 -0.192634 0.0165615  -0.187466 -0.189753 0.0194659  -0.28151 -0.267618 0.0186129  -0.259673 -0.236587 0.026258  -0.242575 -0.271672 0.0212588  -0.208912 -0.280324 0.0136652  -0.189536 -0.247307 0.0192838  -0.261229 -0.239346 0.0198851  -0.244211 -0.27401 0.0161128  -0.223517 -0.241958 0.0227294  -0.191201 -0.249755 0.0146303  -0.225128 -0.244547 0.0172253  -0.322374 -0.328113 0.0162487  -0.300261 -0.294953 0.0229759  -0.281301 -0.334744 0.0185108  -0.245268 -0.345101 0.0118532  -0.225195 -0.310059 0.016798  -0.301885 -0.297238 0.0174017  -0.282962 -0.336702 0.0140219  -0.261798 -0.302577 0.019846  -0.226927 -0.312119 0.0127354  -0.263478 -0.304744 0.0150399  -0.363829 -0.393419 0.0141325  -0.341416 -0.358312 0.0200238  -0.321021 -0.402378 0.0160818  -0.282909 -0.414333 0.0102525  -0.262198 -0.37746 0.0145617  -0.343019 -0.360207 0.0151539  -0.32263 -0.404002 0.0121679  -0.301008 -0.367996 0.0172548  -0.263916 -0.379181 0.0110273  -0.302669 -0.369798 0.013062  -0.406066 -0.463072 0.0122962  -0.383318 -0.426159 0.0174341  -0.361819 -0.474109 0.0139699  -0.321894 -0.487584 0.00885725  -0.300587 -0.449035 0.0126023  -0.384846 -0.427739 0.0131826  -0.363332 -0.47547 0.0105529  -0.341259 -0.43773 0.0149865  -0.302226 -0.450479 0.00953102  -0.342842 -0.439238 0.0113301  -0.449163 -0.536636 0.0106969  -0.426071 -0.498068 0.0151868  -0.403738 -0.549557 0.0121341  -0.36224 -0.564454 0.00765562  -0.340359 -0.524372 0.0109072  -0.427503 -0.499389 0.0114722  -0.405137 -0.550697 0.00915575  -0.382613 -0.511364 0.0130172  -0.341893 -0.525585 0.00823593  -0.384094 -0.512632 0.00982952  -0.493182 -0.613722 0.00930643  -0.469745 -0.57365 0.0132256  -0.446777 -0.628346 0.0105348  -0.40391 -0.644571 0.00660801  -0.381502 -0.603101 0.00943708  -0.471057 -0.574763 0.00997877  -0.448048 -0.629307 0.0079422  -0.425096 -0.588531 0.0113068  -0.382903 -0.604123 0.00711632  -0.426449 -0.589596 0.00853014  -0.538118 -0.693999 0.00807285  -0.514343 -0.652551 0.0115023  -0.4909 -0.710144 0.00912094  -0.446849 -0.727592 0.0056963  -0.423945 -0.684869 0.00814915  -0.515535 -0.653486 0.00867033  -0.492045 -0.71096 0.00687122  -0.468683 -0.668867 0.00980473  -0.425219 -0.685734 0.00614119  -0.469911 -0.669771 0.00739145  -0.583938 -0.777134 0.00698185  -0.559848 -0.734432 0.00997448  -0.536049 -0.79465 0.00786972  -0.490982 -0.81321 0.00488949  -0.467617 -0.769363 0.00701046  -0.56092 -0.735227 0.00751925  -0.537073 -0.79534 0.00592327  -0.513325 -0.752056 0.00847912  -0.468766 -0.770092 0.00528002  -0.51443 -0.752825 0.0063858  -0.630575 -0.86283 0.00600576  -0.606191 -0.819012 0.00860786  -0.582143 -0.881564 0.00675344  -0.536204 -0.901131 0.00417662  -0.51243 -0.856283 0.00601244  -0.607155 -0.81968 0.00648117  -0.583044 -0.88215 0.00508308  -0.558961 -0.837798 0.00729465  -0.51346 -0.856895 0.00452471  -0.559942 -0.838454 0.00549126  -0.677958 -0.950822 0.00514698  -0.653318 -0.905987 0.00739241  -0.629084 -0.970626 0.00576067  -0.582404 -0.991092 0.00354004  -0.55827 -0.945355 0.00511885  -0.654178 -0.906559 0.00556707  -0.629881 -0.971122 0.00433254  -0.605488 -0.925821 0.00624466  -0.559187 -0.945872 0.00384998  -0.606359 -0.926379 0.00469828  -0.725997 -1.04085 0.00436258  -0.701151 -0.995113 0.00630236  -0.676781 -1.06159 0.00486231  -0.629471 -1.08285 0.00296831  -0.605031 -1.03633 0.00431633  -0.701902 -0.995596 0.00474453  -0.677472 -1.06201 0.00365686  -0.652822 -1.01587 0.00529766  -0.605835 -1.03676 0.00324965  -0.653586 -1.01634 0.0039854  -0.774607 -1.13265 0.00366211  -0.749581 -1.08613 0.00531387  -0.725114 -1.15422 0.00406408  -0.677278 -1.17617 0.00246143  -0.652581 -1.12897 0.00360632  -0.750232 -1.08654 0.00399733  -0.72571 -1.15457 0.00305367  -0.700848 -1.10769 0.00445032  -0.653284 -1.12933 0.00270748  -0.70151 -1.10808 0.00334787  -0.823684 -1.22603 0.00303268  -0.798521 -1.17882 0.00442982  -0.773978 -1.2483 0.00334597  -0.72571 -1.27085 0.00200891  -0.700808 -1.22306 0.00296926  -0.799092 -1.17915 0.003335  -0.774493 -1.24859 0.00251532  -0.749462 -1.20107 0.00369358  -0.701419 -1.22336 0.00222874  -0.750036 -1.2014 0.00277615  -0.873121 -1.32076 0.0024724  -0.847876 -1.27296 0.0036459  -0.823275 -1.34363 0.00271034  -0.774643 -1.3667 0.00160933  -0.749587 -1.31839 0.00239706  -0.848358 -1.27324 0.00274324  -0.823704 -1.34387 0.00203753  -0.798557 -1.2958 0.00301647  -0.750118 -1.31864 0.00180006  -0.799048 -1.29608 0.00227261  -0.922837 -1.41668 0.00197697  -0.897535 -1.36836 0.00294065  -0.872895 -1.44004 0.00214958  -0.823972 -1.46352 0.0012598  -0.798813 -1.4148 0.00190496  -0.897943 -1.36858 0.00221443  -0.873256 -1.44023 0.00161505  -0.848026 -1.39169 0.00241947  -0.799255 -1.41499 0.0014329  -0.848438 -1.39192 0.00182056  -0.972746 -1.51356 0.00154591  -0.947429 -1.46482 0.00232697  -0.922745 -1.53733 0.00165272  -0.873585 -1.56116 0.000954151  -0.848362 -1.51209 0.00146246  -0.947769 -1.46501 0.00175142  -0.923036 -1.53748 0.0012455  -0.897769 -1.48856 0.00188923  -0.848741 -1.51225 0.0010972  -0.898117 -1.48875 0.00142384  -1.02276 -1.61127 0.00116396  -0.997458 -1.56219 0.00178289  -0.972735 -1.63537 0.00123024  -0.923399 -1.65948 0.000681877  -0.898155 -1.61013 0.00108147  -0.997739 -1.56233 0.00134325  -0.972968 -1.63549 0.000921249  -0.947707 -1.58625 0.00143147  -0.898468 -1.61024 0.000812531  -0.947984 -1.5864 0.00107861  -1.0728 -1.70966 0.000834942  -1.04754 -1.66029 0.00131559  -1.02279 -1.734 0.000860214  -0.973315 -1.75832 0.000464439  -0.948091 -1.70875 0.000755787  -1.04777 -1.66039 0.000993729  -1.02297 -1.73409 0.000648975  -0.997735 -1.6846 0.00103235  -0.948344 -1.70884 0.000567913  -0.997959 -1.68472 0.000778675  -1.12281 -1.80856 0.000567913  -1.09764 -1.75897 0.000917912  -1.07283 -1.83308 0.000557423  -1.02326 -1.85755 0.000282288  -0.998081 -1.80782 0.000487804  -1.09781 -1.75905 0.000695229  -1.07296 -1.83315 0.000420094  -1.04779 -1.78347 0.000699997  -0.998281 -1.80789 0.000365734  -1.04796 -1.78357 0.000527382  -1.17274 -1.90785 0.000346661  -1.14765 -1.8581 0.000588417  -1.1228 -1.93249 0.000316143  -1.07316 -1.95706 0.000133038  -1.04805 -1.90723 0.000271797  -1.14778 -1.85817 0.00044775  -1.12289 -1.93254 0.00024128  -1.0978 -1.88274 0.000427723  -1.04821 -1.90727 0.000205517  -1.09793 -1.88281 0.000322819  -1.22253 -2.00741 0.000174999  -1.19755 -1.95758 0.000331402  -1.17266 -2.03212 0.000130177  -1.12299 -2.05675 2.76566e-05  -1.09797 -2.00686 0.000103474  -1.19765 -1.9576 0.000255585  -1.17272 -2.03215 9.9659e-05  -1.14772 -1.98227 0.000215054  -1.09808 -2.00689 7.77245e-05  -1.14782 -1.98232 0.000165939  -1.27217 -2.10713 6.48499e-05  -1.24729 -2.05725 0.000141144  -1.22236 -2.13186 1.43051e-06  -1.17267 -2.15649 -4.00543e-05  -1.14775 -2.1066 -1.4782e-05  -1.24737 -2.05725 0.000111103  -1.22239 -2.13187 5.72205e-06  -1.1975 -2.08197 6.05583e-05  -1.14784 -2.10661 -8.10623e-06  -1.19757 -2.082 5.19753e-05  -1.32163 -2.20689 -1.4782e-05  -1.29686 -2.157 1.38283e-05  -1.27189 -2.2316 -6.77109e-05  -1.2222 -2.25623 -7.62939e-05  -1.19739 -2.20637 -8.44002e-05  -1.29692 -2.157 1.66893e-05  -1.27189 -2.23161 -4.62532e-05  -1.24712 -2.18171 -3.91006e-05  -1.19745 -2.20636 -6.00815e-05  -1.24716 -2.18174 -2.57492e-05  -1.37093 -2.30661 -4.14848e-05  -1.34626 -2.25676 -5.24521e-05  -1.32124 -2.33128 -9.48906e-05  -1.27156 -2.35587 -8.7738e-05  -1.24684 -2.30607 -0.00011301  -1.34629 -2.25676 -3.62396e-05  -1.32124 -2.33127 -6.48499e-05  -1.29656 -2.28144 -8.4877e-05  -1.24689 -2.30607 -8.2016e-05  -1.29658 -2.28145 -5.62668e-05  -1.4201 -2.40619 -4.95911e-05  -1.39548 -2.35644 -7.39098e-05  -1.37042 -2.4308 -8.72612e-05  -1.32075 -2.45536 -7.53403e-05  -1.29613 -2.40565 -0.00011158  -1.39552 -2.35642 -5.24521e-05  -1.37042 -2.4308 -6.67572e-05  -1.34582 -2.38104 -9.44138e-05  -1.29617 -2.40564 -8.44002e-05  -1.34584 -2.38105 -6.81877e-05  -1.46921 -2.50562 -4.43459e-05  -1.44462 -2.45594 -5.8651e-05  -1.41953 -2.53018 -7.67708e-05  -1.36984 -2.5547 -5.8651e-05  -1.34525 -2.50506 -9.77516e-05  -1.44464 -2.45592 -4.00543e-05  -1.41953 -2.53017 -5.76973e-05  -1.39496 -2.48049 -8.01086e-05  -1.34529 -2.50505 -6.86646e-05  -1.39497 -2.4805 -5.57899e-05  -0.012033 -0.0116701 0.0110803  0 0 0  -0.00818734 -0.0107492 0.0063529  -0.00325643 -0.00226477 0.00467348  0 0 0  -0.0120096 -0.012975 0.00805902  -0.00460757 -0.00344506 0.00596905  0 0 0  -0.00324375 -0.0028356 0.00339556  -0.00457159 -0.00408159 0.00434065  -0.0329465 -0.0375998 0.0181046  -0.023148 -0.0375518 0.0105519  -0.0149651 -0.0209903 0.0120292  -0.0330184 -0.0400708 0.0132627  -0.0217168 -0.0233742 0.0151868  -0.0149747 -0.0227219 0.0087738  -0.0217024 -0.0253735 0.0110602  -0.0575035 -0.0723094 0.0208273  -0.0424337 -0.0743488 0.0123801  -0.0321927 -0.0523596 0.0158658  -0.0578986 -0.0753277 0.0154896  -0.0449554 -0.0538423 0.0199151  -0.0324098 -0.0548845 0.0117321  -0.0451645 -0.0567014 0.0147028  -0.0838231 -0.115242 0.0206871  -0.0642877 -0.119219 0.0124531  -0.0524337 -0.0929777 0.0167603  -0.0846782 -0.118307 0.0155702  -0.0704367 -0.0927386 0.020999  -0.0530721 -0.0958228 0.0125756  -0.0710708 -0.0958622 0.0157275  -0.111924 -0.16559 0.0191178  -0.0884064 -0.171258 0.0115585  -0.0749703 -0.141582 0.0159659  -0.113187 -0.168433 0.0144796  -0.0976242 -0.139515 0.02001  -0.0760549 -0.144391 0.0120835  -0.0987111 -0.142523 0.0151157  -0.141912 -0.222316 0.017015  -0.114836 -0.229563 0.0102749  -0.0999051 -0.197088 0.0144024  -0.143445 -0.224833 0.0129151  -0.126659 -0.193176 0.0180931  -0.101329 -0.199673 0.010942  -0.128092 -0.195893 0.0137253  -0.173781 -0.284555 0.0148497  -0.143542 -0.293332 0.00891924  -0.12728 -0.258512 0.0126185  -0.175445 -0.286713 0.0112715  -0.15759 -0.252755 0.0159206  -0.128902 -0.2608 0.00959301  -0.159225 -0.255122 0.0120888  -0.207478 -0.351627 0.0128412  -0.174455 -0.361904 0.00765038  -0.157024 -0.325071 0.0108881  -0.209162 -0.353457 0.00973463  -0.190376 -0.317486 0.0138178  -0.158719 -0.327044 0.00826836  -0.192083 -0.319502 0.0104861  -0.242943 -0.422997 0.0110688  -0.207487 -0.434749 0.00652599  -0.189029 -0.396133 0.00932407  -0.244582 -0.424541 0.00837708  -0.224962 -0.386765 0.0119195  -0.190706 -0.397816 0.00706863  -0.226652 -0.388476 0.00903368  -0.280138 -0.498211 0.00952673  -0.242559 -0.511395 0.00555706  -0.223166 -0.471178 0.00795937  -0.281681 -0.499516 0.00719643  -0.261301 -0.460115 0.0102658  -0.224768 -0.472617 0.00602627  -0.262918 -0.461559 0.00776386  -0.318997 -0.576886 0.00819397  -0.279568 -0.591421 0.00472403  -0.259326 -0.549784 0.0067873  -0.320419 -0.57799 0.00618219  -0.299339 -0.537108 0.0088377  -0.260822 -0.551003 0.00513029  -0.300845 -0.538335 0.00667143  -0.359426 -0.658647 0.00704193  -0.318397 -0.674461 0.00401592  -0.297384 -0.631545 0.0057745  -0.360725 -0.659582 0.00530386  -0.338994 -0.617374 0.00759745  -0.298756 -0.632581 0.00435781  -0.340375 -0.618411 0.0057292  -0.401332 -0.743165 0.00603104  -0.358913 -0.760168 0.00339508  -0.33719 -0.71612 0.00490475  -0.402504 -0.74396 0.00453949  -0.380175 -0.700556 0.00652266  -0.338449 -0.716997 0.00369692  -0.381431 -0.701437 0.00491381  -0.444596 -0.830128 0.00514555  -0.400977 -0.848235 0.00285721  -0.378623 -0.803172 0.00414371  -0.445646 -0.830806 0.0038662  -0.422775 -0.786333 0.00557232  -0.379751 -0.803919 0.00311708  -0.423903 -0.787084 0.00419521  -0.489102 -0.919267 0.00436354  -0.444448 -0.938363 0.00238895  -0.421531 -0.892417 0.00347805  -0.490028 -0.919837 0.00327921  -0.46668 -0.87442 0.00474262  -0.422541 -0.893051 0.00261688  -0.467685 -0.875062 0.00356531  -0.534708 -1.01031 0.00366974  -0.489163 -1.0303 0.00197268  -0.465754 -0.983582 0.00289249  -0.53552 -1.01079 0.00275755  -0.51175 -0.964542 0.00400591  -0.466654 -0.98412 0.00217581  -0.512642 -0.965084 0.00300789  -0.581282 -1.10302 0.00305223  -0.534986 -1.12381 0.00160789  -0.511145 -1.07642 0.00238132  -0.581995 -1.10343 0.00229025  -0.557855 -1.05645 0.00334883  -0.511942 -1.07687 0.00179052  -0.558643 -1.05691 0.00251579  -0.628694 -1.19718 0.00249672  -0.581748 -1.21867 0.00129318  -0.557556 -1.1707 0.00192785  -0.629311 -1.19752 0.00187397  -0.604864 -1.14991 0.00276661  -0.558249 -1.17108 0.00144386  -0.605548 -1.1503 0.0020771  -0.6768 -1.29258 0.0020113  -0.629315 -1.31469 0.00100756  -0.604828 -1.26623 0.00152826  -0.677333 -1.29286 0.00150967  -0.652643 -1.24472 0.00224829  -0.605435 -1.26655 0.00114775  -0.653236 -1.24504 0.001688  -0.725487 -1.38904 0.00158358  -0.677538 -1.41168 0.000765324  -0.652829 -1.36281 0.00118113  -0.725934 -1.38927 0.00118589  -0.701054 -1.34067 0.00178576  -0.653347 -1.36307 0.000880718  -0.701563 -1.34094 0.00133991  -0.774624 -1.48639 0.00120544  -0.726294 -1.50947 0.000556946  -0.701405 -1.46027 0.000878334  -0.774998 -1.48658 0.000907898  -0.749981 -1.43759 0.00138807  -0.701854 -1.46048 0.000657082  -0.75041 -1.43782 0.00104237  -0.824099 -1.58447 0.000877857  -0.775457 -1.60792 0.000370502  -0.750446 -1.55845 0.000612259  -0.824405 -1.58462 0.000659466  -0.7993 -1.53533 0.00103903  -0.750828 -1.55862 0.000459671  -0.799659 -1.53551 0.000779152  -0.873816 -1.68314 0.000608444  -0.824912 -1.70689 0.000216961  -0.799838 -1.65721 0.00039053  -0.874056 -1.68326 0.000455379  -0.848905 -1.63372 0.00073576  -0.800151 -1.65735 0.00028944  -0.8492 -1.63387 0.000551224  -0.923668 -1.78226 0.000374794  -0.874563 -1.80625 9.82285e-05  -0.849463 -1.75642 0.000204086  -0.92386 -1.78235 0.000279427  -0.898705 -1.73263 0.000485897  -0.849715 -1.75653 0.000155449  -0.898943 -1.73275 0.00036335  -0.973579 -1.8817 0.00018692  -0.924318 -1.90588 -2.86102e-06  -0.899224 -1.85596 5.91278e-05  -0.973721 -1.88178 0.000141621  -0.948597 -1.83193 0.000273228  -0.899429 -1.85603 4.43459e-05  -0.948783 -1.83202 0.000205517  -1.02347 -1.98137 4.52995e-05  -0.974097 -2.00568 -6.53267e-05  -0.949048 -1.95571 -5.10216e-05  -1.02358 -1.98143 3.43323e-05  -0.998512 -1.9315 0.00011301  -0.949204 -1.95576 -3.86238e-05  -0.998647 -1.93157 8.39233e-05  -1.0733 -2.08116 -5.76973e-05  -1.02383 -2.10556 -0.000113487  -0.998843 -2.05557 -0.000124931  -1.07337 -2.0812 -3.91006e-05  -1.04837 -2.03124 -7.62939e-06  -0.998968 -2.05561 -9.63211e-05  -1.04848 -2.0313 -5.24521e-06  -1.123 -2.18098 -0.000112057  -1.07348 -2.20542 -0.000136375  -1.04857 -2.15547 -0.000168324  -1.12304 -2.181 -8.44002e-05  -1.09814 -2.13106 -8.72612e-05  -1.04866 -2.15549 -0.000125885  -1.09821 -2.13109 -6.7234e-05  -1.17255 -2.28074 -0.000145435  -1.12297 -2.30522 -0.000138283  -1.09818 -2.25533 -0.000183105  -1.17257 -2.28076 -0.000105858  -1.14778 -2.23085 -0.000135422  -1.09824 -2.25533 -0.000134945  -1.14782 -2.23088 -0.000102043  -1.22192 -2.3804 -0.000138283  -1.17232 -2.40488 -0.000115395  -1.14761 -2.35506 -0.000167847  -1.22192 -2.3804 -0.000102997  -1.19722 -2.33057 -0.000145912  -1.14767 -2.35507 -0.000124931  -1.19726 -2.33059 -0.000105381  -1.27111 -2.47988 -0.000111103  -1.22149 -2.50435 -8.96454e-05  -1.19688 -2.45464 -0.000138283  -1.27111 -2.47987 -8.34465e-05  -1.24651 -2.43014 -0.000126839  -1.19691 -2.45463 -0.000103951  -1.24653 -2.43016 -9.20296e-05  -1.32016 -2.57916 -8.7738e-05  -1.27051 -2.60361 -5.8651e-05  -1.24597 -2.55401 -0.000100136  -1.32017 -2.57917 -6.24657e-05  -1.29562 -2.52953 -9.87053e-05  -1.24601 -2.55401 -7.34329e-05  -1.29564 -2.52954 -7.15256e-05  -0.00506414 -0.00892863 0.00645018  0 0 0  -0.00241756 -0.0100466 0.00309944  -0.000960633 -0.00204968 0.00223303  0 0 0  -0.00509784 -0.00992522 0.00470638  -0.00199426 -0.00188911 0.00343513  0 0 0  -0.000985164 -0.00249645 0.00164127  -0.00199476 -0.00240117 0.00250578  -0.0147552 -0.0348006 0.0107269  -0.00754279 -0.0371799 0.00527525  -0.00440845 -0.0205726 0.00588751  -0.0149001 -0.0366896 0.00789165  -0.009354 -0.0201736 0.00892639  -0.00457206 -0.0219178 0.00433207  -0.00942259 -0.0216911 0.00652742  -0.0282399 -0.0721809 0.0124717  -0.0160808 -0.0761118 0.00629997  -0.0109999 -0.0533919 0.00795603  -0.0286837 -0.0746233 0.00931501  -0.0210904 -0.0522392 0.0118732  -0.0113915 -0.0554245 0.00592613  -0.0213635 -0.0544934 0.00880623  -0.044672 -0.118444 0.0124211  -0.0279612 -0.123913 0.00637579  -0.0208839 -0.0965897 0.00851345  -0.0455236 -0.121078 0.00939083  -0.0360923 -0.0942555 0.0125976  -0.0216063 -0.0990145 0.00643158  -0.0367464 -0.0968698 0.00947666  -0.0639787 -0.172217 0.0114341  -0.0431553 -0.17908 0.0058713  -0.0340698 -0.14811 0.00809336  -0.0651874 -0.174786 0.00869322  -0.0539439 -0.144422 0.0119944  -0.0351384 -0.150638 0.00616789  -0.0549992 -0.147081 0.00910091  -0.0862381 -0.232439 0.0100765  -0.061698 -0.240607 0.00511265  -0.0506625 -0.206683 0.00720119  -0.0876928 -0.234792 0.0076766  -0.0747222 -0.201547 0.0107732  -0.0520064 -0.209098 0.00550938  -0.076081 -0.204048 0.00820541  -0.111416 -0.298197 0.00866461  -0.0835255 -0.30766 0.0043025  -0.070702 -0.271276 0.00615072  -0.112989 -0.300278 0.00659704  -0.0984483 -0.264635 0.0093627  -0.0722052 -0.273484 0.00470781  -0.0999925 -0.266888 0.0071373  -0.139381 -0.368749 0.00735188  -0.108499 -0.379522 0.00354242  -0.0940613 -0.34107 0.00511885  -0.140973 -0.370556 0.00558996  -0.125036 -0.332876 0.00798988  -0.0956265 -0.343022 0.00391579  -0.12665 -0.334845 0.00608015  -0.169956 -0.443503 0.0061903  -0.136433 -0.455595 0.002882  -0.120559 -0.415352 0.00419426  -0.171506 -0.445061 0.00469637  -0.154331 -0.405597 0.00674963  -0.122102 -0.417063 0.00320339  -0.155924 -0.407306 0.00512791  -0.202969 -0.521959 0.00519609  -0.167131 -0.535351 0.00231791  -0.149964 -0.493558 0.00339699  -0.204432 -0.5233 0.00393486  -0.186143 -0.482264 0.00567245  -0.151445 -0.495035 0.00258732  -0.187672 -0.483734 0.00430155  -0.238251 -0.60369 0.00434351  -0.200377 -0.618345 0.00184488  -0.182054 -0.575195 0.00272226  -0.239601 -0.604835 0.00328255  -0.220315 -0.562412 0.00475025  -0.183443 -0.576467 0.00206661  -0.221739 -0.563671 0.00359297  -0.275625 -0.688306 0.00362253  -0.235984 -0.70416 0.00144863  -0.216614 -0.659822 0.00216484  -0.276857 -0.689285 0.0027318  -0.25666 -0.645629 0.00396681  -0.217897 -0.66092 0.0016408  -0.257973 -0.646711 0.00299501  -0.314913 -0.775454 0.00299978  -0.273738 -0.792446 0.00111961  -0.253433 -0.747069 0.00169182  -0.316026 -0.776296 0.00226307  -0.295013 -0.731556 0.00329924  -0.254599 -0.74801 0.0012784  -0.296206 -0.732482 0.00248766  -0.355942 -0.864836 0.00246143  -0.313435 -0.882876 0.000843048  -0.292298 -0.836598 0.00129509  -0.356943 -0.865555 0.00185251  -0.335196 -0.819862 0.00272274  -0.29335 -0.837405 0.0009799  -0.336269 -0.820656 0.0020504  -0.398541 -0.956157 0.00199842  -0.354876 -0.975163 0.000621796  -0.332997 -0.928105 0.000960827  -0.399424 -0.956771 0.00150204  -0.377029 -0.910244 0.00222301  -0.333943 -0.928797 0.000727177  -0.377989 -0.910928 0.00167036  -0.442523 -1.04917 0.00159645  -0.397861 -1.06904 0.000423431  -0.375339 -1.02132 0.000685692  -0.443301 -1.04969 0.00120163  -0.420344 -1.00244 0.00179052  -0.376181 -1.02191 0.000514984  -0.421195 -1.00303 0.00134754  -0.487732 -1.14362 0.00124836  -0.442211 -1.16428 0.000257492  -0.419125 -1.11599 0.000442505  -0.488411 -1.14407 0.000934601  -0.464958 -1.0962 0.00141573  -0.419868 -1.1165 0.00033617  -0.465708 -1.0967 0.00106144  -0.533985 -1.23932 0.000946522  -0.487726 -1.26066 0.000123978  -0.464173 -1.21191 0.000249386  -0.534574 -1.2397 0.000711441  -0.51071 -1.19131 0.00109148  -0.464827 -1.21234 0.000188828  -0.511366 -1.19174 0.000819206  -0.581125 -1.33607 0.0006814  -0.534247 -1.35801 4.29153e-06  -0.5103 -1.30887 8.01086e-05  -0.581637 -1.33638 0.000508308  -0.55743 -1.28755 0.000806808  -0.510866 -1.30923 6.1512e-05  -0.557997 -1.28792 0.000604153  -0.629014 -1.43369 0.000454903  -0.581599 -1.45615 -8.7738e-05  -0.557328 -1.40669 -5.57899e-05  -0.629442 -1.43395 0.000337601  -0.604962 -1.38476 0.000559807  -0.557822 -1.40699 -4.3869e-05  -0.605451 -1.38506 0.00042057  -0.677494 -1.53202 0.00026989  -0.62963 -1.55493 -0.000161171  -0.605112 -1.50522 -0.000159264  -0.677857 -1.53223 0.000200272  -0.653164 -1.48275 0.000359058  -0.605532 -1.50547 -0.000122547  -0.653576 -1.483 0.000266075  -0.726446 -1.63092 0.000107288  -0.678198 -1.6542 -0.00021553  -0.653502 -1.6043 -0.000247478  -0.72674 -1.63109 7.82013e-05  -0.701893 -1.58138 0.000182629  -0.653852 -1.60451 -0.000190258  -0.702239 -1.58159 0.000134945  -0.775737 -1.73026 -1.7643e-05  -0.727182 -1.75385 -0.000250816  -0.702353 -1.70381 -0.000317574  -0.77597 -1.7304 -1.57356e-05  -0.751029 -1.68052 3.95775e-05  -0.702641 -1.70398 -0.000236511  -0.751311 -1.68069 3.14713e-05  -0.825262 -1.82992 -0.000114441  -0.776453 -1.85375 -0.000273228  -0.751541 -1.80363 -0.000350475  -0.825444 -1.83003 -8.4877e-05  -0.800451 -1.78004 -7.15256e-05  -0.751779 -1.80377 -0.000263691  -0.800674 -1.78018 -5.24521e-05  -0.87493 -1.92979 -0.000187874  -0.825912 -1.9538 -0.000286102  -0.80097 -1.90366 -0.000370979  -0.875059 -1.92987 -0.000149727  -0.850055 -1.87981 -0.000155926  -0.801159 -1.90376 -0.00028038  -0.850233 -1.87993 -0.000115871  -0.924643 -2.02976 -0.000229359  -0.875463 -2.05393 -0.000275612  -0.850531 -2.00379 -0.000378132  -0.924734 -2.02983 -0.000173092  -0.899756 -1.97975 -0.000212669  -0.850678 -2.00386 -0.000284672  -0.899891 -1.97984 -0.000162601  -0.974342 -2.12978 -0.000247955  -0.925035 -2.15405 -0.000258446  -0.900133 -2.10394 -0.000360489  -0.974396 -2.12982 -0.000185966  -0.949473 -2.07975 -0.000243187  -0.900245 -2.10399 -0.000270844  -0.949568 -2.07983 -0.000179768  -1.02396 -2.22974 -0.000237942  -0.974557 -2.25408 -0.000230312  -0.949718 -2.20404 -0.000323296  -1.02399 -2.22978 -0.000180244  -0.999132 -2.17975 -0.000245094  -0.949797 -2.20408 -0.00024271  -0.999198 -2.1798 -0.000185013  -1.07344 -2.32959 -0.000219345  -1.02397 -2.35398 -0.000191212  -0.999218 -2.30402 -0.000279427  -1.07346 -2.32961 -0.000166416  -1.04869 -2.27966 -0.000234604  -0.999273 -2.30404 -0.000215054  -1.04873 -2.27971 -0.000176907  -1.12277 -2.42927 -0.000173569  -1.07325 -2.45368 -0.000145435  -1.04859 -2.40384 -0.000222206  -1.12277 -2.42929 -0.00013113  -1.09811 -2.37944 -0.000198841  -1.04863 -2.40385 -0.000172615  -1.09813 -2.37947 -0.000147343  -1.17192 -2.52876 -0.00012064  -1.12237 -2.55317 -9.15527e-05  -1.0978 -2.50345 -0.000154495  -1.17191 -2.52877 -9.15527e-05  -1.14735 -2.47903 -0.000147343  -1.09783 -2.50345 -0.000118732  -1.14736 -2.47905 -0.000110626  -1.22089 -2.62797 -7.43866e-05  -1.17128 -2.65237 -4.3869e-05  -1.14682 -2.6028 -8.67844e-05  -1.22089 -2.628 -5.48363e-05  -1.19641 -2.57839 -9.77516e-05  -1.14685 -2.60281 -6.67572e-05  -1.19641 -2.57841 -7.15256e-05  0.000214443 -0.0101481 0.00202084  0 0 0  0.00246385 -0.0124187 -2.0504e-05  0.000986926 -0.00343445 -0.000134945  0 0 0  7.62045e-05 -0.0109216 0.00152493  3.67537e-05 -0.00258172 0.0010376  0 0 0  0.000918135 -0.003782 -4.05312e-05  -6.91041e-06 -0.00297472 0.000791073  -0.000380948 -0.0373028 0.0036025  0.00579533 -0.0414813 0.000189781  0.00456861 -0.0241565 -3.24249e-05  -0.000741988 -0.0388214 0.00269938  0.000165671 -0.0219434 0.00289297  0.00421816 -0.025264 5.67436e-05  -8.47578e-05 -0.0231529 0.00216818  -0.00364283 -0.0766661 0.00440407  0.0071243 -0.0824356 0.00043869  0.00746626 -0.0589603 0.00034523  -0.00427148 -0.078739 0.00333834  -0.00160992 -0.0556537 0.00410604  0.00683063 -0.0607093 0.000328064  -0.00210521 -0.0575266 0.00309706  -0.0103579 -0.125362 0.00444221  0.00488693 -0.132468 0.000501156  0.00737944 -0.104256 0.000569344  -0.0112754 -0.127711 0.00341368  -0.00653321 -0.0999248 0.00449705  0.00649849 -0.106431 0.000502586  -0.0073165 -0.10221 0.00343466  -0.0208532 -0.181786 0.00399542  -0.00148714 -0.190059 0.000355721  0.00333416 -0.158042 0.000489235  -0.0220288 -0.184163 0.00309086  -0.0151029 -0.15264 0.00425482  0.00223774 -0.160383 0.000449181  -0.0161725 -0.155066 0.0032835  -0.0352616 -0.244802 0.00332451  -0.012141 -0.254184 7.82013e-05  -0.00500578 -0.219042 0.00019598  -0.036608 -0.24706 0.00258255  -0.0275499 -0.212488 0.00367403  -0.00627834 -0.221355 0.000227451  -0.0288383 -0.214854 0.0028491  -0.0535085 -0.313485 0.00261402  -0.0269898 -0.323983 -0.000222206  -0.0176723 -0.286248 -0.000191689  -0.0549449 -0.315544 0.00203514  -0.0438905 -0.278444 0.0029645  -0.0190454 -0.288416 -7.39098e-05  -0.0453104 -0.280639 0.00230742  -0.0754183 -0.38705 0.00194836  -0.0458433 -0.398696 -0.000506878  -0.0345114 -0.358803 -0.000567913  -0.0768614 -0.388876 0.00151777  -0.0639974 -0.349662 0.00227022  -0.035926 -0.360763 -0.000370026  -0.0654635 -0.351633 0.00176716  -0.100744 -0.464822 0.00137615  -0.0684401 -0.477644 -0.000740528  -0.0552956 -0.435929 -0.000892639  -0.102144 -0.466425 0.00107193  -0.0876442 -0.425411 0.00165081  -0.0566834 -0.437671 -0.000627518  -0.0890927 -0.427152 0.00128555  -0.129217 -0.546239 0.00090313  -0.0945008 -0.560238 -0.000911713  -0.0797179 -0.516981 -0.00114775  -0.130544 -0.547632 0.000703335  -0.114579 -0.505073 0.00112391  -0.081051 -0.518513 -0.000832081  -0.115962 -0.506596 0.000874996  -0.160578 -0.630813 0.000518799  -0.12374 -0.645971 -0.00103664  -0.107482 -0.6014 -0.00133657  -0.16181 -0.632021 0.000402927  -0.144525 -0.588129 0.000693321  -0.108735 -0.602736 -0.000982285  -0.14583 -0.589453 0.000544548  -0.194576 -0.718117 0.000212193  -0.155879 -0.734393 -0.00111723  -0.138296 -0.688697 -0.00145721  -0.195702 -0.719165 0.000172615  -0.177236 -0.674115 0.000352859  -0.139458 -0.689865 -0.00107908  -0.17844 -0.675269 0.000281334  -0.230958 -0.807775 -3.43323e-05  -0.190628 -0.825111 -0.00116205  -0.171872 -0.778466 -0.0015378  -0.231979 -0.808689 -1.81198e-05  -0.212451 -0.762643 8.10623e-05  -0.172938 -0.779482 -0.00114107  -0.21355 -0.763645 6.86646e-05  -0.269485 -0.899473 -0.00022316  -0.227739 -0.917794 -0.00117254  -0.207935 -0.870342 -0.00157213  -0.270404 -0.900256 -0.000162125  -0.249941 -0.853362 -0.000134945  -0.208902 -0.871223 -0.00117064  -0.250929 -0.854228 -9.25064e-05  -0.309932 -0.992909 -0.000366211  -0.266952 -1.01214 -0.00116587  -0.246228 -0.964009 -0.00156927  -0.310749 -0.993586 -0.000274658  -0.289457 -0.945964 -0.000301361  -0.247093 -0.964774 -0.00117159  -0.290343 -0.946714 -0.000216007  -0.352081 -1.08782 -0.000482082  -0.30803 -1.10788 -0.0011425  -0.286494 -1.05918 -0.00154543  -0.3528 -1.0884 -0.000361443  -0.330781 -1.04017 -0.000430107  -0.287271 -1.05984 -0.00115633  -0.331571 -1.04082 -0.000319481  -0.395717 -1.18399 -0.000566483  -0.35074 -1.20479 -0.00110483  -0.328506 -1.15563 -0.00150394  -0.396345 -1.18449 -0.000424862  -0.373699 -1.13573 -0.000524998  -0.329188 -1.15619 -0.00112486  -0.374391 -1.1363 -0.000392437  -0.440629 -1.28119 -0.000621319  -0.394858 -1.30265 -0.00106001  -0.37203 -1.25312 -0.00144339  -0.44118 -1.28162 -0.000466347  -0.418 -1.23245 -0.000596523  -0.372628 -1.2536 -0.00108337  -0.418607 -1.23293 -0.000448704  -0.486652 -1.37926 -0.000665188  -0.440193 -1.40129 -0.00100136  -0.416859 -1.35146 -0.00137472  -0.487118 -1.37962 -0.000500202  -0.463492 -1.33011 -0.000646591  -0.417379 -1.35188 -0.00103092  -0.464016 -1.33051 -0.000484943  -0.533594 -1.47802 -0.000681877  -0.486544 -1.50055 -0.000941277  -0.462799 -1.45049 -0.00129604  -0.533985 -1.47833 -0.000514507  -0.509991 -1.42854 -0.000677586  -0.463246 -1.45085 -0.000972748  -0.51044 -1.4289 -0.000510693  -0.581288 -1.57733 -0.000686646  -0.533738 -1.60028 -0.000876904  -0.509659 -1.55006 -0.00121641  -0.58161 -1.57759 -0.000518322  -0.557327 -1.52759 -0.000687599  -0.510041 -1.55036 -0.000912666  -0.557707 -1.5279 -0.000516891  -0.629584 -1.67705 -0.000674248  -0.581612 -1.70036 -0.000804901  -0.557273 -1.65003 -0.00112009  -0.629844 -1.67726 -0.000509262  -0.60534 -1.62712 -0.000682831  -0.557597 -1.65028 -0.000842094  -0.605656 -1.62738 -0.000516415  -0.678341 -1.77707 -0.000654697  -0.630021 -1.80067 -0.000730038  -0.605489 -1.75028 -0.00101995  -0.678549 -1.77725 -0.000492573  -0.653885 -1.72701 -0.000666618  -0.605754 -1.75049 -0.000766277  -0.654139 -1.72722 -0.000502586  -0.727437 -1.87728 -0.000616074  -0.678829 -1.90111 -0.000656605  -0.654166 -1.85072 -0.000919342  -0.727596 -1.87743 -0.000466347  -0.702823 -1.82714 -0.00063467  -0.654376 -1.85088 -0.000689983  -0.70303 -1.82731 -0.000476837  -0.776763 -1.97759 -0.00056839  -0.727912 -2.0016 -0.000573635  -0.70317 -1.95122 -0.000816822  -0.776874 -1.9777 -0.000426292  -0.752051 -1.92741 -0.00059557  -0.703337 -1.95135 -0.000613213  -0.752209 -1.92755 -0.000448227  -0.826209 -2.0779 -0.000511169  -0.777174 -2.10205 -0.000489235  -0.752394 -2.05173 -0.000711918  -0.826289 -2.07799 -0.00038147  -0.801449 -2.02773 -0.000538349  -0.75252 -2.05184 -0.000535488  -0.801566 -2.02784 -0.000406742  -0.875703 -2.17816 -0.00044632  -0.826511 -2.20241 -0.000410557  -0.801735 -2.15217 -0.000603676  -0.875751 -2.17823 -0.000337124  -0.850925 -2.12802 -0.000475407  -0.801831 -2.15225 -0.000454426  -0.851014 -2.12812 -0.000357151  -0.925172 -2.2783 -0.000371456  -0.875865 -2.30261 -0.000326633  -0.851119 -2.25248 -0.000489712  -0.925191 -2.27835 -0.000278473  -0.90042 -2.22823 -0.00041008  -0.851183 -2.25253 -0.000366211  -0.900474 -2.2283 -0.000307083  -0.974549 -2.37826 -0.000294209  -0.925148 -2.40261 -0.000255585  -0.900468 -2.3526 -0.000384808  -0.97455 -2.37829 -0.00022316  -0.949845 -2.32828 -0.000331879  -0.900509 -2.35264 -0.000287056  -0.949878 -2.32834 -0.000250816  -1.0238 -2.478 -0.000206947  -0.974334 -2.50238 -0.000171661  -0.949722 -2.4525 -0.000273705  -1.02379 -2.47803 -0.000156879  -0.999169 -2.42814 -0.000250816  -0.949752 -2.45253 -0.000207901  -0.999179 -2.42819 -0.000188828  -1.07288 -2.5775 -0.000118256  -1.02338 -2.60189 -8.86917e-05  -0.998854 -2.55215 -0.00016737  -1.07287 -2.57753 -9.05991e-05  -1.04834 -2.52777 -0.000164509  -0.998873 -2.55216 -0.000128746  -1.04834 -2.52781 -0.000125408  -1.12174 -2.67669 -3.91006e-05  -1.07221 -2.70107 -8.58307e-06  -1.0478 -2.6515 -6.48499e-05  -1.12174 -2.67672 -2.67029e-05  -1.09732 -2.62712 -7.82013e-05  -1.04782 -2.65152 -5.10216e-05  -1.09732 -2.62716 -5.91278e-05  0.00512192 -0.0138716 -0.00223732  0 0 0  0.00738059 -0.0172683 -0.00297022  0.00292978 -0.00608337 -0.00240326  0 0 0  0.00487567 -0.0145222 -0.00152349  0.00193603 -0.00458276 -0.00128651  0 0 0  0.00282302 -0.00639421 -0.00163889  0.00185005 -0.00490338 -0.000854015  0.0129227 -0.0437821 -0.00319481  0.0190163 -0.0497146 -0.00461102  0.0135384 -0.0309875 -0.00561953  0.0123215 -0.0451136 -0.00225496  0.00897591 -0.027163 -0.0028801  0.0130023 -0.0320075 -0.00397587  0.00853814 -0.0282047 -0.00199652  0.0192314 -0.0852879 -0.0032959  0.0297802 -0.0928833 -0.00510979  0.0256207 -0.0684948 -0.00682259  0.0183882 -0.0871619 -0.0023818  0.0164534 -0.0632446 -0.00330067  0.0247431 -0.0701361 -0.00495625  0.0157077 -0.0649185 -0.00236034  0.021813 -0.135976 -0.00322485  0.0367235 -0.144754 -0.00511122  0.0348597 -0.115745 -0.00697613  0.0207974 -0.138161 -0.00234079  0.0210699 -0.109533 -0.00326157  0.0338281 -0.117799 -0.00513983  0.0201251 -0.111637 -0.0023613  0.0198581 -0.194497 -0.00321293  0.0388089 -0.204272 -0.00498104  0.0395433 -0.171367 -0.00682926  0.0187054 -0.196764 -0.00234175  0.0214409 -0.16428 -0.00321102  0.0384017 -0.173605 -0.00505447  0.020339 -0.166566 -0.00233126  0.0131677 -0.259808 -0.00327539  0.0358062 -0.270547 -0.00483751  0.0391583 -0.234369 -0.00662422  0.0119177 -0.262007 -0.00239277  0.0171248 -0.226319 -0.00324249  0.0379473 -0.236612 -0.00490904  0.0159012 -0.228603 -0.00236225  0.00181442 -0.330989 -0.00335407  0.0278068 -0.342711 -0.00468731  0.0336803 -0.303808 -0.0064187  0.000522316 -0.333027 -0.00246429  0.00808203 -0.29468 -0.00331783  0.0324254 -0.30594 -0.00476265  0.00678813 -0.296839 -0.00243044  -0.0139818 -0.407186 -0.00341368  0.0150419 -0.419942 -0.00453043  0.0232746 -0.378774 -0.00620031  -0.0152731 -0.409034 -0.00252056  -0.00552285 -0.368469 -0.0033946  0.0220083 -0.380734 -0.00460863  -0.00683683 -0.370445 -0.0024972  -0.0339322 -0.487662 -0.00342751  -0.00218534 -0.501485 -0.00434589  0.00821233 -0.458442 -0.00596046  -0.0351822 -0.489306 -0.00254202  -0.0234338 -0.446895 -0.00342751  0.00696969 -0.460212 -0.00443745  -0.0247283 -0.448668 -0.00253725  -0.0577047 -0.571775 -0.00340223  -0.0235332 -0.586676 -0.00414658  -0.011166 -0.542081 -0.00569248  -0.0588875 -0.573225 -0.00253105  -0.0453323 -0.529262 -0.00342464  -0.0123591 -0.543655 -0.00424814  -0.0465745 -0.530838 -0.00254059  -0.0849639 -0.658973 -0.00332785  -0.0486488 -0.674945 -0.0039258  -0.0345149 -0.629061 -0.00540829  -0.0860701 -0.660247 -0.00248098  -0.0708934 -0.614987 -0.00337076  -0.0356359 -0.63045 -0.0040369  -0.0720582 -0.616372 -0.00250769  -0.1154 -0.748788 -0.0032196  -0.07719 -0.765793 -0.00369549  -0.0614637 -0.71884 -0.00509834  -0.11642 -0.749907 -0.00240135  -0.0997815 -0.703548 -0.00327682  -0.0625045 -0.72007 -0.00381184  -0.100864 -0.704766 -0.00244284  -0.148696 -0.840808 -0.00308084  -0.108822 -0.858793 -0.00345182  -0.0916764 -0.810962 -0.00477695  -0.149618 -0.841785 -0.0023036  -0.131682 -0.794516 -0.00315475  -0.0926343 -0.812042 -0.00357199  -0.132674 -0.795584 -0.00235605  -0.184558 -0.934691 -0.00292301  -0.143224 -0.953594 -0.00320864  -0.124818 -0.905042 -0.00444698  -0.185386 -0.935543 -0.00218201  -0.166297 -0.887507 -0.00300503  -0.125691 -0.905985 -0.00332737  -0.167193 -0.888443 -0.00224781  -0.2227 -1.03013 -0.0027523  -0.180093 -1.04988 -0.00296068  -0.160581 -1.00074 -0.00411701  -0.223438 -1.03087 -0.00206041  -0.203334 -0.982206 -0.00283861  -0.161363 -1.00156 -0.0030818  -0.204136 -0.983023 -0.00212622  -0.262855 -1.12686 -0.00257397  -0.219145 -1.14737 -0.00271559  -0.198655 -1.09776 -0.0037899  -0.263514 -1.12751 -0.00192642  -0.242515 -1.07832 -0.002666  -0.199358 -1.09848 -0.00283813  -0.243232 -1.07903 -0.00199699  -0.304788 -1.22465 -0.00239134  -0.260102 -1.24585 -0.00247717  -0.238777 -1.19587 -0.00346422  -0.305355 -1.22521 -0.00179243  -0.28359 -1.17561 -0.00248384  -0.239396 -1.1965 -0.00259638  -0.284217 -1.17623 -0.00186062  -0.348242 -1.3233 -0.00220156  -0.302733 -1.34511 -0.00224304  -0.280679 -1.29485 -0.0031476  -0.348732 -1.32378 -0.00165272  -0.326311 -1.27386 -0.00229788  -0.281221 -1.29539 -0.0023632  -0.326858 -1.2744 -0.001719  -0.393018 -1.42263 -0.00201893  -0.346782 -1.44497 -0.00201845  -0.324118 -1.3945 -0.00284386  -0.393433 -1.42305 -0.00151443  -0.370449 -1.37287 -0.00211191  -0.324584 -1.39497 -0.00213337  -0.370926 -1.37333 -0.00158405  -0.438902 -1.52249 -0.00183296  -0.392047 -1.54528 -0.00180531  -0.368869 -1.49467 -0.00255251  -0.439253 -1.52284 -0.00137329  -0.415802 -1.47248 -0.00192356  -0.369268 -1.49508 -0.00191212  -0.416212 -1.47288 -0.00144339  -0.485705 -1.62273 -0.00164604  -0.43833 -1.64591 -0.00160122  -0.414728 -1.59522 -0.00226784  -0.485998 -1.62303 -0.00123882  -0.462172 -1.57255 -0.00174236  -0.415069 -1.59556 -0.00170088  -0.462516 -1.57289 -0.00130701  -0.533264 -1.72324 -0.00147247  -0.485437 -1.74674 -0.00140381  -0.4615 -1.69602 -0.00200081  -0.533494 -1.72349 -0.00110245  -0.509379 -1.67294 -0.00155878  -0.461785 -1.6963 -0.00149822  -0.50966 -1.67323 -0.00116968  -0.581407 -1.82391 -0.00128746  -0.533209 -1.84768 -0.00121164  -0.509013 -1.79695 -0.00174189  -0.581593 -1.82413 -0.00096941  -0.557242 -1.77354 -0.00138187  -0.509243 -1.7972 -0.00130653  -0.557471 -1.77379 -0.00103426  -0.63001 -1.92465 -0.00112104  -0.5815 -1.94862 -0.0010314  -0.557105 -1.89795 -0.00149059  -0.63015 -1.92483 -0.000844479  -0.605636 -1.87426 -0.00120687  -0.557292 -1.89815 -0.001122  -0.605814 -1.87447 -0.000907898  -0.678935 -2.02538 -0.00095892  -0.63016 -2.0495 -0.000865459  -0.605639 -1.99891 -0.00126362  -0.679026 -2.02552 -0.000714779  -0.65441 -1.975 -0.00103807  -0.605784 -1.99907 -0.000946522  -0.654546 -1.97517 -0.000780106  -0.728056 -2.12602 -0.000801563  -0.679081 -2.15025 -0.000707626  -0.654482 -2.09976 -0.00104618  -0.728117 -2.12612 -0.000600338  -0.703447 -2.07569 -0.000879288  -0.654589 -2.09989 -0.000784874  -0.703544 -2.07583 -0.000658035  -0.777297 -2.22651 -0.000647068  -0.728154 -2.25082 -0.000564575  -0.703523 -2.20046 -0.000844002  -0.777328 -2.2266 -0.000488281  -0.752639 -2.17626 -0.000724792  -0.7036 -2.20056 -0.000631809  -0.752707 -2.17638 -0.000544071  -0.826563 -2.32681 -0.000502586  -0.777297 -2.35117 -0.000427723  -0.752671 -2.30096 -0.000660419  -0.826577 -2.32688 -0.000375271  -0.801909 -2.27667 -0.000576496  -0.752716 -2.30103 -0.000491142  -0.801946 -2.27676 -0.000432968  -0.875805 -2.42687 -0.000367641  -0.826431 -2.45126 -0.000305653  -0.80183 -2.40119 -0.000489235  -0.875788 -2.42692 -0.000276566  -0.851167 -2.37686 -0.000434875  -0.801866 -2.40125 -0.000367165  -0.851184 -2.37693 -0.000327587  -0.924942 -2.52667 -0.000238895  -0.875503 -2.55107 -0.000194073  -0.850958 -2.50116 -0.000328541  -0.924919 -2.52671 -0.000181675  -0.90036 -2.47679 -0.000298023  -0.85097 -2.5012 -0.000248909  -0.900362 -2.47685 -0.000226498  -0.973946 -2.62619 -0.000112057  -0.924462 -2.65059 -8.15392e-05  -0.899984 -2.60083 -0.000183105  -0.97392 -2.62623 -8.4877e-05  -0.949441 -2.57645 -0.000173092  -0.899992 -2.60086 -0.000138283  -0.949431 -2.5765 -0.000130653  -1.02274 -2.72538 1.09673e-05  -0.973245 -2.7498 2.43187e-05  -0.948867 -2.7002 -4.14848e-05  -1.02272 -2.72543 7.15256e-06  -0.998349 -2.67581 -5.67436e-05  -0.948873 -2.70023 -3.29018e-05  -0.998341 -2.67586 -4.29153e-05  0.0104693 -0.0201333 -0.00619984  0 0 0  0.0131887 -0.0252737 -0.0056386  0.0051594 -0.0105889 -0.00445175  0 0 0  0.0101218 -0.0207862 -0.00434685  0.00396692 -0.008017 -0.00346279  0 0 0  0.00502041 -0.0109506 -0.00307941  0.00384546 -0.0083434 -0.0023818  0.0269698 -0.0540375 -0.00949955  0.0338897 -0.0621067 -0.00899363  0.0238694 -0.0415184 -0.0106769  0.0261503 -0.0553568 -0.00685883  0.0184451 -0.035723 -0.00822401  0.0231693 -0.0426302 -0.00763226  0.01783 -0.0367657 -0.00585699  0.0425921 -0.09776 -0.0105057  0.0539263 -0.107241 -0.0102577  0.0454012 -0.0819547 -0.0134034  0.0415577 -0.0995902 -0.00774097  0.0351879 -0.0747282 -0.010191  0.0443329 -0.0836463 -0.00981617  0.0342186 -0.0763733 -0.00744438  0.0539935 -0.150111 -0.0105042  0.069499 -0.160526 -0.010406  0.0635272 -0.130822 -0.0140443  0.0528879 -0.152224 -0.00780344  0.0489264 -0.122849 -0.0105772  0.0623716 -0.132864 -0.0104198  0.0478383 -0.124889 -0.00782919  0.0601568 -0.210362 -0.0101643  0.0795294 -0.22162 -0.0100975  0.0764008 -0.187938 -0.0137973  0.0590166 -0.212565 -0.00756836  0.0577703 -0.179252 -0.0103598  0.0752336 -0.190132 -0.0102859  0.0566321 -0.181469 -0.00770712  0.0608668 -0.277649 -0.00971508  0.0837982 -0.28978 -0.00961113  0.0835591 -0.252675 -0.0132155  0.0596993 -0.279802 -0.00724316  0.0612133 -0.243141 -0.00994778  0.0823882 -0.254868 -0.00986719  0.0600406 -0.245369 -0.0074091  0.0562072 -0.351033 -0.00923824  0.0823912 -0.364085 -0.00906754  0.0849608 -0.324116 -0.0125074  0.0550324 -0.353055 -0.00689554  0.0592169 -0.313595 -0.00948429  0.0837976 -0.326214 -0.0093441  0.0580281 -0.315722 -0.00706911  0.0464069 -0.429607 -0.00873518  0.0755352 -0.443626 -0.00850201  0.0807829 -0.401305 -0.0117526  0.045254 -0.431462 -0.00652361  0.0519515 -0.389688 -0.0089922  0.0796275 -0.403249 -0.00878286  0.0507699 -0.391656 -0.00671053  0.0317972 -0.512551 -0.00822544  0.0635811 -0.527573 -0.00793314  0.0713012 -0.483321 -0.0109863  0.0306798 -0.51422 -0.00614452  0.0397061 -0.470545 -0.00848198  0.0701795 -0.485093 -0.00821114  0.038548 -0.472334 -0.0063343  0.0127373 -0.599148 -0.00770426  0.0469005 -0.615174 -0.00736427  0.056887 -0.569365 -0.0102248  0.0116767 -0.600636 -0.00575829  0.0228212 -0.555405 -0.00796461  0.0558134 -0.570953 -0.0076437  0.0217142 -0.557004 -0.00595236  -0.0103909 -0.688782 -0.00718212  0.0258905 -0.7058 -0.00681114  0.0379293 -0.658719 -0.00947237  -0.0113795 -0.690102 -0.00537157  0.0016818 -0.643588 -0.00744295  0.0369134 -0.660139 -0.00708723  0.000637412 -0.645014 -0.00556374  -0.0372025 -0.780932 -0.00665951  0.000950694 -0.798908 -0.00626945  0.0148376 -0.75081 -0.0087347  -0.0381128 -0.782097 -0.00498104  -0.023334 -0.734541 -0.00691891  0.0138917 -0.752069 -0.00653744  -0.0243028 -0.735807 -0.00517416  -0.0673424 -0.875153 -0.00614309  -0.0275303 -0.894038 -0.00574636  -0.0119917 -0.845125 -0.00802183  -0.068168 -0.876182 -0.00459671  -0.0518512 -0.827776 -0.00639725  -0.0128645 -0.846238 -0.00600052  -0.0527411 -0.828898 -0.00478888  -0.100449 -0.971079 -0.00563955  -0.0591859 -0.990807 -0.00523949  -0.0421822 -0.941251 -0.00732708  -0.101196 -0.971987 -0.00422573  -0.0835153 -0.922899 -0.00588942  -0.0429779 -0.942235 -0.00548601  -0.0843264 -0.923886 -0.00441027  -0.136208 -1.06839 -0.0051465  -0.0936658 -1.08889 -0.00475121  -0.0753741 -1.03884 -0.00666809  -0.13687 -1.06919 -0.00385571  -0.117991 -1.01956 -0.00539112  -0.0760897 -1.0397 -0.00499201  -0.118715 -1.02043 -0.00403738  -0.174302 -1.16682 -0.00467777  -0.130643 -1.18802 -0.00428867  -0.111214 -1.13758 -0.00602674  -0.174886 -1.16752 -0.00350237  -0.154949 -1.11745 -0.00491047  -0.111856 -1.13834 -0.00451565  -0.155598 -1.11822 -0.00367928  -0.214446 -1.26613 -0.00422096  -0.169815 -1.28795 -0.00385094  -0.149398 -1.23723 -0.00542831  -0.214953 -1.26673 -0.00316429  -0.194105 -1.21635 -0.00444889  -0.149965 -1.23789 -0.00406742  -0.194673 -1.21702 -0.00333261  -0.25637 -1.36612 -0.00378752  -0.210898 -1.38849 -0.00343037  -0.189637 -1.33757 -0.00484991  -0.256813 -1.36665 -0.00283813  -0.235178 -1.31603 -0.00400305  -0.190129 -1.33815 -0.00363779  -0.235671 -1.31662 -0.00300121  -0.299829 -1.46662 -0.00338268  -0.253626 -1.48946 -0.00303936  -0.23164 -1.43842 -0.00431013  -0.300201 -1.46708 -0.00253201  -0.277897 -1.4163 -0.00357771  -0.232069 -1.43893 -0.00323105  -0.278327 -1.41681 -0.00268126  -0.344595 -1.56749 -0.00298214  -0.29776 -1.59074 -0.00267029  -0.275161 -1.53963 -0.00380421  -0.344906 -1.56789 -0.00223732  -0.322036 -1.517 -0.00318003  -0.275524 -1.54007 -0.00285053  -0.322397 -1.51745 -0.00238419  -0.39046 -1.6686 -0.00261164  -0.343086 -1.69217 -0.00231743  -0.319978 -1.64106 -0.00332069  -0.390712 -1.66894 -0.00195694  -0.367377 -1.618 -0.00279331  -0.320282 -1.64144 -0.00249004  -0.367679 -1.61839 -0.0020957  -0.437225 -1.76982 -0.00226593  -0.389392 -1.79367 -0.00199604  -0.365864 -1.7426 -0.00287247  -0.437423 -1.77012 -0.00169802  -0.413715 -1.71918 -0.00243664  -0.366122 -1.74292 -0.00215006  -0.413959 -1.71951 -0.00182676  -0.484706 -1.87108 -0.00193787  -0.436498 -1.89515 -0.00169516  -0.412644 -1.84414 -0.00245237  -0.484863 -1.87133 -0.00145245  -0.460861 -1.82043 -0.00209713  -0.41285 -1.84441 -0.00183916  -0.461056 -1.82072 -0.00157118  -0.532764 -1.97229 -0.00163555  -0.484232 -1.99652 -0.00141525  -0.460132 -1.94563 -0.00206709  -0.532877 -1.9725 -0.00122547  -0.50865 -1.92169 -0.00178194  -0.460294 -1.94585 -0.00154829  -0.508802 -1.92192 -0.00133705  -0.581242 -2.07338 -0.00134706  -0.532457 -2.09772 -0.00116014  -0.508165 -2.04696 -0.00170851  -0.581319 -2.07355 -0.00101233  -0.556936 -2.02284 -0.00148964  -0.508291 -2.04714 -0.00128078  -0.557049 -2.02304 -0.00111532  -0.630022 -2.1743 -0.00108576  -0.581022 -2.19872 -0.000925541  -0.556608 -2.1481 -0.0013833  -0.630065 -2.17443 -0.000813484  -0.605577 -2.12385 -0.00121593  -0.556698 -2.14825 -0.00103521  -0.605654 -2.12401 -0.000910282  -0.678987 -2.27499 -0.000851154  -0.62982 -2.29945 -0.000711918  -0.605334 -2.249 -0.0010829  -0.679 -2.2751 -0.000639439  -0.65446 -2.22466 -0.000968456  -0.605394 -2.24911 -0.000813484  -0.654509 -2.22479 -0.000724316  -0.728042 -2.37542 -0.00063324  -0.678748 -2.39989 -0.000523567  -0.654229 -2.34961 -0.000822544  -0.728033 -2.3755 -0.000479221  -0.703482 -2.32522 -0.000738144  -0.654264 -2.3497 -0.000613213  -0.7035 -2.32533 -0.000552654  -0.77711 -2.47556 -0.000444889  -0.727719 -2.50003 -0.000361919  -0.703212 -2.44993 -0.000589848  -0.777084 -2.47562 -0.000333786  -0.752551 -2.4255 -0.000539303  -0.703228 -2.45 -0.000442505  -0.752558 -2.4256 -0.000406265  -0.82613 -2.57538 -0.000273705  -0.776664 -2.59985 -0.000216007  -0.75219 -2.54992 -0.000383854  -0.826095 -2.57544 -0.000209332  -0.801603 -2.52549 -0.000355244  -0.752195 -2.54998 -0.000292301  -0.80159 -2.52557 -0.000267029  -0.875057 -2.6749 -0.000109196  -0.825557 -2.69936 -8.44002e-05  -0.801116 -2.64959 -0.000201702  -0.875015 -2.67496 -8.29697e-05  -0.850585 -2.62516 -0.000186443  -0.801114 -2.64964 -0.000154495  -0.850564 -2.62523 -0.000143051  -0.923818 -2.77413 4.43459e-05  -0.874317 -2.7986 3.29018e-05  -0.849948 -2.74896 -2.86102e-05  -0.923784 -2.77418 3.57628e-05  -0.899439 -2.72453 -2.95639e-05  -0.849947 -2.74901 -2.28882e-05  -0.899415 -2.7246 -2.14577e-05  0.0173692 -0.0302719 -0.00968599  0 0 0  0.0214138 -0.0386441 -0.00798512  0.00818476 -0.0189528 -0.00620079  0 0 0  0.0169486 -0.0310924 -0.0068512  0.00647379 -0.0140659 -0.00535583  0 0 0  0.00803449 -0.0194741 -0.00433922  0.0063276 -0.0144982 -0.00372362  0.0436046 -0.0685956 -0.0151553  0.0525849 -0.0791969 -0.0129204  0.0377648 -0.0571643 -0.0151281  0.0426361 -0.0700876 -0.0110064  0.0302067 -0.0485877 -0.0129724  0.0369907 -0.0585587 -0.0108852  0.0294635 -0.0498194 -0.009305  0.0682499 -0.113894 -0.0171347  0.081185 -0.125187 -0.0149817  0.0685992 -0.0993152 -0.019371  0.067085 -0.115806 -0.0126715  0.0564711 -0.0901762 -0.0164561  0.0674371 -0.101204 -0.0142326  0.0553466 -0.0919492 -0.0120769  0.0878608 -0.167498 -0.0173521  0.104626 -0.179427 -0.0153594  0.0948538 -0.149118 -0.0205998  0.0866979 -0.169609 -0.0129285  0.0787718 -0.139595 -0.0173855  0.0936223 -0.151234 -0.0153055  0.0775856 -0.141668 -0.0129113  0.101635 -0.22926 -0.0168123  0.122062 -0.241928 -0.0149426  0.115316 -0.207495 -0.0203848  0.100497 -0.231414 -0.0125561  0.0955173 -0.197356 -0.0171456  0.114126 -0.20968 -0.0152125  0.0943502 -0.199545 -0.0127888  0.109355 -0.298366 -0.0159554  0.13319 -0.311882 -0.0141892  0.129575 -0.273884 -0.0195208  0.108243 -0.30047 -0.0119276  0.106272 -0.262909 -0.0164099  0.128418 -0.276029 -0.0145917  0.105131 -0.26509 -0.0122604  0.1111 -0.373833 -0.0149784  0.138056 -0.388256 -0.0132942  0.137525 -0.347286 -0.0183902  0.110009 -0.375806 -0.011198  0.110988 -0.335327 -0.0154805  0.136397 -0.349326 -0.0137529  0.109864 -0.337407 -0.0115738  0.10709 -0.454649 -0.0139728  0.136881 -0.470032 -0.0123682  0.139308 -0.426635 -0.0171595  0.106029 -0.456472 -0.0104485  0.109821 -0.413592 -0.0144801  0.138208 -0.428523 -0.0128355  0.108721 -0.415524 -0.0108261  0.0976578 -0.539921 -0.0129638  0.130008 -0.556272 -0.0114417  0.1352 -0.510915 -0.0159059  0.0966403 -0.541574 -0.0097003  0.103055 -0.496742 -0.0134668  0.134135 -0.512642 -0.0119038  0.101991 -0.498511 -0.0100737  0.0832057 -0.62884 -0.0119691  0.117845 -0.646159 -0.0105257  0.125579 -0.599238 -0.0146728  0.0822412 -0.630328 -0.00895834  0.0910606 -0.583935 -0.0124617  0.124564 -0.600798 -0.0109811  0.0900471 -0.585531 -0.00932407  0.0641484 -0.72075 -0.0110087  0.10083 -0.739001 -0.00965691  0.110878 -0.690844 -0.0134764  0.0632482 -0.72208 -0.0082407  0.0742526 -0.674427 -0.011488  0.109922 -0.692244 -0.0100884  0.0732971 -0.675861 -0.00859785  0.040921 -0.815073 -0.0100813  0.0794137 -0.834214 -0.0088172  0.0915409 -0.785093 -0.0123281  0.0400835 -0.816255 -0.00755024  0.0530553 -0.767609 -0.0105405  0.0906498 -0.786339 -0.00923014  0.0521669 -0.768891 -0.00789022  0.0139242 -0.911343 -0.00919104  0.0540189 -0.931323 -0.00801086  0.0680159 -0.881448 -0.011229  0.0131575 -0.912397 -0.00688267  0.0278949 -0.862965 -0.0096302  0.0671937 -0.882553 -0.0084095  0.0270736 -0.864099 -0.00721359  -0.0164447 -1.00916 -0.0083375  0.0250722 -1.02991 -0.00724792  0.0407245 -0.979466 -0.0101752  -0.0171351 -1.01009 -0.00624466  -0.000836492 -0.960054 -0.00875711  0.0399718 -0.980448 -0.00762129  -0.00158346 -0.961062 -0.0065589  -0.0498115 -1.1082 -0.00753403  -0.0070461 -1.12965 -0.00652599  0.0100675 -1.07879 -0.00918245  -0.0504241 -1.10902 -0.00564384  -0.0327502 -1.05853 -0.00793076  0.00938845 -1.07965 -0.00688219  -0.0334224 -1.05942 -0.00594139  -0.0858258 -1.20819 -0.0067668  -0.0419691 -1.23026 -0.00585079  -0.0235659 -1.1791 -0.00825024  -0.0863676 -1.20891 -0.00507164  -0.0674826 -1.15807 -0.0071454  -0.0241742 -1.17986 -0.00618124  -0.0680798 -1.15886 -0.0053525  -0.124166 -1.30888 -0.00604534  -0.0793576 -1.3315 -0.00520945  -0.0598295 -1.28014 -0.00737095  -0.124644 -1.30951 -0.004529  -0.104698 -1.25843 -0.00640392  -0.0603693 -1.28081 -0.0055275  -0.105227 -1.25913 -0.00479841  -0.164549 -1.41009 -0.00536394  -0.118904 -1.43319 -0.00460815  -0.098398 -1.38171 -0.00653696  -0.164952 -1.41065 -0.00401926  -0.144094 -1.35941 -0.00570059  -0.0988722 -1.3823 -0.00490141  -0.144557 -1.36002 -0.00427103  -0.206674 -1.51165 -0.00472641  -0.160302 -1.53515 -0.00404119  -0.138971 -1.48363 -0.00576496  -0.207019 -1.51213 -0.0035429  -0.18538 -1.46082 -0.00504017  -0.13938 -1.48414 -0.0043211  -0.185774 -1.46135 -0.00377703  -0.250303 -1.61341 -0.00413132  -0.203313 -1.63725 -0.00352192  -0.181269 -1.58574 -0.00504017  -0.250586 -1.61383 -0.00309753  -0.22829 -1.56249 -0.00442171  -0.181617 -1.58619 -0.00378227  -0.228623 -1.56296 -0.00331545  -0.295199 -1.71528 -0.00357199  -0.247674 -1.73939 -0.00303698  -0.225039 -1.68794 -0.00437021  -0.295428 -1.71564 -0.00267839  -0.272581 -1.66432 -0.00384569  -0.225333 -1.68832 -0.00327587  -0.272856 -1.66473 -0.00288391  -0.341146 -1.81712 -0.00305462  -0.293168 -1.84144 -0.00258112  -0.270048 -1.7901 -0.00373745  -0.341325 -1.81743 -0.00228596  -0.318027 -1.76619 -0.00330687  -0.270287 -1.79042 -0.00280476  -0.318249 -1.76653 -0.00247955  -0.387965 -1.91888 -0.00257254  -0.33961 -1.94335 -0.00216436  -0.316085 -1.89214 -0.00316191  -0.388095 -1.91914 -0.00193071  -0.364429 -1.868 -0.00280905  -0.316279 -1.89241 -0.0023675  -0.36461 -1.86829 -0.00210667  -0.435469 -2.02047 -0.00213099  -0.386799 -2.04504 -0.00178766  -0.362968 -1.994 -0.00263023  -0.43556 -2.02068 -0.00159883  -0.411617 -1.96968 -0.00234842  -0.363117 -1.99422 -0.00197268  -0.411749 -1.96993 -0.00175953  -0.483501 -2.12184 -0.00173187  -0.434582 -2.14648 -0.00144386  -0.410508 -2.09561 -0.00214577  -0.483561 -2.12202 -0.00130081  -0.4594 -2.07116 -0.00193024  -0.410623 -2.09579 -0.00161028  -0.459496 -2.07138 -0.0014472  -0.531922 -2.22295 -0.00137043  -0.482804 -2.2476 -0.0011344  -0.458563 -2.19692 -0.00171089  -0.531947 -2.22309 -0.00102758  -0.507645 -2.17241 -0.00154781  -0.458644 -2.19708 -0.00128317  -0.507709 -2.17259 -0.00116301  -0.580615 -2.32375 -0.00104332  -0.531343 -2.34841 -0.000859737  -0.506984 -2.29793 -0.00131702  -0.580616 -2.32387 -0.000782013  -0.556217 -2.27337 -0.00120115  -0.507035 -2.29804 -0.000991344  -0.556251 -2.27351 -0.000901699  -0.629455 -2.42424 -0.000767231  -0.580078 -2.44887 -0.000625134  -0.555653 -2.39859 -0.000980854  -0.629439 -2.42434 -0.000576973  -0.604995 -2.37402 -0.000900269  -0.555684 -2.39868 -0.000737667  -0.605007 -2.37414 -0.000675678  -0.678373 -2.5244 -0.00052166  -0.628901 -2.54898 -0.000422001  -0.604465 -2.4989 -0.000687599  -0.678338 -2.52447 -0.00039196  -0.653885 -2.47435 -0.000637531  -0.604477 -2.49897 -0.000520706  -0.653877 -2.47444 -0.000480175  -0.727278 -2.62422 -0.000310421  -0.677754 -2.64876 -0.000248909  -0.653327 -2.59885 -0.000439167  -0.72723 -2.62428 -0.000235081  -0.702802 -2.57433 -0.000412464  -0.653331 -2.59891 -0.000329971  -0.702784 -2.57442 -0.000310421  -0.776133 -2.72372 -0.000121117  -0.726575 -2.74823 -0.000103951  -0.702174 -2.69848 -0.000228882  -0.776079 -2.72378 -9.44138e-05  -0.751686 -2.67399 -0.000214577  -0.702163 -2.69853 -0.000176907  -0.751658 -2.67406 -0.000163555  -0.824904 -2.82296 6.4373e-05  -0.775367 -2.84747 4.57764e-05  -0.750992 -2.79781 -4.24385e-05  -0.824852 -2.82302 3.76701e-05  -0.800501 -2.77335 -3.09944e-05  -0.750967 -2.79786 -3.24249e-05  -0.800477 -2.77342 -2.57492e-05  0.0287542 -0.0478544 -0.0127811  0 0 0  0.0388218 -0.0609215 -0.010191  0.0168094 -0.0379959 -0.00796175  0 0 0  0.0283911 -0.0490173 -0.00910187  0.0105843 -0.0260198 -0.00697803  0 0 0  0.0168246 -0.0388874 -0.00558519  0.0104712 -0.0266659 -0.00490284  0.0649085 -0.087491 -0.0202909  0.0767199 -0.100098 -0.0165825  0.058452 -0.0781831 -0.0193911  0.0639337 -0.0893271 -0.0147667  0.0471249 -0.0672291 -0.01723  0.0578843 -0.0800472 -0.0139346  0.0464117 -0.0688365 -0.0124068  0.0974466 -0.133187 -0.023253  0.112235 -0.145947 -0.0193272  0.0960922 -0.119664 -0.0249844  0.0962348 -0.135271 -0.0171967  0.0817976 -0.109215 -0.0221987  0.0949581 -0.121864 -0.0183191  0.0806416 -0.111247 -0.0163045  0.124552 -0.187752 -0.023746  0.142896 -0.201038 -0.0198936  0.129576 -0.170042 -0.0266986  0.123342 -0.189912 -0.0176806  0.111754 -0.159288 -0.0237103  0.128302 -0.172287 -0.019794  0.110521 -0.161463 -0.0176053  0.145468 -0.251002 -0.0230737  0.167341 -0.265039 -0.0194068  0.157208 -0.229753 -0.0264897  0.144308 -0.253133 -0.0172319  0.135834 -0.218294 -0.02351  0.155955 -0.231951 -0.0197339  0.134636 -0.220486 -0.0175319  0.159861 -0.321977 -0.0218849  0.185032 -0.336899 -0.018434  0.178264 -0.297942 -0.0253954  0.158743 -0.324015 -0.0163603  0.15351 -0.285546 -0.0225248  0.177052 -0.300037 -0.018961  0.152355 -0.287674 -0.016829  0.167719 -0.399536 -0.0204878  0.195889 -0.415402 -0.0172687  0.192492 -0.373415 -0.0239077  0.166638 -0.401445 -0.0153246  0.164624 -0.35996 -0.0212059  0.191317 -0.375375 -0.0178676  0.163506 -0.361971 -0.0158544  0.169249 -0.482575 -0.0190225  0.200134 -0.499414 -0.0160313  0.199963 -0.454972 -0.0222712  0.168201 -0.484331 -0.0142326  0.16928 -0.440397 -0.0197616  0.198831 -0.456774 -0.016655  0.1682 -0.442258 -0.0147824  0.164781 -0.570111 -0.0175595  0.198102 -0.587896 -0.0147877  0.200974 -0.541514 -0.0205927  0.163783 -0.571697 -0.0131412  0.167766 -0.525805 -0.0182905  0.199879 -0.543141 -0.0154085  0.16672 -0.527503 -0.0136814  0.154754 -0.661258 -0.0161252  0.190249 -0.679975 -0.0135732  0.195917 -0.632063 -0.0189419  0.153804 -0.662692 -0.0120721  0.160463 -0.615244 -0.0168386  0.19488 -0.633528 -0.0141745  0.159469 -0.616781 -0.0126023  0.139609 -0.755316 -0.0147438  0.177043 -0.774919 -0.0123954  0.185273 -0.725819 -0.0173321  0.138725 -0.756597 -0.011045  0.147816 -0.707935 -0.0154309  0.184289 -0.727125 -0.0129786  0.14688 -0.709312 -0.0115528  0.119829 -0.851674 -0.0134306  0.158994 -0.872108 -0.0112834  0.169519 -0.822102 -0.015799  0.119011 -0.852814 -0.0100589  0.130297 -0.803214 -0.0140805  0.168597 -0.82326 -0.0118284  0.129424 -0.804441 -0.0105429  0.0958657 -0.949838 -0.0121808  0.136555 -0.971039 -0.0102205  0.149145 -0.920359 -0.0143437  0.0951174 -0.950849 -0.00912333  0.108367 -0.900531 -0.0127954  0.148297 -0.921376 -0.010745  0.107567 -0.901627 -0.0095849  0.0681561 -1.0494 -0.010994  0.110208 -1.07129 -0.00921392  0.124619 -1.02012 -0.012959  0.0674831 -1.05029 -0.00823927  0.0824822 -0.999441 -0.0115767  0.12385 -1.02102 -0.00971079  0.0817478 -1.00041 -0.00867653  0.0371176 -1.15 -0.00987959  0.0803562 -1.17252 -0.0082736  0.0963907 -1.121 -0.0116534  0.0365138 -1.15079 -0.00740433  0.0530558 -1.09956 -0.010426  0.0956929 -1.1218 -0.00873947  0.0523938 -1.10042 -0.00781679  0.00313306 -1.25138 -0.00883245  0.0474186 -1.27445 -0.00738287  0.0648797 -1.22271 -0.0104303  0.0025959 -1.25208 -0.00662088  0.0204965 -1.20059 -0.00934792  0.0642548 -1.22341 -0.00781775  0.019907 -1.20135 -0.00700617  -0.0334466 -1.35331 -0.00784683  0.0117514 -1.37686 -0.0065527  0.030463 -1.325 -0.00928831  -0.033916 -1.35393 -0.00588417  -0.014833 -1.30228 -0.00832891  0.0299058 -1.3256 -0.00696611  -0.0153542 -1.30295 -0.00624657  -0.0722997 -1.4556 -0.00691938  -0.0262895 -1.47954 -0.00577688  -0.00649071 -1.42764 -0.00820637  -0.0727055 -1.45614 -0.00519085  -0.0525813 -1.4044 -0.00737762  -0.00698638 -1.42817 -0.00615454  -0.053041 -1.40499 -0.00552988  -0.113122 -1.55807 -0.00606251  -0.0664177 -1.58234 -0.00505161  -0.045681 -1.53047 -0.007195  -0.113461 -1.55853 -0.00454807  -0.0924563 -1.5068 -0.00648308  -0.0461059 -1.53093 -0.00539923  -0.0928497 -1.50731 -0.00486231  -0.155628 -1.66059 -0.00526476  -0.10832 -1.68512 -0.00438213  -0.0867927 -1.63334 -0.00626993  -0.155909 -1.661 -0.00395203  -0.134153 -1.60931 -0.00565624  -0.0871551 -1.63374 -0.00470448  -0.134483 -1.60976 -0.00424433  -0.199579 -1.76307 -0.00452042  -0.151758 -1.7878 -0.00375175  -0.129555 -1.73614 -0.0053978  -0.199805 -1.76342 -0.00339365  -0.177412 -1.71183 -0.0048852  -0.129862 -1.73648 -0.00406218  -0.177688 -1.71222 -0.00366592  -0.24473 -1.86541 -0.00382996  -0.196473 -1.89027 -0.00316906  -0.173718 -1.83878 -0.00460196  -0.244904 -1.8657 -0.00287676  -0.22199 -1.81424 -0.0041666  -0.173967 -1.83906 -0.00345325  -0.222211 -1.81458 -0.00312901  -0.290888 -1.96753 -0.00320005  -0.242269 -1.99248 -0.00263548  -0.219042 -1.94117 -0.0038538  -0.29102 -1.96778 -0.00240469  -0.267668 -1.91648 -0.00350809  -0.219243 -1.94141 -0.00289726  -0.267843 -1.91677 -0.00263309  -0.337855 -2.06938 -0.00262833  -0.288944 -2.09437 -0.00216961  -0.265344 -2.04327 -0.00319099  -0.337948 -2.06959 -0.00197554  -0.314253 -2.01848 -0.0029068  -0.265504 -2.04347 -0.00240135  -0.314388 -2.01872 -0.00218344  -0.385465 -2.17092 -0.00211191  -0.336316 -2.1959 -0.0017314  -0.312424 -2.14502 -0.0025816  -0.38552 -2.17109 -0.00158548  -0.361563 -2.12017 -0.00235939  -0.31255 -2.14518 -0.00194693  -0.361657 -2.12038 -0.00177336  -0.433559 -2.27211 -0.00164366  -0.384224 -2.29705 -0.00135279  -0.360118 -2.2464 -0.00203705  -0.433578 -2.27224 -0.00123692  -0.409432 -2.22154 -0.00187206  -0.360209 -2.24652 -0.00153351  -0.409492 -2.22171 -0.00140715  -0.481997 -2.37294 -0.00123453  -0.432536 -2.39781 -0.00100899  -0.40829 -2.34738 -0.00155401  -0.482001 -2.37304 -0.000930309  -0.457721 -2.32255 -0.00143719  -0.408337 -2.34748 -0.0011692  -0.457748 -2.32269 -0.00108051  -0.530669 -2.47339 -0.000891685  -0.481124 -2.49817 -0.00072813  -0.456775 -2.44797 -0.00113535  -0.53065 -2.47347 -0.000673771  -0.506291 -2.42319 -0.00106049  -0.4568 -2.44803 -0.000863075  -0.506298 -2.4233 -0.000798225  -0.579473 -2.57347 -0.000603676  -0.529871 -2.59815 -0.000487328  -0.505467 -2.54815 -0.000789165  -0.57943 -2.57354 -0.000459194  -0.555034 -2.52346 -0.000741482  -0.505478 -2.54821 -0.000597954  -0.555026 -2.52354 -0.000559807  -0.628303 -2.6732 -0.000353336  -0.578689 -2.69779 -0.00028944  -0.554276 -2.64796 -0.000502586  -0.628254 -2.67326 -0.000272751  -0.603857 -2.62336 -0.000473976  -0.554274 -2.64801 -0.0003829  -0.603838 -2.62344 -0.000359535  -0.677112 -2.77262 -0.000148773  -0.627495 -2.79716 -0.000129223  -0.603106 -2.74745 -0.000270844  -0.677056 -2.77269 -0.000117302  -0.652689 -2.72293 -0.000249386  -0.603095 -2.7475 -0.000211716  -0.652652 -2.723 -0.000189781  -0.725914 -2.87184 4.95911e-05  -0.676311 -2.89636 1.23978e-05  -0.651916 -2.84671 -7.58171e-05  -0.72586 -2.8719 3.57628e-05  -0.701483 -2.82223 -5.24521e-05  -0.651894 -2.84677 -6.53267e-05  -0.701447 -2.8223 -4.33922e-05  -0.0390098 -0.0305679 0.024951  -0.0191335 -0.0186173 0.0177956  0 0 0  -0.0256537 -0.01729 0.0272169  0 0 0  -0.0171329 -0.0134498 0.0177345  -0.00718321 -0.00316516 0.0124106  0 0 0  -0.0196264 -0.0201561 0.0140004  -0.0255657 -0.0210985 0.0212522  -0.0101113 -0.008042 0.0147519  0 0 0  -0.00678929 -0.00482757 0.00967407  -0.00970227 -0.00973196 0.0116715  -0.0774687 -0.0497149 0.0390124  -0.057032 -0.0334623 0.0425253  -0.059961 -0.0365625 0.0416441  -0.0450248 -0.0374954 0.0282931  -0.0315148 -0.0201585 0.0303998  -0.0577621 -0.0394049 0.0333219  -0.0596585 -0.0427595 0.0334892  -0.0428463 -0.0258767 0.0362649  -0.0306126 -0.0246911 0.0240178  -0.0423643 -0.0311454 0.0285373  -0.117449 -0.0761763 0.0434203  -0.0965969 -0.0544615 0.0516853  -0.0935394 -0.0657787 0.0450563  -0.0744548 -0.0695794 0.031673  -0.0596365 -0.0466791 0.0372472  -0.0973958 -0.061778 0.0421329  -0.0944325 -0.0722019 0.037395  -0.0767797 -0.0498155 0.0442238  -0.0596482 -0.0523915 0.0306382  -0.0770214 -0.0563139 0.036222  -0.157517 -0.111717 0.0423117  -0.135817 -0.0860344 0.05195  -0.12763 -0.105 0.0434017  -0.104838 -0.11056 0.0309958  -0.0880711 -0.0833994 0.0377054  -0.137511 -0.0928828 0.0433121  -0.129667 -0.110754 0.0365429  -0.110444 -0.0842362 0.0446305  -0.0894835 -0.0890108 0.031662  -0.11197 -0.0904152 0.0373549  -0.19744 -0.155286 0.0388107  -0.175028 -0.126766 0.0483479  -0.162897 -0.152282 0.0396214  -0.136647 -0.159294 0.0284753  -0.11813 -0.129054 0.0352693  -0.177494 -0.1326 0.0407329  -0.165652 -0.157151 0.0335588  -0.145089 -0.127708 0.0416603  -0.120546 -0.134041 0.0298791  -0.147558 -0.133061 0.0352058  -0.237414 -0.205687 0.0345502  -0.214512 -0.174921 0.0433865  -0.199402 -0.206094 0.0352292  -0.170001 -0.214505 0.0253406  -0.15017 -0.181918 0.0317235  -0.217409 -0.179714 0.036706  -0.202481 -0.210111 0.0298734  -0.180978 -0.17841 0.0374451  -0.153127 -0.18615 0.0269394  -0.183953 -0.182871 0.0317469  -0.277721 -0.261979 0.0303359  -0.254479 -0.229267 0.0382819  -0.2371 -0.265423 0.0309329  -0.204869 -0.275253 0.0221901  -0.184084 -0.240706 0.0279789  -0.257515 -0.233154 0.0324168  -0.240231 -0.268714 0.0262074  -0.218084 -0.235086 0.0330453  -0.187244 -0.244225 0.023747  -0.221231 -0.238746 0.0280166  -0.318587 -0.323446 0.0264935  -0.295074 -0.288949 0.0335307  -0.275954 -0.329592 0.0270247  -0.241214 -0.340846 0.0192986  -0.219711 -0.304556 0.0244546  -0.298072 -0.292112 0.0283642  -0.27898 -0.332293 0.0228477  -0.25636 -0.296905 0.0289235  -0.222854 -0.307472 0.0207105  -0.259471 -0.29991 0.0244842  -0.360185 -0.389541 0.023108  -0.33643 -0.353365 0.0292993  -0.315963 -0.398095 0.0235724  -0.279013 -0.41077 0.0167494  -0.256935 -0.372869 0.0212917  -0.339288 -0.355951 0.0247445  -0.318801 -0.400328 0.0198846  -0.295788 -0.363299 0.0252423  -0.259927 -0.375288 0.0179825  -0.298748 -0.365775 0.0213189  -0.40264 -0.45982 0.0201502  -0.378646 -0.42204 0.0255995  -0.357134 -0.470532 0.0205545  -0.318246 -0.484588 0.0145273  -0.295658 -0.445192 0.0185127  -0.381303 -0.424189 0.0215783  -0.359748 -0.472391 0.017303  -0.336377 -0.433812 0.0220151  -0.298442 -0.447211 0.0155964  -0.339127 -0.435875 0.018549  -0.44601 -0.533893 0.0175734  -0.421768 -0.494613 0.0223598  -0.399457 -0.546538 0.0179191  -0.358879 -0.561925 0.0125895  -0.335826 -0.52114 0.0160866  -0.42421 -0.496407 0.0188198  -0.401836 -0.548104 0.0150528  -0.378124 -0.508081 0.0191941  -0.338386 -0.522834 0.0135264  -0.380643 -0.509809 0.016139  -0.490317 -0.6114 0.0153112  -0.465828 -0.570728 0.019527  -0.4429 -0.625786 0.0155954  -0.400854 -0.642421 0.0108972  -0.377374 -0.600362 0.0139656  -0.468048 -0.572241 0.0164099  -0.445046 -0.62711 0.013082  -0.421013 -0.585752 0.016717  -0.379698 -0.601791 0.0117178  -0.423299 -0.587211 0.014039  -0.535533 -0.692015 0.0133147  -0.510812 -0.650057 0.0170169  -0.487418 -0.707977 0.0135326  -0.4441 -0.725764 0.00940657  -0.420226 -0.682547 0.0120935  -0.512811 -0.651338 0.0142879  -0.489339 -0.709091 0.0113406  -0.465 -0.66651 0.0145316  -0.422315 -0.68375 0.0101333  -0.467058 -0.66774 0.0121861  -0.581624 -0.775439 0.0115175  -0.556686 -0.732315 0.0147805  -0.532939 -0.792809 0.0116959  -0.48852 -0.811655 0.00808811  -0.46429 -0.767392 0.0104265  -0.558475 -0.733398 0.012394  -0.534653 -0.793748 0.0097909  -0.510031 -0.750057 0.0125861  -0.466162 -0.768403 0.00872755  -0.511872 -0.7511 0.0105438  -0.62852 -0.861393 0.00992537  -0.603384 -0.817205 0.0127707  -0.579385 -0.880007 0.0100508  -0.53402 -0.899809 0.00691557  -0.509468 -0.854609 0.00894737  -0.604973 -0.81812 0.0107055  -0.580898 -0.880794 0.00841045  -0.55603 -0.836108 0.0108485  -0.511139 -0.855458 0.00748682  -0.557661 -0.836989 0.00908089  -0.676154 -0.949593 0.00850058  -0.650845 -0.904468 0.0109725  -0.626656 -0.969312 0.00857449  -0.580477 -0.989972 0.00586939  -0.555655 -0.943938 0.00762892  -0.652252 -0.905228 0.0091958  -0.627985 -0.969974 0.00717068  -0.602901 -0.924391 0.00928974  -0.557132 -0.944651 0.0063777  -0.604338 -0.925132 0.00777483  -0.724426 -1.0398 0.0072093  -0.698977 -0.993823 0.00935221  -0.674653 -1.06048 0.00724649  -0.627782 -1.08191 0.00492239  -0.602729 -1.03514 0.00644112  -0.700211 -0.994458 0.00784254  -0.675818 -1.06103 0.00605726  -0.650546 -1.01466 0.00789118  -0.604029 -1.03573 0.00538445  -0.651813 -1.01528 0.00659847  -0.773237 -1.13177 0.00604343  -0.747692 -1.08505 0.00788927  -0.723273 -1.1533 0.00605774  -0.675815 -1.17537 0.00408888  -0.650575 -1.12797 0.00538158  -0.748766 -1.08557 0.00661182  -0.724274 -1.15375 0.00506353  -0.698866 -1.10668 0.00663376  -0.651712 -1.12846 0.00449276  -0.699971 -1.10719 0.00554705  -0.822512 -1.22528 0.00500441  -0.796892 -1.17792 0.00658655  -0.772397 -1.24753 0.00498724  -0.72445 -1.27018 0.00333452  -0.699072 -1.22222 0.00443268  -0.797826 -1.17835 0.0055151  -0.773261 -1.24791 0.00416946  -0.747752 -1.20023 0.00550508  -0.700059 -1.22262 0.00370026  -0.748704 -1.20065 0.00460291  -0.872134 -1.32014 0.00408268  -0.846488 -1.2722 0.00541115  -0.821931 -1.343 0.00403976  -0.773568 -1.36614 0.00267315  -0.748101 -1.3177 0.00358915  -0.847284 -1.27256 0.00453234  -0.822661 -1.3433 0.00337696  -0.797091 -1.2951 0.00449562  -0.748948 -1.31803 0.00299168  -0.79791 -1.29545 0.00375795  -0.922015 -1.41615 0.00326061  -0.896372 -1.36772 0.00436592  -0.871766 -1.43952 0.00319576  -0.823063 -1.46306 0.00208759  -0.797554 -1.41423 0.0028429  -0.897049 -1.36801 0.00366116  -0.872373 -1.43976 0.00267363  -0.846788 -1.39112 0.00360107  -0.798272 -1.41449 0.00237417  -0.847479 -1.3914 0.0030117  -0.972072 -1.51314 0.00253677  -0.94646 -1.46431 0.00344229  -0.921809 -1.53692 0.00246143  -0.872831 -1.5608 0.00157928  -0.847313 -1.51164 0.00218678  -0.947022 -1.46454 0.00288677  -0.922311 -1.53711 0.00205898  -0.89674 -1.4881 0.00281429  -0.847915 -1.51184 0.00182152  -0.897315 -1.48833 0.00235367  -1.02221 -1.61094 0.00190687  -0.996672 -1.56178 0.00263309  -0.971977 -1.63504 0.00182533  -0.922791 -1.65918 0.00113964  -0.897286 -1.60976 0.00163174  -0.997132 -1.56195 0.00221491  -0.972382 -1.63519 0.00152636  -0.946859 -1.58588 0.00213099  -0.897791 -1.60991 0.00135756  -0.947328 -1.58606 0.00178242  -1.07237 -1.70938 0.00136662  -1.04692 -1.65996 0.00194168  -1.02218 -1.73374 0.00127888  -0.972829 -1.75808 0.000766754  -0.947389 -1.70846 0.00114059  -1.0473 -1.66009 0.00163317  -1.0225 -1.73384 0.00106764  -0.997054 -1.68431 0.00153875  -0.9478 -1.70857 0.000946522  -0.997437 -1.68445 0.00129032  -1.12249 -1.80834 0.000912666  -1.09716 -1.75872 0.00134611  -1.07237 -1.83289 0.000819683  -1.02288 -1.85736 0.000464439  -0.997535 -1.8076 0.000728607  -1.09744 -1.7588 0.00113297  -1.07261 -1.83296 0.000687122  -1.04726 -1.78325 0.00103521  -0.997852 -1.80768 0.000607967  -1.04756 -1.78335 0.000868797  -1.17251 -1.90769 0.000559807  -1.1473 -1.85791 0.000854969  -1.12247 -1.93235 0.000462532  -1.07289 -1.95692 0.000227451  -1.04764 -1.90706 0.000407219  -1.14751 -1.85798 0.000726223  -1.12263 -1.93239 0.000389099  -1.09741 -1.88257 0.000632286  -1.0479 -1.90711 0.000339508  -1.09763 -1.88264 0.000532627  -1.22237 -2.00729 0.000270844  -1.19729 -1.95743 0.000462532  -1.17242 -2.03201 0.000185013  -1.12279 -2.05663 4.14848e-05  -1.09767 -2.00673 0.00014925  -1.19746 -1.95746 0.000396252  -1.17253 -2.03204 0.000156879  -1.14744 -1.98214 0.000310421  -1.09785 -2.00676 0.000124454  -1.1476 -1.98219 0.000263214  -1.27206 -2.10703 6.86646e-05  -1.24714 -2.05713 0.000172615  -1.22221 -2.13177 -1.38283e-05  -1.17254 -2.15641 -7.29561e-05  -1.14755 -2.1065 -2.57492e-05  -1.24725 -2.05715 0.000162601  -1.22227 -2.13178 -1.90735e-06  -1.19732 -2.08187 7.15256e-05  -1.14769 -2.10652 -2.0504e-05  -1.19742 -2.0819 6.4373e-05  -1.32157 -2.20682 -4.57764e-05  -1.29677 -2.15693 -1.28746e-05  -1.27179 -2.23154 -0.000124931  -1.22212 -2.25617 -0.00013876  -1.19726 -2.20629 -0.000136375  -1.29684 -2.15692 1.00136e-05  -1.27182 -2.23154 -9.39369e-05  -1.247 -2.18164 -7.72476e-05  -1.19735 -2.20629 -0.000107288  -1.24706 -2.18166 -5.67436e-05  -1.37088 -2.30656 -0.000102997  -1.3462 -2.25671 -0.000123024  -1.32118 -2.33123 -0.000164032  -1.27151 -2.35582 -0.000146866  -1.24677 -2.30601 -0.000179291  -1.34624 -2.2567 -8.2016e-05  -1.32119 -2.33122 -0.000129223  -1.29648 -2.28138 -0.000148296  -1.24683 -2.30601 -0.00014925  -1.29652 -2.2814 -0.000116348  -1.42006 -2.40617 -9.77516e-05  -1.39545 -2.3564 -0.000141621  -1.37039 -2.43076 -0.000149727  -1.32071 -2.45532 -0.000139713  -1.29608 -2.4056 -0.000178337  -1.39548 -2.35638 -9.9659e-05  -1.37039 -2.43076 -0.000116825  -1.34578 -2.381 -0.00015831  -1.29613 -2.40559 -0.000148296  -1.3458 -2.38101 -0.000127316  -1.46915 -2.50559 -7.29561e-05  -1.44457 -2.45591 -0.000112534  -1.41948 -2.53013 -0.000121117  -1.36979 -2.55464 -0.000109673  -1.34522 -2.50502 -0.000149727  -1.44461 -2.45589 -8.58307e-05  -1.41949 -2.53012 -0.00010252  -1.39492 -2.48045 -0.000133991  -1.34526 -2.505 -0.000119686  -1.39494 -2.48046 -0.000109196  -0.0126781 -0.0068689 0.0185413  0 0 0  -0.0083328 -0.00783424 0.0114012  -0.0034913 7.689e-06 0.00792933  0 0 0  -0.0122332 -0.00965601 0.0144873  -0.00497849 -0.000901446 0.010098  0 0 0  -0.00325628 -0.00137517 0.00613594  -0.00461875 -0.00244606 0.00783634  -0.0337098 -0.0294666 0.0287466  -0.0231801 -0.0323005 0.0184751  -0.0156776 -0.0151042 0.0196009  -0.0331363 -0.0340567 0.0233178  -0.0227898 -0.0166442 0.0248899  -0.0151425 -0.0185233 0.0155954  -0.0219788 -0.0205387 0.0197239  -0.0563365 -0.0629882 0.0313187  -0.0415247 -0.0678871 0.0208244  -0.0319035 -0.0443513 0.02425  -0.0569973 -0.0681543 0.026176  -0.0448604 -0.0448768 0.0306396  -0.0320489 -0.0488792 0.0200963  -0.0448588 -0.049927 0.0252948  -0.0806824 -0.106194 0.0302768  -0.0621814 -0.112564 0.0204115  -0.0502579 -0.0843815 0.0246525  -0.0825229 -0.111143 0.0256357  -0.0682203 -0.0834362 0.0310788  -0.0515535 -0.0891658 0.0208426  -0.06953 -0.0885922 0.0261812  -0.107453 -0.157472 0.0276895  -0.0853578 -0.165006 0.0187201  -0.0712499 -0.133385 0.0230861  -0.110048 -0.161864 0.0235453  -0.0937333 -0.13089 0.0290961  -0.073433 -0.13789 0.0196686  -0.096016 -0.135614 0.0247087  -0.136753 -0.215311 0.0246  -0.111201 -0.223976 0.016583  -0.0952411 -0.189733 0.0207286  -0.139704 -0.219068 0.0209193  -0.121778 -0.185615 0.0261626  -0.0979424 -0.193736 0.0176835  -0.124605 -0.189716 0.0222597  -0.168403 -0.278623 0.0215287  -0.139649 -0.288477 0.0144157  -0.122192 -0.252127 0.0181913  -0.171441 -0.28178 0.0182714  -0.152273 -0.246298 0.0230417  -0.125102 -0.255579 0.0154934  -0.155313 -0.249776 0.0195827  -0.202185 -0.346625 0.0187073  -0.170543 -0.357746 0.0124087  -0.151871 -0.319609 0.0157681  -0.205145 -0.349273 0.0158343  -0.185012 -0.312033 0.0200815  -0.154795 -0.322546 0.0133905  -0.188049 -0.314958 0.0170202  -0.237924 -0.418784 0.0162058  -0.203718 -0.4312 0.0106339  -0.184035 -0.391488 0.0135794  -0.240716 -0.421008 0.0136747  -0.219793 -0.382181 0.0174141  -0.18685 -0.393976 0.0114989  -0.222699 -0.384633 0.0147147  -0.275477 -0.494655 0.0140138  -0.23902 -0.508364 0.0090971  -0.218476 -0.467234 0.0116601  -0.278055 -0.496529 0.0117955  -0.256454 -0.456248 0.0150714  -0.221107 -0.469339 0.00984001  -0.259165 -0.458312 0.0127025  -0.31473 -0.573869 0.0121059  -0.276304 -0.58884 0.00776148  -0.254991 -0.546419 0.00998783  -0.317081 -0.575454 0.0101686  -0.294873 -0.533835 0.0130272  -0.257416 -0.548204 0.00840664  -0.297358 -0.535584 0.0109539  -0.355558 -0.65608 0.0104337  -0.315422 -0.672254 0.00661135  -0.293426 -0.628673 0.00853586  -0.357685 -0.657426 0.00874949  -0.334927 -0.614594 0.0112405  -0.295636 -0.630192 0.00717115  -0.337186 -0.616071 0.00943327  -0.397853 -0.74098 0.00896215  -0.356227 -0.758284 0.00560999  -0.333619 -0.713663 0.00727654  -0.399761 -0.742121 0.00750399  -0.376504 -0.698186 0.00967407  -0.335612 -0.714958 0.00609779  -0.378539 -0.699444 0.00810814  -0.441492 -0.828272 0.0076642  -0.39857 -0.846616 0.00473547  -0.375415 -0.801073 0.00616121  -0.443192 -0.829238 0.00641108  -0.419487 -0.784318 0.00829506  -0.37721 -0.802173 0.00515795  -0.421308 -0.785388 0.00693893  -0.486341 -0.917686 0.00650311  -0.442308 -0.936981 0.00396299  -0.418666 -0.890623 0.00518608  -0.48785 -0.918501 0.00542974  -0.463747 -0.872707 0.00706768  -0.420272 -0.891557 0.00433636  -0.465369 -0.87361 0.00590992  -0.532274 -1.00897 0.005476  -0.487275 -1.02913 0.00328112  -0.463216 -0.98205 0.00432348  -0.533601 -1.00965 0.00457096  -0.509153 -0.963082 0.00597286  -0.464642 -0.982841 0.00361109  -0.510591 -0.96385 0.00499344  -0.579156 -1.10189 0.00455666  -0.533324 -1.12281 0.00268412  -0.508918 -1.07512 0.00356007  -0.580311 -1.10246 0.0038023  -0.555577 -1.05522 0.00500202  -0.510166 -1.07579 0.00297403  -0.55684 -1.05586 0.00417471  -0.626837 -1.19623 0.0037384  -0.580302 -1.21783 0.00214863  -0.555609 -1.1696 0.0028863  -0.627842 -1.19671 0.00311804  -0.602879 -1.14887 0.0041337  -0.556704 -1.17016 0.0024066  -0.603976 -1.14941 0.00345039  -0.675206 -1.29179 0.00301266  -0.628066 -1.31398 0.00168228  -0.603139 -1.2653 0.00229359  -0.676072 -1.29218 0.00250912  -0.650918 -1.24385 0.00336313  -0.604088 -1.26577 0.00191116  -0.651871 -1.2443 0.00280571  -0.724124 -1.38839 0.0023737  -0.676477 -1.41108 0.00127745  -0.651378 -1.36203 0.00177002  -0.724857 -1.3887 0.0019784  -0.699576 -1.33995 0.00268221  -0.652196 -1.36242 0.00147581  -0.700397 -1.34032 0.00223541  -0.773477 -1.48586 0.00181627  -0.725401 -1.50897 0.000919819  -0.700179 -1.45963 0.00131369  -0.774092 -1.48611 0.00150871  -0.748727 -1.43701 0.00208139  -0.700878 -1.45994 0.00109529  -0.749421 -1.4373 0.00173187  -0.823152 -1.58404 0.00132561  -0.774718 -1.60751 0.00062418  -0.749429 -1.55792 0.000926495  -0.82365 -1.58424 0.00110102  -0.798253 -1.53485 0.00155973  -0.750012 -1.55817 0.000766277  -0.798832 -1.53509 0.001297  -0.873043 -1.68279 0.000912189  -0.824313 -1.70656 0.000372887  -0.799002 -1.65678 0.000597954  -0.873449 -1.68294 0.000757694  -0.848046 -1.63333 0.0011096  -0.799478 -1.65698 0.000491619  -0.848523 -1.63352 0.000921726  -0.923051 -1.78198 0.000564575  -0.874086 -1.80597 0.000161171  -0.848788 -1.75607 0.000317574  -0.923373 -1.7821 0.000470638  -0.89801 -1.73232 0.000733376  -0.849178 -1.75622 0.00026083  -0.898394 -1.73247 0.000608444  -0.973102 -1.88149 0.000288963  -0.923953 -1.90566 3.33786e-06  -0.898694 -1.85568 9.53674e-05  -0.973345 -1.88157 0.000236988  -0.948048 -1.83168 0.00042057  -0.899004 -1.85579 7.58171e-05  -0.948352 -1.8318 0.000345707  -1.02312 -1.98121 6.86646e-05  -0.973823 -2.0055 -0.000111103  -0.948646 -1.95548 -6.96182e-05  -1.0233 -1.98127 5.57899e-05  -0.998097 -1.93132 0.000169754  -0.948885 -1.95556 -6.29425e-05  -0.998326 -1.9314 0.000139713  -1.07306 -2.08103 -7.96318e-05  -1.02364 -2.10542 -0.000187874  -0.998557 -2.0554 -0.000181198  -1.07317 -2.08107 -6.81877e-05  -1.04808 -2.03109 -1.09673e-05  -0.998738 -2.05545 -0.000153065  -1.04824 -2.03116 -1.09673e-05  -1.12284 -2.18088 -0.000179291  -1.07334 -2.20532 -0.000220776  -1.04838 -2.15534 -0.000249863  -1.12291 -2.18091 -0.000147343  -1.09794 -2.13094 -0.000134468  -1.0485 -2.15537 -0.000210285  -1.09805 -2.13099 -0.000112534  -1.17245 -2.28067 -0.000215054  -1.1229 -2.30513 -0.000220776  -1.09805 -2.25522 -0.000268936  -1.17248 -2.28068 -0.00018549  -1.14764 -2.23077 -0.00020504  -1.09814 -2.25523 -0.000226021  -1.14771 -2.2308 -0.000169754  -1.22187 -2.38033 -0.000210285  -1.17228 -2.4048 -0.000193596  -1.14755 -2.35498 -0.00025177  -1.22187 -2.38033 -0.000175953  -1.19715 -2.3305 -0.000215054  -1.1476 -2.35498 -0.000210762  -1.1972 -2.33052 -0.000180721  -1.27108 -2.47982 -0.000177383  -1.22146 -2.50429 -0.000152111  -1.19686 -2.45457 -0.000211239  -1.27108 -2.47983 -0.000144005  -1.24647 -2.43008 -0.000193119  -1.19689 -2.45457 -0.000176907  -1.24649 -2.4301 -0.000161171  -1.32013 -2.5791 -0.000146866  -1.27047 -2.60353 -0.000104904  -1.24595 -2.55394 -0.000160694  -1.32013 -2.57911 -0.000117302  -1.29559 -2.52947 -0.000157833  -1.24598 -2.55394 -0.000124454  -1.29561 -2.52949 -0.000128269  -0.00522819 -0.00517917 0.0106249  0 0 0  -0.00226218 -0.00777361 0.0054245  -0.00095135 -0.000260115 0.00363493  0 0 0  -0.00510407 -0.00735813 0.00838661  -0.00211164 0.000127614 0.00576639  0 0 0  -0.000920951 -0.00136355 0.0028801  -0.00197925 -0.00111037 0.00449514  -0.0147327 -0.0283928 0.0167222  -0.00702709 -0.0329953 0.00904751  -0.00419869 -0.0158348 0.0092802  -0.0146883 -0.0320388 0.0137115  -0.0096231 -0.014933 0.0143671  -0.00427359 -0.0186253 0.00753164  -0.00938207 -0.017999 0.0115185  -0.0268078 -0.0643903 0.0184512  -0.0148242 -0.0706934 0.0104198  -0.00993297 -0.0466811 0.0118432  -0.0276292 -0.0687474 0.0155659  -0.0204419 -0.0449702 0.0179615  -0.0105422 -0.0505204 0.00996876  -0.020797 -0.0491058 0.0149741  -0.0417052 -0.110417 0.01791  -0.0258172 -0.118021 0.010273  -0.0185227 -0.0890111 0.0122166  -0.043417 -0.11485 0.0152941  -0.0338548 -0.0862304 0.0183644  -0.0198997 -0.0932709 0.0104756  -0.0351578 -0.0907226 0.0156064  -0.0599008 -0.164664 0.0163345  -0.0402771 -0.173292 0.00934458  -0.0305826 -0.140535 0.0114279  -0.0622293 -0.16879 0.013999  -0.0503569 -0.136568 0.0172024  -0.0325964 -0.144741 0.00987148  -0.0524282 -0.140914 0.0147252  -0.0815479 -0.225665 0.0143905  -0.0583481 -0.235249 0.00811529  -0.0464462 -0.19961 0.0101175  -0.0841966 -0.229336 0.0123234  -0.0702765 -0.194356 0.0153842  -0.0488607 -0.203498 0.00874996  -0.0728156 -0.198299 0.0131817  -0.106511 -0.29227 0.0124316  -0.0799616 -0.302862 0.00684023  -0.0661235 -0.264929 0.00866318  -0.109254 -0.295461 0.0106115  -0.093604 -0.25828 0.0134029  -0.0687169 -0.268397 0.00747633  -0.0963428 -0.261748 0.0114608  -0.134524 -0.363639 0.010613  -0.104924 -0.375313 0.00566292  -0.0894225 -0.335498 0.00725937  -0.137219 -0.366383 0.00902796  -0.120134 -0.327366 0.0114956  -0.092033 -0.338522 0.00623894  -0.122881 -0.330355 0.009799  -0.165312 -0.439124 0.00899649  -0.132976 -0.451935 0.00462294  -0.116043 -0.410518 0.00598907  -0.167876 -0.441465 0.00762463  -0.14956 -0.400863 0.00977659  -0.118575 -0.413131 0.005126  -0.152218 -0.403429 0.00830269  -0.198636 -0.518202 0.00759506  -0.163867 -0.532187 0.00373554  -0.145689 -0.489377 0.0048852  -0.201017 -0.520207 0.00641775  -0.181646 -0.478208 0.00826979  -0.148075 -0.491633 0.00416517  -0.184142 -0.480397 0.00699663  -0.234266 -0.600464 0.00638533  -0.197362 -0.615608 0.00298691  -0.178086 -0.571583 0.00394344  -0.236444 -0.60218 0.00537586  -0.21615 -0.55893 0.00696373  -0.180299 -0.57352 0.00334644  -0.21845 -0.560808 0.00587416  -0.272001 -0.685535 0.00534534  -0.233223 -0.701802 0.0023632  -0.21298 -0.656703 0.00314379  -0.273981 -0.687005 0.00449228  -0.252854 -0.642638 0.00584364  -0.215003 -0.658376 0.00266409  -0.254958 -0.644253 0.00491571  -0.311647 -0.773077 0.00444555  -0.27124 -0.790403 0.00183821  -0.250134 -0.744379 0.00247526  -0.313426 -0.774336 0.00372791  -0.291569 -0.728989 0.00487709  -0.251973 -0.745815 0.00208902  -0.293469 -0.730372 0.00409651  -0.353017 -0.86279 0.00365686  -0.311189 -0.88111 0.00138855  -0.289324 -0.83427 0.0019021  -0.354606 -0.863866 0.00306416  -0.332098 -0.817651 0.00403643  -0.29098 -0.835504 0.00160313  -0.333805 -0.818838 0.00338459  -0.395936 -0.954402 0.00297785  -0.352876 -0.973632 0.0010128  -0.33034 -0.92609 0.00142193  -0.397348 -0.955322 0.00248957  -0.374264 -0.908347 0.00330448  -0.331825 -0.927155 0.00119543  -0.37579 -0.909367 0.00276518  -0.440225 -1.04766 0.00238466  -0.396096 -1.06773 0.000694275  -0.372984 -1.01958 0.00100756  -0.441471 -1.04845 0.00199032  -0.417893 -1.00081 0.00267172  -0.374301 -1.02049 0.000851631  -0.419243 -1.00168 0.00223207  -0.485708 -1.14233 0.00186634  -0.440657 -1.16314 0.0004282  -0.417053 -1.1145 0.000660419  -0.486799 -1.14301 0.00155687  -0.4628 -1.09481 0.00211477  -0.418217 -1.11528 0.000555038  -0.46399 -1.09556 0.00176668  -0.532229 -1.23823 0.0014143  -0.486376 -1.2597 0.000198364  -0.46236 -1.21063 0.000366688  -0.533175 -1.2388 0.00117922  -0.508825 -1.19012 0.00163221  -0.46338 -1.21129 0.000306129  -0.509863 -1.19076 0.00136185  -0.579614 -1.33514 0.00102663  -0.533077 -1.35719 9.53674e-06  -0.508731 -1.30778 0.000121593  -0.580423 -1.33562 0.000854015  -0.555796 -1.28655 0.00121069  -0.50961 -1.30834 9.9659e-05  -0.556692 -1.28708 0.00100756  -0.627724 -1.43291 0.00068903  -0.580606 -1.45545 -0.000142574  -0.555991 -1.40576 -7.67708e-05  -0.628414 -1.4333 0.000568867  -0.603563 -1.38391 0.000851154  -0.556745 -1.40623 -6.48499e-05  -0.60433 -1.38435 0.000704288  -0.676419 -1.53137 0.000406265  -0.628802 -1.55434 -0.00025177  -0.603981 -1.50443 -0.000240326  -0.676989 -1.53169 0.000335217  -0.651984 -1.48204 0.000541687  -0.604625 -1.50482 -0.000199318  -0.652633 -1.48241 0.000449657  -0.725556 -1.63038 0.000171185  -0.677518 -1.65371 -0.000350952  -0.652557 -1.60365 -0.000362396  -0.726023 -1.63065 0.000137329  -0.700909 -1.58079 0.000283241  -0.653092 -1.60397 -0.000305176  -0.701449 -1.5811 0.00023222  -0.775013 -1.72981 -2.38419e-05  -0.726631 -1.75343 -0.000417233  -0.701582 -1.70327 -0.000457287  -0.775388 -1.73003 -2.28882e-05  -0.750221 -1.68003 7.24792e-05  -0.702029 -1.70353 -0.000390053  -0.750664 -1.68029 5.48363e-05  -0.82469 -1.82956 -0.000161648  -0.776015 -1.8534 -0.000449657  -0.750935 -1.80318 -0.000522137  -0.824979 -1.82972 -0.000143528  -0.799805 -1.77964 -9.87053e-05  -0.751291 -1.80339 -0.000439644  -0.800157 -1.77984 -8.58307e-05  -0.874485 -1.92949 -0.000273705  -0.825577 -1.95353 -0.000469208  -0.800493 -1.90329 -0.000551224  -0.874706 -1.92962 -0.000231743  -0.849549 -1.87949 -0.000223637  -0.800778 -1.90345 -0.000462532  -0.849829 -1.87965 -0.000192165  -0.924322 -2.02954 -0.000336647  -0.875214 -2.05371 -0.000460148  -0.850172 -2.00349 -0.000555992  -0.924471 -2.02963 -0.000286579  -0.899377 -1.97949 -0.000308037  -0.85039 -2.00362 -0.000463963  -0.899583 -1.97962 -0.00026226  -0.974115 -2.12959 -0.000361919  -0.924865 -2.15386 -0.000429153  -0.899882 -2.1037 -0.000535965  -0.974215 -2.12966 -0.000308037  -0.949196 -2.07955 -0.000354767  -0.900039 -2.10379 -0.000450611  -0.949347 -2.07965 -0.000298023  -1.02381 -2.22959 -0.000355244  -0.974451 -2.25393 -0.000377655  -0.949553 -2.20384 -0.000484467  -1.02387 -2.22965 -0.000299454  -0.998949 -2.17958 -0.000367165  -0.949661 -2.20391 -0.000407219  -0.99905 -2.17966 -0.000306129  -1.07337 -2.32947 -0.000317574  -1.02391 -2.35385 -0.000309944  -0.999124 -2.30386 -0.000419617  -1.07339 -2.32951 -0.000266075  -1.04858 -2.27953 -0.000337601  -0.999194 -2.30391 -0.000349998  -1.04864 -2.27959 -0.000287056  -1.12274 -2.42918 -0.000262737  -1.07323 -2.45358 -0.000236034  -1.04855 -2.40371 -0.00032711  -1.12274 -2.42921 -0.00021553  -1.09805 -2.37933 -0.000291824  -1.04859 -2.40374 -0.000274658  -1.09808 -2.37937 -0.000245094  -1.17192 -2.52868 -0.000186443  -1.12236 -2.55308 -0.000154972  -1.09779 -2.50335 -0.000234604  -1.17189 -2.5287 -0.000154972  -1.14733 -2.47894 -0.000225544  -1.09781 -2.50336 -0.000194073  -1.14733 -2.47898 -0.000187397  -1.22086 -2.62789 -0.000119209  -1.17126 -2.65227 -7.86781e-05  -1.14681 -2.6027 -0.000144005  -1.22085 -2.62791 -9.63211e-05  -1.19639 -2.5783 -0.000150681  -1.14684 -2.60271 -0.000114441  -1.19639 -2.57834 -0.000123501  0.000607371 -0.00710544 0.00297308  0 0 0  0.00294448 -0.0105691 -0.000369072  0.00121124 -0.00201273 -0.000614643  0 0 0  0.000391006 -0.00888652 0.00250053  0.000158168 -0.00099057 0.00150251  0 0 0  0.00106994 -0.00290149 -0.000314236  9.94429e-05 -0.00198251 0.00127602  0.000663608 -0.0318831 0.00524616  0.00695673 -0.0379195 9.05991e-06  0.00570808 -0.0201143 -0.00057888  9.11653e-05 -0.0349943 0.0044713  0.000840947 -0.0175956 0.00428057  0.00504558 -0.0225178 -0.000227451  0.000474915 -0.0201725 0.00360489  -0.00163117 -0.0697955 0.00615263  0.00887737 -0.0776288 0.000442982  0.00939471 -0.0529993 2.67029e-05  -0.00276849 -0.0736735 0.00536823  -0.000105172 -0.0493744 0.00584841  0.00830019 -0.0564408 0.000266552  -0.000952214 -0.0529883 0.00505114  -0.00735259 -0.117985 0.00604296  0.00719529 -0.127051 0.000509739  0.0100807 -0.0972867 0.000306129  -0.00905439 -0.12209 0.00533867  -0.00400409 -0.0926929 0.00618935  0.00854102 -0.101239 0.000522614  -0.00544617 -0.0967826 0.00544405  -0.0170971 -0.174573 0.00536728  0.0012759 -0.184567 0.000255108  0.00670367 -0.150852 0.000171661  -0.0192118 -0.17854 0.00476742  -0.0116866 -0.145279 0.00574589  0.00478691 -0.154872 0.000412941  -0.0136298 -0.149391 0.00509548  -0.0310565 -0.238124 0.00444794  -0.00906986 -0.248955 -0.00016737  -0.00116843 -0.212142 -0.000216007  -0.0334018 -0.241768 0.00395393  -0.0235288 -0.205512 0.00491524  -0.00333619 -0.215963 5.91278e-05  -0.0257991 -0.20937 0.00437403  -0.0491343 -0.307496 0.00349331  -0.0237869 -0.319191 -0.000618458  -0.0136003 -0.279908 -0.000697136  -0.0515596 -0.310748 0.0031023  -0.0395716 -0.272101 0.00396156  -0.0158886 -0.283395 -0.000391483  -0.0419926 -0.275587 0.00352526  -0.071086 -0.381771 0.00260973  -0.042641 -0.394407 -0.00102949  -0.0304027 -0.353112 -0.00116873  -0.0734745 -0.384625 0.00231504  -0.059621 -0.344032 0.00303507  -0.0327103 -0.356223 -0.000827789  -0.0620588 -0.347114 0.0026989  -0.0965834 -0.46021 0.0018363  -0.0653455 -0.473857 -0.00136566  -0.0512921 -0.430901 -0.00157595  -0.0988661 -0.462701 0.00162983  -0.083388 -0.420478 0.00220346  -0.0535262 -0.433635 -0.00120592  -0.0857497 -0.423167 0.00196028  -0.125312 -0.542229 0.0011878  -0.0915745 -0.556911 -0.00162363  -0.0759068 -0.512565 -0.00189638  -0.127445 -0.544385 0.00106049  -0.110538 -0.500771 0.00149679  -0.0780321 -0.51496 -0.00150061  -0.11277 -0.503115 0.00133181  -0.156971 -0.627327 0.000660419  -0.121017 -0.643059 -0.00179911  -0.103934 -0.597534 -0.00212955  -0.158938 -0.629199 0.000602722  -0.140765 -0.584389 0.000910759  -0.105908 -0.599625 -0.00171709  -0.142841 -0.586423 0.000819683  -0.191279 -0.71509 0.000236511  -0.153378 -0.731849 -0.00190449  -0.135032 -0.685324 -0.00227547  -0.19307 -0.716707 0.000231266  -0.173781 -0.67087 0.000436783  -0.136847 -0.687141 -0.00185776  -0.175685 -0.672633 0.000407696  -0.227976 -0.80515 -9.87053e-05  -0.188362 -0.822891 -0.00196075  -0.168898 -0.775521 -0.00236511  -0.229593 -0.806555 -6.19888e-05  -0.209317 -0.759824 6.1512e-05  -0.170554 -0.777105 -0.00194263  -0.211044 -0.761356 7.96318e-05  -0.266807 -0.897188 -0.000368118  -0.2257 -0.915853 -0.0019803  -0.205252 -0.867772 -0.0023942  -0.268259 -0.898405 -0.000293255  -0.247112 -0.850913 -0.00024271  -0.206749 -0.869148 -0.00197649  -0.248666 -0.852239 -0.000185013  -0.307547 -0.990924 -0.000576019  -0.265133 -1.01045 -0.00196218  -0.243827 -0.961764 -0.00238276  -0.308835 -0.991975 -0.000469685  -0.286929 -0.943833 -0.000480175  -0.245169 -0.962963 -0.00197077  -0.288319 -0.944987 -0.000387192  -0.349971 -1.08611 -0.000736713  -0.306419 -1.10641 -0.00191307  -0.284362 -1.05723 -0.00234127  -0.351109 -1.08701 -0.000605583  -0.328534 -1.03832 -0.000662804  -0.285554 -1.05827 -0.00193834  -0.329771 -1.03932 -0.000546455  -0.393864 -1.1825 -0.000855923  -0.349326 -1.20351 -0.00184774  -0.326624 -1.15393 -0.00226736  -0.394858 -1.18328 -0.000706196  -0.371719 -1.13414 -0.000798702  -0.327679 -1.15482 -0.00188303  -0.372806 -1.135 -0.00066185  -0.439024 -1.27991 -0.000937462  -0.393639 -1.30155 -0.00176764  -0.370388 -1.25164 -0.00217295  -0.439892 -1.28059 -0.000778198  -0.416273 -1.23107 -0.000899792  -0.371309 -1.25241 -0.00180864  -0.417221 -1.23181 -0.00074625  -0.48527 -1.37817 -0.000992298  -0.439133 -1.40033 -0.0016737  -0.415439 -1.35019 -0.00206566  -0.486007 -1.37873 -0.00082922  -0.462 -1.32892 -0.00096941  -0.416241 -1.35085 -0.00172043  -0.46282 -1.32956 -0.000808239  -0.53242 -1.47709 -0.001019  -0.485649 -1.49973 -0.00157213  -0.461586 -1.4494 -0.0019455  -0.533039 -1.47757 -0.000852585  -0.50871 -1.42752 -0.00100994  -0.46227 -1.44996 -0.00162458  -0.509415 -1.42807 -0.000843048  -0.580304 -1.57654 -0.00102234  -0.532995 -1.59958 -0.00145864  -0.508642 -1.54913 -0.00181675  -0.58082 -1.57694 -0.000855923  -0.55625 -1.52673 -0.00102568  -0.509222 -1.5496 -0.00151873  -0.556841 -1.52719 -0.000855446  -0.62877 -1.67639 -0.00100803  -0.581003 -1.69976 -0.00133371  -0.556439 -1.64923 -0.0016737  -0.629194 -1.67672 -0.000843525  -0.604445 -1.6264 -0.00102043  -0.556916 -1.64964 -0.00139761  -0.604937 -1.62679 -0.000852108  -0.677694 -1.77652 -0.000973225  -0.629534 -1.80017 -0.00121546  -0.604813 -1.74962 -0.00153446  -0.678025 -1.77679 -0.000815868  -0.653157 -1.72641 -0.00098896  -0.605208 -1.74994 -0.00127792  -0.653557 -1.72672 -0.000829697  -0.726932 -1.87682 -0.000920773  -0.678447 -1.90069 -0.00108147  -0.653636 -1.85015 -0.00137615  -0.727184 -1.87704 -0.000768661  -0.70225 -1.82663 -0.000946045  -0.653943 -1.85042 -0.00114965  -0.702566 -1.8269 -0.000789642  -0.776377 -1.97721 -0.000846863  -0.727628 -2.00125 -0.000952721  -0.702763 -1.95075 -0.00122309  -0.776565 -1.97739 -0.00070715  -0.751609 -1.92699 -0.000883579  -0.703005 -1.95097 -0.00101805  -0.75185 -1.92721 -0.000740528  -0.825939 -2.0776 -0.000763416  -0.776964 -2.10176 -0.000814915  -0.752088 -2.05135 -0.00106049  -0.826063 -2.07773 -0.000637531  -0.801119 -2.02738 -0.000806808  -0.752274 -2.05152 -0.000884533  -0.801303 -2.02756 -0.000673771  -0.875519 -2.17791 -0.000666142  -0.826382 -2.20218 -0.000685215  -0.801532 -2.15185 -0.000899315  -0.875597 -2.17802 -0.000553608  -0.850699 -2.12774 -0.000715256  -0.801664 -2.15198 -0.00075388  -0.850824 -2.12788 -0.000598431  -0.92506 -2.27809 -0.000554562  -0.875782 -2.30243 -0.000542164  -0.850992 -2.25221 -0.000733376  -0.9251 -2.27818 -0.000462055  -0.900272 -2.228 -0.000611305  -0.851078 -2.25232 -0.000610828  -0.90035 -2.22811 -0.000512123  -0.974503 -2.37809 -0.000433445  -0.92512 -2.40246 -0.000411987  -0.900407 -2.35238 -0.000573635  -0.974505 -2.37816 -0.000362396  -0.94977 -2.3281 -0.000494003  -0.900456 -2.35247 -0.000477314  -0.94981 -2.32819 -0.000413418  -1.02379 -2.47787 -0.00030899  -0.97434 -2.50225 -0.000277996  -0.949719 -2.45232 -0.000413418  -1.02377 -2.47792 -0.000256062  -0.999139 -2.42799 -0.000369549  -0.949742 -2.45238 -0.000342846  -0.999153 -2.42806 -0.000309467  -1.0729 -2.57738 -0.000180721  -1.02339 -2.60176 -0.000149727  -0.998873 -2.552 -0.000249863  -1.07286 -2.57742 -0.000146389  -1.04835 -2.52764 -0.000246525  -0.998881 -2.55204 -0.000210762  -1.04834 -2.5277 -0.000204563  -1.12175 -2.67656 -6.7234e-05  -1.07221 -2.70095 -2.00272e-05  -1.04783 -2.65135 -0.000100613  -1.12172 -2.6766 -5.19753e-05  -1.09733 -2.627 -0.000122547  -1.04782 -2.65139 -8.39233e-05  -1.09732 -2.62705 -9.87053e-05  0.00604747 -0.0112823 -0.00440788  0 0 0  0.00817795 -0.0155969 -0.00588942  0.00333066 -0.00487691 -0.00475788  0 0 0  0.0055189 -0.0127957 -0.00317526  0.00225582 -0.00329202 -0.00270605  0 0 0  0.00305834 -0.00562608 -0.00340652  0.00204476 -0.00410014 -0.00187922  0.0149354 -0.0389282 -0.00562429  0.0207931 -0.046407 -0.00848341  0.0155302 -0.0272963 -0.00986242  0.013799 -0.0417278 -0.00431871  0.0105509 -0.0233412 -0.0053072  0.0143453 -0.0294882 -0.00755262  0.0096308 -0.0256178 -0.00395823  0.0218464 -0.0789359 -0.00553608  0.0320199 -0.0883554 -0.00897264  0.0283361 -0.0629119 -0.0110712  0.0203953 -0.0825303 -0.00434113  0.0187925 -0.0575144 -0.00562668  0.0268024 -0.0661412 -0.00885725  0.0174797 -0.060831 -0.0043807  0.0249324 -0.128981 -0.00535154  0.03922 -0.139589 -0.00882578  0.0379036 -0.10911 -0.0110083  0.0232015 -0.132889 -0.00421715  0.0239474 -0.102759 -0.00543451  0.0362045 -0.112879 -0.00892782  0.0223405 -0.106612 -0.00427008  0.0233843 -0.187506 -0.00528479  0.0414994 -0.19896 -0.00855303  0.042856 -0.164418 -0.0106683  0.0214282 -0.191372 -0.00418949  0.0247799 -0.157222 -0.00530338  0.0410013 -0.168316 -0.00869131  0.0229123 -0.161183 -0.00418854  0.0169471 -0.253195 -0.00530863  0.0386317 -0.265413 -0.0082736  0.0426808 -0.227591 -0.0103006  0.0148602 -0.256827 -0.00424242  0.0207954 -0.219485 -0.00529385  0.0407122 -0.231359 -0.00841522  0.0187477 -0.223287 -0.00421  0.00568628 -0.324943 -0.00535011  0.0306822 -0.337936 -0.00799465  0.0373126 -0.297471 -0.00992727  0.00355685 -0.32824 -0.00431347  0.0119288 -0.288336 -0.00533438  0.0352854 -0.30097 -0.00813437  0.00979263 -0.291841 -0.00427818  -0.0101618 -0.401765 -0.00536966  0.0178888 -0.415605 -0.00768614  0.0269017 -0.373004 -0.00954533  -0.0122582 -0.404711 -0.00436163  -0.00166076 -0.362733 -0.00536728  0.0248777 -0.376173 -0.00784397  -0.00380182 -0.365889 -0.00434446  -0.0302604 -0.482858 -0.00533438  0.000564337 -0.497596 -0.00735521  0.0117368 -0.45327 -0.00913239  -0.032264 -0.485462 -0.00436115  -0.019675 -0.441788 -0.00536013  0.00977635 -0.456097 -0.00752163  -0.0217513 -0.444588 -0.00436735  -0.0542381 -0.567536 -0.00523853  -0.0209266 -0.583227 -0.00699854  -0.00780928 -0.537479 -0.00869608  -0.0561252 -0.569831 -0.00430489  -0.0417572 -0.524751 -0.00529671  -0.00967932 -0.539991 -0.00717449  -0.0437294 -0.527224 -0.00433826  -0.0817537 -0.655249 -0.00509357  -0.0462217 -0.671886 -0.00660706  -0.0313671 -0.624988 -0.00822735  -0.0834994 -0.657255 -0.0041995  -0.0675515 -0.611011 -0.00516844  -0.0331177 -0.627204 -0.00680447  -0.0693898 -0.613188 -0.00425529  -0.112458 -0.745519 -0.00489998  -0.0749573 -0.763094 -0.0062027  -0.0585562 -0.715246 -0.00773382  -0.114052 -0.747278 -0.00405121  -0.0967027 -0.700055 -0.00500345  -0.0601759 -0.717195 -0.00640345  -0.0983903 -0.701966 -0.00412941  -0.146022 -0.837942 -0.0046773  -0.106788 -0.856418 -0.00578785  -0.0890257 -0.807797 -0.00722742  -0.147469 -0.839482 -0.00387526  -0.128869 -0.791453 -0.00479698  -0.0905001 -0.80951 -0.00599575  -0.130417 -0.793124 -0.00396585  -0.182149 -0.932173 -0.00442457  -0.141388 -0.951501 -0.00537205  -0.122417 -0.902258 -0.00672007  -0.183447 -0.933525 -0.00366926  -0.163757 -0.884826 -0.00455523  -0.123759 -0.903756 -0.00557756  -0.165151 -0.886289 -0.00377464  -0.220551 -1.02792 -0.00415754  -0.178454 -1.04804 -0.00495052  -0.158424 -0.998287 -0.00620985  -0.221709 -1.0291 -0.0034523  -0.20106 -0.979853 -0.00429535  -0.159623 -0.999602 -0.00515461  -0.202306 -0.981134 -0.0035634  -0.26096 -1.12493 -0.00388622  -0.217692 -1.14576 -0.00453997  -0.196745 -1.09561 -0.00571108  -0.261977 -1.12596 -0.00322723  -0.240496 -1.07626 -0.00402355  -0.197812 -1.09676 -0.00474691  -0.241603 -1.07738 -0.00334215  -0.30312 -1.22297 -0.00360203  -0.258833 -1.24444 -0.00413704  -0.237093 -1.19399 -0.00522041  -0.304011 -1.22386 -0.00299454  -0.28181 -1.17381 -0.00374508  -0.238036 -1.19499 -0.00433969  -0.282781 -1.17479 -0.00311422  -0.346804 -1.32184 -0.00331831  -0.30163 -1.34388 -0.00375223  -0.27921 -1.2932 -0.00474405  -0.347574 -1.32262 -0.00276041  -0.324758 -1.27229 -0.00345993  -0.280031 -1.29407 -0.00394487  -0.325609 -1.27314 -0.00287676  -0.39178 -1.42136 -0.00302887  -0.34584 -1.4439 -0.00337505  -0.322854 -1.39306 -0.00427818  -0.392433 -1.42203 -0.00252151  -0.369115 -1.37151 -0.00317526  -0.323566 -1.39382 -0.00355864  -0.369846 -1.37225 -0.00263977  -0.437858 -1.52139 -0.0027523  -0.391252 -1.54435 -0.00301456  -0.367796 -1.49342 -0.00383615  -0.438411 -1.52197 -0.00229216  -0.414666 -1.47131 -0.00288963  -0.368403 -1.49408 -0.00319433  -0.415288 -1.47194 -0.00240612  -0.484839 -1.6218 -0.00247574  -0.437668 -1.64511 -0.00266552  -0.413835 -1.59414 -0.00341082  -0.485296 -1.62228 -0.00205994  -0.461222 -1.57154 -0.00261497  -0.414342 -1.5947 -0.00283813  -0.461743 -1.57208 -0.0021801  -0.532562 -1.72244 -0.00220442  -0.484904 -1.74606 -0.00233603  -0.460765 -1.69509 -0.00300026  -0.532923 -1.72285 -0.00184059  -0.50859 -1.67208 -0.00233603  -0.46119 -1.69557 -0.00249624  -0.509021 -1.67254 -0.00195026  -0.580853 -1.82324 -0.00193644  -0.532787 -1.84709 -0.00201941  -0.508433 -1.79617 -0.0026145  -0.581136 -1.82358 -0.00161171  -0.556621 -1.77281 -0.00207472  -0.50877 -1.79657 -0.00217676  -0.556963 -1.7732 -0.00172758  -0.62958 -1.92408 -0.00168657  -0.581172 -1.94813 -0.0017252  -0.55666 -1.89728 -0.00225163  -0.629792 -1.92437 -0.00140524  -0.605146 -1.87364 -0.00181007  -0.556918 -1.89761 -0.00187254  -0.605411 -1.87397 -0.00150919  -0.678609 -2.0249 -0.00143433  -0.629928 -2.04909 -0.00144291  -0.605311 -1.99834 -0.00189829  -0.678763 -2.02514 -0.00119591  -0.654035 -1.97448 -0.00155687  -0.605506 -1.99862 -0.00158262  -0.654238 -1.97476 -0.00129986  -0.727837 -2.12562 -0.00119925  -0.678923 -2.1499 -0.00118113  -0.654248 -2.0993 -0.00157261  -0.727932 -2.12581 -0.00100183  -0.703178 -2.07526 -0.00131655  -0.654396 -2.09951 -0.00130939  -0.703323 -2.07548 -0.00109816  -0.777162 -2.22619 -0.000972748  -0.728058 -2.25055 -0.000939369  -0.703375 -2.20007 -0.00127363  -0.777213 -2.22634 -0.000809669  -0.752464 -2.1759 -0.00108576  -0.703473 -2.20025 -0.00105858  -0.752558 -2.17609 -0.000905037  -0.8265 -2.32654 -0.000754833  -0.777253 -2.35094 -0.000714302  -0.752592 -2.30063 -0.000988007  -0.826512 -2.32666 -0.000631332  -0.801805 -2.27637 -0.000864029  -0.752648 -2.30078 -0.000825882  -0.80186 -2.27652 -0.000720978  -0.875784 -2.42666 -0.000551224  -0.826428 -2.45107 -0.000511169  -0.801809 -2.40093 -0.000734329  -0.875772 -2.42675 -0.000457764  -0.851124 -2.37661 -0.000658512  -0.80184 -2.40104 -0.000613689  -0.851148 -2.37673 -0.000546455  -0.924976 -2.5265 -0.000359058  -0.875526 -2.5509 -0.000315189  -0.850983 -2.50095 -0.000494003  -0.924931 -2.52657 -0.000293732  -0.90037 -2.4766 -0.000444889  -0.850983 -2.50102 -0.000408173  -0.900358 -2.47669 -0.000371456  -0.973992 -2.62602 -0.000171185  -0.924497 -2.65043 -0.000140667  -0.900036 -2.60064 -0.000265598  -0.973944 -2.62609 -0.000140667  -0.949481 -2.57628 -0.000258446  -0.900028 -2.60071 -0.000221252  -0.949451 -2.57636 -0.000216961  -1.02278 -2.72521 1.28746e-05  -0.973264 -2.74964 4.52995e-05  -0.948928 -2.70001 -5.48363e-05  -1.02273 -2.72527 9.53674e-06  -0.998399 -2.67565 -7.39098e-05  -0.94891 -2.70007 -5.00679e-05  -0.998364 -2.67572 -6.53267e-05  0.0118908 -0.0176765 -0.0113268  0 0 0  0.0142712 -0.0234338 -0.0108967  0.00571304 -0.00930643 -0.0085969  0 0 0  0.011066 -0.019083 -0.00847149  0.00444674 -0.00682747 -0.00672626  0 0 0  0.00532924 -0.0100636 -0.00621605  0.00411807 -0.00755191 -0.00485659  0.0298187 -0.0493522 -0.0156689  0.0361695 -0.0586556 -0.0161963  0.0265974 -0.0377136 -0.0182567  0.0281983 -0.0520351 -0.0124483  0.0208195 -0.032046 -0.0141859  0.0249581 -0.0399339 -0.0141749  0.0194051 -0.034212 -0.0109668  0.0457196 -0.091624 -0.0164776  0.0565332 -0.102699 -0.0176945  0.0487256 -0.0763678 -0.0212545  0.0440004 -0.0950913 -0.013423  0.0382369 -0.0691944 -0.0162864  0.0468546 -0.0795733 -0.0172234  0.0365324 -0.0723851 -0.0131392  0.0572262 -0.143328 -0.0162048  0.0721292 -0.155447 -0.0176592  0.0668177 -0.124295 -0.0216398  0.05546 -0.147119 -0.0133033  0.0521048 -0.116296 -0.0164113  0.065002 -0.127989 -0.0177841  0.0503576 -0.120017 -0.0134344  0.0635017 -0.203522 -0.015594  0.0821626 -0.216423 -0.0170388  0.0796648 -0.181134 -0.021059  0.0616736 -0.207315 -0.0128345  0.0610584 -0.172387 -0.015924  0.0778635 -0.184947 -0.017386  0.0592495 -0.176244 -0.0130944  0.0642885 -0.271111 -0.0148659  0.0864301 -0.284738 -0.0161839  0.0868273 -0.246008 -0.0200996  0.0624192 -0.274714 -0.0122547  0.0646015 -0.23642 -0.0152416  0.085023 -0.249721 -0.0166206  0.0627335 -0.240167 -0.0125542  0.0596396 -0.344977 -0.0140996  0.0850026 -0.359355 -0.0152516  0.0882284 -0.317841 -0.0189977  0.0577657 -0.348292 -0.0116377  0.0626558 -0.307286 -0.0144868  0.0864204 -0.321312 -0.0157228  0.0607604 -0.310784 -0.0119519  0.0497768 -0.424111 -0.0133028  0.0780978 -0.439295 -0.0142837  0.0840048 -0.39553 -0.0178308  0.0479434 -0.427112 -0.0109944  0.0553625 -0.383908 -0.0137076  0.0822173 -0.398712 -0.0147676  0.053486 -0.387098 -0.0113173  0.0350356 -0.507622 -0.0124965  0.0660449 -0.523657 -0.0133133  0.0744264 -0.478091 -0.0166497  0.0332747 -0.510308 -0.0103412  0.0430202 -0.465333 -0.0129051  0.072697 -0.480967 -0.0137968  0.041196 -0.468204 -0.0106692  0.015798 -0.594755 -0.0116839  0.0492376 -0.611664 -0.0123544  0.0598673 -0.564665 -0.0154791  0.014138 -0.597144 -0.00967884  0.0259809 -0.550741 -0.0120916  0.0582176 -0.567241 -0.0128331  0.0242466 -0.553304 -0.0100093  -0.00753939 -0.684875 -0.0108685  0.02807 -0.702667 -0.0114145  0.040729 -0.654526 -0.0143213  -0.00908291 -0.686998 -0.00901175  0.00464225 -0.639443 -0.0112777  0.0391787 -0.65682 -0.0118828  0.00301909 -0.641721 -0.00934553  -0.034579 -0.777471 -0.0100636  0.00296342 -0.796114 -0.010499  0.0174305 -0.747073 -0.0131917  -0.0359995 -0.779344 -0.00835037  -0.0205911 -0.730863 -0.0104666  0.0159905 -0.749112 -0.0109549  -0.0220952 -0.732882 -0.00868034  -0.0649508 -0.872099 -0.00927353  -0.025691 -0.891562 -0.00961208  -0.00961936 -0.841811 -0.0120983  -0.0662391 -0.87375 -0.00770283  -0.0493453 -0.824527 -0.00967073  -0.0109366 -0.843614 -0.0100498  -0.050719 -0.826307 -0.00802469  -0.098298 -0.968381 -0.00850153  -0.0575254 -0.988617 -0.00876093  -0.040035 -0.938316 -0.0110469  -0.0994526 -0.969838 -0.00706291  -0.0812485 -0.920027 -0.00888824  -0.0412314 -0.939908 -0.00917912  -0.0824913 -0.9216 -0.0073843  -0.134278 -1.06601 -0.00776005  -0.0921774 -1.08696 -0.00794649  -0.0734395 -1.03623 -0.0100403  -0.135312 -1.0673 -0.00644875  -0.11595 -1.01702 -0.00812674  -0.074515 -1.03764 -0.00834942  -0.117066 -1.01841 -0.00675392  -0.172598 -1.16472 -0.00704098  -0.129325 -1.18631 -0.00716734  -0.109496 -1.13528 -0.00908279  -0.173506 -1.16585 -0.00585747  -0.15314 -1.11522 -0.00739765  -0.110454 -1.13651 -0.00755167  -0.154129 -1.11644 -0.00614977  -0.212961 -1.26428 -0.00635672  -0.168663 -1.28644 -0.00643063  -0.147889 -1.2352 -0.00816679  -0.213751 -1.26527 -0.00528765  -0.192514 -1.21438 -0.00669527  -0.148734 -1.23629 -0.00679684  -0.193384 -1.21546 -0.0055685  -0.255088 -1.3645 -0.00569963  -0.209903 -1.38717 -0.00572872  -0.188324 -1.33578 -0.00729942  -0.255766 -1.36537 -0.00474405  -0.233791 -1.3143 -0.00602341  -0.189054 -1.33674 -0.00607491  -0.234544 -1.31524 -0.00500917  -0.298739 -1.46521 -0.00507736  -0.252777 -1.48831 -0.00507021  -0.230516 -1.43685 -0.00648308  -0.29931 -1.46597 -0.00422239  -0.276711 -1.41478 -0.00538158  -0.231144 -1.43769 -0.00539351  -0.277355 -1.41561 -0.00447893  -0.343682 -1.56627 -0.00448322  -0.297053 -1.58972 -0.00445414  -0.274214 -1.53826 -0.00571585  -0.344159 -1.56691 -0.00373125  -0.321032 -1.51568 -0.00477505  -0.274748 -1.53898 -0.00476074  -0.321581 -1.5164 -0.0039773  -0.389708 -1.66754 -0.00392246  -0.342501 -1.6913 -0.00387335  -0.319197 -1.63987 -0.00499296  -0.390092 -1.66809 -0.0032649  -0.366542 -1.61686 -0.00420332  -0.319637 -1.64049 -0.00415707  -0.366998 -1.61748 -0.0034976  -0.436615 -1.76891 -0.00340223  -0.388926 -1.79292 -0.00332832  -0.365244 -1.74157 -0.00431681  -0.436925 -1.76939 -0.00283289  -0.413035 -1.71819 -0.00366306  -0.365596 -1.74211 -0.00359535  -0.413403 -1.71873 -0.00305033  -0.484243 -1.87031 -0.00291157  -0.436136 -1.8945 -0.00282574  -0.412155 -1.84326 -0.00368643  -0.484476 -1.87071 -0.00242519  -0.460323 -1.8196 -0.00315523  -0.412436 -1.84371 -0.00307131  -0.460615 -1.82005 -0.00262642  -0.532419 -1.97164 -0.00245285  -0.483965 -1.99597 -0.00235653  -0.459764 -1.94487 -0.00310421  -0.532583 -1.97198 -0.00204039  -0.508245 -1.92097 -0.00267982  -0.459974 -1.94525 -0.00258636  -0.508459 -1.92135 -0.00222969  -0.580998 -2.07283 -0.00202847  -0.532264 -2.09727 -0.00193214  -0.507904 -2.04632 -0.00256634  -0.581112 -2.07311 -0.00168657  -0.55664 -2.02224 -0.00223398  -0.508061 -2.04664 -0.00213623  -0.556798 -2.02256 -0.00186396  -0.629864 -2.17384 -0.00163746  -0.580903 -2.19833 -0.00154114  -0.556439 -2.14757 -0.00207567  -0.629926 -2.17407 -0.00136137  -0.605378 -2.12334 -0.0018301  -0.556545 -2.14783 -0.00172758  -0.605484 -2.12361 -0.00152159  -0.678905 -2.27461 -0.00128031  -0.629764 -2.29913 -0.00119257  -0.60524 -2.24856 -0.00163412  -0.678923 -2.27479 -0.00106668  -0.654343 -2.22424 -0.00145197  -0.605308 -2.24877 -0.00135612  -0.654405 -2.22446 -0.00121212  -0.72802 -2.37511 -0.000957489  -0.678734 -2.39963 -0.000883579  -0.654201 -2.34925 -0.00123549  -0.728008 -2.37525 -0.000794888  -0.70343 -2.32488 -0.00111389  -0.654235 -2.34941 -0.00102711  -0.703455 -2.32505 -0.000926495  -0.777132 -2.4753 -0.000665665  -0.727741 -2.49981 -0.000607967  -0.703227 -2.44963 -0.000883102  -0.7771 -2.47541 -0.000553608  -0.752551 -2.42522 -0.0008111  -0.703234 -2.44976 -0.000733852  -0.752549 -2.42536 -0.000675678  -0.82619 -2.57517 -0.000406742  -0.776716 -2.59966 -0.000367641  -0.752247 -2.54967 -0.00057745  -0.826133 -2.57526 -0.000338078  -0.801642 -2.52526 -0.000532627  -0.75223 -2.54977 -0.000477314  -0.801616 -2.52537 -0.000448227  -0.875129 -2.67471 -0.000156403  -0.825616 -2.69918 -0.000140667  -0.801201 -2.64937 -0.000290394  -0.875064 -2.67479 -0.000131607  -0.850648 -2.62496 -0.000278473  -0.801175 -2.64945 -0.000246048  -0.85061 -2.62506 -0.000232697  -0.923883 -2.77391 8.29697e-05  -0.874369 -2.79842 7.9155e-05  -0.850039 -2.74874 -3.38554e-05  -0.923821 -2.77401 6.62804e-05  -0.899513 -2.72433 -3.8147e-05  -0.850004 -2.74883 -3.14713e-05  -0.899466 -2.72443 -3.62396e-05  0.0192111 -0.0273769 -0.0174022  0 0 0  0.0226601 -0.0361937 -0.0151405  0.00885268 -0.017072 -0.0117302  0 0 0  0.0181347 -0.0290057 -0.0131092  0.00709825 -0.0125499 -0.0102367  0 0 0  0.00839014 -0.0181524 -0.00855398  0.0066646 -0.013436 -0.00743389  0.0470642 -0.0635509 -0.0246449  0.0551204 -0.0751559 -0.023046  0.0409349 -0.0525628 -0.025507  0.0450817 -0.066395 -0.0197153  0.0332095 -0.0444829 -0.0220056  0.0390121 -0.0551898 -0.0199437  0.0314097 -0.0468506 -0.0171533  0.0717107 -0.107658 -0.026588  0.0839851 -0.120379 -0.025722  0.0722417 -0.0932979 -0.0305109  0.0698161 -0.111158 -0.0217834  0.0599971 -0.0844254 -0.0259829  0.0701891 -0.0967058 -0.0248046  0.0580198 -0.0877038 -0.0210981  0.091152 -0.160789 -0.0264931  0.107348 -0.174312 -0.0259762  0.0982776 -0.142502 -0.0316119  0.0893757 -0.164524 -0.0218773  0.0821427 -0.133047 -0.0267  0.0963982 -0.146222 -0.0260396  0.0803031 -0.136745 -0.0219822  0.104831 -0.22254 -0.0255251  0.12467 -0.236814 -0.0251384  0.118547 -0.200769 -0.0309825  0.103104 -0.22626 -0.0211339  0.0987501 -0.190596 -0.0260825  0.116786 -0.204531 -0.0256433  0.0969922 -0.194384 -0.0215716  0.112512 -0.291936 -0.0241866  0.135724 -0.306962 -0.0238209  0.132691 -0.267353 -0.0295715  0.110808 -0.295483 -0.0200419  0.109447 -0.256311 -0.0248871  0.13099 -0.270995 -0.0245104  0.107716 -0.259993 -0.0206127  0.114207 -0.367839 -0.0226884  0.140529 -0.383647 -0.0223069  0.14057 -0.341138 -0.0278254  0.11253 -0.371129 -0.0188065  0.114118 -0.329103 -0.0234494  0.138905 -0.344549 -0.0230794  0.112412 -0.332559 -0.0194368  0.110116 -0.449167 -0.0211425  0.13928 -0.465793 -0.0207367  0.142282 -0.420957 -0.0259438  0.108485 -0.452174 -0.0175328  0.112891 -0.407851 -0.0219197  0.140647 -0.424095 -0.021524  0.111215 -0.411031 -0.0181737  0.100565 -0.53496 -0.0195966  0.132311 -0.552422 -0.0191679  0.138067 -0.505744 -0.0240345  0.099003 -0.537673 -0.0162597  0.106024 -0.491527 -0.0203691  0.136492 -0.508593 -0.0199466  0.104406 -0.49441 -0.0168977  0.0859603 -0.624387 -0.0180826  0.120028 -0.642689 -0.0176353  0.128312 -0.59457 -0.0221543  0.0844799 -0.62682 -0.0150104  0.093897 -0.57923 -0.0188365  0.126812 -0.597139 -0.0183964  0.0923498 -0.581827 -0.0156302  0.0667242 -0.716774 -0.016614  0.102875 -0.735891 -0.0161586  0.11346 -0.686657 -0.0203338  0.0653423 -0.718941 -0.0138001  0.0769192 -0.670217 -0.017344  0.112037 -0.688955 -0.0168924  0.0754671 -0.672538 -0.0143986  0.043292 -0.811523 -0.0152016  0.0813053 -0.83144 -0.0147433  0.0939353 -0.781348 -0.0185823  0.0420234 -0.81346 -0.0126338  0.0555325 -0.763852 -0.0159049  0.0926186 -0.7834 -0.0154448  0.0541853 -0.765925 -0.0132113  0.0160832 -0.908185 -0.0138459  0.0557494 -0.928847 -0.0133891  0.0702165 -0.878103 -0.0169139  0.0149294 -0.909905 -0.0115099  0.0301592 -0.859614 -0.0145178  0.0690041 -0.879933 -0.0140615  0.028928 -0.861461 -0.012063  -0.0144955 -1.00636 -0.0125594  0.0266337 -1.02772 -0.0121112  0.0427166 -0.976488 -0.0153246  -0.0155357 -1.00788 -0.0104389  0.00121844 -0.957079 -0.0131979  0.0416187 -0.978116 -0.0127435  0.000100851 -0.958717 -0.0109692  -0.0480705 -1.10572 -0.0113363  -0.00564265 -1.1277 -0.0109038  0.0118626 -1.07614 -0.0138235  -0.0489937 -1.10706 -0.00942945  -0.0308996 -1.05588 -0.0119419  0.0108716 -1.07758 -0.011497  -0.0319065 -1.05734 -0.00993109  -0.0842879 -1.20598 -0.0101857  -0.0407279 -1.22853 -0.0097661  -0.0219686 -1.17674 -0.0124078  -0.085099 -1.20718 -0.00847435  -0.0658371 -1.15572 -0.0107546  -0.0228531 -1.17802 -0.0103273  -0.0667315 -1.15701 -0.00894451  -0.122826 -1.30693 -0.00909376  -0.0782681 -1.32998 -0.0086956  -0.0584345 -1.27806 -0.0110765  -0.123535 -1.30799 -0.00756693  -0.103259 -1.25636 -0.00963163  -0.0592022 -1.27919 -0.00921965  -0.104038 -1.2575 -0.00801229  -0.163392 -1.40838 -0.00806808  -0.117959 -1.43184 -0.00768614  -0.0971889 -1.37987 -0.00982666  -0.163994 -1.4093 -0.00671291  -0.142848 -1.35758 -0.00857115  -0.0978601 -1.38087 -0.00818157  -0.143525 -1.35859 -0.00713062  -0.205698 -1.51014 -0.00710106  -0.159508 -1.53397 -0.00674963  -0.137939 -1.48202 -0.00866032  -0.206205 -1.51095 -0.00591087  -0.184314 -1.4592 -0.00757551  -0.138515 -1.48288 -0.00721121  -0.184892 -1.46009 -0.00630665  -0.249485 -1.6121 -0.00620317  -0.202648 -1.63622 -0.00587893  -0.180403 -1.58433 -0.00756693  -0.249905 -1.6128 -0.0051651  -0.227395 -1.56109 -0.00664663  -0.180888 -1.58509 -0.00630283  -0.227875 -1.56186 -0.0055337  -0.294536 -1.71413 -0.00536442  -0.247131 -1.73849 -0.00506067  -0.224332 -1.6867 -0.00655699  -0.29487 -1.71474 -0.00446653  -0.27184 -1.6631 -0.00577879  -0.224732 -1.68736 -0.00545979  -0.272239 -1.66376 -0.00481081  -0.340635 -1.81614 -0.00458145  -0.292743 -1.84067 -0.00430298  -0.269488 -1.78903 -0.00560856  -0.340887 -1.81666 -0.00381327  -0.317439 -1.76512 -0.00497055  -0.269801 -1.78959 -0.00467253  -0.317753 -1.7657 -0.00413847  -0.387572 -1.91803 -0.00386667  -0.339283 -1.94269 -0.00361252  -0.315659 -1.89122 -0.00473976  -0.38776 -1.91848 -0.00321722  -0.363981 -1.86708 -0.00421953  -0.315902 -1.8917 -0.00394964  -0.364218 -1.86757 -0.00351667  -0.435185 -2.01975 -0.00320196  -0.386561 -2.04448 -0.00297642  -0.362654 -1.99321 -0.00394201  -0.435309 -2.02012 -0.00266695  -0.411279 -1.9689 -0.00352669  -0.362834 -1.99361 -0.00328016  -0.411454 -1.96932 -0.00293922  -0.483309 -2.12123 -0.00260258  -0.434427 -2.146 -0.00240326  -0.410297 -2.09494 -0.00321341  -0.483387 -2.12154 -0.00216675  -0.459168 -2.0705 -0.00289297  -0.410423 -2.09527 -0.00267982  -0.45929 -2.07086 -0.00241137  -0.531821 -2.22245 -0.00206232  -0.482715 -2.24721 -0.00187969  -0.458439 -2.19638 -0.00255871  -0.531851 -2.2227 -0.00171566  -0.507504 -2.17186 -0.00232172  -0.458518 -2.19664 -0.00213575  -0.507572 -2.17215 -0.00193357  -0.580577 -2.32334 -0.00157022  -0.531306 -2.34808 -0.00142384  -0.50693 -2.29746 -0.00197506  -0.580569 -2.32354 -0.00130558  -0.556146 -2.27291 -0.00180292  -0.506977 -2.29769 -0.00164318  -0.556179 -2.27316 -0.00150108  -0.629475 -2.42391 -0.00115013  -0.580085 -2.4486 -0.00103045  -0.555668 -2.39821 -0.00146532  -0.629439 -2.42407 -0.000955582  -0.60499 -2.37365 -0.00135183  -0.555675 -2.39839 -0.00122213  -0.60499 -2.37384 -0.00112677  -0.67843 -2.52412 -0.000779629  -0.628949 -2.54876 -0.000697136  -0.604515 -2.49859 -0.00102472  -0.678372 -2.52425 -0.000647068  -0.653925 -2.47403 -0.000956535  -0.604501 -2.49872 -0.000854015  -0.653898 -2.4742 -0.000799656  -0.727365 -2.62398 -0.000460625  -0.677818 -2.64856 -0.000409126  -0.65341 -2.59859 -0.00065136  -0.72729 -2.62408 -0.000385761  -0.702873 -2.57407 -0.000612736  -0.653378 -2.5987 -0.000545502  -0.70283 -2.5742 -0.00051403  -0.776224 -2.72349 -0.000174999  -0.726652 -2.74804 -0.000161171  -0.702278 -2.69824 -0.000334263  -0.776154 -2.72359 -0.000148296  -0.751784 -2.67376 -0.000314236  -0.702239 -2.69834 -0.000283718  -0.751728 -2.67387 -0.000265121  -0.824993 -2.82273 0.000104427  -0.775433 -2.84727 7.62939e-05  -0.75109 -2.79759 -4.673e-05  -0.824918 -2.82282 8.39233e-05  -0.8006 -2.77312 -3.43323e-05  -0.751047 -2.79767 -4.19617e-05  -0.800544 -2.77323 -3.48091e-05  0.0306721 -0.0436536 -0.0225811  0 0 0  0.0394893 -0.0571927 -0.0192595  0.0170542 -0.0347427 -0.0148182  0 0 0  0.0295093 -0.0460174 -0.0171556  0.0112382 -0.0236619 -0.0129805  0 0 0  0.016847 -0.0364364 -0.0109625  0.010759 -0.0249753 -0.00957298  0.0685134 -0.0815032 -0.0328012  0.0790366 -0.0951118 -0.0296421  0.0612372 -0.0720145 -0.0326118  0.0664243 -0.0848458 -0.0263066  0.0502491 -0.0619209 -0.0289392  0.0595087 -0.0754528 -0.0255618  0.0483474 -0.0649214 -0.0226731  0.101033 -0.126576 -0.0360551  0.115086 -0.140672 -0.0333128  0.0997075 -0.112893 -0.0394645  0.0990648 -0.130249 -0.0295477  0.0854572 -0.102847 -0.0349698  0.0976518 -0.116691 -0.0320415  0.0833996 -0.106434 -0.0284214  0.127903 -0.181007 -0.0362539  0.145736 -0.195793 -0.0337729  0.133102 -0.163183 -0.0411224  0.126109 -0.184747 -0.0299392  0.115226 -0.152566 -0.0364137  0.131166 -0.167014 -0.0338101  0.113335 -0.156336 -0.0299788  0.148641 -0.244415 -0.0350266  0.170069 -0.259986 -0.0327358  0.160558 -0.223065 -0.0404024  0.14695 -0.248055 -0.0290089  0.13909 -0.211592 -0.0357656  0.158744 -0.226791 -0.0333762  0.137337 -0.21534 -0.0295835  0.162938 -0.315725 -0.0331469  0.187664 -0.332134 -0.0310116  0.181473 -0.291596 -0.0385647  0.161296 -0.319171 -0.027482  0.156631 -0.279105 -0.0341477  0.179731 -0.295118 -0.0319271  0.154948 -0.282699 -0.0282936  0.170715 -0.393729 -0.0309944  0.198446 -0.410991 -0.0289955  0.195603 -0.367505 -0.036231  0.169116 -0.396922 -0.0257115  0.16766 -0.35392 -0.0320935  0.193908 -0.370782 -0.0300279  0.16602 -0.35728 -0.0266151  0.172149 -0.477255 -0.0287495  0.2026 -0.495385 -0.0268908  0.202993 -0.449554 -0.0336995  0.170601 -0.480181 -0.0238614  0.172234 -0.434827 -0.0298796  0.201339 -0.452552 -0.0279503  0.170639 -0.437921 -0.0247908  0.167566 -0.565285 -0.0265102  0.200465 -0.584259 -0.0247855  0.203897 -0.536598 -0.0311241  0.166082 -0.567933 -0.0220156  0.170613 -0.52073 -0.0276308  0.202301 -0.539309 -0.0258312  0.169074 -0.523544 -0.0229344  0.157384 -0.656919 -0.0243325  0.192485 -0.676711 -0.0227261  0.198701 -0.627634 -0.028595  0.155984 -0.659297 -0.0202117  0.163173 -0.610664 -0.0254173  0.197181 -0.630076 -0.0237465  0.161708 -0.613204 -0.0211067  0.142073 -0.751429 -0.0222354  0.179146 -0.772001 -0.0207434  0.187884 -0.721854 -0.0261416  0.140766 -0.753554 -0.0184751  0.150365 -0.703822 -0.0232744  0.186461 -0.72403 -0.0217214  0.148992 -0.706098 -0.0193357  0.122105 -0.8482 -0.0202327  0.160933 -0.86951 -0.0188608  0.171945 -0.818556 -0.0238037  0.120899 -0.850102 -0.0168228  0.132671 -0.799535 -0.0212231  0.170623 -0.82051 -0.019794  0.131389 -0.801573 -0.0176396  0.0979491 -0.946741 -0.0183358  0.138336 -0.968721 -0.0170727  0.151382 -0.917198 -0.0215793  0.0968477 -0.948433 -0.0152521  0.110552 -0.897246 -0.0192699  0.150155 -0.918929 -0.017952  0.109377 -0.899066 -0.0160236  0.0700425 -1.04663 -0.0165439  0.11182 -1.06924 -0.0153885  0.126658 -1.0173 -0.0194883  0.069051 -1.04814 -0.0137606  0.0844654 -0.996511 -0.017426  0.125538 -1.01884 -0.0162148  0.0833967 -0.998134 -0.0144935  0.0388085 -1.14755 -0.0148501  0.0818039 -1.17071 -0.0138073  0.0982214 -1.11851 -0.0175209  0.0379215 -1.14889 -0.0123601  0.054839 -1.09696 -0.0156856  0.097226 -1.11987 -0.0145802  0.0538807 -1.0984 -0.013051  0.00462031 -1.24922 -0.0132694  0.0487046 -1.27285 -0.0123148  0.0665138 -1.22051 -0.0156641  0.00384259 -1.2504 -0.0110474  0.022086 -1.19828 -0.0140514  0.0656202 -1.22171 -0.0130467  0.0212325 -1.19956 -0.0116949  -0.0321534 -1.35139 -0.0117841  0.0128777 -1.37545 -0.0109177  0.0318964 -1.32305 -0.0139313  -0.0328279 -1.35245 -0.00981379  -0.0134416 -1.30024 -0.0125122  0.0311158 -1.32411 -0.0116062  -0.014184 -1.30136 -0.0104179  -0.0711904 -1.4539 -0.0103898  -0.0253146 -1.47831 -0.00961542  -0.0052526 -1.42592 -0.0123005  -0.0717635 -1.45483 -0.00865269  -0.0513809 -1.4026 -0.011075  -0.00593352 -1.42685 -0.0102525  -0.0520234 -1.4036 -0.00922441  -0.112175 -1.55658 -0.0090909  -0.0655816 -1.58126 -0.00840282  -0.0446239 -1.52895 -0.0107946  -0.112662 -1.55739 -0.00757551  -0.0914319 -1.50521 -0.0097332  -0.0451992 -1.52977 -0.00899649  -0.0919785 -1.50609 -0.00810671  -0.154851 -1.6593 -0.00789213  -0.107627 -1.68419 -0.00727844  -0.0858994 -1.63203 -0.00938702  -0.155243 -1.66 -0.00657749  -0.133293 -1.60792 -0.00848198  -0.0863955 -1.63273 -0.00782919  -0.133752 -1.60869 -0.00706816  -0.198947 -1.76194 -0.0067749  -0.151183 -1.78699 -0.00622892  -0.128814 -1.735 -0.00808191  -0.199257 -1.76255 -0.00564814  -0.176708 -1.71062 -0.00732327  -0.12923 -1.73561 -0.006742  -0.177085 -1.71129 -0.00610399  -0.24424 -1.86444 -0.00573826  -0.196017 -1.88958 -0.00526619  -0.173125 -1.83779 -0.00687599  -0.244472 -1.86495 -0.00478029  -0.22143 -1.8132 -0.00624466  -0.173452 -1.83831 -0.00573778  -0.221724 -1.81377 -0.00520372  -0.290519 -1.9667 -0.00479507  -0.241922 -1.99189 -0.00438499  -0.218589 -1.94034 -0.00576401  -0.290688 -1.96715 -0.00399923  -0.267242 -1.91558 -0.00525522  -0.218848 -1.94077 -0.00481319  -0.267466 -1.91608 -0.00438261  -0.337596 -2.06868 -0.00393581  -0.288683 -2.09387 -0.00358772  -0.265014 -2.04256 -0.00476027  -0.337705 -2.06905 -0.0032835  -0.313948 -2.01771 -0.00434971  -0.265204 -2.04293 -0.00397444  -0.314104 -2.01813 -0.00362968  -0.385299 -2.17034 -0.0031476  -0.336142 -2.1955 -0.00286531  -0.312206 -2.14443 -0.00384188  -0.385356 -2.17064 -0.00263262  -0.361353 -2.11953 -0.00352859  -0.312335 -2.14473 -0.00320864  -0.361455 -2.11988 -0.00294495  -0.433476 -2.27162 -0.00245333  -0.384128 -2.29671 -0.002213  -0.359994 -2.2459 -0.00302315  -0.43349 -2.27187 -0.0020504  -0.409312 -2.22101 -0.00279188  -0.360075 -2.24615 -0.00253296  -0.40937 -2.2213 -0.00233364  -0.481985 -2.37253 -0.00183964  -0.432502 -2.39752 -0.00165796  -0.408231 -2.34697 -0.00229502  -0.481967 -2.37273 -0.00154352  -0.457669 -2.3221 -0.00213337  -0.408271 -2.34717 -0.00193214  -0.457689 -2.32235 -0.00178671  -0.530714 -2.47305 -0.00132227  -0.481141 -2.49794 -0.00118637  -0.456782 -2.44762 -0.00167418  -0.530668 -2.47321 -0.00110722  -0.506305 -2.42282 -0.00157261  -0.456791 -2.44778 -0.00140905  -0.506292 -2.42302 -0.00131559  -0.579545 -2.57318 -0.000874996  -0.529922 -2.59795 -0.000787735  -0.505538 -2.54787 -0.00115061  -0.579477 -2.57332 -0.000741005  -0.555098 -2.52315 -0.00109005  -0.505513 -2.54799 -0.000977993  -0.555056 -2.52331 -0.000918865  -0.628397 -2.67296 -0.0005126  -0.578758 -2.69761 -0.000467777  -0.554371 -2.64772 -0.000711441  -0.62832 -2.67306 -0.000433922  -0.603948 -2.62309 -0.000683308  -0.554334 -2.64782 -0.00061655  -0.603895 -2.62323 -0.00057745  -0.677226 -2.77239 -0.000205994  -0.627589 -2.79697 -0.000200748  -0.603221 -2.74723 -0.000374317  -0.677137 -2.77249 -0.000177383  -0.652795 -2.72269 -0.000353813  -0.603173 -2.74731 -0.000327587  -0.65273 -2.72281 -0.000305176  -0.726016 -2.8716 8.2016e-05  -0.676401 -2.89615 4.43459e-05  -0.652025 -2.84648 -8.53539e-05  -0.72594 -2.8717 6.77109e-05  -0.701596 -2.82199 -6.38962e-05  -0.651987 -2.84657 -8.10623e-05  -0.701535 -2.82211 -5.91278e-05  -0.0396341 -0.0205775 0.0421314  -0.0300207 -0.0111183 0.0297318  0 0 0  -0.040563 -0.0036407 0.0417528  0 0 0  -0.0211607 -0.00550362 0.0296817  -0.0164222 0.0037338 0.0234246  0 0 0  -0.0181413 -0.0144837 0.0228319  -0.0293615 -0.0117692 0.0354824  -0.0219522 -0.000763245 0.0264425  0 0 0  -0.00829312 -0.000511922 0.0163054  -0.0111696 -0.00495082 0.0191064  -0.0776286 -0.0335241 0.0586343  -0.0656553 -0.0125458 0.0605025  -0.0640695 -0.0185264 0.0551744  -0.0471289 -0.0251893 0.0415416  -0.039663 -0.00609542 0.042398  -0.0589927 -0.0253311 0.0527239  -0.0614472 -0.0284543 0.04952  -0.0527344 -0.00898112 0.0504117  -0.0344464 -0.0139395 0.0371776  -0.0460462 -0.0185626 0.0443902  -0.114576 -0.0603655 0.0611849  -0.0950277 -0.0338883 0.0685759  -0.0891939 -0.0491498 0.0576987  -0.072393 -0.0567742 0.0437775  -0.059077 -0.0309924 0.0481668  -0.0960825 -0.0454815 0.0610137  -0.092024 -0.0579937 0.0520735  -0.0760079 -0.0320867 0.0575075  -0.0595949 -0.0394978 0.0434084  -0.0766062 -0.0417189 0.0517097  -0.1522 -0.0981112 0.0579605  -0.128504 -0.069164 0.0669589  -0.119106 -0.0912408 0.0550275  -0.099804 -0.0990072 0.0418634  -0.081973 -0.0691505 0.0477023  -0.133274 -0.0780949 0.0600295  -0.124338 -0.0983391 0.0496488  -0.103577 -0.0689822 0.0567956  -0.0857451 -0.0767145 0.0431738  -0.107901 -0.0770049 0.0512629  -0.190785 -0.144133 0.0525436  -0.1653 -0.113572 0.061698  -0.152806 -0.141309 0.0502558  -0.130011 -0.14946 0.0382056  -0.109369 -0.117099 0.0444779  -0.171372 -0.120229 0.0554023  -0.158791 -0.146829 0.0452065  -0.135546 -0.115392 0.0527849  -0.114558 -0.123327 0.0401735  -0.141308 -0.121691 0.0475717  -0.230287 -0.196691 0.0466533  -0.204194 -0.16468 0.0553331  -0.189129 -0.197391 0.0449204  -0.16275 -0.206342 0.0340323  -0.140516 -0.172166 0.0401998  -0.210424 -0.169679 0.0496092  -0.195074 -0.201689 0.0402379  -0.170675 -0.168641 0.0476065  -0.146087 -0.177177 0.036149  -0.176722 -0.173536 0.0427403  -0.27064 -0.254712 0.0410404  -0.244461 -0.221228 0.0489969  -0.227306 -0.258453 0.0397205  -0.197604 -0.268516 0.0299478  -0.174499 -0.232783 0.0357327  -0.250351 -0.225066 0.0438018  -0.232865 -0.261856 0.0354209  -0.207994 -0.227305 0.0422812  -0.179925 -0.236809 0.0319657  -0.21379 -0.231148 0.0377927  -0.311843 -0.317524 0.0359864  -0.285744 -0.28252 0.0431523  -0.26691 -0.32392 0.0349379  -0.234271 -0.335272 0.0262032  -0.21066 -0.298078 0.0314722  -0.29113 -0.285552 0.0384474  -0.27197 -0.326671 0.0310383  -0.246922 -0.29063 0.0372691  -0.21572 -0.301349 0.0280313  -0.252258 -0.29371 0.033174  -0.353927 -0.384658 0.0315137  -0.327913 -0.34812 0.0379267  -0.307745 -0.393413 0.030664  -0.272549 -0.406127 0.0228662  -0.248601 -0.367516 0.0276012  -0.332778 -0.350572 0.0336819  -0.3123 -0.395677 0.0271521  -0.287159 -0.358157 0.0327401  -0.253214 -0.37021 0.0244884  -0.291982 -0.360672 0.0290356  -0.396905 -0.455743 0.0275998  -0.370938 -0.417703 0.0333028  -0.349723 -0.46663 0.0268717  -0.312327 -0.480697 0.0199313  -0.288086 -0.440725 0.0241494  -0.375302 -0.419728 0.0294952  -0.3538 -0.468509 0.0237341  -0.32857 -0.429549 0.0287075  -0.292253 -0.442962 0.0213547  -0.332901 -0.431632 0.0253887  -0.440814 -0.53046 0.0241413  -0.414847 -0.490985 0.0292058  -0.392807 -0.543264 0.0235081  -0.353509 -0.558638 0.0173459  -0.328995 -0.51738 0.0210881  -0.418741 -0.492668 0.0258174  -0.396447 -0.544835 0.0207267  -0.371102 -0.504509 0.0251427  -0.332742 -0.519257 0.0186043  -0.374977 -0.506247 0.0221858  -0.485632 -0.6085 0.0210886  -0.459621 -0.56768 0.0255847  -0.436945 -0.623043 0.0205131  -0.39601 -0.639641 0.0150681  -0.371229 -0.597188 0.0183654  -0.463107 -0.569083 0.0225773  -0.440193 -0.62435 0.0180655  -0.41472 -0.582753 0.0219746  -0.374596 -0.598773 0.0161786  -0.418181 -0.584211 0.0193591  -0.531339 -0.689561 0.0183725  -0.50527 -0.6475 0.0223479  -0.48211 -0.705675 0.0178404  -0.439759 -0.723409 0.0130391  -0.414726 -0.679877 0.0159526  -0.508376 -0.648672 0.0196981  -0.484996 -0.706762 0.0156951  -0.459378 -0.663997 0.0191488  -0.417733 -0.681195 0.014029  -0.462466 -0.665211 0.0168476  -0.577887 -0.773364 0.0159349  -0.551741 -0.730167 0.0194402  -0.52822 -0.790882 0.01545  -0.48466 -0.809666 0.0112343  -0.459384 -0.765141 0.0137892  -0.554511 -0.731141 0.0171223  -0.530785 -0.791785 0.0135784  -0.505022 -0.747946 0.0166178  -0.46207 -0.766243 0.0121121  -0.507771 -0.74896 0.014605  -0.625222 -0.859633 0.0137291  -0.599008 -0.815426 0.0168242  -0.575205 -0.878404 0.0132933  -0.530593 -0.898136 0.00961161  -0.505112 -0.852718 0.011847  -0.601461 -0.816208 0.0148096  -0.577475 -0.879145 0.0116763  -0.551584 -0.83435 0.0143452  -0.507497 -0.853638 0.0104008  -0.554018 -0.835186 0.0125995  -0.673247 -0.94812 0.0117631  -0.646994 -0.902971 0.0144663  -0.622984 -0.967993 0.0113549  -0.577459 -0.988569 0.00816345  -0.551803 -0.942365 0.0101161  -0.649148 -0.903609 0.0127254  -0.624975 -0.968589 0.0099659  -0.598978 -0.922934 0.0122995  -0.55391 -0.943117 0.00887203  -0.601124 -0.923617 0.0107961  -0.721881 -1.03856 0.00997496  -0.695592 -0.992612 0.0123315  -0.671435 -1.0594 0.00960779  -0.625137 -1.08073 0.00686789  -0.599343 -1.03382 0.00855637  -0.697486 -0.993107 0.0108471  -0.673172 -1.05988 0.00842667  -0.647104 -1.01346 0.0104594  -0.601202 -1.03444 0.00749922  -0.648985 -1.01401 0.00917625  -0.771047 -1.13075 0.00837088  -0.744739 -1.08405 0.010417  -0.72047 -1.15243 0.00803566  -0.673516 -1.17441 0.0057025  -0.647615 -1.1269 0.00715399  -0.746401 -1.08445 0.00915861  -0.721986 -1.1528 0.00704288  -0.695856 -1.10571 0.00880051  -0.649241 -1.12739 0.00627041  -0.69751 -1.10615 0.00771666  -0.820623 -1.22445 0.00693989  -0.794353 -1.17711 0.00867987  -0.769983 -1.24685 0.00662374  -0.722467 -1.26939 0.00465965  -0.696509 -1.22135 0.0059042  -0.795775 -1.17742 0.0076375  -0.771286 -1.24712 0.00580788  -0.745148 -1.19945 0.00731182  -0.69792 -1.22174 0.0051651  -0.746575 -1.19979 0.00640774  -0.870532 -1.31946 0.00564957  -0.844308 -1.27158 0.00714779  -0.819872 -1.34247 0.00537109  -0.77188 -1.36549 0.00374031  -0.745906 -1.317 0.00478458  -0.845537 -1.2718 0.00627804  -0.820979 -1.34267 0.00470114  -0.794857 -1.2945 0.00597906  -0.747116 -1.31731 0.00418043  -0.796089 -1.29476 0.00523567  -0.920679 -1.4156 0.00450373  -0.89454 -1.36725 0.00575686  -0.870034 -1.43912 0.00425196  -0.821648 -1.46255 0.00291729  -0.795694 -1.41369 0.00379801  -0.895575 -1.3674 0.00506401  -0.870966 -1.43925 0.00371981  -0.844903 -1.39066 0.00479364  -0.796721 -1.41391 0.00331783  -0.845937 -1.39084 0.00419664  -0.970969 -1.51271 0.0034976  -0.944929 -1.46397 0.00452709  -0.920378 -1.53662 0.00327492  -0.871665 -1.56039 0.00221395  -0.845764 -1.51121 0.00292635  -0.945807 -1.46404 0.00398684  -0.921147 -1.53671 0.00286245  -0.89517 -1.48775 0.00374651  -0.846623 -1.51137 0.00255775  -0.896031 -1.48788 0.0032773  -1.02133 -1.6106 0.00263119  -0.995435 -1.56152 0.00346756  -0.970816 -1.63483 0.00243044  -0.921831 -1.65886 0.00160646  -0.896017 -1.60944 0.00217247  -0.996141 -1.56156 0.00305271  -0.971436 -1.63488 0.00212574  -0.945571 -1.58563 0.0028367  -0.896729 -1.60955 0.00189686  -0.946279 -1.58572 0.00247955  -1.07168 -1.70912 0.00187159  -1.04592 -1.65979 0.00254154  -1.02127 -1.73361 0.00169802  -0.972065 -1.75783 0.00107431  -0.946363 -1.70823 0.00152826  -1.0465 -1.65979 0.00224257  -1.02175 -1.73362 0.00148773  -0.996017 -1.68414 0.00204706  -0.94694 -1.70829 0.00133181  -0.99659 -1.68418 0.00179195  -1.12197 -1.80815 0.00123549  -1.09638 -1.75861 0.00174665  -1.07167 -1.83281 0.00110149  -1.0223 -1.85718 0.000650883  -0.996725 -1.80743 0.000989437  -1.09683 -1.75859 0.00154638  -1.07203 -1.83279 0.000957966  -1.04645 -1.78314 0.0013833  -0.997183 -1.80747 0.000853062  -1.0469 -1.78316 0.00120592  -1.17213 -1.90755 0.000732422  -1.14674 -1.85785 0.0010972  -1.12195 -1.9323 0.000603676  -1.07246 -1.95678 0.000314236  -1.04704 -1.90695 0.000546455  -1.14707 -1.85781 0.000977993  -1.12222 -1.93227 0.00053072  -1.0968 -1.88251 0.000842094  -1.04739 -1.90696 0.000473499  -1.09714 -1.88249 0.000731945  -1.22212 -2.00719 0.000341415  -1.1969 -1.95739 0.000576973  -1.17207 -2.03199 0.000235558  -1.12249 -2.05654 6.24657e-05  -1.09724 -2.00666 0.000204563  -1.19714 -1.95734 0.000517368  -1.17225 -2.03195 0.000208378  -1.14701 -1.98211 0.000411034  -1.09749 -2.00664 0.000175476  -1.14725 -1.98209 0.000359535  -1.27192 -2.10696 5.67436e-05  -1.24688 -2.05712 0.000194073  -1.22199 -2.13176 -2.24113e-05  -1.17235 -2.15633 -0.000108719  -1.14726 -2.10646 -3.52859e-05  -1.24704 -2.05706 0.000181675  -1.22209 -2.13172 -2.14577e-05  -1.19703 -2.08185 9.77516e-05  -1.14744 -2.10643 -3.09944e-05  -1.19719 -2.08183 8.34465e-05  -1.32149 -2.20677 -0.000122547  -1.29665 -2.15694 -8.24928e-05  -1.27169 -2.23153 -0.000180721  -1.22201 -2.25611 -0.000200272  -1.1971 -2.20626 -0.000183582  -1.29674 -2.15687 -5.05447e-05  -1.27173 -2.23149 -0.000155449  -1.24685 -2.18164 -0.000114918  -1.19721 -2.20623 -0.000164986  -1.24693 -2.18161 -9.67979e-05  -1.37085 -2.30652 -0.000204086  -1.34616 -2.25671 -0.000225067  -1.32115 -2.3312 -0.000236511  -1.27145 -2.35577 -0.000210762  -1.2467 -2.30596 -0.000249386  -1.34619 -2.25666 -0.000165939  -1.32114 -2.33118 -0.000198364  -1.29642 -2.28136 -0.000217438  -1.24676 -2.30595 -0.0002141  -1.29645 -2.28135 -0.000185013  -1.42002 -2.40612 -0.000170231  -1.39544 -2.35638 -0.000245571  -1.37038 -2.43072 -0.000198364  -1.32068 -2.45527 -0.000194073  -1.29606 -2.40556 -0.00024128  -1.39546 -2.35634 -0.000188351  -1.37035 -2.43071 -0.000176907  -1.34576 -2.38097 -0.00022459  -1.29609 -2.40554 -0.000208378  -1.34576 -2.38097 -0.000191689  -1.46912 -2.50554 -0.000133991  -1.44454 -2.45587 -0.000162601  -1.41946 -2.53008 -0.000158787  -1.36977 -2.55459 -0.000181198  -1.34519 -2.50497 -0.000200272  -1.44457 -2.45585 -0.000141144  -1.41945 -2.53008 -0.000143051  -1.3949 -2.48039 -0.000183105  -1.34523 -2.50496 -0.000175953  -1.3949 -2.48041 -0.000156403  -0.0215202 0.00316918 0.0284553  0 0 0  -0.0105325 -0.00154294 0.0187731  -0.00853851 0.00582749 0.0149994  0 0 0  -0.0153751 -0.00263655 0.0240827  -0.0120114 0.00539006 0.0190706  0 0 0  -0.00413116 0.00209686 0.010437  -0.00587809 0.00142908 0.0133147  -0.0361778 -0.0156729 0.0375547  -0.0241553 -0.022682 0.0266237  -0.0197362 -0.00358689 0.026844  -0.0348057 -0.0233213 0.033917  -0.0288056 -0.00415064 0.0343447  -0.0172045 -0.0102357 0.0237079  -0.0250463 -0.0112533 0.0302773  -0.052803 -0.0489021 0.0393796  -0.0395404 -0.0571407 0.0282917  -0.0306112 -0.0309899 0.0306439  -0.0550701 -0.0565144 0.0358853  -0.0440039 -0.0306003 0.0391607  -0.0315536 -0.0384371 0.027966  -0.0447106 -0.0384521 0.0355215  -0.0736554 -0.0935378 0.0378199  -0.0577706 -0.102191 0.027173  -0.0450795 -0.0714083 0.0305581  -0.0778294 -0.100254 0.0343966  -0.0626487 -0.0699407 0.0389214  -0.0482326 -0.0784686 0.0279746  -0.0660605 -0.0771992 0.0354285  -0.0988357 -0.146723 0.0347438  -0.0794963 -0.155699 0.0248384  -0.0639134 -0.121814 0.0286503  -0.103784 -0.152342 0.0314331  -0.085719 -0.119171 0.036417  -0.0681818 -0.128 0.0261102  -0.0904008 -0.125373 0.0330343  -0.127714 -0.206375 0.0311356  -0.104698 -0.215927 0.0220814  -0.087006 -0.179819 0.0259342  -0.132793 -0.210996 0.027997  -0.112842 -0.175797 0.0329714  -0.0916755 -0.185055 0.0234828  -0.117926 -0.180931 0.0297403  -0.159595 -0.271225 0.0275149  -0.133041 -0.281626 0.0193176  -0.113839 -0.243772 0.0230021  -0.164461 -0.275015 0.0245996  -0.143299 -0.23817 0.0293021  -0.118494 -0.248147 0.0206904  -0.148313 -0.242385 0.026278  -0.193918 -0.340466 0.024117  -0.164152 -0.351943 0.0167527  -0.143849 -0.312584 0.0201397  -0.198435 -0.343613 0.0214567  -0.176455 -0.305293 0.0257769  -0.148266 -0.316238 0.0180116  -0.181175 -0.308771 0.0229902  -0.230324 -0.413627 0.0210476  -0.197717 -0.426283 0.0144634  -0.176542 -0.385563 0.0175104  -0.234445 -0.416254 0.0186534  -0.211853 -0.376552 0.0225363  -0.180638 -0.388636 0.0155787  -0.216196 -0.379448 0.0200133  -0.268571 -0.49031 0.018311  -0.233481 -0.504188 0.0124459  -0.21159 -0.462217 0.0151463  -0.272293 -0.492518 0.0161791  -0.249204 -0.451517 0.01964  -0.21533 -0.464809 0.0134254  -0.253142 -0.453947 0.0173793  -0.308485 -0.570181 0.0158868  -0.271254 -0.585276 0.0106754  -0.248724 -0.542148 0.013051  -0.31184 -0.572052 0.0140057  -0.288302 -0.529833 0.0170665  -0.252124 -0.54435 0.0115347  -0.291857 -0.531891 0.0150604  -0.349948 -0.652955 0.0137501  -0.310852 -0.669213 0.00913143  -0.287762 -0.625032 0.0112028  -0.352954 -0.654535 0.0120988  -0.329002 -0.611196 0.0147872  -0.290828 -0.626904 0.00988197  -0.332203 -0.61294 0.0130215  -0.392832 -0.738325 0.0118475  -0.352123 -0.755682 0.00777531  -0.32853 -0.710545 0.00958109  -0.395517 -0.739663 0.010407  -0.371195 -0.695303 0.0127692  -0.331283 -0.712144 0.0084362  -0.374056 -0.696781 0.0112262  -0.437018 -0.826027 0.010139  -0.394902 -0.844397 0.00657225  -0.370859 -0.798418 0.00814152  -0.439405 -0.827152 0.00890636  -0.414742 -0.781873 0.0109706  -0.373329 -0.799771 0.00715733  -0.417299 -0.783125 0.00963449  -0.482366 -0.915786 0.0086236  -0.439051 -0.935089 0.00551414  -0.414608 -0.888353 0.00686502  -0.484487 -0.916737 0.00756645  -0.459521 -0.870636 0.00936651  -0.416812 -0.889506 0.00602579  -0.461799 -0.871694 0.00821733  -0.528763 -1.00738 0.00727415  -0.484398 -1.02751 0.00457478  -0.459622 -0.980132 0.0057373  -0.530634 -1.00816 0.00637341  -0.505416 -0.961348 0.00793266  -0.461577 -0.981098 0.00503111  -0.507429 -0.962228 0.00695467  -0.576079 -1.10055 0.00606489  -0.530804 -1.12145 0.00374365  -0.505752 -1.07349 0.00473595  -0.577711 -1.10121 0.0053091  -0.552291 -1.05376 0.00664997  -0.507471 -1.0743 0.00414658  -0.554059 -1.05449 0.00582457  -0.624158 -1.19512 0.00498056  -0.578112 -1.21668 0.00300646  -0.552848 -1.16823 0.00384378  -0.625584 -1.19566 0.00435638  -0.600008 -1.14765 0.00550795  -0.554348 -1.16891 0.00336409  -0.60155 -1.14827 0.00481939  -0.672902 -1.29089 0.00402594  -0.62618 -1.31302 0.00235844  -0.600749 -1.26416 0.00305891  -0.674124 -1.29132 0.00351572  -0.648426 -1.24285 0.0044899  -0.602054 -1.26472 0.00267553  -0.649773 -1.24335 0.00392723  -0.722157 -1.38765 0.00317955  -0.674867 -1.41028 0.001791  -0.649331 -1.36109 0.00237131  -0.723197 -1.388 0.00276899  -0.697447 -1.33913 0.00358486  -0.650449 -1.36154 0.00206804  -0.698596 -1.33954 0.00313139  -0.77182 -1.48527 0.00243521  -0.724047 -1.50832 0.00130606  -0.698443 -1.45885 0.0017724  -0.772695 -1.48554 0.00212383  -0.746926 -1.43635 0.00279379  -0.699401 -1.45921 0.00154066  -0.747896 -1.43667 0.00243902  -0.82178 -1.58357 0.00178862  -0.773595 -1.60698 0.000889301  -0.747978 -1.55729 0.00124884  -0.8225 -1.58378 0.00155592  -0.796748 -1.53432 0.00210476  -0.748776 -1.55758 0.00108719  -0.797559 -1.53457 0.00182867  -0.871922 -1.68243 0.00123882  -0.823402 -1.70612 0.000531197  -0.797806 -1.65627 0.000812531  -0.872504 -1.68258 0.00107336  -0.846814 -1.63292 0.00150251  -0.79847 -1.6565 0.000704765  -0.847475 -1.63311 0.00130558  -0.92217 -1.78171 0.000778198  -0.873366 -1.80563 0.000246525  -0.847839 -1.75567 0.000445843  -0.922621 -1.78181 0.000667095  -0.897013 -1.73201 0.000999928  -0.848368 -1.75584 0.000380516  -0.897547 -1.73214 0.000861168  -0.972422 -1.8813 0.000393391  -0.923392 -1.90539 1.81198e-05  -0.897958 -1.85537 0.000152111  -0.972768 -1.88136 0.000337601  -0.947274 -1.83146 0.000580788  -0.898372 -1.85549 0.000123978  -0.947692 -1.83155 0.000494957  -1.02263 -1.98106 0.000112057  -0.973408 -2.00529 -0.000150681  -0.948087 -1.95524 -7.96318e-05  -1.02287 -1.9811 8.96454e-05  -0.997511 -1.93114 0.000247002  -0.948405 -1.95533 -7.48634e-05  -0.99782 -1.93121 0.000203133  -1.07271 -2.08093 -9.20296e-05  -1.02336 -2.10525 -0.000258446  -0.998163 -2.05522 -0.000218868  -1.07287 -2.08095 -8.91685e-05  -1.04766 -2.03097 5.24521e-06  -0.998394 -2.05527 -0.000200272  -1.04788 -2.03102 -4.29153e-06  -1.12264 -2.1808 -0.000225067  -1.07317 -2.20519 -0.000305653  -1.04812 -2.15519 -0.000324249  -1.12272 -2.18081 -0.000205994  -1.09766 -2.13085 -0.000167847  -1.04828 -2.15523 -0.000288486  -1.09781 -2.13088 -0.00015831  -1.17234 -2.2806 -0.000278473  -1.1228 -2.30503 -0.000302792  -1.09791 -2.2551 -0.000353813  -1.17238 -2.2806 -0.000249863  -1.14749 -2.23069 -0.000258923  -1.098 -2.25512 -0.000315666  -1.14757 -2.23071 -0.00023365  -1.22183 -2.38028 -0.000273705  -1.17223 -2.40472 -0.000271797  -1.14749 -2.35488 -0.000329971  -1.22182 -2.38027 -0.00024271  -1.19708 -2.33043 -0.000283718  -1.14754 -2.35489 -0.000291348  -1.19712 -2.33045 -0.000247955  -1.27106 -2.47977 -0.000244617  -1.22145 -2.50422 -0.000212669  -1.19685 -2.45448 -0.000276089  -1.27105 -2.47977 -0.000209332  -1.24645 -2.43003 -0.000257015  -1.19686 -2.45449 -0.000243664  -1.24646 -2.43004 -0.000225544  -1.32011 -2.57908 -0.000237942  -1.27045 -2.60347 -0.000187397  -1.24595 -2.55389 -0.000227451  -1.32009 -2.57906 -0.00018549  -1.29558 -2.52943 -0.000222206  -1.24597 -2.55387 -0.00019455  -1.29558 -2.52944 -0.000188828  -0.00927747 0.00341403 0.0157437  0 0 0  -0.00275764 -0.0025478 0.00842857  -0.00278131 0.00473532 0.00646114  0 0 0  -0.0064242 -0.00165576 0.0135188  -0.00543907 0.00550088 0.0106568  0 0 0  -0.0011507 0.00143036 0.00463438  -0.00252971 0.00199407 0.00751114  -0.0149729 -0.0163485 0.0211873  -0.00646193 -0.0247948 0.0125279  -0.00501622 -0.00561565 0.0120411  -0.0148809 -0.0232273 0.0194583  -0.0119621 -0.00414589 0.0192723  -0.00443906 -0.0116585 0.0109468  -0.0104709 -0.0104602 0.0172186  -0.0232865 -0.0515933 0.0225244  -0.0123824 -0.0611413 0.013659  -0.00766164 -0.0344906 0.0142322  -0.025443 -0.0586791 0.0208769  -0.0186493 -0.0322698 0.0222769  -0.00904933 -0.0414385 0.013371  -0.0198122 -0.0394423 0.0205507  -0.0357212 -0.0983286 0.0217762  -0.0217323 -0.108369 0.0132127  -0.0137938 -0.0767411 0.0144272  -0.0392025 -0.104877 0.0201159  -0.0289353 -0.0736533 0.0223694  -0.0165726 -0.0835426 0.013586  -0.0318675 -0.0805739 0.0206876  -0.0526253 -0.15392 0.0200205  -0.0351113 -0.164274 0.0119977  -0.0243174 -0.129164 0.0135627  -0.0567375 -0.159649 0.0183563  -0.0435967 -0.125111 0.0210004  -0.0278972 -0.135344 0.0126786  -0.0474795 -0.1313 0.01932  -0.0738295 -0.216391 0.0178475  -0.0526519 -0.227169 0.0104704  -0.0394467 -0.189512 0.0121493  -0.0781031 -0.221279 0.0162306  -0.0626925 -0.184347 0.0189676  -0.043367 -0.194928 0.0112562  -0.0669491 -0.189685 0.0173197  -0.0988573 -0.284361 0.0156088  -0.0741397 -0.295793 0.00890684  -0.0589535 -0.256171 0.0105505  -0.103038 -0.288503 0.014092  -0.0858701 -0.249711 0.0167289  -0.0629169 -0.260826 0.00968933  -0.0901424 -0.254248 0.0151601  -0.12724 -0.356919 0.0134749  -0.0992449 -0.369195 0.00744629  -0.0824341 -0.327954 0.00895452  -0.13118 -0.360421 0.0120883  -0.112635 -0.320068 0.0145206  -0.0862587 -0.331939 0.00815868  -0.116726 -0.323911 0.0130725  -0.15853 -0.433388 0.0115328  -0.127598 -0.446654 0.00613499  -0.109441 -0.404037 0.00748014  -0.162174 -0.436368 0.0102959  -0.142516 -0.394656 0.0124764  -0.113031 -0.407447 0.00677156  -0.146333 -0.397917 0.011167  -0.192409 -0.513302 0.00981283  -0.158867 -0.527628 0.00499678  -0.139554 -0.483799 0.00616455  -0.195737 -0.51584 0.00872612  -0.17514 -0.472902 0.0106516  -0.142883 -0.486725 0.00555372  -0.178647 -0.475684 0.00948715  -0.228602 -0.596259 0.00830603  -0.192777 -0.611673 0.0040288  -0.172465 -0.566774 0.005023  -0.231621 -0.598436 0.0073595  -0.210205 -0.554385 0.00903225  -0.175503 -0.569285 0.00450182  -0.213397 -0.556767 0.00801563  -0.266876 -0.681917 0.00698614  -0.229052 -0.698403 0.00319529  -0.207866 -0.652551 0.00402308  -0.2696 -0.683786 0.00617456  -0.247463 -0.638742 0.00761843  -0.210628 -0.654719 0.00359869  -0.250357 -0.640782 0.00674295  -0.307043 -0.769972 0.0058279  -0.267479 -0.787467 0.00249624  -0.245514 -0.740789 0.00318336  -0.309486 -0.771571 0.00514317  -0.286709 -0.725634 0.00638771  -0.248004 -0.742655 0.00284052  -0.289313 -0.727389 0.00564051  -0.348902 -0.860122 0.00481892  -0.307822 -0.878573 0.00189924  -0.285174 -0.831171 0.00246382  -0.351083 -0.861495 0.00424147  -0.327741 -0.814769 0.00530481  -0.287418 -0.832777 0.00219154  -0.330076 -0.816277 0.00467777  -0.392273 -0.952113 0.00392962  -0.349873 -0.971445 0.0013876  -0.32664 -0.923418 0.00184345  -0.394213 -0.953285 0.00345421  -0.37038 -0.905877 0.00435591  -0.32864 -0.9248 0.00163555  -0.37246 -0.907167 0.00383425  -0.436989 -1.0457 0.00315905  -0.393446 -1.06584 0.000956535  -0.369695 -1.01727 0.00131845  -0.438701 -1.0467 0.00277185  -0.414447 -0.998696 0.00352716  -0.371476 -1.01846 0.00116301  -0.416293 -0.9998 0.00310278  -0.482868 -1.14067 0.00248098  -0.438329 -1.16153 0.000585079  -0.414162 -1.11251 0.000867367  -0.484372 -1.14152 0.00216913  -0.459769 -1.09301 0.00281286  -0.415733 -1.11353 0.000767708  -0.46139 -1.09394 0.00246525  -0.529765 -1.23683 0.00188208  -0.484356 -1.25831 0.000274181  -0.459838 -1.20894 0.000482082  -0.531061 -1.23753 0.001647  -0.506178 -1.18859 0.00217724  -0.461208 -1.2098 0.000427723  -0.507595 -1.18938 0.00190449  -0.577494 -1.33395 0.00137806  -0.531346 -1.35601 2.14577e-05  -0.506548 -1.30633 0.000165939  -0.578608 -1.33455 0.00119877  -0.553507 -1.28525 0.00162125  -0.507737 -1.30706 0.000144958  -0.55473 -1.28592 0.00141478  -0.625924 -1.43192 0.000932217  -0.579132 -1.45446 -0.000184536  -0.554123 -1.40454 -9.91821e-05  -0.626867 -1.43241 0.0008111  -0.601607 -1.38282 0.00114822  -0.555142 -1.40515 -8.82149e-05  -0.602652 -1.38338 0.00099802  -0.674902 -1.53055 0.00055933  -0.627562 -1.5535 -0.000350475  -0.602411 -1.5034 -0.000308037  -0.67569 -1.53095 0.000481606  -0.650323 -1.48113 0.000741959  -0.603272 -1.50391 -0.000277042  -0.651212 -1.4816 0.000639439  -0.724298 -1.6297 0.00025177  -0.6765 -1.65301 -0.000482559  -0.651251 -1.60278 -0.000469685  -0.724948 -1.63003 0.000208378  -0.699526 -1.58005 0.000396252  -0.65197 -1.6032 -0.000417709  -0.700267 -1.58043 0.000337124  -0.773998 -1.72926 -1.43051e-06  -0.725806 -1.75286 -0.000570297  -0.700519 -1.70255 -0.000601768  -0.774516 -1.72953 -1.38283e-05  -0.749091 -1.67942 0.000119209  -0.701108 -1.70289 -0.000530243  -0.749694 -1.67973 9.01222e-05  -0.823899 -1.82912 -0.000199795  -0.775369 -1.85293 -0.000625134  -0.750087 -1.8026 -0.000679493  -0.824296 -1.82932 -0.000183582  -0.798904 -1.77914 -0.000110149  -0.750557 -1.80287 -0.000600815  -0.799383 -1.77939 -0.000107288  -0.873883 -1.92915 -0.000337124  -0.825089 -1.95314 -0.000642776  -0.799844 -1.90281 -0.000720024  -0.874182 -1.9293 -0.000303268  -0.848853 -1.87909 -0.000275612  -0.800211 -1.90303 -0.000637531  -0.849226 -1.87929 -0.000251293  -0.923882 -2.02926 -0.000431538  -0.874865 -2.0534 -0.000638485  -0.849697 -2.00311 -0.000725746  -0.924091 -2.02937 -0.000388622  -0.898849 -1.97918 -0.000393391  -0.849968 -2.00327 -0.000642776  -0.899132 -1.97932 -0.000353813  -0.973817 -2.12938 -0.0004673  -0.924626 -2.15361 -0.000592232  -0.899551 -2.10339 -0.000700951  -0.973952 -2.12946 -0.000415802  -0.948832 -2.0793 -0.000458717  -0.899747 -2.10351 -0.000624657  -0.949027 -2.07942 -0.000408173  -1.02364 -2.22942 -0.000460625  -0.974307 -2.25373 -0.000526428  -0.949345 -2.2036 -0.00063324  -1.02371 -2.22948 -0.000410557  -0.998716 -2.17939 -0.000473976  -0.94947 -2.20369 -0.000562191  -0.998838 -2.17948 -0.000421524  -1.07329 -2.32933 -0.000419617  -1.02385 -2.35369 -0.000434875  -0.999016 -2.30367 -0.000544548  -1.0733 -2.32938 -0.000371456  -1.04846 -2.27937 -0.000442028  -0.999093 -2.30373 -0.000483513  -1.04852 -2.27944 -0.000391006  -1.12272 -2.42907 -0.000337124  -1.07322 -2.45345 -0.000335217  -1.04852 -2.40355 -0.000434875  -1.12271 -2.4291 -0.000299454  -1.09801 -2.37921 -0.000382423  -1.04855 -2.4036 -0.00038147  -1.09802 -2.37926 -0.000338078  -1.17194 -2.52861 -0.000248432  -1.12238 -2.55297 -0.000225544  -1.09782 -2.50322 -0.00031662  -1.1719 -2.52861 -0.000219345  -1.14733 -2.47885 -0.00029707  -1.09782 -2.50324 -0.000274658  -1.14733 -2.47888 -0.000260353  -1.22088 -2.62784 -0.000205517  -1.17127 -2.65216 -0.000130653  -1.14688 -2.6026 -0.000193596  -1.22084 -2.62782 -0.000156403  -1.19642 -2.57824 -0.000211239  -1.14685 -2.60261 -0.000165462  -1.19639 -2.57825 -0.000184536  0.00027062 0.000510722 0.00353384  0 0 0  0.00389157 -0.00609311 -0.00144053  0.00182644 0.0023253 -0.00190735  0 0 0  0.00064151 -0.0040656 0.0034318  -0.000365518 0.00365925 0.0022397  0 0 0  0.00137598 -0.000618696 -0.0010891  0.000147268 0.000537306 0.00175571  0.00227129 -0.0208968 0.00566626  0.00891569 -0.0305852 -0.000819206  0.00745991 -0.0108494 -0.00202227  0.0013791 -0.0272745 0.00575161  0.00138122 -0.0078806 0.00488853  0.00652522 -0.0164073 -0.00115013  0.00116353 -0.0136779 0.00480556  0.00209218 -0.057767 0.00651169  0.0118781 -0.0688024 -0.000279427  0.0125315 -0.0416338 -0.00134802  -4.80115e-05 -0.0645231 0.00659037  0.00261503 -0.0376245 0.00629997  0.0107811 -0.0481813 -0.000473499  0.00104761 -0.0443642 0.00634003  -0.00206363 -0.106271 0.00642967  0.0111457 -0.117865 -0.000197887  0.014568 -0.0855404 -0.000977516  -0.00505105 -0.112694 0.00643539  0.000586718 -0.0806921 0.00660229  0.0120437 -0.0921094 -0.000171185  -0.00203994 -0.0873858 0.00661469  -0.010877 -0.163825 0.00578403  0.00590622 -0.175737 -0.000467777  0.0121723 -0.139657 -0.0010128  -0.0143316 -0.169625 0.0057168  -0.00585091 -0.133997 0.00617647  0.00912023 -0.145798 -0.000287056  -0.00913101 -0.140169 0.00612831  -0.0244554 -0.228582 0.00486326  -0.00408012 -0.240837 -0.000903606  0.00482732 -0.201938 -0.00130415  -0.0280704 -0.233672 0.00475502  -0.0170629 -0.195355 0.00535297  0.00151187 -0.207459 -0.000661373  -0.0206429 -0.200836 0.00525236  -0.0425311 -0.299157 0.00386906  -0.0186996 -0.31193 -0.00138378  -0.00745094 -0.270835 -0.00172424  -0.0461165 -0.303573 0.00374842  -0.0329297 -0.263176 0.00436783  -0.0108227 -0.2757 -0.00113916  -0.0365703 -0.267953 0.00425148  -0.0647309 -0.374536 0.00290155  -0.0376612 -0.387998 -0.0018301  -0.0243604 -0.345143 -0.00215292  -0.0681502 -0.37835 0.00280237  -0.0531244 -0.336262 0.0033741  -0.027654 -0.34939 -0.00161076  -0.0566531 -0.340396 0.00326443  -0.090608 -0.453948 0.00203991  -0.0605971 -0.468235 -0.0021944  -0.0455179 -0.423941 -0.00254488  -0.0938069 -0.457241 0.00197554  -0.0772085 -0.413742 0.00245285  -0.0486511 -0.427636 -0.0020175  -0.0805468 -0.417317 0.00237226  -0.119776 -0.536798 0.00129366  -0.087134 -0.551998 -0.00247049  -0.0704985 -0.506493 -0.00284672  -0.122727 -0.539645 0.00126696  -0.10477 -0.494938 0.00164843  -0.0734333 -0.509703 -0.00234175  -0.107872 -0.498028 0.0016036  -0.151895 -0.62261 0.000679493  -0.116924 -0.638765 -0.00266171  -0.0989386 -0.592231 -0.00306654  -0.154593 -0.62508 0.000686169  -0.135461 -0.579328 0.000967026  -0.101639 -0.595032 -0.00257444  -0.138305 -0.582004 0.000962257  -0.186668 -0.710993 0.000169754  -0.149635 -0.728106 -0.00277996  -0.130463 -0.6807 -0.00321245  -0.189118 -0.713134 0.000216007  -0.168941 -0.666472 0.000405788  -0.132927 -0.683135 -0.00272751  -0.171538 -0.668797 0.00043869  -0.223818 -0.80159 -0.000234127  -0.184979 -0.819622 -0.00282717  -0.164751 -0.771481 -0.00327349  -0.226018 -0.803448 -0.000155926  -0.204934 -0.756005 -4.57764e-05  -0.166993 -0.773602 -0.00280762  -0.207277 -0.758021 2.14577e-05  -0.263078 -0.894096 -0.000557423  -0.22266 -0.913004 -0.00282717  -0.201522 -0.864248 -0.00327873  -0.265053 -0.89571 -0.000456333  -0.243168 -0.847597 -0.000404835  -0.203539 -0.866093 -0.0028286  -0.245276 -0.849347 -0.000314236  -0.304228 -0.98824 -0.000810623  -0.262425 -1.00796 -0.00278187  -0.24049 -0.958692 -0.00323868  -0.305982 -0.989636 -0.00069046  -0.283413 -0.940956 -0.000696659  -0.242294 -0.960295 -0.00280237  -0.285288 -0.942473 -0.000581264  -0.347039 -1.08378 -0.00101566  -0.304027 -1.10424 -0.00270748  -0.281405 -1.05456 -0.00316191  -0.348586 -1.08499 -0.000872612  -0.325412 -1.03583 -0.00092268  -0.283003 -1.05595 -0.00274801  -0.32708 -1.03714 -0.000789642  -0.391289 -1.1805 -0.00116158  -0.347225 -1.20163 -0.00260544  -0.324023 -1.1516 -0.00305557  -0.392645 -1.18153 -0.0010066  -0.368969 -1.13198 -0.00108862  -0.325436 -1.15281 -0.00266075  -0.370441 -1.13312 -0.000939846  -0.436797 -1.27819 -0.00126123  -0.391814 -1.29991 -0.00248718  -0.368121 -1.24963 -0.00292397  -0.437964 -1.27908 -0.00109673  -0.413875 -1.22921 -0.00121403  -0.369353 -1.25067 -0.00255013  -0.415156 -1.23019 -0.00105572  -0.483354 -1.37668 -0.00132036  -0.437575 -1.39893 -0.00234747  -0.413494 -1.34845 -0.00276804  -0.484355 -1.37745 -0.00116014  -0.459933 -1.32733 -0.00129604  -0.414553 -1.34934 -0.00241613  -0.461033 -1.32817 -0.00113297  -0.530798 -1.47583 -0.00135374  -0.484329 -1.49853 -0.00219917  -0.459926 -1.4479 -0.00260305  -0.531639 -1.47647 -0.00118542  -0.506953 -1.42616 -0.00134325  -0.460835 -1.44867 -0.00226974  -0.507893 -1.42688 -0.0011754  -0.578954 -1.57548 -0.00136185  -0.531891 -1.59855 -0.00203896  -0.507254 -1.54785 -0.00242138  -0.579651 -1.57601 -0.00119495  -0.554768 -1.52558 -0.00135899  -0.508011 -1.54849 -0.00211811  -0.555559 -1.52618 -0.00119352  -0.627673 -1.67549 -0.00133228  -0.580106 -1.6989 -0.00187063  -0.555295 -1.64815 -0.00223207  -0.628239 -1.67594 -0.00117445  -0.603225 -1.62542 -0.00135279  -0.555922 -1.64869 -0.0019536  -0.603876 -1.62593 -0.00118923  -0.676808 -1.77577 -0.00128603  -0.628816 -1.79944 -0.00169277  -0.603891 -1.74869 -0.00203848  -0.677254 -1.77614 -0.00113058  -0.652165 -1.72558 -0.00131369  -0.604403 -1.74915 -0.00178623  -0.652694 -1.72601 -0.00114965  -0.726245 -1.87621 -0.00121403  -0.677896 -1.90009 -0.00151491  -0.652913 -1.84938 -0.00183105  -0.726583 -1.8765 -0.00106812  -0.701467 -1.82596 -0.00125027  -0.653312 -1.84975 -0.00160313  -0.701885 -1.8263 -0.00109911  -0.775859 -1.97671 -0.00112009  -0.727219 -2.00075 -0.00133276  -0.702222 -1.95012 -0.00162649  -0.776113 -1.97695 -0.000986099  -0.751004 -1.92643 -0.0011692  -0.702525 -1.95042 -0.00142622  -0.751325 -1.92672 -0.00102949  -0.825574 -2.07719 -0.00101137  -0.776683 -2.10136 -0.00113964  -0.751709 -2.05083 -0.00141144  -0.825742 -2.07738 -0.000887394  -0.800693 -2.02694 -0.0010643  -0.751934 -2.05106 -0.00123549  -0.800914 -2.02716 -0.000939369  -0.875288 -2.17758 -0.000879288  -0.8262 -2.20184 -0.000954151  -0.801274 -2.15143 -0.00119257  -0.875384 -2.17773 -0.00077486  -0.850404 -2.12738 -0.000950336  -0.801432 -2.15161 -0.00104713  -0.85056 -2.12756 -0.000833511  -0.924934 -2.27783 -0.000731468  -0.87569 -2.30215 -0.000760078  -0.850849 -2.25188 -0.0009799  -0.924976 -2.27794 -0.000641346  -0.900096 -2.22771 -0.000805855  -0.850944 -2.25202 -0.000860214  -0.900185 -2.22785 -0.000709057  -0.974459 -2.37788 -0.000570774  -0.925094 -2.40223 -0.000577927  -0.900355 -2.35211 -0.000765324  -0.974457 -2.37796 -0.00050211  -0.949687 -2.32786 -0.000652313  -0.900399 -2.35222 -0.000671864  -0.949728 -2.32797 -0.000575066  -1.02381 -2.4777 -0.000410557  -0.974361 -2.50207 -0.000389099  -0.949729 -2.45211 -0.000547409  -1.02378 -2.47776 -0.000359058  -0.999132 -2.4278 -0.000494003  -0.94974 -2.45218 -0.000479698  -0.999135 -2.42789 -0.000432491  -1.07296 -2.57725 -0.000238895  -1.02344 -2.60161 -0.000202179  -0.998949 -2.55182 -0.000331402  -1.0729 -2.57729 -0.000210762  -1.0484 -2.5275 -0.000323296  -0.998924 -2.55187 -0.000290394  -1.04836 -2.52756 -0.000284672  -1.12181 -2.67645 -0.00011301  -1.07225 -2.70078 -3.86238e-05  -1.04793 -2.65122 -0.000130653  -1.12175 -2.67647 -8.44002e-05  -1.09741 -2.62689 -0.000163555  -1.04789 -2.65124 -0.000115871  -1.09736 -2.62692 -0.000142574  0.00867555 -0.00449222 -0.00818062  0 0 0  0.0103453 -0.0116501 -0.010807  0.00578792 -0.00111514 -0.0100069  0 0 0  0.00709538 -0.0086177 -0.00618982  0.003865 0.000749707 -0.00598097  0 0 0  0.00379557 -0.0037182 -0.0066843  0.00258225 -0.00202966 -0.0039053  0.0180449 -0.0287902 -0.00901413  0.0239435 -0.0396288 -0.0133104  0.0193378 -0.0188736 -0.015285  0.016376 -0.0347054 -0.00718212  0.0133907 -0.0145094 -0.00876474  0.0172202 -0.023934 -0.0125189  0.0118325 -0.0198224 -0.00693655  0.025805 -0.0675418 -0.00870371  0.0355321 -0.0799986 -0.0134354  0.0321979 -0.0522813 -0.0160203  0.0236578 -0.0739658 -0.00696516  0.022303 -0.046531 -0.00882483  0.0301482 -0.0583999 -0.0134721  0.0204078 -0.0528629 -0.00709391  0.0297416 -0.117608 -0.00831604  0.0431055 -0.130728 -0.0130429  0.0422538 -0.0978469 -0.0156856  0.027115 -0.12388 -0.00670147  0.0283619 -0.0912617 -0.00845528  0.0399056 -0.104159 -0.0132523  0.0259427 -0.097708 -0.0068078  0.0287693 -0.176815 -0.0080595  0.0457051 -0.190279 -0.0125642  0.0477033 -0.153439 -0.0151019  0.025835 -0.182619 -0.00656796  0.0299193 -0.146138 -0.00814581  0.0450647 -0.159481 -0.0127935  0.0270995 -0.152234 -0.00660849  0.0226066 -0.243494 -0.00789785  0.0430288 -0.257296 -0.0120778  0.0478565 -0.217379 -0.0144792  0.0195419 -0.248707 -0.00652361  0.0263552 -0.209262 -0.00795746  0.045032 -0.222926 -0.0123134  0.0233212 -0.214816 -0.00653267  0.0113606 -0.316288 -0.00778437  0.0351206 -0.330545 -0.0115905  0.0425981 -0.288207 -0.0138559  0.00830132 -0.320905 -0.00650406  0.0176224 -0.279155 -0.007833  0.0397191 -0.293204 -0.0118303  0.01453 -0.284104 -0.00650978  -0.00465381 -0.394133 -0.0076499  0.0222321 -0.40898 -0.0110769  0.0321162 -0.364728 -0.0132136  -0.00760454 -0.398185 -0.0064621  0.00395393 -0.354595 -0.00772142  0.0292808 -0.36917 -0.0113297  0.000915945 -0.358959 -0.00648546  -0.025023 -0.476146 -0.00748491  0.00471878 -0.491718 -0.0105448  0.0167471 -0.445932 -0.0125647  -0.0278201 -0.4797 -0.00637197  -0.014295 -0.434623 -0.00757933  0.0140358 -0.449853 -0.0108132  -0.0171949 -0.438452 -0.006423  -0.0493618 -0.561646 -0.00727081  -0.0170228 -0.578019 -0.00998831  -0.0030793 -0.531006 -0.0118933  -0.0519592 -0.564761 -0.00622702  -0.0366993 -0.518463 -0.00738239  -0.00564122 -0.534456 -0.0102644  -0.0394167 -0.521816 -0.00630713  -0.0772499 -0.650087 -0.00700045  -0.0425998 -0.66729 -0.00939417  -0.0269698 -0.619282 -0.0112004  -0.0796452 -0.652805 -0.00602722  -0.0628562 -0.605499 -0.00713825  -0.0293472 -0.622313 -0.00968647  -0.0653746 -0.608434 -0.00613117  -0.108354 -0.740988 -0.00669765  -0.0716367 -0.759045 -0.00879765  -0.054518 -0.710224 -0.0104952  -0.110525 -0.743371 -0.00578117  -0.0923985 -0.695223 -0.00685883  -0.0567055 -0.712882 -0.00909567  -0.0947032 -0.697796 -0.00591183  -0.14231 -0.833974 -0.00635815  -0.103772 -0.85286 -0.00818872  -0.0853484 -0.803367 -0.00978374  -0.144274 -0.836061 -0.00550604  -0.124961 -0.787208 -0.00653267  -0.0873308 -0.805713 -0.00849009  -0.127055 -0.789467 -0.00564814  -0.178819 -0.928696 -0.0059948  -0.138679 -0.948369 -0.00757551  -0.119108 -0.898355 -0.00906086  -0.180575 -0.930527 -0.00520182  -0.160234 -0.881108 -0.00617743  -0.120895 -0.900413 -0.00788021  -0.162117 -0.883083 -0.0053544  -0.217579 -1.02488 -0.0056138  -0.176034 -1.04528 -0.00697994  -0.15546 -0.994861 -0.00836277  -0.219145 -1.02648 -0.00487852  -0.197907 -0.976597 -0.00580359  -0.157065 -0.996663 -0.00727797  -0.199587 -0.978327 -0.0050416  -0.25834 -1.12228 -0.00522518  -0.215556 -1.14334 -0.00640059  -0.194116 -1.0926 -0.00767422  -0.259718 -1.12367 -0.0045495  -0.237699 -1.07342 -0.00541735  -0.19554 -1.09418 -0.00668621  -0.23919 -1.07493 -0.00471497  -0.30083 -1.22064 -0.00483274  -0.256968 -1.24232 -0.0058217  -0.23479 -1.19134 -0.00700283  -0.302028 -1.22186 -0.00421476  -0.279353 -1.17132 -0.00503588  -0.236037 -1.19272 -0.00611115  -0.280666 -1.17264 -0.00438595  -0.344824 -1.31982 -0.00443935  -0.300017 -1.34202 -0.00526667  -0.277215 -1.29089 -0.00635576  -0.345853 -1.32087 -0.00387907  -0.322627 -1.27012 -0.00463676  -0.278298 -1.29209 -0.00554705  -0.323762 -1.27127 -0.00404644  -0.390088 -1.41961 -0.00405645  -0.344468 -1.44229 -0.00473881  -0.321147 -1.39104 -0.00572252  -0.390972 -1.42052 -0.00354242  -0.367287 -1.36963 -0.00424957  -0.322076 -1.39209 -0.00500107  -0.368261 -1.37062 -0.00370789  -0.436436 -1.51989 -0.00367928  -0.390097 -1.54296 -0.00423145  -0.366352 -1.49168 -0.00512362  -0.437168 -1.52066 -0.00321627  -0.413112 -1.46968 -0.00386  -0.367144 -1.49258 -0.00447845  -0.41394 -1.47054 -0.0033741  -0.48367 -1.6205 -0.00330019  -0.436724 -1.64391 -0.00374079  -0.412641 -1.59262 -0.00455046  -0.484268 -1.62116 -0.00288439  -0.459927 -1.57013 -0.0034852  -0.413294 -1.5934 -0.00398064  -0.460614 -1.57087 -0.00304937  -0.531611 -1.72134 -0.00293589  -0.484139 -1.74503 -0.0032773  -0.459803 -1.69378 -0.004004  -0.532094 -1.72191 -0.00257301  -0.507534 -1.67088 -0.00312042  -0.460333 -1.69445 -0.00350189  -0.508094 -1.67151 -0.00272751  -0.580104 -1.82231 -0.00258684  -0.532192 -1.84622 -0.0028348  -0.507666 -1.79506 -0.00348949  -0.58048 -1.82277 -0.00226402  -0.555772 -1.77179 -0.00276566  -0.508097 -1.79561 -0.00305367  -0.556221 -1.77233 -0.00241995  -0.62902 -1.9233 -0.00224352  -0.580728 -1.94739 -0.0024128  -0.556076 -1.89634 -0.00299644  -0.629294 -1.9237 -0.00196409  -0.604495 -1.87279 -0.0024147  -0.556403 -1.89681 -0.00262547  -0.604836 -1.87323 -0.00211239  -0.678206 -2.02426 -0.00191975  -0.629605 -2.04847 -0.0020237  -0.604882 -1.99756 -0.0025363  -0.678395 -2.02457 -0.00167894  -0.653555 -1.97377 -0.0020833  -0.605127 -1.99794 -0.00221682  -0.65381 -1.97414 -0.00181913  -0.727566 -2.12509 -0.00160217  -0.678715 -2.1494 -0.00165319  -0.65397 -2.09864 -0.00209904  -0.727686 -2.12535 -0.00139761  -0.702843 -2.07467 -0.00175381  -0.654132 -2.09895 -0.00183535  -0.703019 -2.07498 -0.00153589  -0.777004 -2.22576 -0.0012989  -0.727948 -2.25012 -0.00131702  -0.703211 -2.19954 -0.00169659  -0.777063 -2.22596 -0.00113487  -0.752256 -2.17543 -0.00144482  -0.703318 -2.19978 -0.0014801  -0.752367 -2.17567 -0.001266  -0.826436 -2.32619 -0.00101137  -0.777212 -2.3506 -0.00100327  -0.752515 -2.3002 -0.00132179  -0.826447 -2.32635 -0.000885487  -0.8017 -2.27598 -0.00115347  -0.752575 -2.30039 -0.00116014  -0.801753 -2.27618 -0.00100613  -0.875806 -2.42638 -0.000739574  -0.826447 -2.4508 -0.000714302  -0.801816 -2.40059 -0.0009799  -0.87577 -2.4265 -0.000645161  -0.851104 -2.3763 -0.000874519  -0.801835 -2.40073 -0.000854969  -0.851113 -2.37646 -0.000765324  -0.925042 -2.52628 -0.00047493  -0.875585 -2.55068 -0.000440598  -0.851053 -2.50066 -0.000669479  -0.924972 -2.52636 -0.000416279  -0.900414 -2.47634 -0.00060463  -0.851028 -2.50078 -0.000576973  -0.900384 -2.47647 -0.000525951  -0.974104 -2.62584 -0.000217915  -0.924592 -2.65024 -0.000186443  -0.900149 -2.60041 -0.000360966  -0.97402 -2.62591 -0.000193119  -0.949571 -2.57608 -0.000345707  -0.900106 -2.6005 -0.000316143  -0.949515 -2.57617 -0.000303745  -1.02289 -2.72504 1.66893e-05  -0.97335 -2.74943 6.00815e-05  -0.949075 -2.69981 -6.00815e-05  -1.0228 -2.72509 1.7643e-05  -0.998525 -2.67548 -9.01222e-05  -0.949007 -2.69987 -5.67436e-05  -0.998445 -2.67554 -8.2016e-05  0.0168596 -0.0116319 -0.0192599  0 0 0  0.0174541 -0.0196503 -0.0193963  0.00945751 -0.00603455 -0.0175891  0 0 0  0.0137593 -0.0152861 -0.015213  0.00762421 -0.00333256 -0.0138335  0 0 0  0.00640215 -0.00824851 -0.0119495  0.00503889 -0.00574827 -0.00936031  0.0341242 -0.0399687 -0.0226927  0.040279 -0.0520436 -0.0246801  0.0320104 -0.0299996 -0.0274277  0.0318517 -0.0453973 -0.0191474  0.0254735 -0.0240031 -0.0214906  0.0289932 -0.0345384 -0.0228391  0.0228881 -0.028807 -0.0178204  0.0499132 -0.0808102 -0.0230632  0.0604571 -0.0945689 -0.025713  0.0531996 -0.0663614 -0.0296578  0.047731 -0.0868782 -0.01969  0.0424094 -0.0589002 -0.0229983  0.0508795 -0.0720422 -0.0254512  0.0402406 -0.0647945 -0.0196009  0.0616772 -0.132309 -0.0224748  0.0759643 -0.146804 -0.0253015  0.0710994 -0.113475 -0.0296659  0.0593221 -0.138383 -0.0192513  0.0564173 -0.105269 -0.0227976  0.0688604 -0.119499 -0.0256057  0.0541425 -0.111434 -0.0195308  0.068228 -0.192965 -0.0215306  0.0860327 -0.207894 -0.0242972  0.0840532 -0.170401 -0.0287399  0.0657058 -0.198709 -0.0184827  0.0656654 -0.161535 -0.022006  0.0817139 -0.176304 -0.0248384  0.0631996 -0.167512 -0.0188832  0.0691692 -0.261345 -0.020453  0.0903412 -0.276678 -0.0230389  0.0913442 -0.235873 -0.0273714  0.0665575 -0.266613 -0.0175896  0.0694253 -0.226234 -0.0209918  0.0889171 -0.241396 -0.0236769  0.0668304 -0.231786 -0.0180435  0.0645195 -0.336134 -0.0193243  0.0888889 -0.351933 -0.0216742  0.0927925 -0.308503 -0.0258217  0.0619141 -0.340876 -0.0166531  0.0675547 -0.297969 -0.0198889  0.0903288 -0.313562 -0.0223584  0.0649158 -0.303015 -0.0171242  0.0545409 -0.416193 -0.0181661  0.0818911 -0.432566 -0.0202756  0.0884992 -0.387082 -0.0241928  0.0519977 -0.420423 -0.0156927  0.0601987 -0.37553 -0.0187459  0.0860705 -0.391636 -0.0209699  0.0575975 -0.380044 -0.0161743  0.039578 -0.500573 -0.0170107  0.0696875 -0.517611 -0.018868  0.0787657 -0.470513 -0.0225477  0.0371609 -0.50433 -0.0147176  0.0476793 -0.457859 -0.0175896  0.0764219 -0.474585 -0.0195637  0.0451773 -0.461875 -0.0152035  0.0200567 -0.58851 -0.015851  0.052673 -0.606266 -0.0174804  0.0639774 -0.557903 -0.0209174  0.0177983 -0.591828 -0.0137382  0.0303882 -0.544108 -0.0164304  0.0617601 -0.561524 -0.0181675  0.0280265 -0.547664 -0.0142255  -0.00358474 -0.679351 -0.0147095  0.0312705 -0.697861 -0.0161252  0.0445634 -0.648516 -0.0193181  -0.0056777 -0.682284 -0.0127668  0.00875306 -0.633569 -0.0152798  0.0424997 -0.651728 -0.016799  0.00655234 -0.636712 -0.0132499  -0.0309647 -0.772583 -0.0135913  0.00590336 -0.791851 -0.0148168  0.0209708 -0.741729 -0.0177727  -0.0328734 -0.775177 -0.0118093  -0.0168096 -0.725665 -0.0141525  0.0190659 -0.744582 -0.0154634  -0.0188307 -0.728448 -0.0122871  -0.0616748 -0.867775 -0.0125012  -0.0230201 -0.887779 -0.0135512  -0.00639462 -0.837069 -0.0162826  -0.0633997 -0.870066 -0.0108728  -0.0458958 -0.819929 -0.0130429  -0.00812972 -0.83959 -0.0141745  -0.0477362 -0.822389 -0.0113416  -0.0953498 -0.964566 -0.0114408  -0.0551168 -0.985265 -0.0123301  -0.0371177 -0.934106 -0.0148482  -0.0969018 -0.966581 -0.00996161  -0.0781362 -0.915963 -0.0119634  -0.0386896 -0.936345 -0.0129347  -0.0797951 -0.918137 -0.0104103  -0.131662 -1.06265 -0.0104222  -0.0900339 -1.08399 -0.0111761  -0.0708324 -1.03251 -0.0134788  -0.133039 -1.06442 -0.00908232  -0.113169 -1.01343 -0.0109277  -0.072239 -1.03448 -0.0117483  -0.114655 -1.01535 -0.00951576  -0.170294 -1.16176 -0.00944948  -0.127437 -1.18368 -0.0100765  -0.107193 -1.13198 -0.0121784  -0.171499 -1.16332 -0.00824022  -0.150678 -1.11206 -0.00993872  -0.108438 -1.13372 -0.0106244  -0.151991 -1.11374 -0.0086565  -0.21095 -1.26168 -0.00851822  -0.167014 -1.28413 -0.00903654  -0.145884 -1.23229 -0.0109391  -0.211994 -1.26304 -0.0074358  -0.190355 -1.21161 -0.00898314  -0.146968 -1.23382 -0.00954962  -0.191503 -1.21309 -0.007833  -0.253364 -1.36222 -0.00763559  -0.208488 -1.38513 -0.00805092  -0.186589 -1.33322 -0.00977659  -0.254257 -1.36342 -0.00666523  -0.231929 -1.31185 -0.00807095  -0.187528 -1.33457 -0.00853348  -0.232919 -1.31316 -0.00704241  -0.297284 -1.46321 -0.00679207  -0.251582 -1.48652 -0.00712061  -0.229045 -1.4346 -0.00867844  -0.298029 -1.46426 -0.00593376  -0.27512 -1.41264 -0.00720692  -0.229842 -1.43579 -0.00758171  -0.275964 -1.41379 -0.00628948  -0.342472 -1.56453 -0.00599813  -0.296057 -1.58817 -0.00624514  -0.272993 -1.53629 -0.0076375  -0.343086 -1.56543 -0.00523806  -0.319707 -1.51381 -0.00639486  -0.273657 -1.53732 -0.00667334  -0.320407 -1.51481 -0.00558138  -0.388726 -1.66604 -0.00524759  -0.341696 -1.68995 -0.00542879  -0.318194 -1.63816 -0.00667715  -0.389218 -1.66681 -0.0045867  -0.365449 -1.61524 -0.00561953  -0.318741 -1.63905 -0.00583267  -0.366025 -1.6161 -0.00490999  -0.43584 -1.76763 -0.00454426  -0.388297 -1.79175 -0.00466633  -0.36445 -1.74009 -0.00577354  -0.436229 -1.76829 -0.00397635  -0.412152 -1.7168 -0.00489426  -0.364881 -1.74084 -0.00504446  -0.41262 -1.71754 -0.00427485  -0.483652 -1.86921 -0.00389481  -0.435656 -1.89351 -0.00396585  -0.411553 -1.84199 -0.00493193  -0.483937 -1.86977 -0.00340128  -0.459642 -1.8184 -0.00421858  -0.411885 -1.84264 -0.00430632  -0.46 -1.81903 -0.00368547  -0.531983 -1.97071 -0.00327921  -0.483628 -1.99513 -0.00330925  -0.459328 -1.94379 -0.00414467  -0.532191 -1.97118 -0.00286913  -0.507733 -1.91996 -0.00358438  -0.459572 -1.94434 -0.00362682  -0.508001 -1.92049 -0.00313234  -0.580712 -2.07206 -0.00270748  -0.532039 -2.09656 -0.00270557  -0.507615 -2.0454 -0.003438  -0.580842 -2.07245 -0.00236464  -0.556285 -2.02138 -0.00298452  -0.507779 -2.04587 -0.00300026  -0.556466 -2.02183 -0.0026083  -0.629697 -2.17319 -0.00218582  -0.580774 -2.19775 -0.00216246  -0.556269 -2.14681 -0.00278187  -0.629762 -2.17352 -0.00191164  -0.605151 -2.12264 -0.00244808  -0.556375 -2.14718 -0.0024271  -0.605265 -2.123 -0.00213957  -0.678836 -2.27409 -0.00171995  -0.629712 -2.29865 -0.00167084  -0.605167 -2.24793 -0.00218201  -0.678843 -2.27434 -0.00149584  -0.654228 -2.22365 -0.00194788  -0.60522 -2.24823 -0.00190735  -0.654284 -2.22395 -0.00169897  -0.728029 -2.37468 -0.00128746  -0.678756 -2.39924 -0.00123262  -0.654214 -2.34875 -0.0016551  -0.727992 -2.37488 -0.00111961  -0.703403 -2.32441 -0.00149679  -0.654221 -2.34898 -0.00144434  -0.70341 -2.32465 -0.00130463  -0.777199 -2.47496 -0.000891209  -0.727806 -2.49949 -0.000852585  -0.703298 -2.44923 -0.00118446  -0.777138 -2.47512 -0.000776291  -0.75259 -2.42484 -0.00108767  -0.703279 -2.44941 -0.00103283  -0.752568 -2.42504 -0.000946522  -0.826296 -2.57489 -0.000541687  -0.776814 -2.59939 -0.000500202  -0.752359 -2.54934 -0.000771046  -0.826214 -2.57501 -0.000471592  -0.801734 -2.52495 -0.000716686  -0.752315 -2.54948 -0.000672817  -0.801683 -2.5251 -0.000621796  -0.875282 -2.67447 -0.00020504  -0.825734 -2.69894 -0.00018692  -0.801342 -2.64909 -0.000391006  -0.875176 -2.67457 -0.000184059  -0.85078 -2.6247 -0.000374317  -0.801282 -2.6492 -0.000339508  -0.850707 -2.62483 -0.000324249  -0.924041 -2.77367 0.000123024  -0.874493 -2.79816 0.000116825  -0.85021 -2.74848 -3.33786e-05  -0.923927 -2.77377 0.000105381  -0.899673 -2.72409 -4.76837e-05  -0.850136 -2.74858 -3.48091e-05  -0.89958 -2.72421 -4.19617e-05  0.0259366 -0.0218018 -0.0292158  0 0 0  0.026615 -0.0317149 -0.0265007  0.0134386 -0.013765 -0.0240617  0 0 0  0.0217089 -0.0249993 -0.0231566  0.0113383 -0.00941741 -0.0208235  0 0 0  0.00974163 -0.0156955 -0.0163269  0.00787869 -0.0114422 -0.0142136  0.0523213 -0.0546315 -0.0351272  0.0598169 -0.0680802 -0.0347896  0.0475217 -0.044917 -0.0380883  0.0495441 -0.0596349 -0.0298781  0.0392635 -0.0369424 -0.0329113  0.0438034 -0.0491804 -0.0317454  0.0358864 -0.0412705 -0.0274415  0.0761287 -0.0972799 -0.0365696  0.0881341 -0.112161 -0.0371699  0.0771907 -0.0835033 -0.0423756  0.0738742 -0.103024 -0.0315337  0.0647288 -0.0746052 -0.036149  0.0746087 -0.0889267 -0.0364223  0.0622866 -0.0801148 -0.0310507  0.0953557 -0.150088 -0.036078  0.111137 -0.165779 -0.0370188  0.102537 -0.131969 -0.0430636  0.0931896 -0.155956 -0.0312271  0.086408 -0.122401 -0.0364547  0.100338 -0.137776 -0.0372982  0.084213 -0.128302 -0.0315304  0.109041 -0.212171 -0.0346527  0.128302 -0.228444 -0.0356493  0.122588 -0.190295 -0.0419588  0.106838 -0.217809 -0.0300274  0.102945 -0.179993 -0.0354252  0.120484 -0.196034 -0.0364256  0.100751 -0.185819 -0.0306954  0.116754 -0.282225 -0.0327783  0.139293 -0.299039 -0.0337253  0.136686 -0.257382 -0.0399771  0.11452 -0.287481 -0.0284295  0.113681 -0.246246 -0.0337396  0.134584 -0.262826 -0.0347271  0.111437 -0.251742 -0.0292554  0.118418 -0.358936 -0.0307078  0.144028 -0.376313 -0.0315566  0.144541 -0.331882 -0.0375595  0.116197 -0.363736 -0.0266528  0.11836 -0.319788 -0.0317516  0.14244 -0.336911 -0.0326519  0.116107 -0.32485 -0.0275497  0.114223 -0.441114 -0.0285878  0.142685 -0.459097 -0.0293083  0.146172 -0.412499 -0.0349865  0.112058 -0.44544 -0.0248237  0.117059 -0.399374 -0.0296454  0.144105 -0.41708 -0.0304317  0.114842 -0.403963 -0.0257368  0.1045 -0.527716 -0.0264573  0.135576 -0.546363 -0.0270677  0.141835 -0.498082 -0.0323873  0.102431 -0.531599 -0.0229959  0.110055 -0.483879 -0.0275173  0.139831 -0.502223 -0.0281811  0.10791 -0.488013 -0.0239043  0.0896696 -0.617911 -0.0243797  0.12312 -0.637247 -0.0248799  0.131902 -0.587679 -0.0298219  0.0877215 -0.621379 -0.0212049  0.0977241 -0.572379 -0.0254121  0.129992 -0.591397 -0.0259633  0.0956907 -0.576076 -0.0220904  0.0701721 -0.710988 -0.022368  0.105759 -0.731022 -0.022778  0.116813 -0.680481 -0.0273476  0.0683639 -0.71408 -0.0194716  0.0805041 -0.664102 -0.0233665  0.115028 -0.683808 -0.0238194  0.0785996 -0.667397 -0.020329  0.0464568 -0.806373 -0.0204406  0.0839587 -0.827087 -0.0207658  0.0970386 -0.775819 -0.0249677  0.0448012 -0.809124 -0.0178056  0.05884 -0.758393 -0.0213976  0.0953931 -0.778792 -0.021759  0.0570865 -0.761334 -0.0186286  0.0189636 -0.9036 -0.0186076  0.0581704 -0.924965 -0.0188465  0.0730462 -0.873171 -0.0226974  0.0174592 -0.906049 -0.0162139  0.0331775 -0.854757 -0.0195155  0.0715415 -0.87582 -0.0197935  0.031581 -0.857372 -0.0170012  -0.0119078 -1.00228 -0.0168605  0.0288196 -1.02425 -0.0170422  0.0452842 -0.972084 -0.0205593  -0.0132521 -1.00445 -0.0147014  0.00395703 -0.952757 -0.0177283  0.0439179 -0.974449 -0.0179315  0.00250494 -0.955085 -0.015449  -0.0457704 -1.10209 -0.0152063  -0.00370371 -1.12462 -0.0153265  0.0141481 -1.07221 -0.0185351  -0.0469618 -1.10402 -0.0132618  -0.0284623 -1.05204 -0.0160246  0.012935 -1.07432 -0.0161729  -0.0297493 -1.05411 -0.0139713  -0.0822763 -1.20277 -0.0136495  -0.0390182 -1.2258 -0.0137181  -0.0199578 -1.17325 -0.0166254  -0.0833127 -1.20448 -0.0119123  -0.0636867 -1.15231 -0.0144196  -0.0210247 -1.17512 -0.0145111  -0.0648216 -1.15415 -0.0125794  -0.121098 -1.3041 -0.0121779  -0.0767925 -1.32755 -0.0122085  -0.0566874 -1.27496 -0.0148263  -0.121985 -1.3056 -0.010632  -0.10139 -1.25334 -0.0129037  -0.0576146 -1.27661 -0.0129471  -0.102375 -1.25496 -0.01126  -0.161913 -1.40587 -0.0107994  -0.116699 -1.42971 -0.0107889  -0.0956953 -1.37712 -0.0131516  -0.162664 -1.4072 -0.00942707  -0.141243 -1.35491 -0.0114818  -0.0964918 -1.37859 -0.0114851  -0.142087 -1.35635 -0.0100226  -0.204455 -1.50795 -0.00950956  -0.158441 -1.53209 -0.00946951  -0.136688 -1.47959 -0.0115824  -0.205081 -1.50911 -0.00830412  -0.182956 -1.45686 -0.0101428  -0.137349 -1.48088 -0.0101213  -0.183666 -1.45812 -0.00885439  -0.24848 -1.61018 -0.00830173  -0.201771 -1.63458 -0.00822878  -0.179373 -1.5822 -0.0101252  -0.248978 -1.61119 -0.00725079  -0.22627 -1.55902 -0.0088954  -0.179918 -1.58333 -0.00884247  -0.226858 -1.56013 -0.00776672  -0.293728 -1.71245 -0.00717211  -0.246434 -1.73705 -0.00709009  -0.223507 -1.68483 -0.00876474  -0.294128 -1.71334 -0.00626659  -0.270935 -1.6613 -0.00773191  -0.223944 -1.68582 -0.00765705  -0.271405 -1.66226 -0.00675058  -0.340015 -1.81468 -0.0061326  -0.292213 -1.83943 -0.0060339  -0.268855 -1.7874 -0.00749731  -0.340309 -1.81545 -0.00535202  -0.316732 -1.76356 -0.00664377  -0.26919 -1.78825 -0.00655127  -0.317096 -1.76439 -0.00580597  -0.387127 -1.91679 -0.00516558  -0.338895 -1.94162 -0.00506353  -0.315199 -1.88982 -0.00634146  -0.387333 -1.91744 -0.0045166  -0.363453 -1.86575 -0.00564051  -0.315441 -1.89055 -0.00553703  -0.363722 -1.86646 -0.00492907  -0.434891 -2.01869 -0.00428867  -0.386306 -2.04358 -0.00416517  -0.362347 -1.99201 -0.00526333  -0.435021 -2.01924 -0.00374126  -0.410918 -1.96775 -0.0047164  -0.362515 -1.99263 -0.00460243  -0.411094 -1.96836 -0.00411892  -0.48315 -2.12035 -0.00347996  -0.434273 -2.14524 -0.0033617  -0.410129 -2.09392 -0.00429487  -0.483205 -2.1208 -0.00303698  -0.458938 -2.06954 -0.00387001  -0.410222 -2.09444 -0.00375032  -0.459051 -2.07005 -0.00338221  -0.531759 -2.22171 -0.00274706  -0.482655 -2.24658 -0.00263309  -0.458386 -2.19552 -0.00341606  -0.531761 -2.22208 -0.00240278  -0.507392 -2.17105 -0.00310802  -0.458419 -2.19595 -0.00298691  -0.507441 -2.17148 -0.00271511  -0.580598 -2.32274 -0.00211239  -0.531317 -2.34757 -0.00199604  -0.506965 -2.29677 -0.00263882  -0.580556 -2.32304 -0.00183535  -0.556128 -2.27225 -0.00241899  -0.506951 -2.29712 -0.00230265  -0.55613 -2.2726 -0.00211143  -0.629558 -2.42342 -0.00153923  -0.580153 -2.44818 -0.00144243  -0.555752 -2.39765 -0.00195599  -0.629489 -2.42366 -0.00134325  -0.605047 -2.37311 -0.00181484  -0.555716 -2.39792 -0.00170612  -0.605004 -2.37339 -0.00158215  -0.678556 -2.52372 -0.0010457  -0.629057 -2.54841 -0.00096941  -0.604663 -2.49814 -0.00136375  -0.678464 -2.52391 -0.000908375  -0.654037 -2.4736 -0.00128269  -0.604595 -2.49834 -0.00119448  -0.653969 -2.47383 -0.00111675  -0.727512 -2.62365 -0.000613689  -0.67795 -2.64827 -0.000568867  -0.653579 -2.59823 -0.000867367  -0.727405 -2.6238 -0.000536919  -0.703018 -2.57372 -0.000822067  -0.653501 -2.59839 -0.000757217  -0.702933 -2.57389 -0.000716209  -0.776395 -2.72321 -0.000218391  -0.72679 -2.74777 -0.000215054  -0.702448 -2.69793 -0.000434399  -0.776281 -2.72333 -0.000195026  -0.751936 -2.67345 -0.000415325  -0.702377 -2.69806 -0.000385761  -0.751848 -2.6736 -0.000363827  -0.825159 -2.82244 0.000148296  -0.775568 -2.84701 0.000103474  -0.751258 -2.79729 -5.67436e-05  -0.82505 -2.82257 0.000119686  -0.800766 -2.77284 -4.29153e-05  -0.751185 -2.79741 -5.34058e-05  -0.80068 -2.77297 -3.67165e-05  0.038564 -0.0370105 -0.0377746  0 0 0  0.0428481 -0.0507267 -0.0328569  0.021604 -0.0291362 -0.0295472  0 0 0  0.0334139 -0.0405742 -0.0297289  0.0162268 -0.0196771 -0.0260749  0 0 0  0.0178478 -0.0316888 -0.0203748  0.0121112 -0.0217398 -0.0178475  0.074412 -0.0722217 -0.0467  0.0836947 -0.0869339 -0.0447516  0.068126 -0.0629823 -0.0486221  0.0712108 -0.0772616 -0.0396857  0.0572101 -0.0537699 -0.0432777  0.0640006 -0.0679332 -0.0404229  0.0532239 -0.0582214 -0.035954  0.105612 -0.116262 -0.049562  0.119331 -0.132123 -0.0483203  0.10485 -0.102674 -0.0550504  0.103277 -0.121886 -0.0427537  0.090563 -0.0929105 -0.0486751  0.102112 -0.108273 -0.0471778  0.0878836 -0.0983648 -0.0417647  0.131953 -0.170531 -0.0492768  0.149617 -0.187303 -0.0482917  0.137384 -0.152718 -0.0562272  0.129912 -0.176234 -0.0427074  0.119475 -0.142089 -0.0496783  0.135208 -0.158449 -0.0486107  0.117311 -0.147844 -0.0429902  0.152501 -0.234274 -0.0474238  0.173757 -0.25184 -0.0465431  0.164496 -0.212871 -0.0548372  0.150553 -0.239782 -0.0411706  0.143018 -0.201248 -0.0484605  0.162509 -0.218447 -0.047564  0.141019 -0.206912 -0.0420604  0.166722 -0.306202 -0.0447903  0.191242 -0.324503 -0.0439649  0.185269 -0.281944 -0.0521703  0.164796 -0.311362 -0.0389204  0.16044 -0.269259 -0.0461502  0.183356 -0.287217 -0.0453124  0.158493 -0.274642 -0.0400977  0.174433 -0.384954 -0.0418272  0.201933 -0.40396 -0.0410423  0.199339 -0.358555 -0.0489168  0.17254 -0.389701 -0.0363679  0.171412 -0.344764 -0.0433235  0.197441 -0.363444 -0.0425258  0.169483 -0.349759 -0.0376616  0.175774 -0.46926 -0.0387549  0.205984 -0.488979 -0.0379992  0.206637 -0.441362 -0.0454321  0.173925 -0.473585 -0.0337167  0.175914 -0.42645 -0.0402937  0.204783 -0.445831 -0.0395288  0.174016 -0.431011 -0.0350442  0.171044 -0.558044 -0.0357046  0.203716 -0.57847 -0.0349755  0.207413 -0.52915 -0.0419059  0.169273 -0.561955 -0.0310755  0.17417 -0.513113 -0.037221  0.205623 -0.533216 -0.0364838  0.172333 -0.517263 -0.0323915  0.16068 -0.650401 -0.0327277  0.195554 -0.671509 -0.0320368  0.202066 -0.620927 -0.0384455  0.159 -0.653925 -0.0285044  0.166563 -0.603794 -0.0342069  0.200346 -0.624586 -0.0334935  0.164814 -0.607539 -0.0297804  0.145143 -0.74558 -0.0298791  0.182013 -0.767345 -0.0292082  0.19105 -0.715821 -0.0351138  0.143583 -0.748738 -0.0260367  0.153552 -0.697648 -0.0312929  0.189432 -0.719108 -0.030612  0.151911 -0.701009 -0.0272589  0.124926 -0.842953 -0.0271606  0.163578 -0.865343 -0.0265312  0.174872 -0.81314 -0.0319362  0.123498 -0.845793 -0.0236793  0.135618 -0.793997 -0.0285039  0.173383 -0.8161 -0.0278554  0.134099 -0.797013 -0.0248427  0.100508 -0.942054 -0.0245953  0.140751 -0.965014 -0.0239859  0.154052 -0.912336 -0.0289202  0.0992142 -0.944584 -0.02145  0.113239 -0.89229 -0.0258603  0.152692 -0.914995 -0.025238  0.111858 -0.89499 -0.0225477  0.0723513 -1.04244 -0.022172  0.113995 -1.06594 -0.0216079  0.129066 -1.01297 -0.0260949  0.0711881 -1.04471 -0.0193496  0.0868993 -0.992083 -0.0233669  0.127841 -1.01533 -0.0227814  0.0856496 -0.994495 -0.0203834  0.0408492 -1.14381 -0.019896  0.0837502 -1.16776 -0.0193596  0.10038 -1.11463 -0.0234299  0.0398264 -1.14583 -0.0173635  0.0570132 -1.093 -0.0210156  0.0992875 -1.11675 -0.0204644  0.0559039 -1.09516 -0.0183401  0.00640249 -1.24589 -0.0177603  0.0504153 -1.27025 -0.0172534  0.0684152 -1.21706 -0.0209351  0.0055182 -1.24769 -0.0155082  0.0239967 -1.19476 -0.0188127  0.0674508 -1.21894 -0.0182958  0.023025 -1.19668 -0.0164227  -0.0306304 -1.34843 -0.0157576  0.0143614 -1.37314 -0.0152884  0.0335441 -1.31997 -0.0185966  -0.031379 -1.35004 -0.0137639  -0.0117886 -1.29709 -0.0167394  0.0327098 -1.32165 -0.0162544  -0.0126235 -1.29881 -0.0146203  -0.0698965 -1.45128 -0.0138974  -0.0240448 -1.47626 -0.0134578  -0.00385523 -1.4232 -0.0164089  -0.070524 -1.4527 -0.0121379  -0.0499785 -1.39981 -0.0148101  -0.00455952 -1.42468 -0.0143552  -0.050683 -1.40133 -0.0129366  -0.111105 -1.55426 -0.0121574  -0.0645077 -1.57947 -0.0117507  -0.0434465 -1.52655 -0.0143962  -0.111617 -1.55551 -0.0106206  -0.0902553 -1.50275 -0.0130095  -0.0440369 -1.52786 -0.0125933  -0.0908408 -1.50409 -0.0113654  -0.153994 -1.65726 -0.0105367  -0.106742 -1.68263 -0.0101657  -0.0849357 -1.62989 -0.0125136  -0.154392 -1.65836 -0.00921154  -0.132328 -1.60575 -0.0113335  -0.0854161 -1.63106 -0.0109477  -0.132806 -1.60694 -0.00990105  -0.198273 -1.76016 -0.00904417  -0.150479 -1.78563 -0.00870466  -0.128069 -1.73314 -0.0107646  -0.19858 -1.76112 -0.00790787  -0.17595 -1.70871 -0.00978184  -0.128432 -1.73415 -0.00942039  -0.176319 -1.70975 -0.00854969  -0.243763 -1.86289 -0.00766373  -0.195484 -1.88841 -0.00734568  -0.172551 -1.83618 -0.00914621  -0.243961 -1.86372 -0.00670052  -0.220858 -1.81154 -0.00834227  -0.172833 -1.83705 -0.00801039  -0.22113 -1.81245 -0.00729084  -0.290195 -1.96538 -0.00639486  -0.241527 -1.99089 -0.00609779  -0.218197 -1.93894 -0.00766039  -0.290314 -1.96608 -0.00558996  -0.266843 -1.91415 -0.00701523  -0.218382 -1.93969 -0.00671244  -0.267023 -1.91493 -0.00613117  -0.337411 -2.06755 -0.00524426  -0.288426 -2.09304 -0.00498533  -0.264766 -2.04138 -0.00631809  -0.337468 -2.06815 -0.00458479  -0.313694 -2.01648 -0.00580359  -0.264878 -2.04201 -0.00553989  -0.3138 -2.01715 -0.00507498  -0.385237 -2.16938 -0.00419998  -0.335998 -2.19479 -0.0039649  -0.312099 -2.14342 -0.00508642  -0.385223 -2.16988 -0.00366735  -0.361232 -2.11849 -0.0047102  -0.312131 -2.14396 -0.00446272  -0.36127 -2.11906 -0.00411987  -0.433509 -2.27084 -0.00326586  -0.384073 -2.29612 -0.00306416  -0.359985 -2.24507 -0.004004  -0.433442 -2.27124 -0.00285864  -0.409297 -2.22014 -0.00372171  -0.35998 -2.24551 -0.00351  -0.409283 -2.22061 -0.00325251  -0.482086 -2.37189 -0.00244999  -0.432518 -2.39705 -0.00226974  -0.408297 -2.34629 -0.00302982  -0.481987 -2.37222 -0.00214481  -0.457736 -2.32139 -0.00284719  -0.408254 -2.34664 -0.00266171  -0.457682 -2.32178 -0.00248384  -0.530865 -2.47254 -0.0017519  -0.481209 -2.49755 -0.00161791  -0.456918 -2.44709 -0.0021944  -0.530744 -2.4728 -0.00153589  -0.506432 -2.42226 -0.00208426  -0.456842 -2.44736 -0.00192881  -0.506346 -2.42256 -0.00182724  -0.579733 -2.57278 -0.00116348  -0.530046 -2.59763 -0.00104713  -0.505714 -2.54744 -0.00148869  -0.579595 -2.57298 -0.00101423  -0.555268 -2.5227 -0.00144148  -0.505613 -2.54764 -0.00131845  -0.555161 -2.52293 -0.00126171  -0.628588 -2.67263 -0.00066328  -0.578908 -2.69732 -0.000596523  -0.554583 -2.64738 -0.000896454  -0.628461 -2.67277 -0.000587463  -0.60414 -2.62274 -0.00089407  -0.554473 -2.64752 -0.000806808  -0.604027 -2.62292 -0.000787258  -0.677402 -2.7721 -0.000261784  -0.627738 -2.7967 -0.000244617  -0.60341 -2.74693 -0.000464916  -0.677284 -2.77222 -0.000235081  -0.652975 -2.72238 -0.000460148  -0.603326 -2.74704 -0.000420094  -0.652877 -2.72253 -0.000404358  -0.726184 -2.87132 0.000101089  -0.676535 -2.89587 7.20024e-05  -0.652204 -2.84619 -9.77516e-05  -0.72607 -2.87143 8.91685e-05  -0.701763 -2.82171 -8.05855e-05  -0.652129 -2.8463 -8.7738e-05  -0.701677 -2.82185 -7.34329e-05  
SCALARS smooth_stress float 1
LOOKUP_TABLE default
68.5211 117.985 96.7249 91.0197 86.0104 79.9109 72.3845 68.5691 63.1466 55.0916 49.7361 45.8135 42.0834 37.5036 32.8573 30.6082 27.2542 25.4468 24.106 19.6756 16.6053 15.0631 14.4522 14.4774 13.3827 11.3891 9.97435 10.4171 11.0244 10.6361 10.123 10.2644 5.48431 108.084 189.776 156.653 147.123 144.379 137.3 125.926 118.538 109.435 98.2416 89.7802 82.6672 75.0881 67.6327 60.7039 55.7636 50.415 46.7402 43.6052 37.5103 33.0005 30.653 29.3853 28.8407 25.9643 21.9888 20.7332 21.6174 21.1045 21.0252 20.1696 19.3598 10.3515 63.9356 113.39 96.0112 96.1084 102.446 102.808 97.0048 90.5462 84.9361 78.713 72.754 67.049 58.7181 54.5541 50.8406 47.0479 44.9718 41.1341 37.4915 33.5902 32.5318 32.535 29.9578 28.5968 27.4046 25.2418 23.1599 21.961 23.3752 22.3649 20.1331 19.8498 9.81836 34.9012 66.579 68.4228 78.5261 84.4319 86.0587 84.6557 78.9129 73.7731 69.941 65.5639 59.4947 53.3455 49.1773 44.1413 42.9949 42.5775 39.2826 36.6578 34.953 35.194 33.3418 30.495 30.247 30.597 29.3531 24.76 23.4213 26.5936 23.4445 21.0705 21.8732 10.4204 22.7306 58.9119 79.7737 90.7815 93.4804 92.1283 90.5876 85.6499 78.1666 72.3332 67.1175 61.991 58.7103 52.9062 49.2822 50.0749 46.3506 42.1343 39.3308 38.7696 38.793 34.3036 32.0613 31.6421 30.5819 29.4149 27.5138 27.1199 25.2618 22.1456 21.1495 21.149 10.5644 39.7643 96.8802 120.147 125.826 123.989 119.21 113.082 106.649 98.0809 89.883 81.2439 73.5351 68.9711 63.7191 61.127 59.6114 53.4988 47.5021 45.6325 44.2914 40.6736 36.6572 34.2443 33.734 32.9285 30.4603 29.083 26.9024 23.9318 22.7359 21.5979 20.2992 9.90064 73.6468 159.156 172.723 170.33 161.898 152.793 143.013 133.276 122.815 113.039 103.34 92.6318 84.8546 77.8702 70.2684 65.2248 61.5667 55.5592 52.5037 49.9565 42.1536 39.6699 37.7051 35.2805 34.7507 32.0574 28.3796 26.4909 25.1924 22.9135 21.7696 20.8131 10.4824 113.419 231.279 229.413 216.368 204.248 193.133 179.59 165.558 151.568 136.218 123.738 113.544 104.201 94.7779 84.2951 76.3112 71.7983 66.0709 59.2136 54.4922 47.6588 43.8831 40.6706 36.4827 35.2141 33.073 29.2539 27.659 26.3538 22.5688 20.6112 22.4736 12.6473 67.3342 135.072 129.403 119.604 113.211 108.061 100.265 91.6168 83.7936 75.1068 67.3777 61.7552 57.2389 52.473 47.0187 41.7254 38.1464 35.3213 31.6771 29.2551 26.4431 22.9635 20.6188 19.3075 18.5842 16.772 14.8025 13.6112 13.1299 11.7144 10.274 11.9295 6.97032 125.287 233.706 210.857 196.284 181.105 166.357 150.586 138.189 126.159 111.763 100.626 90.6973 82.0101 74.9773 65.9058 60.5512 54.6025 48.4928 45.8033 40.7593 37.0384 33.0596 28.4673 25.8717 24.8936 23.5747 20.8164 20.4623 21.5129 21.3332 19.6561 19.9047 10.6561 191.287 370.186 346.591 323.877 304.552 284.686 262.338 241.42 219.898 199.041 179.863 162.43 147.556 135.102 120.798 110.394 100.992 88.7783 82.3511 76.135 69.8837 62.7897 56.6963 54.0059 49.3671 46.3386 44.8017 44.4718 43.6776 42.6431 40.1529 38.8849 20.3789 107.994 219.237 219.549 215.46 213.673 209.157 197.842 180.862 167.563 155.383 140.796 128.984 117.069 108.01 99.5802 92.6034 87.7456 79.0492 72.1951 68.795 65.0629 61.3581 57.7842 56.9831 53.2673 49.2634 48.112 45.8784 45.7836 43.911 42.5058 42.3298 20.7415 62.9189 136.218 155.286 168.383 171.83 172.065 166.344 152.658 143.838 134.595 122.531 112.012 103.904 95.1421 86.0078 84.1806 81.6934 77.0802 72.1391 68.3227 67.6684 63.7212 60.0294 60.8067 60.5772 55.9785 50.0342 48.8466 49.9538 45.5976 43.1264 44.1331 21.8594 45.6388 122.813 168.687 186.102 186.747 181.234 176.542 166.468 152.347 141.033 128.823 116.6 111.127 102.894 94.1152 94.0009 88.0387 83.7998 78.6121 72.8842 73.7492 67.9583 64.4477 64.0859 62.1901 59.4273 55.0712 54.1395 51.7577 46.8398 43.2354 42.02 21.1708 76.398 193.053 246.455 255.011 245.989 233.771 222.679 208.21 188.754 174.324 158.812 142.104 133.525 125.223 117.649 113.157 101.023 94.8388 91.7278 84.6942 79.4348 74.5352 69.3097 65.547 64.9124 62.1893 57.295 52.8313 49.4697 46.0803 43.3153 41.3997 20.219 135.018 310.781 353.444 344.679 323.788 304.513 285.266 263.457 240.858 220.544 202.299 183.854 167.958 154.266 140.993 129.43 118.127 109.567 105.069 97.6503 85.0909 80.2704 75.3197 69.7684 68.5835 63.3547 55.522 52.5674 49.3447 44.0884 43.3084 42.6349 21.4352 210.572 448.884 463.373 437.32 411 384.411 357.15 330.21 301.722 272.2 247.626 226.603 207.346 189.286 169.704 152.035 141.086 130.756 118.354 107.064 93.8997 86.1409 81.7554 75.8269 69.4119 62.9559 55.6479 51.3104 49.6966 45.5449 43.9563 45.3193 23.567 127.238 261.806 259.167 242.066 228.057 213.672 198.274 183.522 167.286 151.437 136.289 123.013 114.166 104.605 93.565 83.1815 76.2801 70.5454 62.8927 56.1275 49.9454 44.5407 41.7719 39.4774 35.3341 31.8422 28.257 24.4124 24.399 23.6935 21.8451 22.8476 12.0207 111.922 228.483 229.376 216.853 195.55 176.511 161.491 144.297 126.839 112.935 103.581 92.139 80.9697 74.0822 66.4363 60.4004 54.1353 47.0177 42.9238 40.926 38.2773 32.3126 28.4692 26.6609 25.852 24.2235 21.7664 19.227 18.7449 21.4649 20.4567 19.4478 10.1899 162.083 354.983 382.507 364.31 330.409 301.712 278.945 252.206 224.45 202.085 182.698 161.941 144.676 132.1 119.764 110.053 100.615 87.444 79.9214 75.0543 69.9093 63.9142 58.2818 54.1647 49.8089 47.6979 45.5915 42.5532 42.5947 42.6537 40.095 39.5435 20.0644 83.2556 206.624 251.434 247.119 229.088 215.065 202.008 183.849 167.19 154.253 136.826 121.729 114.123 106.246 97.8162 89.117 83.7423 77.2551 71.9049 69.2156 64.3699 61.2467 59.2655 57.8618 53.1229 50.2321 49.2132 46.9086 45.2445 41.9946 41.8376 44.0251 22.2991 53.9076 138.123 178.908 184.922 177.521 170.602 159.694 146.477 136.015 126.157 112.829 101.666 98.1068 92.2424 85.3446 80.423 76.7855 75.4789 71.132 67.3128 65.2644 61.4002 60.3454 61.6264 59.4206 54.6857 50.7904 51.5417 49.8036 45.9354 44.4333 44.7658 23.0579 48.4223 134.54 185.754 195.581 187.746 177.097 166.656 155.981 142.653 131.483 119.963 108.92 104.071 97.3724 90.7862 87.5275 83.2159 83.1891 78.3866 69.9776 69.8499 67.1312 64.3462 64.1144 61.7273 58.9398 53.7108 54.3424 54.5265 49.1385 44.8984 42.3363 20.9569 73.4161 194.413 255.812 261.158 245.375 226.875 213.737 199.419 176.749 162.796 151.384 136.811 127.057 119.124 112.52 105.218 97.0959 94.0362 88.5263 80.1671 76.3238 74.0595 68.9409 64.4754 62.327 60.9376 55.2074 51.4372 49.5737 45.8878 43.986 40.6952 19.4795 118.964 293.659 356.3 349.681 325.985 304.149 282.946 258.684 231.865 211.615 196.511 179.502 163.412 150.191 138.036 126.106 115.504 107.927 101.571 93.2468 83.9999 79.5152 73.6865 68.0455 64.674 60.8802 54.9822 52.0138 49.0879 45.1532 45.1951 41.8093 19.4578 190.535 425.588 465.098 445.706 416.373 385.971 356.162 328.515 299.075 269.786 246.331 225.792 205.927 187.635 169.05 151.621 138.772 128.892 118.447 105.434 94.0692 85.5276 80.6265 75.9397 66.1428 60.3905 55.6304 52.0241 50.3896 45.2385 44.1951 43.7278 20.9621 117.378 249.8 259.461 246.863 231.309 212.338 195.437 183.806 167.743 150.538 136.36 123.919 113.191 103.209 93.6033 84.1647 76.6699 70.4623 63.2412 54.602 49.0696 44.6958 42.4272 39.5236 32.3232 29.4362 27.5471 25.0642 24.7579 21.9642 20.3216 21.1138 10.6602 109.432 223.545 226.186 218.292 199.677 181.814 167.816 148.346 128.244 114.337 106.394 96.2744 82.1631 72.5909 66.8681 60.2016 52.9448 46.8138 43.3487 39.4314 34.398 30.5377 30.5456 29.3782 25.7686 23.9633 21.3965 17.9744 18.8188 20.969 19.6909 17.8393 8.61788 156.799 347.301 379.285 368.768 342.013 314.129 288.607 257.698 226.846 202.734 184.676 165.277 144.197 127.98 119.5 109.961 97.187 86.6773 80.1701 72.5197 66.2418 63.9198 61.467 57.2 50.8768 46.2724 44.2004 39.8855 41.0663 42.2871 38.9942 38.5089 18.9914 76.6518 201.841 256.626 256.878 241.903 223.941 205.279 187.239 169.161 152.7 135.23 120.189 111.954 102.386 95.7251 88.3918 80.9855 75.2517 72.456 67.5035 61.7547 62.5559 59.9042 56.9 54.191 49.9471 48.6424 47.0102 45.6365 42.5754 39.2204 42.0073 21.9974 50.26 138.909 188.709 195.976 184.918 170.348 156.184 145.766 133.901 121.553 109.818 100.572 97.12 90.2447 83.703 79.4871 74.676 72.0018 72.2541 67.2673 60.1653 59.0514 59.4719 59.0392 57.4693 55.2123 51.2828 50.2125 49.6804 46.3294 43.2238 43.3573 22.4894 50.2839 141.351 195.394 203.633 190.143 175.328 162.813 151.75 137.281 123.309 114.732 109.24 104.56 94.5294 87.8881 86.1101 80.5673 77.4327 74.848 70.3432 66.8896 63.0196 61.6265 61.6294 59.1398 58.7056 53.754 51.3105 53.2154 48.8628 45.3549 43.0611 21.1254 72.8899 194.739 259.73 266.319 245.289 225.159 211.24 195.238 173.119 158.238 148.873 137.725 127.998 116.564 108.16 102.433 97.3581 90.5013 82.6902 80.9743 75.3048 68.1812 65.7216 64.1332 60.9221 59.5823 54.3821 50.2847 51.2351 48.019 43.9287 39.8359 19.086 114.421 283.343 353.075 353.67 328.33 304.59 280.168 254.252 228.125 211.303 197.348 177.954 162.475 147.947 133.685 123.731 116.005 107.077 98.5973 91.6105 82.8556 76.951 71.1741 65.8293 62.2526 58.5287 54.3501 52.2688 51.7469 47.9115 43.2898 38.4308 17.4998 185.56 415.466 461.733 447.562 417.479 387.923 355.742 324.026 294.434 267.462 245.663 223.246 203.37 184.721 165.649 152.265 138.61 126.521 117.342 104.907 95.4264 87.9421 79.3426 71.9788 64.0173 58.9035 54.14 53.8454 53.2842 45.3852 42.1858 40.6151 18.7894 114.721 246.334 258.175 246.152 229.647 211.885 195.697 181.14 165.488 148.338 135.325 123.162 111.535 102.056 92.8464 85.7114 77.3285 69.1259 63.2067 56.78 51.2404 46.0303 42.7526 38.6143 31.9335 28.8258 25.8623 25.6641 25.8484 21.7021 20.7764 20.9787 10.1156 110.267 223.003 223.814 217.151 200.948 182.303 166.484 147.578 129.774 115.892 104.776 94.1642 82.1797 73.2549 66.7992 59.8949 52.8669 46.5592 44.619 41.0356 36.4498 33.831 30.0305 26.5841 22.471 21.2728 20.0634 18.9622 21.0369 20.3021 18.028 16.5274 7.70737 158.187 347.067 375.928 367.388 345.729 316.393 287.935 258.294 228.285 202.611 182.254 163.469 144.268 129.27 119.814 109.735 95.9155 85.0812 82.0903 75.8751 68.804 64.4346 57.7604 52.4157 47.3205 43.414 42.5677 41.5224 41.4974 39.8038 37.771 37.5867 18.2342 75.0157 200.319 256.275 259.515 247.307 229.285 209.607 190.217 172.328 152.114 135.671 124.239 113.451 102.02 95.1685 89.5924 79.9166 73.3798 72.9536 67.3274 59.8649 59.811 56.412 54.1593 54.1103 47.0089 46.9704 48.5269 44.5982 41.8106 39.9089 40.3548 20.1239 49.8031 139.724 191.453 201.488 190.242 175.585 159.192 145.537 136.81 121.659 110.836 106.191 99.2046 89.5186 83.3477 79.8769 73.6046 69.1862 70.0831 66.1675 58.7214 59.2517 60.1096 59.2521 59.3731 54.2135 51.0792 50.6182 47.7797 46.3919 42.5962 38.5182 18.944 51.7768 142.814 196.153 205.774 192.739 179.343 163.679 148.779 137.075 123.15 115.627 110.36 104.238 94.1681 86.4224 85.5151 80.4957 75.7683 73.3289 72.1257 65.38 61.4034 63.0171 60.4634 58.7782 59.1805 53.9363 49.981 50.3906 47.1737 43.6566 39.4563 18.7609 73.5417 194.807 258.952 267.86 246.6 227.618 213.483 194.565 175.986 160.594 149.118 136.334 127.783 118.217 106.45 101.783 96.7536 89.8824 83.2171 83.4054 75.8364 66.9099 66.407 63.335 60.4712 58.4673 52.6773 48.9778 50.9795 46.9132 42.6659 40.7948 19.5412 113.297 283.321 354.468 356.555 329.487 301.699 277.098 253.855 230.605 211.39 194.622 176.822 161.778 147.899 134.209 123.107 112.907 103.96 97.05 92.0147 86.9383 78.3065 70.4891 65.7709 62.2144 56.8174 50.8181 48.9453 49.5128 46.3255 41.9919 39.7993 19.1016 181.739 410.637 459.642 446.237 415.286 384.032 351.379 319.294 290.074 264.418 243.523 220.986 199.582 180.189 163.492 150.217 135.558 121.077 111.515 103.769 96.7559 87.7312 77.2927 69.7975 63.8106 58.9916 52.3779 51.0002 50.0303 43.791 42.1683 40.991 18.9351 112.913 242.778 255.265 243.979 227.378 210.999 195.121 177.262 161.373 146.736 135.034 121.395 109.191 99.8521 90.5047 83.5021 75.6453 65.5599 58.9542 56.7138 51.4847 44.9756 41.6211 37.8225 33.4014 30.8068 26.914 25.7033 24.7486 21.2881 21.616 21.7529 9.96063 111.244 224.517 225.529 218.816 201.058 181.211 165.197 146.748 130.704 117.296 102.134 90.0403 81.4928 74.4022 67.6082 61.0408 54.4184 47.7103 44.4477 42.1488 38.5798 33.3064 26.9702 25.9515 24.5529 20.825 20.1602 20.2969 20.518 19.7649 18.6225 18.9293 9.76922 159.498 348.587 378.738 369.946 343.966 313.338 284.381 254.531 227.71 204.079 179.73 160.139 144.877 130.855 120.152 110.455 98.2818 86.8514 82.3681 79.1423 72.7685 62.1198 51.8696 50.6624 48.4785 42.2069 42.3766 42.9335 41.0834 39.2831 38.7232 38.9216 19.0478 76.3736 201.42 256.825 258.464 242.864 226.468 206.55 185.536 168.933 151.682 137.361 126.271 115.469 103.253 94.8662 90.1912 81.728 73.8246 71.921 69.9014 65.6733 60.5379 55.8709 54.0935 52.0645 46.9333 47.1915 47.6037 43.7909 42.1563 42.0247 40.1851 19.0141 51.0577 140.551 190.386 197.858 186.864 175.485 158.892 143.468 135.443 122.206 113.095 107.311 97.5077 89.8086 84.0594 79.5214 75.5515 70.4598 68.5399 68.374 66.5178 65.3748 63.6547 61.2268 58.7561 55.7211 51.9059 48.9572 46.604 45.2156 42.5951 37.653 17.7632 51.3518 142.483 195.687 202.717 191.66 180.249 162.683 146.331 137.196 126.928 118.682 110.351 102.138 95.1921 89.8996 84.9555 80.7883 78.7922 76.3092 75.4941 70.3218 67.4245 64.9137 60.174 58.9012 59.0004 54.5585 52.3948 50.5809 43.5205 39.6481 36.0886 16.7761 72.8701 196.366 259.795 265.383 248.543 229.007 210.172 193.094 176.73 161.871 149.325 134.146 125.095 118.788 109.953 101.502 94.5329 91.2842 86.8215 83.5816 77.7911 73.2523 67.7462 62.306 58.8186 54.2551 51.0305 51.49 51.5675 43.7771 39.8831 40.1152 19.5425 112.274 283.701 352.602 352.052 328.744 300.287 275.477 255.865 232.879 210.904 192.081 174.333 159.202 147.613 136.774 123.249 112.494 104.459 98.7105 92.6277 88.1 81.1739 70.2867 66.1331 58.811 52.0359 50.1657 49.3079 50.1229 47.1797 44.3611 41.1538 18.99 180.699 408.787 456.1 442.348 412.884 383.308 352.901 321.92 291.885 265.766 243.288 221.794 200.659 181.109 166.363 148.665 133.321 120.11 109.727 103.685 96.9336 87.1612 76.5254 69.8173 61.5464 58.7009 57.5703 54.6052 50.6396 45.5236 43.2192 38.0969 17.1358 112.882 242.17 254.377 243.486 227.93 212.922 196.439 178.534 162.055 147.112 135.182 122.394 109.837 100.1 91.3804 80.7071 72.2584 63.9195 56.0679 54.6112 51.3362 45.4655 41.7544 37.6604 33.27 32.0894 30.8074 28.3825 24.8818 21.178 19.7642 18.4299 8.9398 111.248 224.46 223.48 213.876 195.096 177.123 161.749 142.728 128.36 116.572 102.95 91.0101 80.5042 73.47 68.1594 61.8042 54.513 46.3902 41.6386 39.5439 35.9534 31.6071 28.7935 28.6838 25.5638 21.1807 20.7747 19.9694 20.3098 21.1146 20.0894 19.1042 9.45514 162.415 350.62 374.813 361.701 333.578 305.187 278.245 246.278 222.023 203.045 180.211 161.234 144.177 129.538 119.325 109.454 98.3635 85.3981 78.6021 76.0523 69.3311 60.6801 54.783 55.2893 50.631 42.5932 44.0092 43.5633 44.0528 45.9694 40.3097 36.0472 17.7806 80.2349 203.809 253.004 250.762 233.879 218.976 200.601 180.157 164.602 151.569 137.507 126.318 117.354 104.703 94.1254 89.0283 84.1897 75.8054 71.238 70.3386 66.7688 60.8124 57.7351 55.4158 50.8421 47.589 48.2325 46.7412 46.4055 47.8832 42.6305 37.6913 18.2495 49.0576 137.057 184.955 189.996 181.544 170.588 155.977 144.895 136.989 126.379 114.507 105.454 99.0043 93.6452 86.7675 81.4217 78.5874 73.258 68.5948 67.8028 69.3932 65.915 62.4069 60.7045 56.4908 56.5425 53.124 45.8644 44.8618 45.2017 41.9606 38.8558 19.3606 46.5031 135.922 190.156 197.126 190.161 176.21 161.522 150.444 140.357 131.627 120.867 111.313 104.265 98.9768 94.2264 87.3448 80.3468 79.0507 75.7555 71.6796 71.8098 69.7151 64.077 62.6592 60.8338 60.7413 57.1202 51.1866 49.9803 46.0498 40.9458 36.8817 18.002 70.7532 191.474 255.649 261.086 245.478 226.738 209.843 193.965 175.805 164.309 153.941 138.31 126.971 118.304 112.4 103.386 92.5263 91.5459 88.0216 80.3111 75.855 74.6522 70.1189 65.441 59.0575 55.9631 55.1324 52.793 51.3107 46.249 42.7521 39.5111 18.4222 115.472 286.428 352.394 350.52 326.482 302.053 277.211 254.976 233.573 215.005 197.621 176.315 158.917 146.993 139.078 126.889 115.734 108.429 99.9412 90.7122 84.0115 80.3592 74.3557 69.2022 59.8308 54.6615 55.6128 51.6164 50.0688 48.8377 44.6305 39.7279 17.7926 186.738 420.584 463.965 444.411 413.755 387.83 355.107 322.122 296.776 269.682 246.44 224.267 202.109 183.662 169.718 152.134 136.496 125.686 113.227 103.494 94.6423 86.0334 78.4713 70.9544 63.4007 59.6099 58.3416 54.3162 51.8322 49.6446 43.4627 36.1051 16.0514 115.507 249.116 260.348 244.909 228.738 215.982 198.088 178.955 164.701 148.641 136.154 124.308 111.222 101.007 92.6217 81.3285 71.1898 66.2126 59.8723 55.3855 50.6782 44.7868 40.8188 36.4281 32.5096 30.5361 28.8669 27.0233 25.293 23.1796 20.1888 17.114 8.11555 114.751 227.444 218.764 203.401 186.026 170.105 154.394 138.099 125.25 114.297 103.092 91.4191 80.5717 73.1864 67.3209 61.4808 54.1441 46.2821 41.1735 38.1532 35.133 33.3525 32.2789 29.5433 25.6911 22.7722 20.9927 19.1812 19.6653 20.8617 19.1161 16.3941 7.60975 173.846 360.056 363.361 342.41 316.122 290.023 265.482 239.352 219.863 203.079 183.286 163.46 144.983 131.835 121.121 110.369 98.7514 86.6563 79.435 73.4516 65.8176 62.204 60.5905 56.089 49.8405 46.5849 46.2447 43.2262 44.405 46.4147 39.5556 35.6524 18.1589 90.4953 208.952 236.644 231.924 220.314 207.119 194.54 180.797 168.224 157.277 142.84 129.1 117.918 108.132 99.536 92.0941 86.8208 80.9604 73.7061 67.1553 63.8586 60.3372 59.5427 56.042 51.0008 51.4077 51.1524 48.0068 46.8308 47.2565 42.1598 39.7284 20.7067 50.9551 129.842 165.39 174.365 175.648 168.607 157.001 150.184 141.734 130.559 119.041 110.654 104.485 98.346 92.3728 86.7563 82.5097 79.367 72.5055 66.9895 69.617 65.8904 63.0399 62.0668 58.7812 57.908 54.2282 49.1525 45.2225 44.5962 41.9315 39.8263 20.6481 44.1443 124.451 174.142 188.824 189.709 179.682 167.13 156.505 145.382 133.417 123.429 117.787 110.445 103.709 98.2899 92.3805 83.557 81.3081 79.3047 74.0297 74.7778 71.986 66.9401 65.6658 62.2714 61.4427 59.2812 53.2407 48.2873 47.4764 44.3965 39.4613 19.8776 72.4075 187.427 247.249 257.334 244.15 230.686 217.666 198.541 180.29 169.789 159.369 143.951 130.225 122.638 114.52 105.335 96.4878 93.0382 89.9151 83.9573 80.2601 75.231 71.6695 69.2784 61.236 60.6624 59.2144 52.1967 47.1829 48.2594 48.4297 39.4326 17.4854 126.552 296.488 350.737 350.842 325.677 303.186 280.711 255.191 234.657 219.175 203.988 182.784 161.891 151.52 143.281 130.635 120.727 110.715 100.505 92.7886 86.8433 78.5451 76.2386 72.4717 64.8178 64.1695 57.0459 49.0024 47.559 48.0382 46.1836 39.0727 17.2107 199.433 436.682 467.551 446.469 414.738 387.38 356.418 322.759 300.058 274.209 249.313 228.48 203.988 184.569 171.842 157.017 140.998 128.534 115.409 104.234 97.0569 86.0128 79.5372 73.1006 67.4501 64.4544 55.2608 50.5211 52.0825 46.798 40.6358 39.0313 18.4817 120.698 256.671 263.264 245.587 228.932 216.604 199.792 180.243 168.431 153.47 137.661 125.455 112.855 100.84 91.4286 82.8876 73.4972 68.3296 62.575 56.5057 52.1388 45.1175 39.8369 36.8119 33.5267 29.8178 26.4758 25.6655 26.5506 22.4356 18.6966 19.2862 9.36938 58.7555 115.281 107.942 97.8948 90.2616 83.6404 75.8846 68.2101 62.2365 57.2029 51.2018 45.3044 40.5008 36.8461 33.4508 30.5668 27.3404 23.8851 21.4858 19.3115 17.8633 17.4425 16.5166 14.3387 13.6367 13.069 10.787 9.33912 9.39898 9.41106 8.38839 7.72351 3.81628 90.6625 183.682 178.074 164.479 152.558 141.585 129.757 117.685 110.124 102.952 92.6125 81.9953 73.4024 67.231 61.9632 56.1728 49.9039 44.2999 40.1054 36.7565 33.6666 31.3513 30.413 27.2471 24.8383 25.709 24.7219 21.2607 20.9829 21.1758 19.0805 19.4307 10.1463 49.0733 107.307 112.92 109.222 106.033 100.551 94.9905 89.666 84.825 80.3928 73.4686 65.208 58.7638 54.2579 51.7567 48.4948 44.4595 41.5115 36.6902 32.8835 32.814 30.3839 29.7316 27.9849 25.0438 27.4797 27.5224 24.3614 22.4185 21.8458 21.4006 22.3295 11.969 27.5222 64.0375 76.033 81.65 85.52 83.6694 78.9015 76.2531 71.3291 64.7778 60.7486 57.7437 53.355 48.9577 46.542 45.2289 42.8757 41.7032 38.9708 34.7173 35.3955 34.1292 32.839 31.3095 29.7024 30.025 27.6975 25.7233 22.4221 20.7653 20.8162 20.9569 10.9772 21.9861 58.9096 82.0738 92.0137 94.1326 91.714 86.7239 80.2012 73.9553 66.0941 62.0905 61.3933 56.9853 52.9013 49.4755 46.9849 42.5423 41.1904 42.2722 40.1988 39.9056 37.8351 34.4265 32.6759 30.5813 30.2997 30.3838 28.4555 23.6822 22.1919 21.9846 20.8077 10.6657 37.0902 94.0112 122.67 128.118 122.528 118.182 111.612 100.485 92.2712 86.6406 80.6927 72.9343 66.0608 63.8487 57.787 52.4298 49.5269 46.696 45.7571 45.0324 44.1019 38.921 34.7359 34.2794 31.1048 30.8609 29.822 26.6923 23.6596 24.3498 24.555 19.4831 8.98955 66.8859 151.749 173.973 174.157 162.688 151.883 141.354 127.973 117.661 110.877 103.622 93.6542 82.5631 78.3933 73.1405 65.717 61.6417 55.9425 51.8161 48.7469 45.7864 39.0896 36.7827 35.9034 32.9952 33.6723 27.2911 24.0801 24.9115 23.9879 23.5559 19.1426 8.30132 103.833 221.731 230.639 220.977 206.439 192.056 179.972 163.426 150.604 139.532 125.859 115.534 103.545 93.4215 87.0034 79.6989 71.3904 64.1947 58.4284 52.7025 50.1904 44.0819 40.0994 37.5493 33.8574 32.9499 27.0151 25.2826 27.0969 22.0086 19.5598 19.765 9.37801 62.4067 130.214 130.507 121.936 113.93 107.704 101.29 91.7993 85.6506 79.3357 69.5301 62.6475 57.5503 51.0604 45.472 41.7669 37.7129 34.3642 30.9974 28.068 26.9852 23.7322 20.6299 19.4822 17.2459 15.0241 13.2722 12.7226 13.7504 10.8629 8.68205 9.63225 4.73874 68.5211 117.985 125.287 68.5211 68.5211 117.985 233.706 125.287 108.084 189.776 191.287 108.084 68.5211 68.5211 117.985 125.287 68.5211 108.084 68.5211 49.4638 96.7249 108.419 96.7249 210.857 81.6928 156.653 178.899 49.4638 49.4638 96.7249 108.419 81.6928 49.4638 47.2612 91.0197 102.438 91.0197 196.284 74.9603 147.123 167.692 47.2612 47.2612 91.0197 102.438 74.9603 47.2612 43.7585 86.0104 93.8457 86.0104 181.105 72.1631 144.379 156.185 43.7585 43.7585 86.0104 93.8457 72.1631 43.7585 42.2519 79.9109 87.2592 79.9109 166.357 72.2158 137.3 148.366 42.2519 42.2519 79.9109 87.2592 72.2158 42.2519 37.659 72.3845 79.0978 72.3845 150.586 65.0838 125.926 136.32 37.659 37.659 72.3845 79.0978 65.0838 37.659 34.7255 68.5691 71.4884 68.5691 138.189 60.8423 118.538 126.018 34.7255 34.7255 68.5691 71.4884 60.8423 34.7255 33.8436 63.1466 66.7006 63.1466 126.159 57.6958 109.435 115.402 33.8436 33.8436 63.1466 66.7006 57.6958 33.8436 29.303 55.0916 59.4579 55.0916 111.763 51.7393 98.2416 104.496 29.303 29.303 55.0916 59.4579 51.7393 29.303 25.7886 49.7361 52.3048 49.7361 100.626 46.5023 89.7802 94.5449 25.7886 25.7886 49.7361 52.3048 46.5023 25.7886 23.9476 45.8135 48.3217 45.8135 90.6973 43.2779 82.6672 85.3184 23.9476 23.9476 45.8135 48.3217 43.2779 23.9476 21.8659 42.0834 42.3757 42.0834 82.0101 39.3892 75.0881 77.112 21.8659 21.8659 42.0834 42.3757 39.3892 21.8659 20.2175 37.5036 39.6344 37.5036 74.9773 35.6989 67.6327 70.4436 20.2175 20.2175 37.5036 39.6344 35.6989 20.2175 17.2861 32.8573 35.3429 32.8573 65.9058 31.9338 60.7039 64.658 17.2861 17.2861 32.8573 35.3429 31.9338 17.2861 15.5712 30.6082 30.5629 30.6082 60.5512 28.7701 55.7636 56.1402 15.5712 15.5712 30.6082 30.5629 28.7701 15.5712 15.0369 27.2542 29.9883 27.2542 54.6025 26.9936 50.415 54.2542 15.0369 15.0369 27.2542 29.9883 26.9936 15.0369 12.2173 25.4468 24.6143 25.4468 48.4928 23.4214 46.7402 46.738 12.2173 12.2173 25.4468 24.6143 23.4214 12.2173 13.2295 24.106 23.8785 24.106 45.8033 23.3188 43.6052 42.0403 13.2295 13.2295 24.106 23.8785 23.3188 13.2295 10.8765 19.6756 21.9248 19.6756 40.7593 20.2864 37.5103 40.3107 10.8765 10.8765 19.6756 21.9248 20.2864 10.8765 8.79915 16.6053 18.8346 16.6053 37.0384 17.2239 33.0005 35.8242 8.79915 8.79915 16.6053 18.8346 17.2239 8.79915 7.80619 15.0631 18.2038 15.0631 33.0596 15.7766 30.653 34.0595 7.80619 7.80619 15.0631 18.2038 15.7766 7.80619 7.2569 14.4522 14.8558 14.4522 28.4673 14.8764 29.3853 28.7302 7.2569 7.2569 14.4522 14.8558 14.8764 7.2569 7.19535 14.4774 13.6115 14.4774 25.8717 14.5089 28.8407 27.9661 7.19535 7.19535 14.4774 13.6115 14.5089 7.19535 7.28209 13.3827 12.2602 13.3827 24.8936 14.3318 25.9643 26.0398 7.28209 7.28209 13.3827 12.2602 14.3318 7.28209 6.10056 11.3891 12.6334 11.3891 23.5747 11.6325 21.9888 23.3274 6.10056 6.10056 11.3891 12.6334 11.6325 6.10056 5.28852 9.97435 10.9413 9.97435 20.8164 10.3563 20.7332 23.0113 5.28852 5.28852 9.97435 10.9413 10.3563 5.28852 4.68583 10.4171 9.87514 10.4171 20.4623 10.3768 21.6174 21.7904 4.68583 4.68583 10.4171 9.87514 10.3768 4.68583 5.73126 11.0244 10.5871 11.0244 21.5129 11.2406 21.1045 22.6814 5.73126 5.73126 11.0244 10.5871 11.2406 5.73126 5.29316 10.6361 10.9257 10.6361 21.3332 9.86396 21.0252 20.9962 5.29316 5.29316 10.6361 10.9257 9.86396 5.29316 5.34295 10.123 10.4075 10.123 19.6561 11.1612 20.1696 21.6469 5.34295 5.34295 10.123 10.4075 11.1612 5.34295 4.78004 10.2644 9.2486 10.2644 19.9047 9.00838 19.3598 18.506 4.78004 4.78004 10.2644 9.2486 9.00838 4.78004 5.48431 5.48431 10.6561 5.48431 10.6561 10.3515 10.3515 20.3789 5.48431 5.48431 5.48431 10.6561 10.3515 5.48431 39.5626 71.7916 136.481 66.0007 63.9356 113.39 107.994 63.9356 39.5626 71.7916 66.0007 39.5626 63.9356 39.5626 59.9281 135.734 49.4547 96.0112 111.242 32.229 59.9281 70.48 49.4547 32.229 56.1037 127.593 46.5566 96.1084 108.307 27.6991 56.1037 65.2538 46.5566 27.6991 58.3684 123.447 49.5519 102.446 107.153 28.4046 58.3684 62.3397 49.5519 28.4046 57.3886 118.329 52.8946 102.808 106.52 29.9638 57.3886 61.107 52.8946 29.9638 53.5416 111.752 49.9136 97.0048 102.637 27.4248 53.5416 57.2221 49.9136 27.4248 49.9689 103.231 47.0912 90.5462 95.2045 26.1167 49.9689 54.5299 47.0912 26.1167 46.2885 93.7399 43.455 84.9361 85.658 23.8522 46.2885 48.7015 43.455 23.8522 43.1501 87.2784 41.481 78.713 81.9049 22.4363 43.1501 45.0383 41.481 22.4363 40.0441 79.2368 37.232 72.754 73.4784 20.7137 40.0441 42.2401 37.232 20.7137 36.8537 71.7331 35.522 67.049 67.3174 19.3304 36.8537 36.9967 35.522 19.3304 33.0047 65.5456 31.527 58.7181 61.6663 17.5234 33.0047 34.7364 31.527 17.5234 30.1291 60.1244 27.1911 54.5541 55.4032 15.4814 30.1291 30.8093 27.1911 15.4814 27.8466 54.8923 27.363 50.8406 52.6067 14.6477 27.8466 29.3151 27.363 14.6477 25.1555 49.8432 23.4777 47.0479 46.9735 13.1988 25.1555 25.5772 23.4777 13.1988 23.1608 46.3897 23.5702 44.9718 45.6299 11.9566 23.1608 24.266 23.5702 11.9566 21.2934 40.2855 21.4016 41.1341 42.1157 11.2042 21.2934 22.1237 21.4016 11.2042 19.4992 36.5478 19.7326 37.4915 36.9336 10.0893 19.4992 18.1618 19.7326 10.0893 17.8347 35.3757 17.7589 33.5902 35.2615 9.40996 17.8347 18.386 17.7589 9.40996 16.3952 32.8453 15.8312 32.5318 33.5335 8.42472 16.3952 16.9897 15.8312 8.42472 15.59 29.73 16.7006 32.535 31.5293 7.97045 15.59 15.8557 16.7006 7.97045 14.933 28.229 15.8345 29.9578 29.8287 7.61951 14.933 13.8744 15.8345 7.61951 14.3632 28.1342 14.1233 28.5968 27.9555 7.31351 14.3632 14.3547 14.1233 7.31351 12.5816 24.4735 14.4735 27.4046 29.0276 7.04971 12.5816 13.7795 14.4735 7.04971 10.5997 22.764 12.9311 25.2418 24.2396 5.53192 10.5997 10.6939 12.9311 5.53192 10.7588 23.9853 12.3107 23.1599 25.0238 5.06781 10.7588 12.07 12.3107 5.06781 11.2003 24.0095 10.8491 21.961 23.0882 5.691 11.2003 11.9152 10.8491 5.691 10.0801 22.1648 11.1119 23.3752 22.7902 5.5093 10.0801 12.0943 11.1119 5.5093 10.3891 21.3099 12.2633 22.3649 22.9934 4.57081 10.3891 10.0705 12.2633 4.57081 10.0466 20.4968 10.1016 20.1331 20.9176 5.8183 10.0466 11.2394 10.1016 5.8183 9.09549 18.9802 10.0315 19.8498 21.5882 4.22834 9.09549 9.25742 10.0315 4.22834 4.86715 9.72278 9.81836 9.81836 20.7415 4.86715 4.86715 9.72278 9.81836 4.86715 24.373 41.5986 82.756 41.9937 34.9012 66.579 62.9189 34.9012 24.373 41.5986 41.9937 24.373 34.9012 24.373 36.0831 83.8154 31.6778 68.4228 73.2995 17.2256 36.0831 40.7623 31.6778 17.2256 40.0048 87.8664 36.745 78.5261 81.9869 18.8575 40.0048 43.0531 36.745 18.8575 44.078 90.2261 41.7811 84.4319 86.3961 21.1473 44.078 44.8134 41.7811 21.1473 45.4195 90.8279 42.6508 86.0587 85.4338 22.9307 45.4195 45.4127 42.6508 22.9307 43.4632 86.0897 43.4079 84.6557 86.6307 22.4888 43.4632 45.4152 43.4079 22.4888 40.5773 77.631 41.2478 78.9129 79.7129 20.9744 40.5773 40.6745 41.2478 20.9744 38.6475 73.8231 37.6651 73.7731 72.945 19.6029 38.6475 36.9565 37.6651 19.6029 35.5629 68.105 36.108 69.941 70.8926 19.0447 35.5629 36.8666 36.108 19.0447 32.71 61.559 33.8331 65.5639 63.7027 16.5183 32.71 31.2384 33.8331 16.5183 30.1953 57.2506 31.7308 59.4947 58.8282 16.1917 30.1953 30.3207 31.7308 16.1917 25.7133 51.5239 27.7639 53.3455 53.1839 14.0036 25.7133 26.9299 27.7639 14.0036 24.4249 47.8856 25.5817 49.1773 50.7202 11.7097 24.4249 24.594 25.5817 11.7097 22.9941 44.6879 23.5957 44.1413 44.422 12.7152 22.9941 23.2916 23.5957 12.7152 21.8924 42.7603 20.5456 42.9949 41.5859 10.2788 21.8924 21.3963 20.5456 10.2788 21.811 41.3559 22.4493 42.5775 42.5947 11.6136 21.811 21.364 22.4493 11.6136 19.8407 38.7637 20.1282 39.2826 39.0987 10.1974 19.8407 19.9919 20.1282 10.1974 17.9923 35.6473 19.1543 36.6578 37.9816 9.64331 17.9923 18.7718 19.1543 9.64331 15.7555 33.4194 17.5035 34.953 34.1576 8.34899 15.7555 16.8755 17.5035 8.34899 16.1367 32.2175 17.4496 35.194 34.1651 7.40652 16.1367 16.5439 17.4496 7.40652 16.9451 31.628 17.7444 33.3418 33.5033 8.73014 16.9451 15.6737 17.7444 8.73014 15.0247 29.5552 15.5974 30.495 30.2179 8.21495 15.0247 15.9544 15.5974 8.21495 14.2336 28.8489 14.8977 30.247 29.8115 6.80978 14.2336 13.6008 14.8977 6.80978 14.823 28.7938 15.3493 30.597 30.9952 7.4238 14.823 15.2481 15.3493 7.4238 14.6421 26.4994 15.2477 29.3531 29.582 7.39915 14.6421 13.5457 15.2477 7.39915 12.401 24.1267 14.1054 24.76 26.3965 7.24293 12.401 12.9537 14.1054 7.24293 10.7607 21.8689 10.6546 23.4213 23.6377 5.15811 10.7607 11.173 10.6546 5.15811 13.2951 23.6188 12.7668 26.5936 25.2089 5.60261 13.2951 10.6959 12.7668 5.60261 11.9758 22.6011 13.8269 23.4445 24.7449 7.69245 11.9758 12.9229 13.8269 7.69245 10.0865 22.009 9.61769 21.0705 20.8527 4.28332 10.0865 9.67818 9.61769 4.28332 10.7544 23.3496 11.4528 21.8732 22.2737 5.80314 10.7544 12.3308 11.4528 5.80314 4.95122 11.0188 10.4204 10.4204 21.8594 4.95122 4.95122 11.0188 10.4204 4.95122 10.5282 24.9804 53.4624 20.9252 22.7306 58.9119 45.6388 22.7306 10.5282 24.9804 20.9252 10.5282 22.7306 10.5282 32.3397 71.4711 36.1813 79.7737 77.1738 14.4522 32.3397 32.5372 36.1813 14.4522 38.5213 80.5166 43.5923 90.7815 91.5137 17.8876 38.5213 38.9338 43.5923 17.8876 40.3539 81.6039 47.1892 93.4804 94.5885 20.6338 40.3539 41.5828 47.1892 20.6338 40.6392 81.2366 46.2912 92.1283 92.159 19.7201 40.6392 40.0211 46.2912 19.7201 41.1925 80.2539 45.8371 90.5876 89.0748 20.9191 41.1925 41.2155 45.8371 20.9191 38.3356 75.0268 44.7506 85.6499 87.4674 20.2734 38.3356 39.0384 44.7506 20.2734 35.1256 70.0145 40.8993 78.1666 79.001 18.0623 35.1256 35.9885 40.8993 18.0623 34.3781 66.4903 37.2673 72.3332 73.3457 17.0633 34.3781 34.026 37.2673 17.0633 32.8539 60.9718 35.066 67.1175 67.6875 17.3148 32.8539 32.4643 35.066 17.3148 29.2994 54.7615 32.0515 61.991 61.135 15.5391 29.2994 28.5075 32.0515 15.5391 27.6322 52.3802 29.9395 58.7103 55.4653 13.7602 27.6322 26.254 29.9395 13.7602 24.7524 47.2565 28.7708 52.9062 55.6617 13.872 24.7524 26.1262 28.7708 13.872 21.1472 41.3199 24.1354 49.2822 47.2325 10.8804 21.1472 21.1303 24.1354 10.8804 21.1025 41.4204 25.1468 50.0749 46.8827 10.2668 21.1025 20.1896 25.1468 10.2668 20.7665 40.3375 24.9281 46.3506 47.1183 10.8357 20.7665 21.2308 24.9281 10.8357 19.4418 38.3165 21.4225 42.1343 40.9205 9.93082 19.4418 19.1067 21.4225 9.93082 18.6655 36.4918 20.7118 39.3308 42.8793 9.51102 18.6655 19.2098 20.7118 9.51102 19.1975 34.9033 18.619 38.7696 35.7328 9.1545 19.1975 17.282 18.619 9.1545 19.0573 35.4509 20.1506 38.793 37.1514 10.043 19.0573 17.6213 20.1506 10.043 16.3967 32.0931 18.6424 34.3036 36.5978 9.01426 16.3967 17.8296 18.6424 9.01426 15.4703 30.4742 15.6611 32.0613 31.3604 7.38241 15.4703 14.2635 15.6611 7.38241 16.0134 31.9578 16.4001 31.6421 33.0872 8.0879 16.0134 16.2107 16.4001 8.0879 15.7741 31.7835 15.242 30.5819 30.9987 7.9255 15.7741 15.7472 15.242 7.9255 14.711 29.4791 15.3399 29.4149 31.1915 7.84856 14.711 16.0363 15.3399 7.84856 12.3589 25.9074 14.075 27.5138 28.2359 6.86246 12.3589 13.4428 14.075 6.86246 12.6606 26.9777 13.4388 27.1199 26.8353 5.49648 12.6606 12.4646 13.4388 5.49648 13.2985 26.335 13.6811 25.2618 27.3042 7.16414 13.2985 14.513 13.6811 7.16414 11.4688 22.9965 11.5807 22.1456 24.4536 6.1344 11.4688 11.822 11.5807 6.1344 10.984 21.1174 10.5648 21.1495 22.3862 5.33437 10.984 11.1745 10.5648 5.33437 11.1188 20.7836 10.5847 21.149 20.8492 5.64963 11.1188 9.94291 10.5847 5.64963 5.46918 10.8407 10.5644 10.5644 21.1708 5.46918 5.46918 10.8407 10.5644 5.46918 12.2024 33.9315 69.3501 24.7136 39.7643 96.8802 76.398 39.7643 12.2024 33.9315 24.7136 12.2024 39.7643 12.2024 47.4339 97.2164 57.116 120.147 116.655 21.7291 47.4339 44.6366 57.116 21.7291 52.2602 105.586 63.0311 125.826 129.8 25.7048 52.2602 52.5798 63.0311 25.7048 53.1265 105.144 62.7951 123.989 125.211 26.5554 53.1265 53.0057 62.7951 26.5554 51.4891 99.9972 61.1934 119.21 120.777 26.5711 51.4891 52.1378 61.1934 26.5711 49.3951 96.2884 58.0161 113.082 112.993 24.9179 49.3951 47.8593 58.0161 24.9179 47.3142 91.4415 55.0662 106.649 109.686 24.4772 47.3142 48.429 55.0662 24.4772 43.041 82.3323 51.5828 98.0809 98.5235 22.8371 43.041 43.0125 51.5828 22.8371 37.9552 74.5429 46.4981 89.883 90.2303 20.204 37.9552 39.3198 46.4981 20.204 34.2636 67.8507 43.3849 81.2439 84.0941 17.7512 34.2636 35.2232 43.3849 17.7512 32.6916 61.8389 37.859 73.5351 74.7183 16.5123 32.6916 32.6275 37.859 16.5123 31.0781 58.7469 35.6761 68.9711 67.3852 16.1793 31.0781 29.2114 35.6761 16.1793 28.1538 55.6376 33.2949 63.7191 66.1395 14.8988 28.1538 29.5355 33.2949 14.8988 28.135 52.7952 30.4242 61.127 59.0832 13.255 28.135 26.1021 30.4242 13.255 28.9725 52.5806 30.7028 59.6114 58.5663 14.88 28.9725 26.6931 30.7028 14.88 25.5841 47.7012 28.9086 53.4988 54.5906 14.0925 25.5841 25.8875 28.9086 14.0925 22.6925 45.4833 24.5901 47.5021 46.4321 11.4917 22.6925 21.8138 24.5901 11.4917 20.6653 42.1203 22.9119 45.6325 48.4067 11.2008 20.6653 23.6695 22.9119 11.2008 19.572 37.9809 22.7206 44.2914 43.3211 9.46451 19.572 18.4508 22.7206 9.46451 19.7357 38.2983 21.5708 40.6736 41.3731 10.1075 19.7357 19.5301 21.5708 10.1075 17.9069 35.8651 19.1028 36.6572 38.0618 9.62815 17.9069 18.7682 19.1028 9.62815 16.5909 33.9735 17.5544 34.2443 36.4735 8.27873 16.5909 17.0969 17.5544 8.27873 15.6287 32.1281 16.6899 33.734 32.8362 8.31222 15.6287 16.8766 16.6899 8.31222 14.8078 30.4067 17.0441 32.9285 32.7108 7.31648 14.8078 15.2515 17.0441 7.31648 14.7039 29.9482 15.8844 30.4603 32.2016 7.49131 14.7039 15.1552 15.8844 7.49131 15.1549 29.1638 14.5759 29.083 29.9878 7.21256 15.1549 14.7931 14.5759 7.21256 14.4593 27.1618 14.5071 26.9024 27.3072 7.94232 14.4593 14.3707 14.5071 7.94232 11.9633 25.4227 12.3953 23.9318 25.524 6.51696 11.9633 12.7911 12.3953 6.51696 10.6768 23.8432 11.5365 22.7359 23.9457 5.44633 10.6768 12.6316 11.5365 5.44633 10.1655 22.118 11.1994 21.5979 22.1346 5.23047 10.1655 11.2117 11.1994 5.23047 10.0302 21.2364 10.3985 20.2992 21.1807 4.93505 10.0302 10.9063 10.3985 4.93505 5.09518 10.3301 9.90064 9.90064 20.219 5.09518 5.09518 10.3301 9.90064 5.09518 27.5619 62.9487 123.703 51.6844 73.6468 159.156 135.018 73.6468 27.5619 62.9487 51.6844 27.5619 73.6468 27.5619 72.7131 149.239 85.509 172.723 175.762 35.3868 72.7131 72.0188 85.509 35.3868 73.566 149.426 87.214 170.33 177.682 37.3263 73.566 77.2198 87.214 37.3263 70.8621 140.845 83.1162 161.898 166.997 36.2398 70.8621 72.2058 83.1162 36.2398 67.7204 133.774 78.7822 152.793 156.791 34.6223 67.7204 68.6396 78.7822 34.6223 63.6872 126.391 74.011 143.013 147.722 33.0981 63.6872 65.1339 74.011 33.0981 59.3348 116.768 69.0016 133.276 137.545 30.589 59.3348 61.2571 69.0016 30.589 55.0398 106.422 64.2749 122.815 125.912 28.7457 55.0398 55.511 64.2749 28.7457 51.9278 99.7814 58.5398 113.039 114.945 26.2941 51.9278 50.9105 58.5398 26.2941 46.9803 90.9617 54.4991 103.34 105.599 25.6337 46.9803 48.8709 54.4991 25.6337 40.8435 80.2646 48.841 92.6318 96.6998 21.3466 40.8435 42.0908 48.841 21.3466 37.893 74.7778 43.7908 84.8546 87.1545 19.4969 37.893 38.1738 43.7908 19.4969 35.5653 69.5851 41.0639 77.8702 80.8033 18.3961 35.5653 36.604 41.0639 18.3961 32.992 64.8543 36.8064 70.2684 73.4626 17.1692 32.992 32.9811 36.8064 17.1692 30.639 60.5763 33.462 65.2248 67.5303 15.8228 30.639 31.8732 33.462 15.8228 27.9147 53.3215 31.7628 61.5667 61.8993 14.8162 27.9147 28.7031 31.7628 14.8162 24.8096 49.3555 29.8039 55.5592 56.228 13.0985 24.8096 24.6183 29.8039 13.0985 24.9672 49.6075 25.7553 52.5037 53.3386 11.7111 24.9672 24.7371 25.7553 11.7111 24.7194 46.7133 26.7484 49.9565 51.7301 13.2561 24.7194 24.8704 26.7484 13.2561 20.938 41.1365 23.2081 42.1536 45.9202 11.4633 20.938 21.8429 23.2081 11.4633 18.7503 38.6701 18.9456 39.6699 39.1707 9.47467 18.7503 19.2936 18.9456 9.47467 17.6533 35.3362 20.7243 37.7051 41.0997 9.27567 17.6533 19.3765 20.7243 9.27567 18.1053 33.4189 16.9808 35.2805 34.22 8.37766 18.1053 15.9596 16.9808 8.37766 18.1208 34.5057 18.2997 34.7507 35.5484 9.72762 18.1208 17.4593 18.2997 9.72762 15.7565 32.2411 16.451 32.0574 33.0351 8.39313 15.7565 17.0464 16.451 8.39313 13.9281 28.1312 15.6064 28.3796 30.3196 7.36334 13.9281 15.1947 15.6064 7.36334 12.4431 25.6694 12.7732 26.4909 25.2024 6.5648 12.4431 12.9365 12.7732 6.5648 11.9685 24.047 13.7178 25.1924 27.365 5.87829 11.9685 12.7329 13.7178 5.87829 12.0591 22.237 11.4746 22.9135 21.9797 6.09019 12.0591 11.3141 11.4746 6.09019 11.4324 21.1973 11.4389 21.7696 22.1088 5.96889 11.4324 10.9229 11.4389 5.96889 10.2689 20.1633 10.3307 20.8131 21.1997 5.46347 10.2689 10.2744 10.3307 5.46347 4.80546 9.88892 10.4824 10.4824 21.4352 4.80546 4.80546 9.88892 10.4824 4.80546 46.0849 96.207 187.077 83.3338 113.419 231.279 210.572 113.419 46.0849 96.207 83.3338 46.0849 113.419 46.0849 100.01 204.206 117.86 229.413 238.312 50.1222 100.01 103.744 117.86 50.1222 96.7641 195.254 111.553 216.368 225.061 49.8877 96.7641 100.462 111.553 49.8877 91.0363 182.943 104.815 204.248 212.258 46.8764 91.0363 94.7914 104.815 46.8764 85.0728 170.739 99.4323 193.133 198.742 44.1599 85.0728 88.1517 99.4323 44.1599 79.3254 158.875 93.701 179.59 185.669 40.9129 79.3254 82.5877 93.701 40.9129 73.9417 146.689 85.8892 165.558 171.48 38.4125 73.9417 76.2874 85.8892 38.4125 67.7748 134.436 79.6693 151.568 158.73 35.5291 67.7748 70.4013 79.6693 35.5291 61.1111 120.763 71.8991 136.218 142.992 32.2456 61.1111 64.0347 71.8991 32.2456 56.3599 111.337 64.3188 123.738 129.208 28.8654 56.3599 56.7281 64.3188 28.8654 51.7883 103.59 59.4187 113.544 118.418 27.4944 51.7883 54.609 59.4187 27.4944 46.9616 93.18 54.1248 104.201 108.185 24.2939 46.9616 48.9807 54.1248 24.2939 42.3049 84.6809 50.0757 94.7779 99.1616 22.6678 42.3049 44.1993 50.0757 22.6678 37.2764 76.1387 44.7022 84.2951 90.1244 19.6372 37.2764 40.4816 44.7022 19.6372 34.5858 68.8533 39.5929 76.3112 79.5793 17.6392 34.5858 35.6571 39.5929 17.6392 33.652 64.8059 36.7184 71.7983 72.4555 16.9466 33.652 33.1962 36.7184 16.9466 30.7496 60.211 35.08 66.0709 68.6305 16.7054 30.7496 31.6096 35.08 16.7054 27.5365 55.4611 30.9909 59.2136 62.126 14.0442 27.5365 28.6014 30.9909 14.0442 25.2371 50.9369 28.2228 54.4922 56.2278 13.4923 25.2371 26.8597 28.2228 13.4923 21.2157 43.9544 26.2694 47.6588 50.8367 11.7448 21.2157 24.0772 26.2694 11.7448 20.9195 41.6003 21.3894 43.8831 43.0631 9.47089 20.9195 19.8771 21.3894 9.47089 20.0518 39.9835 22.4937 40.6706 43.0779 11.4486 20.0518 21.7231 22.4937 11.4486 17.1752 36.3495 18.1769 36.4827 38.6776 8.60318 17.1752 18.2604 18.1769 8.60318 16.6299 34.0778 18.3058 35.2141 37.1493 8.57203 16.6299 18.0891 18.3058 8.57203 16.3009 31.1137 16.9082 33.073 32.2626 8.05787 16.3009 15.9887 16.9082 8.05787 14.4514 27.3908 16.1647 29.2539 30.6933 8.24308 14.4514 15.1249 16.1647 8.24308 14.0478 26.898 13.0891 27.659 24.9546 6.20835 14.0478 12.2659 13.0891 6.20835 13.2239 25.2976 14.5699 26.3538 26.3558 7.83949 13.2239 14.6321 14.5699 7.83949 10.8545 21.8514 11.784 22.5688 23.3408 5.38445 10.8545 10.6655 11.784 5.38445 10.3372 22.1112 10.7849 20.6112 22.2041 5.47003 10.3372 11.1859 10.7849 5.47003 10.5442 22.4716 9.82634 22.4736 21.7522 4.8672 10.5442 10.9253 9.82634 4.8672 5.67699 11.5463 12.6473 12.6473 23.567 5.67699 5.67699 11.5463 12.6473 5.67699 67.3342 135.072 261.806 127.238 67.3342 135.072 127.238 67.3342 67.3342 135.072 127.238 67.3342 67.3342 67.3342 129.403 259.167 67.7375 129.403 134.568 67.7375 129.403 134.568 67.7375 67.7375 119.604 242.066 61.6652 119.604 124.599 61.6652 119.604 124.599 61.6652 61.6652 113.211 228.057 57.9389 113.211 117.467 57.9389 113.211 117.467 57.9389 57.9389 108.061 213.672 55.2724 108.061 110.59 55.2724 108.061 110.59 55.2724 55.2724 100.265 198.274 52.7882 100.265 103.082 52.7882 100.265 103.082 52.7882 52.7882 91.6168 183.522 47.4766 91.6168 95.193 47.4766 91.6168 95.193 47.4766 47.4766 83.7936 167.286 44.1402 83.7936 88.3286 44.1402 83.7936 88.3286 44.1402 44.1402 75.1068 151.437 39.6534 75.1068 78.9573 39.6534 75.1068 78.9573 39.6534 39.6534 67.3777 136.289 35.4534 67.3777 72.4795 35.4534 67.3777 72.4795 35.4534 35.4534 61.7552 123.013 31.9243 61.7552 63.8092 31.9243 61.7552 63.8092 31.9243 31.9243 57.2389 114.166 29.8309 57.2389 59.2041 29.8309 57.2389 59.2041 29.8309 29.8309 52.473 104.605 27.4079 52.473 54.9623 27.4079 52.473 54.9623 27.4079 27.4079 47.0187 93.565 25.065 47.0187 49.6428 25.065 47.0187 49.6428 25.065 25.065 41.7254 83.1815 21.9537 41.7254 43.9222 21.9537 41.7254 43.9222 21.9537 21.9537 38.1464 76.2801 19.7718 38.1464 39.2593 19.7718 38.1464 39.2593 19.7718 19.7718 35.3213 70.5454 18.3746 35.3213 37.0209 18.3746 35.3213 37.0209 18.3746 18.3746 31.6771 62.8927 16.9467 31.6771 33.5246 16.9467 31.6771 33.5246 16.9467 16.9467 29.2551 56.1275 14.7305 29.2551 29.3681 14.7305 29.2551 29.3681 14.7305 14.7305 26.4431 49.9454 14.5246 26.4431 26.7594 14.5246 26.4431 26.7594 14.5246 14.5246 22.9635 44.5407 11.9185 22.9635 23.186 11.9185 22.9635 23.186 11.9185 11.9185 20.6188 41.7719 11.0451 20.6188 21.3547 11.0451 20.6188 21.3547 11.0451 11.0451 19.3075 39.4774 9.57371 19.3075 20.4172 9.57371 19.3075 20.4172 9.57371 9.57371 18.5842 35.3341 9.73381 18.5842 19.0602 9.73381 18.5842 19.0602 9.73381 9.73381 16.772 31.8422 8.85037 16.772 16.2739 8.85037 16.772 16.2739 8.85037 8.85037 14.8025 28.257 7.92167 14.8025 15.5683 7.92167 14.8025 15.5683 7.92167 7.92167 13.6112 24.4124 6.88079 13.6112 12.6887 6.88079 13.6112 12.6887 6.88079 6.88079 13.1299 24.399 6.73037 13.1299 11.7237 6.73037 13.1299 11.7237 6.73037 6.73037 11.7144 23.6935 6.39953 11.7144 12.6753 6.39953 11.7144 12.6753 6.39953 6.39953 10.274 21.8451 5.31483 10.274 11.0182 5.31483 10.274 11.0182 5.31483 5.31483 11.9295 22.8476 4.95914 11.9295 10.8269 4.95914 11.9295 10.8269 4.95914 4.95914 6.97032 12.0207 6.97032 6.97032 12.0207 6.97032 6.97032 12.0207 6.97032 6.97032 115.721 111.922 56.7657 228.483 111.922 180.41 162.083 83.2039 56.7657 115.721 111.922 56.7657 83.2039 56.7657 114.132 116.561 229.376 189.938 192.9 58.9551 114.132 116.561 97.2061 58.9551 105.264 112.815 216.853 176.754 189.607 55.177 105.264 112.815 92.7317 55.177 95.0945 104.038 195.55 160.173 174.703 50.0872 95.0945 104.038 84.0224 50.0872 86.446 91.5117 176.511 147.387 155.706 45.0072 86.446 91.5117 76.1504 45.0072 78.2016 84.999 161.491 136.412 146.006 41.4388 78.2016 84.999 71.2361 41.4388 69.6199 76.4921 144.297 122.882 132.939 36.7628 69.6199 76.4921 65.176 36.7628 63.012 67.8049 126.839 110.463 119.267 32.857 63.012 67.8049 57.7064 32.857 56.6712 59.0339 112.935 100.799 105.184 30.1549 56.6712 59.0339 52.7569 30.1549 50.8903 53.9007 103.581 90.083 96.9009 26.5162 50.8903 53.9007 48.0426 26.5162 44.8839 49.6805 92.139 79.7632 85.797 24.3741 44.8839 49.6805 42.0404 24.3741 39.9267 42.4584 80.9697 72.4676 76.1436 20.5098 39.9267 42.4584 37.7228 20.5098 37.4737 38.5113 74.0822 67.469 68.5327 19.4169 37.4737 38.5113 34.7448 19.4169 33.0485 35.571 66.4363 60.0943 63.567 18.0568 33.0485 35.571 32.7242 18.0568 29.9431 30.8653 60.4004 54.6308 56.1972 14.9917 29.9431 30.8653 27.3701 14.9917 27.3483 29.5351 54.1353 50.5772 53.8562 14.9514 27.3483 29.5351 27.2607 14.9514 23.046 24.6002 47.0177 42.0381 46.7584 12.397 23.046 24.6002 23.3166 12.397 21.6973 22.4175 42.9238 38.7458 40.6856 10.649 21.6973 22.4175 18.7215 10.649 21.0837 20.5064 40.926 38.6247 39.2358 11.0483 21.0837 20.5064 20.0243 11.0483 20.433 20.4197 38.2773 36.8832 35.8185 10.0354 20.433 20.4197 18.6004 10.0354 17.9966 17.8577 32.3126 32.1366 34.0908 10.3976 17.9966 17.8577 18.2829 10.3976 14.0151 14.4549 28.4692 27.3111 29.8234 7.59892 14.0151 14.4549 13.8538 7.59892 11.3943 14.0143 26.6609 25.1653 28.4585 6.41614 11.3943 14.0143 13.4573 6.41614 11.511 12.6466 25.852 23.4029 25.7062 4.97814 11.511 12.6466 11.708 4.97814 12.1856 13.2054 24.2235 24.3498 24.1027 6.53285 12.1856 13.2054 11.6949 6.53285 10.8421 11.0181 21.7664 24.0685 23.5953 5.65274 10.8421 11.0181 12.655 5.65274 10.0452 10.7483 19.227 22.8544 21.9962 5.18931 10.0452 10.7483 11.4135 5.18931 10.4884 8.47868 18.7449 22.5731 20.557 4.85586 10.4884 8.47868 11.4408 4.85586 10.6971 10.2662 21.4649 21.6179 22.0378 5.63258 10.6971 10.2662 11.1323 5.63258 9.5331 11.1987 20.4567 19.9833 20.6159 5.06454 9.5331 11.1987 10.4856 5.06454 9.64035 9.258 19.4478 19.5251 19.4791 4.46856 9.64035 9.258 9.49763 4.46856 5.17179 10.1899 10.1899 10.0274 20.0644 5.17179 5.17179 10.1899 10.0274 5.17179 126.5 50.1608 105.846 83.2556 44.0588 64.6891 50.1608 26.4381 44.0588 26.4381 153.132 123.538 123.369 75.8056 76.3393 61.7876 38.2509 147.457 119.351 128.066 71.4898 76.7923 61.7503 37.5547 134.86 111.226 119.053 65.0783 70.6651 57.6012 33.9352 125.201 106.349 110.035 60.9405 64.1945 53.6251 31.1432 117.454 100.837 105.03 58.2105 61.0069 52.7237 29.7973 107.909 90.3163 96.978 53.2625 56.447 48.1133 28.4132 97.6114 82.6269 86.8706 47.4513 51.4617 42.203 24.8493 89.1499 76.6704 80.3191 44.1283 46.1497 40.4239 22.602 79.1166 68.0418 73.9337 39.1927 43.0001 36.2464 21.5263 69.8016 61.9346 62.8923 34.8793 36.1165 31.7953 17.6663 63.7066 58.3514 58.8365 32.5409 33.6852 30.1393 17.213 58.0175 53.4559 55.2866 29.9952 30.0214 28.2122 15.3279 53.3279 48.7396 50.9594 27.0457 27.9961 25.2437 14.6674 49.653 45.5555 46.8568 24.6877 25.3318 23.4959 12.3784 46.4793 42.7738 42.2602 23.2289 24.3212 22.0597 12.3093 40.4263 37.9151 41.4821 18.9921 22.1582 20.7141 10.9196 36.9976 34.7035 35.773 17.0485 18.2681 17.201 8.07252 34.1282 35.2049 36.1319 17.541 18.7294 17.5026 8.97603 31.632 32.531 33.0837 16.4502 15.3988 17.7023 8.56495 31.6017 28.823 31.2861 14.1401 16.2332 14.8287 7.88522 29.8127 27.8265 29.9605 13.296 15.3685 13.9943 6.25485 27.5038 28.3863 29.305 13.771 14.4442 13.8322 7.04115 23.9569 25.8627 28.5568 11.8919 13.0596 14.5541 6.72983 23.4744 24.0216 24.5661 12.1642 10.8973 11.3086 5.16203 23.8251 24.9522 25.6659 13.2264 12.5772 12.713 7.00222 23.3262 23.9174 23.5472 12.8092 11.2479 12.2391 6.22423 23.8499 22.4084 23.3614 12.0847 12.0783 11.6783 6.58498 21.1888 21.5461 21.883 10.9208 11.7716 10.7301 5.49969 19.6383 22.3727 20.1116 10.4502 9.41719 10.816 5.42109 20.0956 22.4799 21.726 9.88471 10.2211 11.5568 5.02908 9.87451 10.9232 22.2991 4.85564 9.87451 10.9232 4.85564 80.1241 33.0947 69.6394 53.9076 28.0177 41.1574 33.0947 17.6207 28.0177 17.6207 98.3025 86.8636 84.2153 47.7323 47.0293 41.6217 23.5367 99.6615 89.8569 94.6926 47.8616 51.2732 45.2419 24.1956 94.2284 87.3981 90.2297 46.148 48.3883 44.615 23.6661 89.8635 86.0058 87.2909 45.4084 45.8402 42.783 22.482 84.5543 81.6879 83.3114 42.6265 44.0234 43.2228 22.9264 75.9399 73.745 76.3831 37.0537 40.531 38.4651 19.7001 69.5782 70.0645 70.0939 35.1756 35.4089 35.2799 17.3536 65.1028 64.6543 65.9212 32.542 34.1693 34.7846 17.8219 57.7094 56.967 60.2354 28.8491 30.9335 29.8697 14.7201 51.9272 52.5173 52.5939 27.0553 26.7759 27.0974 14.129 50.4165 50.5585 49.0721 25.8105 25.1513 25.42 12.9263 48.2285 45.9648 49.0347 23.4607 25.2652 25.1385 12.8843 44.4883 41.8666 43.2077 21.6938 22.9633 20.8263 10.5764 39.464 41.1857 42.1368 20.8678 21.525 21.0403 11.1175 37.263 39.1159 38.2862 19.5449 17.939 20.1454 9.75034 36.8288 37.7977 38.4993 18.923 19.3239 18.9704 9.79452 34.9073 35.4813 36.9797 17.655 17.5049 18.8272 9.12846 35.0874 33.3696 34.1524 17.6639 17.4025 16.6541 8.52653 32.7379 32.4744 33.1604 16.0809 17.6849 16.7156 9.13735 29.645 30.3794 32.104 14.683 15.053 15.7589 6.94352 29.4529 29.5343 29.2962 14.5304 14.592 14.6205 7.73944 30.358 30.5597 31.0492 14.6153 14.8608 14.9138 6.79101 29.166 29.9802 30.5772 13.9708 15.4972 15.6459 7.82428 26.7576 26.6254 28.8434 11.8573 13.6688 14.3343 6.14654 25.3881 25.2742 25.8423 11.7257 13.0888 12.2911 5.7108 23.5824 25.4252 24.9481 11.1082 12.2993 12.9831 6.0149 21.3946 23.3602 26.5935 10.3238 11.2832 12.4422 5.09331 20.8059 22.1531 23.2101 10.6253 10.1115 10.918 5.23044 22.1993 22.056 22.7254 11.9225 10.6944 11.235 5.39486 23.9295 22.26 21.7079 12.5952 11.5049 10.821 6.52768 12.4246 11.439 23.0579 6.06754 12.4246 11.439 6.06754 57.9988 20.8128 63.9007 48.4223 22.9082 28.482 20.8128 10.397 22.9082 10.397 80.6054 88.9138 86.1176 39.1313 37.1859 40.9925 18.085 85.2609 95.3206 99.6368 41.9953 43.4194 47.9213 21.0463 83.2922 93.2671 95.9437 41.2501 41.8415 47.3993 20.949 80.7387 89.1055 91.8024 40.5974 41.4507 45.8678 20.3011 75.1401 85.9546 85.295 39.0614 39.288 43.2378 20.2964 70.5371 80.8185 81.3607 36.6912 35.8521 42.7168 18.765 66.4368 74.1801 74.6202 34.8889 34.685 38.1017 17.9262 61.0538 68.7 68.0332 32.1123 31.7519 36.0785 16.9627 55.1199 61.7051 63.4495 28.1179 29.3019 32.6215 15.1496 49.7388 54.6094 56.5138 25.4621 25.818 29.0836 12.9684 47.6903 52.4167 52.4064 24.748 23.9208 25.5258 12.4937 44.0139 49.988 51.6645 22.5041 23.7695 26.8909 12.2542 40.8562 44.8329 45.7079 20.1727 20.2444 23.0971 10.2499 40.959 43.926 45.0783 20.3179 20.6118 21.7359 9.9228 39.5225 41.6881 42.4492 19.571 20.3472 22.1901 10.3951 38.6502 41.6655 40.7668 18.8747 19.1754 19.498 9.17592 36.2247 39.2813 42.4223 17.8263 19.4748 22.1675 9.69875 32.2254 34.1146 35.9643 15.7058 16.7499 17.1138 8.12755 32.5265 34.9562 34.0133 16.3936 15.4755 17.0008 7.57822 31.7551 33.6547 35.8366 15.6964 17.051 17.9554 8.81536 30.8925 32.3864 31.2946 15.0039 14.7041 15.6993 6.88109 31.2685 32.4438 33.0516 15.9444 16.1884 16.6871 8.12277 30.2546 31.6083 31.0628 16.0094 15.08 15.7567 7.82166 27.9281 30.0124 30.6645 14.7681 15.1746 15.8516 8.18773 25.4024 27.5574 28.2753 13.5485 12.7535 14.1608 6.58033 27.9592 27.0196 25.4355 14.317 12.6489 13.3965 6.96816 28.409 26.4959 28.9069 13.0365 15.3104 13.6231 7.34887 25.1296 24.6942 25.6196 11.5278 13.0986 12.8728 5.68761 22.234 22.0859 23.519 10.1335 12.031 11.8214 5.84017 20.8364 20.871 21.3794 9.66476 10.203 10.2646 4.29329 10.6333 10.6064 20.9569 5.37148 10.6333 10.6064 5.37148 76.5411 27.6094 96.173 73.4161 36.6337 35.4186 27.6094 12.5112 36.6337 12.5112 105.149 126.308 120.997 49.7825 48.9317 59.5394 22.9074 110.32 129.185 134.815 53.3254 56.2174 66.7685 26.8751 104.454 122 126.343 52.017 54.1022 62.4163 26.4503 96.3586 114.561 119.032 48.5081 50.3517 59.584 25.5667 91.5155 109.597 107.843 46.8932 46.0069 54.9772 22.9414 85.4438 101.561 105.894 44.1273 45.5086 54.6199 23.9518 76.2166 90.673 93.5249 39.2912 39.9353 46.9408 20.1755 70.4289 84.4414 83.2245 36.5877 36.2813 43.7322 19.1158 64.8434 77.5685 79.5719 33.5871 34.1476 40.7092 17.4719 59.1814 68.5684 71.8119 29.1473 30.6958 36.8594 16.1152 56.3806 64.5536 64.9992 27.6688 28.4856 31.709 13.0321 53.3585 61.5036 62.0575 27.4838 27.895 32.8446 14.6367 49.93 56.5225 57.0665 24.6602 25.4635 28.659 12.8471 46.5685 53.5454 55.4531 23.6081 24.4665 27.8635 11.8131 43.6934 47.5239 49.7645 22.1171 22.102 25.6819 11.795 44.5389 47.3367 47.3314 22.7908 21.5914 21.842 10.3221 42.1619 46.0953 46.7048 21.455 22.9475 25.4948 12.4687 37.7522 40.4028 41.8215 18.4089 19.2144 20.6005 8.98625 37.3234 38.7612 38.3456 18.5626 18.5378 19.8022 9.4226 35.3761 37.878 37.9782 17.9583 18.7856 18.959 9.14004 33.4537 35.0654 36.0813 17.3826 16.5905 18.9191 8.81821 32.846 31.813 32.8596 16.4994 16.8632 16.1463 8.56436 31.4727 31.9838 31.6157 15.5989 15.9828 15.6667 7.93502 31.0117 31.729 30.7113 15.2444 15.4899 16.3171 7.66385 28.3085 28.212 30.2263 14.0089 15.5218 15.4119 7.58051 26.3832 25.9289 24.9811 12.7026 12.7867 12.8001 6.42839 26.1175 25.538 26.4561 13.4594 13.5965 13.1288 6.27418 24.009 23.3444 23.1176 13.1664 12.5209 12.4092 7.18524 22.6644 21.7174 22.7703 11.9525 11.488 10.9352 5.98119 21.4999 21.1006 21.2158 11.2062 11.1764 10.7822 5.97127 10.3235 10.3184 19.4795 5.23493 10.3235 10.3184 5.23493 117.872 45.8067 151.625 118.964 61.3714 60.7544 45.8067 24.1225 61.3714 24.1225 150.663 180.721 174.695 76.5254 72.065 90.2534 36.6319 150.838 174.349 181.604 75.8595 78.5975 90.468 39.8935 140.921 161.89 168.077 69.9833 72.2408 83.881 35.966 130.517 151.72 157.909 66.0531 68.6807 78.0091 34.0173 122.222 142.254 146.24 62.7038 61.8359 73.7107 32.0358 113.975 130.18 136.706 57.4333 60.3858 68.5429 30.668 100.533 118.043 121.978 51.3817 53.5897 61.6374 26.7653 92.3675 107.505 109.887 47.8536 46.9432 56.4054 24.6164 86.5404 98.9587 101.727 43.9814 45.4243 51.0999 23.2372 77.6297 91.2225 94.7838 39.4211 41.1161 47.8588 20.7442 70.6761 83.1032 84.7182 36.8848 36.5136 43.3638 18.6769 65.7655 76.3958 78.6942 34.0198 34.1625 39.7395 18.2079 62.5896 70.7246 71.4973 31.8623 31.603 36.6563 15.8119 58.6492 64.2049 66.539 29.9373 30.9866 34.0683 16.0504 53.4025 56.5607 59.5666 25.4068 27.6625 30.1366 13.8869 49.4973 54.0073 55.9376 24.5459 25.74 26.4241 11.5199 46.3645 52.5649 51.9898 24.6403 23.7573 27.5832 13.026 42.4149 47.6937 49.5807 21.9939 22.6072 24.9817 11.6143 39.0003 42.9372 43.6661 20.1986 19.8077 22.7121 10.3796 38.6834 40.6005 40.3339 19.9198 19.1926 20.2251 9.81891 35.4872 37.6145 39.1813 17.6828 19.4908 20.3754 10.1009 31.6294 34.4879 34.5051 15.3136 15.9965 17.2392 7.58197 30.8543 33.8328 33.5403 16.3849 15.6329 17.2487 7.73166 29.9259 31.2973 31.1337 16.4846 15.2214 16.5841 8.65328 26.8989 27.1425 29.7466 14.2031 14.7045 14.7132 7.83134 25.0539 26.0765 25.2356 13.2263 12.1944 12.4293 6.37173 23.4562 24.1523 26.7782 12.0786 12.8595 13.6472 6.8546 21.8789 21.1749 22.3097 10.178 10.5967 10.505 5.22396 21.3216 21.5389 22.8436 9.76491 11.2822 10.6699 4.95402 19.1953 21.8218 22.3515 9.89436 10.0394 10.869 4.8109 9.15593 10.9528 19.4578 5.08346 9.15593 10.9528 5.08346 175.787 73.157 217.605 190.535 97.153 90.8704 73.157 37.2489 97.153 37.2489 205.637 233.96 235.053 104.196 102.63 120.452 53.6215 198.843 220.951 230.045 98.4895 103.007 113.508 50.5745 185.064 206.753 215.66 91.9068 95.8358 107.443 47.915 173.632 191.278 200.713 85.6666 89.228 99.3097 43.9918 160.725 177.559 185.258 79.5497 84.4044 91.9682 41.6749 144.708 164.652 170.904 72.747 76.3204 85.5912 37.8749 131.332 150.154 157.61 66.6612 68.3879 79.0606 34.8721 119.247 135.982 141.465 59.6517 62.9441 71.0929 31.789 109.971 123.888 128.321 54.9773 56.3032 64.8888 27.8627 101.872 113.059 118.01 51.8014 53.6677 58.9995 27.1146 92.7363 103.146 107.781 46.2184 48.2046 54.06 24.6868 84.426 94.5081 98.1458 42.376 44.5317 49.0859 21.5316 75.4467 85.4086 89.4889 38.8623 39.8943 45.4222 20.8444 67.4565 75.7236 79.561 34.2675 35.5524 39.9864 18.0179 62.1017 69.2877 72.0601 31.1539 31.9041 35.7372 16.2497 58.4301 64.6856 66.7115 29.4614 30.1976 33.5505 14.9042 55.2061 59.1401 62.1809 27.9246 28.2325 31.1351 14.5572 50.8319 52.5722 56.2664 25.6998 26.9735 28.005 13.3674 44.9996 46.2409 49.1675 22.7387 23.8583 24.5672 12.3324 40.8318 42.2579 44.9017 20.6807 21.1413 21.6737 10.4062 38.1992 41.0849 40.6259 19.9317 19.6905 20.5842 10.2745 36.4161 39.3441 40.0006 19.1743 18.5087 20.5007 9.65722 33.8196 34.1978 35.9391 17.4479 17.9074 18.8434 9.51706 30.9543 29.8829 30.2037 14.8127 15.9123 15.3544 7.93085 28.0833 26.394 30.1868 12.9394 15.0421 14.5285 6.88187 26.9599 23.6514 25.4436 12.8502 13.0412 11.8655 6.05753 25.6317 23.3428 26.5805 12.0737 13.9187 11.786 6.79264 23.2743 22.976 23.8092 10.9969 11.713 11.5568 5.28106 23.8735 23.3451 21.4294 11.7739 11.5613 11.4192 5.71585 22.614 22.8456 22.7657 11.9274 12.3121 11.9259 6.0581 10.3019 10.9197 20.9621 5.86934 10.3019 10.9197 5.86934 249.8 117.378 126.735 117.378 59.9041 126.735 117.378 59.9041 59.9041 59.9041 259.461 129.764 132.423 129.764 132.423 66.8305 66.8305 246.863 122.462 127.039 122.462 127.039 62.9339 62.9339 231.309 114.846 119.824 114.846 119.824 59.528 59.528 212.338 105.611 111.485 105.611 111.485 55.3179 55.3179 195.437 98.0097 100.853 98.0097 100.853 50.2934 50.2934 183.806 91.9048 94.584 91.9048 94.584 47.7163 47.7163 167.743 83.4923 89.2223 83.4923 89.2223 44.1884 44.1884 150.538 76.3301 78.5207 76.3301 78.5207 39.3039 39.3039 136.36 68.9111 72.0178 68.9111 72.0178 37.0262 37.0262 123.919 61.2581 64.3426 61.2581 64.3426 31.8849 31.8849 113.191 56.9275 59.5766 56.9275 59.5766 29.3732 29.3732 103.209 52.1322 53.6141 52.1322 53.6141 27.5544 27.5544 93.6033 46.5463 49.5947 46.5463 49.5947 24.5778 24.5778 84.1647 41.456 44.0087 41.456 44.0087 21.9685 21.9685 76.6699 38.1338 40.156 38.1338 40.156 19.4875 19.4875 70.4623 35.2242 36.5139 35.2242 36.5139 18.6463 18.6463 63.2412 31.2155 33.9484 31.2155 33.9484 16.5779 16.5779 54.602 26.8724 29.2928 26.8724 29.2928 14.6376 14.6376 49.0696 23.5023 25.3092 23.5023 25.3092 12.2348 12.2348 44.6958 21.5771 23.7604 21.5771 23.7604 11.2675 11.2675 42.4272 21.1531 20.9354 21.1531 20.9354 10.3097 10.3097 39.5236 20.1699 21.4919 20.1699 21.4919 10.8435 10.8435 32.3232 16.7499 18.0317 16.7499 18.0317 9.32639 9.32639 29.4362 15.0702 14.2914 15.0702 14.2914 7.42355 7.42355 27.5471 13.4546 15.1447 13.4546 15.1447 7.64664 7.64664 25.0642 10.8013 12.4024 10.8013 12.4024 5.80792 5.80792 24.7579 11.2691 12.6618 11.2691 12.6618 4.99334 4.99334 21.9642 11.9791 12.0962 11.9791 12.0962 6.27572 6.27572 20.3216 11.5712 9.86804 11.5712 9.86804 5.70339 5.70339 21.1138 10.9182 10.4536 10.9182 10.4536 5.8678 5.8678 10.6602 5.05038 10.6602 5.05038 10.6602 5.05038 5.05038 112.762 109.432 55.1567 223.545 109.432 174.574 156.799 78.8794 55.1567 112.762 109.432 55.1567 78.8794 55.1567 115.243 114.113 226.186 192.569 190.501 57.6057 115.243 114.113 95.6941 57.6057 111.588 112.073 218.292 187.556 188.784 57.6377 111.588 112.073 96.8754 57.6377 100.455 106.219 199.677 170.237 179.984 53.9507 100.455 106.219 90.6807 53.9507 90.0647 93.457 181.814 154.326 162.029 46.5045 90.0647 93.457 79.5559 46.5045 83.2895 88.3574 167.816 142.533 152.1 43.5602 83.2895 88.3574 74.7698 43.5602 74.6771 79.4591 148.346 129.323 136.507 39.7293 74.6771 79.4591 67.7631 39.7293 63.8268 68.8867 128.244 113.987 121.191 34.9478 63.8268 68.8867 61.5602 34.9478 56.2635 59.357 114.337 101.285 105.655 28.879 56.2635 59.357 52.4268 28.879 52.6909 54.9804 106.394 92.6149 97.0795 27.3845 52.6909 54.9804 48.8583 27.3845 47.2551 51.4131 96.2744 82.1774 87.5966 25.3065 47.2551 51.4131 43.7566 25.3065 41.043 44.8613 82.1631 72.2087 77.6801 21.9487 41.043 44.8613 38.4208 21.9487 36.6085 37.3019 72.5909 64.6308 66.517 19.0944 36.6085 37.3019 33.7879 19.0944 33.3878 35.289 66.8681 59.6699 61.463 17.5142 33.3878 35.289 30.8429 17.5142 30.4574 31.5791 60.2016 55.4227 58.0366 15.8736 30.4574 31.5791 28.8271 15.8736 26.7869 28.6225 52.9448 50.0374 51.9242 14.5837 26.7869 28.6225 26.5956 14.5837 23.9717 24.3223 46.8138 45.4059 45.2628 12.2032 23.9717 24.3223 23.4418 12.2032 21.2265 22.4916 43.3487 41.1755 41.4145 11.7685 21.2265 22.4916 21.9641 11.7685 19.8423 20.8571 39.4314 36.4296 38.7556 9.45807 19.8423 20.8571 19.2115 9.45807 17.8443 18.5743 34.398 33.0261 33.764 10.3843 17.8443 18.5743 17.2181 10.3843 14.316 15.8237 30.5377 31.7776 32.4777 7.46003 14.316 15.8237 15.808 7.46003 14.4541 14.714 30.5456 30.9708 31.4421 6.85598 14.4541 14.714 15.9696 6.85598 15.2666 15.8316 29.3782 28.9994 30.0248 7.59816 15.2666 15.8316 15.0012 7.59816 14.341 13.5467 25.7686 26.406 27.1752 7.66845 14.341 13.5467 13.9982 7.66845 12.0379 12.2219 23.9633 23.3481 23.7016 6.67255 12.0379 12.2219 12.4078 6.67255 10.9243 11.7414 21.3965 21.523 22.5708 5.36536 10.9243 11.7414 10.9403 5.36536 9.1818 9.6551 17.9744 19.6988 21.6296 5.55898 9.1818 9.6551 10.5827 5.55898 8.25644 8.31931 18.8188 20.0216 18.2559 3.62282 8.25644 8.31931 9.11611 3.62282 10.7678 10.4995 20.969 21.0358 22.8104 4.63362 10.7678 10.4995 10.9055 4.63362 10.9236 10.4695 19.6909 20.1118 19.4766 6.13419 10.9236 10.4695 10.1303 6.13419 9.8075 9.22137 17.8393 20.0184 19.5176 4.78944 9.8075 9.22137 9.98149 4.78944 5.01806 8.61788 8.61788 10.0369 18.9914 5.01806 5.01806 8.61788 10.0369 5.01806 123.755 47.3672 100.778 76.6518 39.1968 61.8111 47.3672 23.7227 39.1968 23.7227 153.099 127.896 125.19 77.326 76.3878 61.581 38.0884 150.475 127.767 131.437 75.9676 76.7107 66.3153 39.2376 142.337 117.862 125.442 69.7814 73.7645 61.4522 36.73 132.315 108.716 116.462 64.2609 68.5723 56.4096 33.0514 120.79 101.171 107.48 59.2434 63.7427 52.3065 31.2096 109.352 93.5323 97.7997 54.6462 57.0476 48.8647 28.0339 98.602 84.5627 89.4397 50.1601 52.3041 44.6676 26.6123 88.397 77.5824 79.7217 45.0216 46.2979 39.8951 23.5478 78.2826 68.7842 72.9785 39.9239 42.0991 37.6872 21.4738 69.0023 59.7942 62.2516 34.9223 36.1835 31.097 18.4501 62.0339 55.7717 57.9376 31.1657 32.8188 28.6972 16.4721 55.3891 52.7901 54.0161 28.0223 29.2151 27.0745 14.6936 52.6315 49.0766 48.3704 26.2821 26.174 25.7157 13.3287 49.7592 43.5615 47.3547 24.9653 26.4574 23.361 12.9534 44.2423 40.9685 41.0371 23.2504 23.3017 20.2006 12.0118 39.8635 39.34 39.9485 21.4342 20.9405 20.768 11.2386 36.8214 37.2014 35.3032 19.949 18.9229 18.572 10.1956 33.0882 34.0108 37.1528 16.5873 17.8985 18.6293 9.7534 31.8438 31.8389 30.3507 15.1818 15.1897 15.3814 6.83387 33.3821 32.4237 31.404 17.4616 16.654 16.4574 8.34793 30.9214 31.4391 31.152 16.5167 16.7281 15.9663 9.11365 27.8218 29.4755 28.7522 13.7328 14.1933 15.4728 7.403 25.1082 27.2602 28.1478 12.065 13.6285 14.0027 6.32979 22.3091 26.2105 26.0432 11.3102 11.4797 13.2575 5.73523 22.8039 24.261 23.9039 10.5987 10.8294 12.9529 5.57494 21.9111 22.9912 24.7385 10.517 11.9745 11.3081 5.02372 22.2475 22.836 22.2717 11.7652 9.9366 11.6831 5.49329 21.318 20.4486 23.3648 10.268 12.3109 11.1529 6.2719 19.3033 19.4649 19.2105 9.18816 9.00709 9.29565 3.9961 20.6697 21.5452 20.0099 10.2109 10.2962 10.1693 5.19205 10.3735 11.3759 21.9974 5.01887 10.3735 11.3759 5.01887 78.0864 29.2846 68.4834 50.26 25.8899 38.9667 29.2846 15.4741 25.8899 15.4741 103.528 92.0443 88.6491 50.5702 48.8018 42.5935 23.4926 106.403 95.0654 100.059 51.7998 54.7258 49.4507 27.0776 99.5663 90.1225 95.9168 48.0804 51.6771 45.6147 24.7222 91.6262 84.5965 89.0012 44.4552 47.8892 44.5078 23.3582 84.489 78.0066 81.3465 41.9278 43.737 40.0886 21.097 77.8876 72.732 74.8378 38.8861 40.7521 37.918 20.8309 70.5594 65.9506 70.9279 34.4026 37.1356 34.814 18.0553 64.3032 61.5023 62.9735 32.5608 33.4238 31.1365 16.3474 56.9475 55.8623 58.5792 28.8603 30.8794 30.3658 16.2134 51.1869 49.1486 51.2385 24.8719 26.0681 25.4965 12.6469 49.9197 47.5483 49.333 24.6059 25.1188 23.6521 12.2251 46.9974 46.2776 47.7869 24.7679 24.801 23.8962 12.3809 43.0936 43.478 42.4577 22.7945 22.1964 22.3815 12.387 38.6326 39.2373 41.2453 18.5962 20.8973 21.0966 10.4075 36.7433 37.6696 38.2419 17.7181 17.7353 18.1408 8.1887 35.3882 37.6813 36.4342 17.9058 19.0079 19.5288 9.52939 35.6346 35.6507 35.5676 17.2523 16.3802 18.1524 8.37642 34.4153 33.9431 36.6865 17.4235 19.2543 17.4983 8.87592 29.9109 32.79 30.5808 16.6571 15.1609 16.4448 8.54758 29.1738 31.0208 29.5845 14.9621 14.75 16.3451 8.10948 28.9828 30.8111 29.4669 14.9224 14.4239 14.6756 6.85261 29.0782 31.0667 30.005 15.7427 14.5589 16.1355 8.06981 29.0828 29.4404 29.0342 15.1952 14.5193 14.9313 7.67288 27.638 28.0603 28.4351 14.9003 14.5635 14.5092 7.52231 25.8385 25.5162 26.7772 13.6624 13.0745 13.5512 7.37799 25.0991 26.1164 24.5057 12.4742 12.764 11.9651 6.28436 23.389 26.4434 25.7068 11.0709 12.3351 14.1513 6.18985 21.2573 23.7824 23.9736 10.1806 11.0539 12.292 4.88101 19.9171 22.3773 22.3558 10.2768 10.2034 11.4903 5.29954 21.3376 22.5059 20.868 11.3342 9.71368 10.887 4.97722 11.6239 11.6189 22.4894 6.35702 11.6239 11.6189 6.35702 60.8227 20.9754 70.6392 50.2839 25.514 29.5167 20.9754 10.4158 25.514 10.4158 85.1809 96.8407 91.067 41.4741 39.8473 45.1252 19.1009 89.5733 100.26 104.327 43.2656 45.3336 51.7155 22.3731 85.3516 94.479 99.3057 42.0421 44.2397 48.5444 20.8925 78.7215 87.9918 90.8368 40.1413 41.1119 45.9346 21.1496 71.6953 80.701 84.4913 36.0788 37.6096 42.0572 18.9917 67.878 75.1624 78.3215 33.8459 34.0857 38.6439 17.0871 63.3419 68.4733 73.4288 31.5479 33.7923 36.5186 16.7587 57.2494 62.7827 63.8526 28.9415 29.5497 31.9547 14.7892 52.8702 58.2583 59.4563 27.002 27.6998 30.828 14.1523 49.3847 54.3108 55.2756 24.2767 25.1704 27.4303 12.8496 47.2002 51.6541 53.964 22.9423 24.2143 26.8805 11.427 43.2473 47.3845 50.5955 21.5098 22.986 24.7736 11.5153 40.6093 45.9533 43.9338 20.6835 20.2613 22.6108 9.99447 40.8545 43.6015 43.9542 20.6411 20.348 23.3424 10.689 37.9328 41.5278 42.1559 19.9515 20.5065 20.259 9.95207 36.6136 41.5236 38.4114 19.7755 17.4263 21.2688 9.99945 36.6195 39.1053 39.0213 18.3984 19.1874 20.2548 9.77603 32.852 35.863 35.8267 16.5196 17.4321 18.8505 8.62236 30.2544 34.8937 34.5165 16.1329 15.4199 17.0125 7.89727 29.8776 33.4765 32.373 16.0587 14.8345 17.8812 8.23565 30.4891 31.9598 30.6466 15.8887 15.0431 15.5953 7.82303 29.961 31.6706 30.9799 15.324 15.446 16.3645 8.06565 28.3865 30.119 30.6495 14.2452 14.5149 15.3061 7.25838 27.5743 28.9273 28.4904 13.16 13.8716 14.8129 6.98685 25.4443 26.1534 30.2153 11.8539 13.7027 14.1144 6.17317 25.1134 27.3228 23.5387 13.6422 11.7416 12.039 5.68072 26.2915 28.0306 27.7718 15.3725 13.3718 15.2838 7.96148 25.0721 24.4443 25.4436 13.6018 12.9197 12.7467 7.41103 23.3066 22.8125 23.4192 12.1005 12.1524 11.6976 6.19079 22.0197 21.4653 21.9357 11.1716 11.1543 11.1149 5.90976 10.8654 10.3505 21.1254 5.26185 10.8654 10.3505 5.26185 80.5281 29.3085 98.2398 72.8899 36.7824 41.1225 29.3085 15.0982 36.7824 15.0982 110.213 129.504 121.849 55.3666 51.2197 61.4574 26.0243 114.06 131.973 137.881 56.9943 58.9935 68.0464 29.3424 104.791 123.375 128.439 52.4369 55.0661 63.9266 27.6519 96.6067 112.314 116.851 47.8505 49.7249 59.4484 24.785 91.1176 104.14 108.308 44.6223 46.8818 52.8656 23.0655 83.8723 97.8587 102.932 41.3166 44.2358 51.2745 21.5567 73.9395 86.0765 92.3062 36.9254 39.6365 46.5842 19.7598 66.0595 78.3551 80.8128 33.8412 34.303 39.4923 17.1656 61.8618 73.8153 77.4257 31.2563 31.7566 38.8627 16.6757 59.8549 68.2427 71.4468 30.0341 30.1052 34.9525 14.5806 57.3593 62.503 66.2781 28.7118 29.7497 33.2901 15.4535 51.2821 57.6204 61.7203 25.8747 27.6096 29.2129 13.2583 47.2787 55.9971 54.8439 25.2698 23.6725 28.4075 12.6164 45.2556 51.6722 53.3165 22.9604 23.6062 27.5896 12.6534 42.6346 49.572 49.1166 21.5763 21.6494 24.0826 10.307 40.8191 46.6995 48.2415 21.7481 20.9852 25.4894 11.2693 38.2285 42.431 42.2599 20.7069 19.8339 21.21 10.4788 37.4912 39.7643 40.4303 19.3433 18.3946 21.221 10.2281 36.6351 37.5626 40.544 18.7608 19.0966 18.5433 9.11523 33.142 36.1815 34.7608 17.4178 17.5385 19.0192 9.64556 31.1374 33.8755 33.4204 16.0711 15.6035 17.1622 7.77227 31.6684 32.6624 32.3011 16.3466 15.5339 16.7133 8.29883 30.7533 30.3432 31.8321 15.8738 16.1345 15.9491 8.04776 31.1314 29.2086 29.09 15.7673 14.6187 14.3942 7.82606 28.3097 26.9954 30.4923 14.2996 16.5126 14.8144 7.94127 26.1971 25.5083 23.8898 13.6806 11.797 12.181 6.35828 26.9239 24.0357 26.3949 12.6581 14.4 13.3273 7.32236 23.7907 22.5434 24.8402 10.8425 12.5239 10.7084 5.3357 22.0482 22.2686 23.1788 10.712 11.2668 11.835 5.50683 21.0414 19.5947 20.7499 10.2937 10.7814 10.4336 5.20513 10.26 9.16108 19.086 5.08861 10.26 9.16108 5.08861 114.211 43.5815 142.034 114.421 57.5923 57.1173 43.5815 21.6842 57.5923 21.6842 149.517 175.578 168.922 74.1371 70.6293 84.4421 35.4331 152.26 175.332 184.153 74.9787 78.8874 91.1362 38.704 140.498 164.095 169.517 70.9381 73.3725 84.1956 36.2747 128.552 152.429 158.813 64.4635 67.126 79.8996 34.6634 120.123 140.693 145.777 59.5179 61.4265 72.5296 29.8001 111.366 128.503 134.391 56.5421 58.6962 68.1632 29.7178 99.1795 113.822 119.861 49.1512 52.6696 60.3402 26.8244 92.1789 104.109 108.264 44.5139 46.5098 53.4819 22.3268 87.0107 97.5526 103.039 42.559 45.6691 50.6276 22.1871 77.87 88.2795 94.3094 38.2086 41.3416 46.925 20.3719 70.639 80.3091 83.6447 33.7912 36.5284 41.3544 17.8367 65.2821 73.7957 78.8301 31.7457 34.1107 38.9547 15.9546 60.8816 67.3118 69.1172 30.7273 31.1714 34.841 15.7911 57.1775 61.9008 64.5675 28.7118 29.7103 32.4707 14.9362 54.7235 58.9436 59.1635 27.9957 27.4672 29.4301 13.7756 49.6823 53.9201 56.8415 24.9514 27.2563 29.5135 14.2201 44.4617 49.0056 50.2358 21.7242 22.426 24.4066 10.7313 43.4831 45.5531 48.3615 20.421 22.0358 24.599 10.9929 38.6696 41.0627 43.2489 18.8018 21.4474 20.954 9.42811 35.0392 38.9147 39.6067 18.7636 17.2223 20.1087 9.37368 34.5842 36.0719 37.3443 17.8044 17.8169 18.806 9.38995 32.4648 33.5575 33.8299 16.3158 16.7673 17.266 8.41448 30.1688 30.8411 31.9994 14.4694 15.6976 16.2916 7.90129 28.4509 29.5829 30.2532 13.4413 14.4713 14.5495 6.56812 26.0725 27.8397 28.2755 12.6958 13.9797 15.0334 6.87316 24.0876 25.9373 26.0746 11.8276 12.0928 12.8064 5.82269 24.3112 24.9356 26.1942 11.3776 11.9948 13.131 6.00493 24.2283 23.9783 25.5527 11.7009 12.3163 11.8046 5.3727 21.8805 23.6562 22.3587 11.5567 11.912 12.1737 6.32822 18.7945 19.9875 20.931 9.30094 9.96845 11.4825 5.22847 8.82604 8.505 17.4998 4.07247 8.82604 8.505 4.07247 169.132 70.8394 207.983 185.56 93.3818 84.9171 70.8394 35.9081 93.3818 35.9081 203.558 231.138 229.906 101.441 98.2929 114.601 49.009 201.41 224.754 231.827 100.353 105.265 116.537 52.4322 187.832 209.621 215.735 93.1571 96.1446 108.217 47.9208 176.038 194.693 201.745 87.9657 91.6874 101.403 45.2362 160.045 178.602 186.178 81.175 84.3502 93.2893 42.7295 142.886 163.863 169.564 71.9613 75.6951 85.3131 38.4455 128.946 148.922 154.462 64.6709 67.1914 78.5497 33.5158 119.124 133.804 139.972 59.5956 61.7545 70.3719 31.1551 110.337 122.443 127.49 54.9936 57.3697 63.4322 28.4405 100.084 112.732 118.172 50.0709 52.9678 59.0108 26.5531 91.8357 102.781 105.073 46.5179 47.1163 53.7212 23.5178 82.6652 93.1266 98.297 42.05 44.7194 49.0599 23.0001 72.803 83.6414 86.4239 36.5844 37.9458 44.0667 19.0499 66.5535 75.8976 79.2254 33.189 34.8572 39.5746 17.5345 61.2814 69.484 73.0395 30.9479 31.6963 36.323 15.6544 57.395 64.2068 65.5705 28.9687 29.5852 33.161 15.2934 54.1356 59.3071 60.9504 27.2815 27.8098 31.0458 13.6753 48.1273 52.8616 56.3919 25.132 26.3258 28.2613 13.6062 44.186 47.8283 48.5154 22.2609 21.8016 24.6003 11.5259 41.9118 43.2697 46.9109 20.1511 22.3844 23.228 10.735 36.59 39.5416 41.0312 18.2675 19.5274 20.0417 9.41602 33.3645 36.5955 38.3114 17.2418 17.0626 19.4999 8.85148 32.0838 31.945 33.6674 16.3717 16.3019 17.0957 8.3903 30.0777 30.5076 30.3499 16.1416 15.7819 14.8493 7.98141 28.2776 29.2364 28.5537 15.1439 14.2958 15.6583 8.16022 28.1812 28.3726 25.5863 14.1097 13.9818 13.5781 6.98366 27.4358 27.0469 28.259 13.558 14.1994 14.7945 7.12606 23.6831 22.2625 25.0252 12.2774 13.2364 12.2524 6.43194 21.4093 20.8499 20.36 12.0995 10.4467 10.0101 5.84549 19.6364 20.8822 21.8257 10.6866 10.9626 10.8398 6.25403 8.67377 10.0424 18.7894 4.43254 8.67377 10.0424 4.43254 246.334 114.721 123.066 114.721 57.4737 123.066 114.721 57.4737 57.4737 57.4737 258.175 129.697 131.613 129.697 131.613 65.592 65.592 246.152 124.401 126.562 124.401 126.562 64.1049 64.1049 229.647 116.464 119.59 116.464 119.59 60.2964 60.2964 211.885 106.727 110.057 106.727 110.057 56.1672 56.1672 195.697 97.4274 101.828 97.4274 101.828 50.5598 50.5598 181.14 91.9015 93.8688 91.9015 93.8688 46.8676 46.8676 165.488 84.2506 87.2711 84.2506 87.2711 45.0338 45.0338 148.338 74.2084 78.2172 74.2084 78.2172 39.2168 39.2168 135.325 67.4493 70.1207 67.4493 70.1207 34.9917 34.9917 123.162 62.6611 65.2045 62.6611 65.2045 32.4577 32.4577 111.535 56.2632 57.9571 56.2632 57.9571 30.2035 30.2035 102.056 51.0766 53.5775 51.0766 53.5775 26.0598 26.0598 92.8464 47.057 48.4781 47.057 48.4781 25.0168 25.0168 85.7114 42.7086 44.3682 42.7086 44.3682 22.0401 22.0401 77.3285 38.5361 41.3432 38.5361 41.3432 20.6685 20.6685 69.1259 35.2381 35.9853 35.2381 35.9853 17.8676 17.8676 63.2067 32.0257 33.1406 32.0257 33.1406 17.3705 17.3705 56.78 27.7296 30.0661 27.7296 30.0661 14.6552 14.6552 51.2404 25.5673 26.7139 25.5673 26.7139 13.0744 13.0744 46.0303 23.1187 24.5265 23.1187 24.5265 12.493 12.493 42.7526 21.2741 21.5038 21.2741 21.5038 10.6257 10.6257 38.6143 19.3538 21.2488 19.3538 21.2488 10.6484 10.6484 31.9335 15.5732 17.3655 15.5732 17.3655 8.70536 8.70536 28.8258 14.366 14.5679 14.366 14.5679 6.86788 6.86788 25.8623 14.0925 14.2579 14.0925 14.2579 7.49808 7.49808 25.6641 14.2629 11.6045 14.2629 11.6045 6.59446 6.59446 25.8484 13.4889 14.0597 13.4889 14.0597 7.66845 7.66845 21.7021 9.98509 11.7888 9.98509 11.7888 5.82043 5.82043 20.7764 8.75042 9.91331 8.75042 9.91331 4.16465 4.16465 20.9787 10.1956 10.8631 10.1956 10.8631 4.58577 4.58577 10.1156 5.60985 10.1156 5.60985 10.1156 5.60985 5.60985 110.783 110.267 54.2754 223.003 110.267 172.727 158.187 77.9199 54.2754 110.783 110.267 54.2754 77.9199 54.2754 110.943 112.736 223.814 186.715 188.88 56.5076 110.943 112.736 94.8071 56.5076 106.704 111.078 217.151 181.212 187.047 54.4353 106.704 111.078 91.9083 54.4353 99.2213 106.073 200.948 171.777 180.34 52.2688 99.2213 106.073 89.3032 52.2688 91.7497 94.8748 182.303 159.804 165.389 46.9526 91.7497 94.8748 82.4734 46.9526 84.527 87.4281 166.484 146.074 151.004 44.7972 84.527 87.4281 77.3304 44.7972 73.6687 79.056 147.578 128.374 136.931 39.7298 73.6687 79.056 68.7436 39.7298 64.4169 68.5219 129.774 112.859 121.364 33.9389 64.4169 68.5219 59.6307 33.9389 58.0739 61.2523 115.892 101.449 106.921 30.478 58.0739 61.2523 53.2282 30.478 53.7026 54.6399 104.776 92.0613 95.6894 27.5959 53.7026 54.6399 48.2212 27.5959 49.0193 50.1366 94.1642 83.0993 86.5644 26.1067 49.0193 50.1366 43.84 26.1067 41.1201 44.0276 82.1797 71.9883 76.905 22.9126 41.1201 44.0276 39.2593 22.9126 35.9824 38.1521 73.2549 63.3492 67.3633 18.2075 35.9824 38.1521 32.729 18.2075 33.4803 35.1027 66.7992 59.8296 61.9063 17.7748 33.4803 35.1027 30.6202 17.7748 29.7443 31.6964 59.8949 54.5381 57.908 15.7055 29.7443 31.6964 29.2095 15.7055 26.1578 28.1985 52.8669 47.1497 51.8274 14.0388 26.1578 28.1985 25.3287 14.0388 22.8422 24.6684 46.5592 41.2715 44.0882 12.1191 22.8422 24.6684 21.821 12.1191 22.1222 21.8908 44.619 38.9946 40.993 10.7231 22.1222 21.8908 19.4504 10.7231 19.5891 22.7282 41.0356 36.0901 41.0972 11.3991 19.5891 22.7282 19.5441 11.3991 16.5537 18.3074 36.4498 33.2157 34.7779 8.19003 16.5537 18.3074 16.5459 8.19003 16.2217 18.1424 33.831 32.1423 34.0261 8.36367 16.2217 18.1424 16.6698 8.36367 16.0915 15.6886 30.0305 30.4962 30.4086 7.85804 16.0915 15.6886 15.4725 7.85804 14.1116 14.3419 26.5841 28.2006 27.3518 8.23343 14.1116 14.3419 15.0237 8.23343 11.4276 12.2422 22.471 24.4708 25.0639 5.87821 11.4276 12.2422 13.1769 5.87821 11.9254 10.2288 21.2728 22.9243 22.2566 5.54935 11.9254 10.2288 11.2938 5.54935 10.4722 11.0439 20.0634 22.6774 21.1574 6.37605 10.4722 11.0439 11.6305 6.37605 8.79261 9.01945 18.9622 20.1867 21.4103 4.09612 8.79261 9.01945 11.0469 4.09612 10.5624 9.94275 21.0369 21.0447 20.1121 4.69649 10.5624 9.94275 9.1398 4.69649 10.2012 11.0941 20.3021 21.2513 21.3853 5.86588 10.2012 11.0941 11.9049 5.86588 8.76728 9.20793 18.028 18.8824 18.4185 4.33535 8.76728 9.20793 9.34634 4.33535 8.03176 8.82006 16.5274 18.4905 19.3525 4.43193 8.03176 8.82006 9.53606 4.43193 3.59982 7.70737 7.70737 8.95444 18.2342 3.59982 3.59982 7.70737 8.95444 3.59982 124.064 47.9198 101.064 75.0157 37.455 61.944 47.9198 23.6445 37.455 23.6445 152.114 128.73 125.304 75.7725 76.1444 63.6086 38.2994 150.237 129.111 130.971 74.5075 75.9693 65.1213 37.4731 144.781 124.041 128.544 72.5553 74.2674 63.9893 37.0345 134.09 115.225 118.763 68.0541 70.5141 60.0519 35.5209 121.451 104.108 110.522 61.547 63.5763 55.1732 32.5332 110.717 93.707 99.085 54.7055 57.8746 48.935 29.0138 98.5107 84.5987 91.1321 48.4419 52.842 44.7721 25.6917 86.7183 75.1179 81.1961 43.3755 45.6688 39.8266 22.7502 77.4773 66.4459 70.9183 38.3587 41.0495 35.2912 20.6253 69.3052 60.395 64.7527 34.08 36.4278 31.1546 17.7334 62.0887 56.182 59.4867 30.8682 32.8775 29.2404 16.3467 56.0147 49.5963 53.9643 27.3669 29.2112 26.9416 14.5215 53.0151 46.6485 48.0561 26.3493 26.8036 22.6547 12.8453 49.8405 44.8302 47.1125 24.7939 26.2116 23.9937 13.504 43.0486 40.017 42.4799 20.9918 23.6289 20.8365 11.2899 38.5219 35.9117 37.4367 18.4293 19.4197 19.1805 9.70197 37.4713 35.2546 35.9431 16.8724 19.1022 16.7311 8.72733 34.8395 33.4927 37.0104 16.501 18.3691 18.5235 8.14508 32.3542 29.9158 30.3169 16.662 16.4705 14.9692 8.35588 30.6037 30.1323 29.5479 15.9205 15.8837 14.9466 8.3061 27.7299 28.4651 30.2631 14.4047 14.72 15.1857 7.61445 25.8316 27.4245 26.1489 14.089 13.0099 13.2794 6.79025 24.8494 26.9308 28.0104 13.0432 12.8217 14.1451 7.29873 22.1412 23.7366 26.0999 10.9989 12.0278 12.7857 5.74447 22.5043 24.3814 20.909 12.2053 10.1134 10.951 5.25446 22.5602 24.019 26.0613 11.3941 12.3909 13.4305 6.9508 20.4606 22.8004 22.4655 10.4824 10.1694 10.5885 4.44331 19.5018 22.1268 22.1326 11.05 10.2912 12.2119 6.03904 19.743 19.7555 19.678 10.1151 9.21059 9.91489 5.01099 21.0593 20.4621 20.2309 10.4587 10.5324 9.84058 5.10413 10.5268 10.6215 20.1239 5.35462 10.5268 10.6215 5.35462 76.2553 27.096 70.4256 49.8031 24.3701 39.1197 27.096 13.8105 24.3701 13.8105 104.161 96.6643 89.9209 52.9574 49.1593 46.0555 25.3092 109.278 100.911 101.532 54.6031 55.0018 50.6087 27.6482 102.526 94.7954 99.9565 51.4859 54.2764 50.3021 26.9549 95.1948 85.7512 90.2858 47.171 48.2491 44.4933 24.531 88.1562 78.1777 85.2994 42.5612 46.9457 41.2579 22.64 79.5006 73.0337 73.893 39.0015 41.2105 36.9198 19.9212 73.8175 67.9508 71.6444 36.1567 38.2901 36.1138 19.0803 65.3962 60.0503 65.1652 31.7424 35.5273 31.8369 17.0764 58.1937 53.9554 56.494 28.0872 29.8688 28.2134 14.666 54.9341 51.4229 54.3423 26.3149 28.3249 25.742 13.4213 51.3623 49.5717 51.8483 25.3138 26.6092 25.6809 12.8937 46.0056 43.967 47.3563 22.2295 24.7531 23.8908 12.4201 42.1534 40.225 42.1623 20.2992 21.2525 20.0763 9.80941 39.7519 40.2498 41.1854 20.0364 20.9009 20.1487 10.4897 36.868 37.0064 38.6915 19.0252 18.851 20.1011 9.54665 34.8579 34.3205 34.9131 17.4824 18.017 16.9054 9.47855 35.4823 36.6033 34.2732 18.3822 16.8409 17.4151 8.00381 32.4878 33.3242 35.81 16.9918 18.6414 19.1882 10.3784 27.5107 27.3753 30.3575 13.2538 13.8465 14.136 6.61335 29.2073 28.0307 28.3639 14.2117 13.6643 13.2394 6.64048 28.6821 28.6608 30.8878 14.0604 15.5431 14.7913 7.57125 28.3277 27.9725 29.2218 13.3355 13.139 13.8695 6.48914 29.2609 28.0289 30.0303 13.8876 15.1887 14.1029 6.84639 24.8677 27.152 29.3428 12.7377 14.0721 13.926 7.04122 24.466 25.7666 24.8708 12.1762 10.7956 13.226 5.6965 25.9666 24.0961 26.2084 12.6249 13.6705 12.5406 6.47967 24.1376 23.2371 24.4098 12.3181 12.2962 11.5555 6.14523 22.3088 22.547 23.3699 11.0768 11.8414 11.6816 6.17286 20.1659 20.8465 23.022 9.64035 10.4674 10.8655 4.9039 19.2955 20.8515 19.5742 10.0034 9.69846 9.98097 4.73646 9.59704 10.8705 18.944 5.2669 9.59704 10.8705 5.2669 63.4687 22.7071 70.7116 51.7768 24.7698 31.3059 22.7071 10.5596 24.7698 10.5596 87.2915 98.5534 91.037 43.7068 40.7616 45.9418 20.7464 92.2101 103.373 105.116 46.3077 46.5299 52.6116 22.9605 87.7169 95.6636 100.658 43.3095 45.6802 50.7614 23.3472 80.3904 87.3363 92.0811 38.5802 42.0367 44.9022 19.9623 71.0362 82.1118 87.262 35.6165 38.3537 42.4341 18.6179 66.0368 76.5879 76.4167 34.0322 32.6825 39.6777 16.9986 62.9922 68.8081 72.362 31.794 33.3543 36.9102 17.0335 56.2631 60.5262 64.7128 28.3079 29.6379 31.8979 14.7605 52.6426 56.4737 58.4368 25.8682 26.6252 28.6284 13.5474 51.2566 54.9288 57.1906 25.108 26.0174 27.8453 12.3208 47.8423 52.9054 53.1695 24.2579 25.2391 27.0834 12.7872 43.513 47.1449 51.0689 21.7375 22.6032 25.8219 11.4707 41.1943 41.9348 43.0992 19.9258 20.9098 21.323 10.2669 40.125 42.5087 43.3232 20.2134 20.2845 20.6118 9.65896 36.7366 39.0395 42.192 17.9813 19.8405 21.8969 10.5544 34.3284 35.9091 38.3037 16.8381 16.8961 17.1427 7.42681 34.6009 35.7427 37.4646 18.2211 17.4322 18.7665 9.41134 33.6797 34.4802 35.8643 16.3324 17.1686 16.9762 8.80975 31.2107 31.9958 36.2614 14.1215 16.511 17.504 7.52263 30.0444 29.5431 29.1186 13.8189 14.6997 14.4918 6.59888 31.4275 29.6668 32.2847 14.6004 15.3447 15.0513 7.22004 30.9244 29.9588 30.7323 14.6369 16.0828 14.6154 7.3804 30.1122 29.0208 29.7311 14.1413 14.8416 15.3433 7.25653 29.3458 29.7783 29.0471 14.4143 15.2706 13.6774 6.88476 26.6131 27.6005 30.1334 13.5904 14.0752 16.1009 7.52949 24.6516 23.9876 23.8029 11.4712 12.5379 11.4997 6.06092 23.6421 25.1848 26.1781 10.919 12.1136 12.488 5.41028 24.083 24.4184 24.2125 11.4703 11.5284 12.6969 5.50869 22.4304 22.5424 22.9612 11.2061 12.5546 11.7216 5.96158 19.2227 21.5958 20.6954 10.8481 9.87573 10.8208 5.24452 9.34692 10.775 18.7609 5.60359 9.34692 10.775 5.60359 79.3451 29.0697 96.4991 73.5417 36.1075 39.4057 29.0697 14.2103 36.1075 14.2103 108.862 130.226 121.265 54.8466 50.2754 60.3916 25.1954 113.564 134.346 137.687 57.0653 58.5864 69.8346 29.6512 105.022 121.914 130.174 52.3541 54.9774 64.5119 27.4142 98.9527 112.845 116.427 48.7562 50.0444 57.4025 24.9399 92.6425 107.1 111.191 46.4953 48.9083 55.4427 23.8162 82.7419 97.3794 102.292 42.5558 43.7342 51.6575 22.679 74.0826 87.0424 92.2731 37.0141 39.0077 45.7219 19.8767 66.8866 79.8834 83.7131 32.2183 35.075 41.3205 17.1374 62.9848 75.0572 76.8809 30.6055 31.8116 38.5629 15.0809 59.1036 69.4822 72.2373 29.8208 31.1732 36.4943 15.5246 56.3961 65.4953 64.0966 28.6475 27.9304 32.9879 14.2962 50.6551 58.9438 63.6865 25.4074 28.4657 32.5074 14.3513 45.2281 52.1633 54.5304 22.009 22.1894 26.4364 11.0561 45.3901 50.761 51.9193 22.2953 23.0387 25.7269 10.9529 43.7591 47.7861 49.8633 21.0583 22.3515 25.034 11.3424 41.44 43.8019 46.8904 19.071 21.4076 22.7521 9.71584 38.7281 40.2591 42.9921 17.5216 20.0324 21.0498 9.35513 38.446 41.21 40.225 18.1479 18.6957 19.2093 8.16645 34.1693 37.7422 43.1804 17.8743 19.7504 22.0007 9.98139 31.359 31.9998 32.6561 15.7242 14.419 15.7415 7.89294 31.5895 31.8461 34.2539 15.0663 16.94 16.2582 7.83127 29.539 31.4709 32.1531 15.3218 14.6495 15.5878 7.23504 28.666 30.5789 31.1819 14.8795 14.8896 15.8831 8.08678 29.8347 30.3737 29.2893 15.364 13.7765 14.6958 6.79268 27.3232 27.3867 29.1781 14.0101 16.0582 15.6779 8.57137 25.3294 24.7764 23.4993 12.5164 11.265 11.7089 5.43874 26.7485 27.1994 25.4785 14.2658 14.0644 13.0676 7.07768 23.0906 25.4756 25.501 12.9482 12.6841 14.1318 7.18817 21.2262 21.6601 21.4122 11.3363 10.4065 11.3438 5.76001 20.2337 20.2412 21.2537 10.7477 10.8197 10.3163 5.57628 9.41399 9.92495 19.5412 5.17138 9.41399 9.92495 5.17138 115.462 44.472 141.309 113.297 56.8286 57.0934 44.472 21.8972 56.8286 21.8972 150.09 177.496 170.024 75.3796 70.99 84.4801 35.1962 154.297 178.338 184.444 77.2812 79.1003 93.0164 40.1834 141.578 164.235 172.11 69.5603 75.1962 85.3215 37.0977 128.665 152.161 157.376 64.089 66.3821 78.9137 32.4626 120.841 139.475 144.323 60.6049 62.2832 73.2471 31.6264 111.823 125.749 132.775 54.8237 58.5574 66.2281 28.9784 101.903 114.303 121.081 50.0283 53.2654 59.5208 25.8452 93.7074 107.194 109.525 47.6651 48.6381 54.7824 24.1831 86.1334 99.7955 101.865 44.4517 45.0693 52.4111 23.482 77.2303 89.6746 92.7566 39.6614 41.0641 47.3844 20.9697 71.387 82.1657 84.0654 36.8478 36.1662 42.2902 18.6917 67.5619 74.1516 77.7128 33.5364 35.2208 39.8754 18.1561 61.2217 66.3729 70.1859 30.1543 32.341 34.2762 15.3802 56.3925 61.8302 64.0232 28.4657 28.8807 32.0967 14.7741 52.9945 57.0614 59.084 26.7278 27.5118 29.7334 13.6916 48.4425 53.1572 53.8232 24.7309 25.4828 27.328 13.0362 44.489 49.5917 50.1367 22.7376 22.9597 25.8292 11.6947 44.9593 46.0574 46.9133 23.0621 21.5293 23.7625 11.0429 41.6671 41.7929 45.1014 19.8678 23.43 22.2949 12.0193 35.5509 38.0363 41.8369 16.2756 18.2371 19.498 7.84859 34.8174 35.1022 36.4695 16.7797 17.3138 18.5383 8.42696 33.7959 32.2718 34.0196 16.1491 17.5036 16.5639 8.35278 31.8052 31.4115 31.7513 15.6994 16.2923 15.7079 7.79628 28.6327 28.9458 30.463 15.0097 15.5128 15.7037 7.90314 25.3541 26.5104 26.3544 13.3766 13.1199 13.2421 7.10652 23.6483 26.3315 24.4638 12.26 12.2343 13.2683 6.27011 24.231 26.8113 24.4815 12.9335 11.4141 13.0632 5.98989 23.8226 23.9331 25.0313 12.5274 12.8169 13.7481 6.94364 21.4396 19.6336 21.2942 10.3238 11.0056 10.185 5.58378 20.5612 18.4433 20.6977 9.49355 10.434 9.44854 4.73999 10.1272 8.9948 19.1016 4.75357 10.1272 8.9948 4.75357 167.859 68.8254 207.483 181.739 92.1782 84.2153 68.8254 34.9314 92.1782 34.9314 204.378 230.595 228.899 102.117 99.0335 115.305 49.2839 202.258 222.808 230.743 101.057 105.344 115.29 52.833 187.908 207.859 215.494 94.6749 96.9141 107.518 48.2237 173.034 193.23 199.792 88.0718 90.994 100.341 46.4511 156.257 177.14 184.24 78.8703 82.0399 92.8887 41.6207 142.032 160.164 167.138 70.9252 74.2173 84.2509 37.2496 128.702 145.513 152.156 64.2749 67.8152 75.9128 33.6756 117.683 133.658 137.918 59.5285 60.8866 69.5998 30.5994 108.488 123.22 126.5 55.3438 56.796 64.0581 28.9291 99.5917 110.514 117.022 50.0132 51.6925 59.1614 26.4146 90.3913 100.589 103.964 45.3178 47.8992 51.3522 23.5985 80.3369 91.5943 95.6186 40.6152 42.492 49.237 21.7193 72.9874 82.008 84.5705 36.2186 37.8449 42.3572 18.8959 66.7148 76.3673 78.9217 33.3645 35.1426 39.6508 17.3227 59.9127 69.126 71.2952 30.3336 31.5723 36.7165 16.0418 55.5174 62.3141 64.2628 28.4263 28.3404 32.4095 14.2918 52.561 58.0352 56.8145 26.8541 27.177 29.9046 14.1345 47.0554 52.0457 54.7007 22.9953 25.384 28.1305 12.7196 45.2712 47.5981 49.0685 21.925 21.6714 23.9152 10.2757 42.7555 44.6724 47.6874 21.7607 23.5998 23.683 11.6494 35.6717 39.8009 40.0437 18.3225 19.1557 20.9894 10.1114 31.975 35.3833 37.249 16.1227 16.516 18.8115 8.21112 30.4092 32.0723 32.5484 15.7121 15.459 16.5718 7.91157 28.1847 28.3959 31.2622 13.9361 14.9502 15.5006 7.80053 25.464 24.9036 27.7294 13.1338 13.2345 12.8954 6.13557 25.2969 25.4727 24.6486 14.0715 12.2295 12.0082 6.99818 25.2818 26.2373 26.3516 13.8778 13.0674 13.4645 7.07333 22.5029 23.1227 23.6787 11.4057 12.2143 12.7728 6.80445 20.5523 21.3358 20.1123 9.3098 10.2885 10.3499 4.60125 19.2381 19.7329 22.056 8.94979 10.2637 10.9859 4.70855 8.97442 8.74697 18.9351 4.24124 8.97442 8.74697 4.24124 242.778 112.913 123.268 112.913 57.2468 123.268 112.913 57.2468 57.2468 57.2468 255.265 128.478 129.865 128.478 129.865 66.021 66.021 243.979 121.751 125.399 121.751 125.399 62.4573 62.4573 227.378 113.184 118.58 113.184 118.58 59.2938 59.2938 210.999 105.158 108.798 105.158 108.798 53.8901 53.8901 195.121 98.2693 102.201 98.2693 102.201 51.268 51.268 177.262 89.2385 92.9209 89.2385 92.9209 47.0012 47.0012 161.373 81.2378 84.341 81.2378 84.341 42.2373 42.2373 146.736 74.1295 77.0316 74.1295 77.0316 39.0005 39.0005 135.034 67.8758 69.704 67.8758 69.704 35.129 35.129 121.395 60.5005 65.33 60.5005 65.33 32.7468 32.7468 109.191 55.2714 56.0645 55.2714 56.0645 27.7537 27.7537 99.8521 50.979 53.1265 50.979 53.1265 27.5177 27.5177 90.5047 45.7894 46.7256 45.7894 46.7256 23.4613 23.4613 83.5021 43.0028 43.7791 43.0028 43.7791 22.3281 22.3281 75.6453 38.7924 39.7229 38.7924 39.7229 20.6747 20.6747 65.5599 33.8878 35.9224 33.8878 35.9224 18.1177 18.1177 58.9542 31.181 29.6375 31.181 29.6375 15.7701 15.7701 56.7138 29.0504 29.3167 29.0504 29.3167 15.4109 15.4109 51.4847 25.6731 27.3971 25.6731 27.3971 13.6395 13.6395 44.9756 22.9116 24.0876 22.9116 24.0876 12.0336 12.0336 41.6211 21.4785 20.888 21.4785 20.888 10.8781 10.8781 37.8225 19.2606 20.7331 19.2606 20.7331 10.6004 10.6004 33.4014 16.3602 17.0894 16.3602 17.0894 8.66018 8.66018 30.8068 14.4598 16.312 14.4598 16.312 7.70004 7.70004 26.914 11.7698 14.4949 11.7698 14.4949 6.75978 6.75978 25.7033 11.4012 12.4191 11.4012 12.4191 5.01001 5.01001 24.7486 12.3596 13.2842 12.3596 13.2842 6.39121 6.39121 21.2881 11.717 11.4644 11.717 11.4644 5.96835 5.96835 21.616 12.026 9.82375 12.026 9.82375 5.74865 5.74865 21.7529 10.7831 11.7923 10.7831 11.7923 6.27736 6.27736 9.96063 4.50574 9.96063 4.50574 9.96063 4.50574 4.50574 112.22 111.244 55.9915 224.517 111.244 174.34 159.498 80.2667 55.9915 112.22 111.244 55.9915 80.2667 55.9915 112.871 113.273 225.529 189.212 189.088 56.2283 112.871 113.273 94.0733 56.2283 110.447 112.255 218.816 186.176 189.65 56.6427 110.447 112.255 95.1389 56.6427 101.726 106.561 201.058 173.952 180.296 53.8041 101.726 106.561 91.037 53.8041 90.5531 94.4967 181.211 156.589 163.67 47.9222 90.5531 94.4967 82.9155 47.9222 81.957 86.7143 165.197 141.861 149.668 42.6309 81.957 86.7143 73.674 42.6309 73.9091 78.4828 146.748 129.92 134.713 39.3262 73.9091 78.4828 68.187 39.3262 65.3573 68.2653 130.704 115.426 119.818 34.5829 65.3573 68.2653 61.7332 34.5829 57.8183 62.4385 117.296 101.161 107.891 30.7744 57.8183 62.4385 53.693 30.7744 51.0739 54.8575 102.134 90.1925 96.1877 27.0439 51.0739 54.8575 47.4682 27.0439 45.1449 47.2766 90.0403 80.3701 83.5428 24.03 45.1449 47.2766 42.7243 24.03 41.0596 42.7638 81.4928 72.28 76.5963 21.115 41.0596 42.7638 37.6458 21.115 37.2725 38.7291 74.4022 65.9204 68.2811 19.9446 37.2725 38.7291 34.6343 19.9446 33.3189 35.6731 67.6082 59.9847 62.5736 17.3279 33.3189 35.6731 31.2861 17.3279 30.1507 31.9351 61.0408 55.1973 57.5783 15.991 30.1507 31.9351 28.6986 15.991 26.7091 29.1057 54.4184 48.7659 52.8765 14.1597 26.7091 29.1057 26.4987 14.1597 23.7171 25.3127 47.7103 43.8097 45.4053 12.5494 23.7171 25.3127 22.2671 12.5494 22.4968 22.3977 44.4477 43.0957 41.4461 11.1677 22.4968 22.3977 21.5426 11.1677 21.4465 22.05 42.1488 39.7851 40.922 11.3291 21.4465 22.05 21.5531 11.3291 19.8961 20.0988 38.5798 35.5883 38.2203 10.1174 19.8961 20.0988 18.232 10.1174 17.6093 18.481 33.3064 32.2924 34.5482 9.77871 17.6093 18.481 17.3563 9.77871 13.939 14.8254 26.9702 27.2642 27.5716 7.83054 13.939 14.8254 14.9361 7.83054 12.4724 12.1448 25.9515 24.215 24.298 6.10847 12.4724 12.1448 12.3281 6.10847 11.0434 13.8067 24.5529 22.8497 26.3644 6.36397 11.0434 13.8067 11.8869 6.36397 9.34737 10.7462 20.825 20.4897 22.1141 4.67947 9.34737 10.7462 10.9628 4.67947 9.59123 10.0788 20.1602 19.8903 20.0928 4.6679 9.59123 10.0788 9.52689 4.6679 10.1696 10.0814 20.2969 21.3357 22.2838 4.92333 10.1696 10.0814 10.3634 4.92333 10.4745 10.2155 20.518 20.4527 20.6496 5.24626 10.4745 10.2155 10.9723 5.24626 10.1008 10.3025 19.7649 18.5526 20.4338 5.22826 10.1008 10.3025 9.48039 5.22826 9.2607 9.46241 18.6225 18.8886 18.8493 4.87258 9.2607 9.46241 9.07218 4.87258 8.49567 9.16006 18.9293 19.0962 19.8739 4.38812 8.49567 9.16006 9.81643 4.38812 4.10755 9.76922 9.76922 9.27976 19.0478 4.10755 4.10755 9.76922 9.27976 4.10755 124.07 48.2546 99.2558 76.3736 37.5607 62.1202 48.2546 24.2752 37.5607 24.2752 153.21 127.545 125.047 76.3412 75.8152 61.6951 37.845 151.13 130.404 131.778 75.7291 77.3945 65.8498 38.4962 142.908 123.266 126.686 72.2261 73.7353 64.5544 37.2329 132.127 114.06 116.179 66.0364 69.1729 58.7113 34.9932 119.184 105.499 110.289 59.9039 62.9538 55.3488 31.0431 107.783 96.5101 96.2609 56.011 56.2302 50.1501 28.8608 97.0057 87.7295 89.2748 50.0688 51.5531 46.36 27.1502 86.7828 76.9966 79.6578 43.3428 45.4526 41.3695 22.9186 77.5964 69.2251 72.0243 39.1186 41.3302 35.6271 20.4242 70.0987 63.8443 65.3366 35.2252 36.2662 33.598 18.6944 63.3845 57.269 60.9344 31.2204 33.8325 30.2463 16.5308 56.4525 52.424 54.5346 28.6479 29.552 27.0227 14.6896 52.5437 48.5201 48.7181 26.6658 26.9005 25.4013 13.9582 49.4139 44.7621 46.1481 25.0466 25.6432 23.1187 12.7076 43.8634 39.8996 44.0431 22.0568 23.7708 21.6434 12.339 39.1411 37.4682 37.6849 20.0926 20.0926 18.2562 9.71775 37.9204 37.6989 36.1397 20.5989 19.0484 19.212 10.3749 36.9935 33.8346 35.7812 18.3386 18.872 18.4869 10.224 34.1887 29.9491 34.1202 15.6922 18.1216 15.3477 8.1146 28.8134 29.6787 31.5531 14.6831 16.0672 14.6014 7.57759 24.8994 27.9469 28.9848 13.3252 12.7463 15.0774 7.10556 24.7108 26.7348 26.8861 11.7426 12.1532 12.8695 6.21965 23.9256 27.1795 27.2074 11.8062 12.5577 13.8653 5.52294 21.382 23.2723 24.8571 11.1423 11.368 13.3142 6.28331 22.2164 22.5889 22.0762 10.2991 10.014 9.95807 4.85899 22.6365 24.5079 25.1153 11.1661 12.2024 12.6309 5.44007 20.5654 21.7977 22.4884 9.9782 10.4341 11.877 5.72607 19.5182 19.6838 21.3025 8.45174 10.1313 9.92071 4.25213 20.1007 20.1534 20.8537 9.62791 9.38688 9.7631 4.1996 19.9924 19.8927 21.1709 10.6005 10.7138 10.3903 5.42831 9.27854 9.50235 19.0141 5.17221 9.27854 9.50235 5.17221 77.3504 28.119 69.2983 51.0577 25.433 37.1356 28.119 13.2855 25.433 13.2855 103.615 94.7883 89.4933 51.2037 49.2314 43.8653 23.8501 107.334 100.577 100.892 54.675 54.3838 50.923 27.3536 99.956 95.4469 96.9661 51.0396 52.9502 49.6544 27.3215 94.3411 89.8341 89.8975 48.0238 47.0058 45.7925 23.7181 87.3659 81.0147 85.5871 45.595 47.3353 44.0416 24.3057 77.7524 72.5037 73.3046 40.4991 40.0306 36.9731 21.2893 71.927 68.8589 70.1635 37.6607 37.7217 35.5306 19.2098 64.8993 61.6089 65.2792 33.6538 34.2052 33.3283 18.4509 59.7645 56.8809 56.9273 30.1065 30.6941 28.2806 15.2029 56.1723 54.7677 56.1681 28.6191 29.0704 28.6003 14.9036 52.0845 49.633 51.1429 26.0485 27.1019 26.1674 13.7155 46.8002 45.5516 46.3648 23.7761 24.9826 23.4655 12.333 42.3226 43.1228 43.4439 21.8543 21.8176 22.0861 11.4431 40.7773 39.6271 40.6156 19.7155 20.5049 21.0367 10.4111 37.8646 36.5981 38.9058 17.8428 20.2723 18.5904 9.30437 34.6836 34.8657 36.6457 17.3755 17.5923 18.0077 8.53842 34.0006 33.4798 33.8141 17.1001 17.0913 16.858 8.83712 32.9079 32.8433 34.7258 15.496 16.9093 16.6218 8.26294 31.4845 31.3461 33.6482 14.2569 15.9986 16.2215 7.23311 31.7245 31.221 32.8695 14.9956 15.4859 15.1245 7.02377 30.9715 31.4488 32.5053 14.6217 16.2386 16.0965 7.97181 29.3826 31.2797 31.1494 14.9922 14.7329 15.3523 6.64986 28.1389 31.3442 30.0774 15.3733 14.6497 15.9274 8.34236 25.5513 27.0615 28.6787 12.13 13.4892 15.4168 7.03091 24.9751 25.3126 27.0423 12.2899 12.0622 11.6448 5.09908 24.9672 26.5221 24.8635 13.3417 12.9129 13.6678 7.1908 23.2255 24.5426 24.0937 11.8195 12.0543 12.8543 6.15094 22.6381 23.8449 22.5103 11.2321 11.1712 11.6883 5.66858 21.924 21.7498 22.7053 10.5255 11.4668 12.1565 5.56349 20.1927 17.6667 19.8898 9.29215 10.4571 9.59322 4.96201 9.73558 8.07348 17.7632 4.33014 9.73558 8.07348 4.33014 63.2006 22.9387 72.1022 51.3518 27.007 32.1627 22.9387 12.1475 27.007 12.1475 86.7704 97.5999 91.1308 43.5846 40.2619 45.0952 20.0152 90.5244 102.401 104.556 45.9024 46.5085 52.5047 23.5694 86.9075 97.0752 98.1609 44.4073 44.0159 49.8962 22.333 81.1435 92.0068 93.4986 41.8102 42.8917 47.1789 22.0744 71.5258 81.5669 86.7503 35.4197 38.2518 44.8279 19.7359 65.7157 72.1908 75.9329 32.0047 33.274 36.739 15.6839 63.5157 68.2667 70.3977 31.1982 32.4417 35.4518 16.3208 57.3071 62.6234 66.7987 27.9552 31.074 32.8149 14.8774 53.3308 59.1537 60.1292 26.7744 26.2332 29.8085 13.0778 51.1387 55.4314 58.5524 26.1486 27.0976 29.3453 13.6966 45.4232 51.3331 51.7983 23.5844 24.041 26.0861 12.4519 43.0084 47.0232 50.3394 21.7755 21.3822 25.247 11.1325 41.7369 44.4876 44.8527 21.2685 21.6262 21.7762 10.643 38.7441 43.0064 45.0469 19.9116 20.1107 22.7114 10.6256 37.6869 41.4562 39.9087 18.7553 18.6335 20.2951 9.28603 35.7763 39.8592 40.8797 17.4902 19.0534 21.1611 9.46931 34.5394 37.5862 37.9125 16.3798 16.7228 18.6981 8.0209 35.4661 37.6455 38.3967 17.3473 17.8165 18.8881 8.35887 35.0332 33.3842 37.0974 17.0892 17.6496 18.7574 8.9884 33.6504 31.8602 33.2244 16.2255 17.3836 14.6268 8.10078 32.6832 33.3503 34.2001 16.8271 16.2667 17.2334 8.12467 31.8442 30.5047 30.7136 16.2875 16.4165 16.1169 8.70244 30.6172 29.7575 29.4604 15.9709 15.4277 14.3878 7.58503 30.1697 29.4022 29.4408 14.9316 15.1895 15.3696 8.38586 26.9308 26.3358 29.5596 13.0227 14.9802 14.0325 6.54569 23.99 25.9934 24.9988 13.1804 11.9506 12.3033 6.47701 23.3785 25.2058 27.3959 12.7231 12.0394 13.6901 6.70335 22.5776 22.7552 23.1849 12.6128 11.3391 11.5157 6.01974 20.6711 21.1142 20.3356 11.2243 11.2385 11.2396 6.59305 17.4603 17.8606 19.3125 8.37455 9.43264 9.87462 4.63121 8.02765 7.98594 16.7761 3.74334 8.02765 7.98594 3.74334 79.2821 28.4132 98.3081 72.8701 37.4342 39.9395 28.4132 14.8595 37.4342 14.8595 108.917 128.726 123.496 54.0153 50.8689 60.8739 25.08 112.193 133.514 136.3 56.4985 58.0479 67.8522 28.9353 104.752 124.686 129.083 52.6678 54.1451 65.6617 27.5633 99.1054 114.773 119.459 50.1966 50.6069 59.0241 25.1045 91.1575 106.383 109.548 46.1472 48.4985 55.7488 25.0921 80.615 97.1852 100.625 40.1861 42.659 50.6341 21.0552 73.6807 88.9437 92.4695 37.0685 37.956 46.5511 19.131 69.6208 80.7106 84.2601 34.6683 35.7247 42.3926 17.9376 65.3508 74.061 77.6107 32.3793 33.896 38.318 16.7307 59.2121 66.8517 71.7147 29.2828 31.4548 35.743 15.6486 56.7145 62.2878 62.4311 27.7486 27.7573 31.1087 13.6342 52.1837 59.2732 62.6637 25.2477 28.9573 31.1792 14.1145 48.1627 54.2865 56.1239 23.2191 23.2265 28.0941 11.1333 46.2114 51.0216 53.8293 23.0949 24.9362 26.1924 12.0858 43.1014 48.9675 47.6726 22.7008 21.2752 24.8292 11.0091 43.0159 46.0806 46.8603 22.369 21.8262 24.1383 11.6918 41.7699 42.9579 44.4239 21.2065 21.1897 21.9423 10.6772 40.028 42.1954 42.3976 20.2982 20.5802 21.0157 10.5292 35.2886 38.0943 41.184 16.295 19.4478 21.1797 9.76896 33.7741 34.9102 36.6071 15.6348 15.8408 16.9145 6.52602 32.2305 34.5609 36.6452 16.5232 17.9334 17.9956 9.10876 28.3298 31.8641 31.101 14.2172 14.2971 16.5653 7.41444 28.2839 29.8923 31.205 13.7866 14.0327 15.2988 6.80279 28.8307 28.0936 27.6136 14.4706 14.2512 14.5935 6.98377 27.6277 25.2906 26.6415 13.3131 14.5794 13.5002 7.48683 28.4047 24.2013 24.3891 12.813 13.0482 11.7904 5.82625 27.2023 23.7801 27.1009 12.4827 15.3565 12.4109 6.98675 20.9429 21.4376 24.4666 10.1425 11.8458 11.3692 5.49592 18.977 21.0058 19.3105 9.88995 9.09712 10.0684 4.64654 18.6284 20.5536 20.5726 9.48601 9.87987 10.9374 5.24341 8.74848 9.61621 19.5425 4.2426 8.74848 9.61621 4.2426 117.084 44.457 142.012 112.274 56.4688 58.3686 44.457 22.5747 56.4688 22.5747 150.878 176.971 171.427 74.7108 72.6267 85.5435 35.7939 153.19 178.217 181.175 77.0154 78.2516 91.4279 38.9169 143.791 165.251 170.877 72.018 74.9384 86.7889 38.0984 129.901 149.538 157.867 64.5763 68.8522 78.4625 33.9196 119.015 137.623 142.42 60.2357 61.0492 71.0759 30.6568 112.479 128.106 133.056 56.9991 57.9658 66.5466 29.5789 103.049 116.302 122.808 51.8752 54.5135 61.5598 27.4201 92.2501 104.196 110.071 46.0423 48.5354 54.7422 24.455 83.9745 94.8264 100.833 41.6817 43.7146 49.4542 21.5873 74.9337 87.1474 91.248 37.5689 40.2599 45.3722 20.0944 68.3803 79.6126 83.0851 34.5392 34.6738 41.7752 17.4745 66.6039 73.7472 76.1171 34.0255 33.7065 37.8374 17.0647 61.7905 67.8363 71.4955 31.0674 32.8974 35.9098 16.9608 55.2905 61.2771 65.2781 27.9268 28.8931 31.9265 14.1066 51.4315 55.8458 57.9705 26.2667 26.3974 29.3506 13.8202 48.2683 50.8027 54.5234 23.7116 25.0341 26.4952 12.4466 45.0517 47.4583 49.9358 21.7515 23.2342 24.3075 11.265 43.5536 45.9573 48.7747 21.8972 21.8175 23.1508 10.4864 42.5025 45.1454 43.8531 21.7993 21.7362 22.8065 11.4108 39.4782 40.2702 44.2469 19.2754 20.7663 22.339 10.3885 35.5157 35.3869 36.927 18.0377 18.7118 17.9312 8.88688 33.9761 33.4991 33.3597 17.6469 16.8039 17.4557 9.15082 30.5347 30.8028 32.7734 16.1057 17.1723 16.0435 8.49606 25.4244 27.8716 26.0376 13.623 13.3624 14.7594 7.60968 23.4029 24.3077 25.9983 11.9775 12.062 13.1123 6.01334 23.0852 22.6137 24.1674 11.3883 11.3408 11.1955 5.96417 24.3651 22.7015 25.1405 11.2975 11.7444 11.4183 5.42417 22.8342 22.3923 24.9824 11.2952 12.6208 11.2832 5.87329 20.9061 22.3583 22.1974 11.1159 10.2134 11.1092 5.42187 21.4868 21.356 22.1638 11.0676 10.6927 11.2492 5.694 10.7941 10.1068 18.99 5.3736 10.7941 10.1068 5.3736 166.617 67.8174 203.154 180.699 89.5604 83.6437 67.8174 33.894 89.5604 33.894 201.723 229.047 228.088 102.261 98.8001 113.594 49.7496 198.862 223.429 228.012 101.201 102.923 115.453 52.511 184.954 207.427 214.335 93.2333 95.9386 107.976 48.6904 170.386 190.803 198.549 84.9621 89.0149 99.4507 44.5429 156.462 174.239 184.76 77.3868 81.371 91.3518 40.4192 143.385 159.131 168.141 71.1073 75.0906 82.8873 36.9677 129.83 144.562 153.779 64.4268 68.2946 76.2433 34.1396 118.654 130.76 138.106 58.1541 61.5352 68.3184 30.2872 108.107 120.303 127.66 53.1447 57.1185 62.4419 27.8669 99.3994 110.473 115.629 49.5785 50.9881 57.861 25.2778 90.8219 98.9931 106.165 45.0734 48.4113 52.6116 24.3007 81.0087 88.5948 94.4939 39.7217 42.4106 46.3815 20.7727 74.9831 81.4842 86.615 36.7689 38.5981 42.2132 18.949 67.9581 73.8496 79.7484 33.3503 36.385 39.2709 17.8199 61.0624 66.432 68.9168 29.5791 31.5731 34.5787 15.5304 56.191 58.7633 64.404 27.0911 29.4893 31.8534 14.0486 53.6588 53.4801 55.7064 25.7069 26.7016 26.9099 13.0424 49.0741 51.7235 54.0203 24.0601 26.9572 26.5702 12.6644 45.5975 49.1578 49.665 23.3461 22.1169 25.1533 11.3957 41.6957 43.0588 47.2686 20.9948 23.4805 24.0045 11.9504 34.771 37.4918 39.8926 17.3492 18.2152 19.0543 9.04433 32.1569 34.4142 36.6327 15.8523 16.5558 18.4375 8.30484 28.2763 31.7383 33.1845 14.6971 15.6011 15.9767 7.54743 26.6115 30.5956 28.3618 14.2486 12.6752 15.7616 7.14968 26.7629 27.4744 30.3391 12.3302 13.9363 14.834 7.09892 26.2227 25.5275 27.2311 11.2254 12.8266 12.6404 5.2313 25.7577 23.793 27.374 11.404 13.3961 12.8871 5.9941 24.3456 20.6683 23.2655 11.0972 12.3616 10.9059 5.40989 23.455 20.8324 22.258 11.2425 11.984 9.7624 5.6873 19.667 21.2581 20.9611 10.2883 11.471 11.0701 5.55516 8.19598 10.1881 17.1358 4.73319 8.19598 10.1881 4.73319 242.17 112.882 119.511 112.882 55.6664 119.511 112.882 55.6664 55.6664 55.6664 254.377 126.786 129.288 126.786 129.288 63.8442 63.8442 243.486 122.228 125.089 122.228 125.089 62.942 62.942 227.93 114.194 118.397 114.194 118.397 59.2858 59.2858 212.922 105.84 109.534 105.84 109.534 54.9078 54.9078 196.439 96.8522 103.389 96.8522 103.389 50.9326 50.9326 178.534 88.0234 93.0503 88.0234 93.0503 45.9197 45.9197 162.055 80.1349 85.484 80.1349 85.484 42.1037 42.1037 147.112 72.6062 76.5709 72.6062 76.5709 38.0312 38.0312 135.182 67.1582 70.5413 67.1582 70.5413 34.575 34.575 122.394 60.8941 64.6404 60.8941 64.6404 32.5832 32.5832 109.837 53.9197 57.754 53.9197 57.754 28.3108 28.3108 100.1 48.8731 52.0833 48.8731 52.0833 25.6088 25.6088 91.3804 44.7153 48.0169 44.7153 48.0169 23.2643 23.2643 80.7071 40.4993 43.3634 40.4993 43.3634 21.451 21.451 72.2584 36.8529 37.3437 36.8529 37.3437 19.0482 19.0482 63.9195 31.6722 34.9147 31.6722 34.9147 17.8047 17.8047 56.0679 27.7732 29.0048 27.7732 29.0048 13.8675 13.8675 54.6112 27.6634 27.0631 27.6634 27.0631 13.9058 13.9058 51.3362 25.8117 27.5481 25.8117 27.5481 13.7576 13.7576 45.4655 22.064 23.7881 22.064 23.7881 12.054 12.054 41.7544 20.1426 21.6774 20.1426 21.6774 10.01 10.01 37.6604 18.5619 20.0769 18.5619 20.0769 10.1327 10.1327 33.27 17.0412 17.5834 17.0412 17.5834 8.42926 8.42926 32.0894 16.347 15.6866 16.347 15.6866 8.61195 8.61195 30.8074 15.1442 16.4028 15.1442 16.4028 7.73508 7.73508 28.3825 14.3021 14.4046 14.3021 14.4046 7.40909 7.40909 24.8818 12.389 13.9779 12.389 13.9779 6.89298 6.89298 21.178 9.57112 10.9039 9.57112 10.9039 5.49602 5.49602 19.7642 9.58999 10.2741 9.58999 10.2741 4.0751 4.0751 18.4299 10.9698 9.49011 10.9698 9.49011 5.51489 5.51489 8.9398 5.45489 8.9398 5.45489 8.9398 5.45489 5.45489 112.297 111.248 55.2525 224.46 111.248 174.247 162.415 79.2318 55.2525 112.297 111.248 55.2525 79.2318 55.2525 112.658 113.213 223.48 189.526 188.205 57.0449 112.658 113.213 95.0151 57.0449 108.369 110.267 213.876 183.77 186.608 55.6127 108.369 110.267 94.5109 55.6127 99.3312 103.609 195.096 170.013 175.093 52.7567 99.3312 103.609 89.2591 52.7567 90.6579 91.4867 177.123 156.748 158.484 46.5745 90.6579 91.4867 80.7542 46.5745 83.24 85.6359 161.749 142.52 146.703 44.0834 83.24 85.6359 75.994 44.0834 72.839 76.1132 142.728 124.611 131.542 39.1566 72.839 76.1132 66.526 39.1566 65.3465 66.6147 128.36 112.283 114.736 33.6823 65.3465 66.6147 58.0852 33.6823 59.4777 61.7452 116.572 102.918 107.287 31.6641 59.4777 61.7452 54.1982 31.6641 51.0602 54.8268 102.95 89.5379 95.7583 27.8136 51.0602 54.8268 48.7195 27.8136 44.8954 48.1233 91.0101 79.7689 84.4532 23.2466 44.8954 48.1233 40.8184 23.2466 40.4332 42.8868 80.5042 72.5973 76.7807 21.6488 40.4332 42.8868 38.9505 21.6488 37.1297 37.6174 73.47 64.9343 67.3967 18.7844 37.1297 37.6174 33.6468 18.7844 34.2893 35.8526 68.1594 60.1672 62.1417 18.3452 34.2893 35.8526 31.2875 18.3452 30.8901 32.3068 61.8042 55.2575 57.1836 15.9441 30.8901 32.3068 28.8797 15.9441 27.7093 29.4974 54.513 49.5159 52.2701 14.946 27.7093 29.4974 26.3777 14.946 23.9933 25.0156 46.3902 43.0417 46.0934 12.7633 23.9933 25.0156 23.1382 12.7633 21.9509 21.3746 41.6386 39.2724 39.3047 11.23 21.9509 21.3746 19.9035 11.23 20.7023 20.264 39.5439 39.3572 39.2973 10.7209 20.7023 20.264 19.3689 10.7209 18.6837 19.2799 35.9534 37.1802 36.7549 9.98136 18.6837 19.2799 19.9883 9.98136 15.6971 16.6735 31.6071 29.8274 32.5762 8.70231 15.6971 16.6735 17.1919 8.70231 13.0312 14.9336 28.7935 24.6054 28.1039 6.99482 13.0312 14.9336 12.6355 6.99482 13.4791 13.8599 28.6838 26.4473 26.6791 6.03636 13.4791 13.8599 11.9699 6.03636 13.5094 14.8239 25.5638 25.6288 28.6102 7.44272 13.5094 14.8239 14.4775 7.44272 11.4776 10.7399 21.1807 21.7173 22.0208 6.0667 11.4776 10.7399 11.1514 6.0667 10.569 10.4408 20.7747 22.4863 20.5724 5.4109 10.569 10.4408 10.5659 5.4109 10.1274 10.3339 19.9694 21.5977 23.4368 5.1581 10.1274 10.3339 11.9204 5.1581 10.0434 9.63554 20.3098 20.6307 20.1264 4.96925 10.0434 9.63554 9.67731 4.96925 9.66402 10.6742 21.1146 20.7305 23.9263 5.07419 9.66402 10.6742 10.9534 5.07419 9.36176 10.4404 20.0894 19.8346 22.0431 4.58983 9.36176 10.4404 9.7771 4.58983 10.4336 9.64905 19.1042 19.8255 18.2666 4.77193 10.4336 9.64905 10.0575 4.77193 5.66167 9.45514 9.45514 9.768 17.7806 5.66167 5.66167 9.45514 9.768 5.66167 126.16 51.1674 102.164 80.2349 38.8129 61.9496 51.1674 23.9793 38.8129 23.9793 151.333 129.28 123.574 76.8685 74.9927 63.3515 37.9702 147.825 128.06 129.43 75.4006 76.3406 65.9285 38.8982 138.482 119.599 121.332 70.6821 71.4845 62.1311 36.5024 128.064 112.408 112.548 66.0903 66.9977 57.4674 34.1797 116.495 101.051 106.428 59.28 61.0668 54.9402 31.9106 103.55 89.0256 94.1729 51.7723 55.4287 46.1108 27.3694 93.6631 81.2031 85.9838 46.9369 48.1213 42.9148 24.4029 86.4733 74.6855 78.6184 43.44 45.5419 38.2883 22.534 77.2614 68.1358 72.951 38.4778 40.9315 36.3972 20.906 70.2238 62.4267 64.5559 34.8735 36.3299 31.7386 17.5718 63.6732 58.2 61.7623 32.1641 33.8939 30.6881 17.3017 56.0684 50.8287 55.5914 27.8046 29.7793 27.5119 14.8624 51.1659 46.3462 49.1118 25.8779 26.2891 23.3168 12.9423 47.6495 45.4291 45.0137 24.3673 24.8768 23.0294 12.9356 43.8504 41.8284 44.0147 21.8066 22.7727 22.3997 11.4317 39.0079 36.3565 40.175 19.0484 21.0778 19.4288 10.3749 36.9635 34.2221 35.6303 17.3215 17.9302 16.9277 8.67356 36.5084 36.0668 35.6076 18.6549 19.0333 17.2943 8.64799 33.3777 35.7242 34.731 18.4965 17.475 18.7725 10.007 29.073 30.8592 32.0378 14.1303 15.9027 16.9517 8.48957 25.9895 27.924 28.7746 11.5742 13.1703 13.9074 5.6407 26.6055 27.3587 28.9605 12.9682 12.8192 14.0166 5.93351 25.0672 24.885 26.4553 12.1194 13.7863 13.3421 7.03474 21.4124 23.661 24.3867 10.2397 11.2809 11.5429 5.08467 23.2345 24.6025 23.2022 11.9173 10.1315 12.1181 5.15501 23.5938 23.0958 25.0303 11.4704 13.1029 12.4844 6.76232 23.743 21.9932 21.7109 10.5872 10.4909 10.6114 4.70805 24.8548 22.4725 24.6946 11.0665 13.2521 11.3818 5.87919 20.2202 21.8713 23.1886 10.4728 11.6027 11.0906 5.18727 16.943 20.2924 19.4418 9.39186 8.61752 10.7806 5.28553 8.32545 9.51177 18.2495 4.10633 8.32545 9.51177 4.10633 77.649 29.0675 71.2527 49.0576 25.6247 40.2148 29.0675 14.8335 25.6247 14.8335 101.671 95.5973 87.9991 52.4115 48.5815 45.628 25.3813 102.937 97.2809 96.9557 52.6589 53.0893 49.9693 27.0302 95.3973 91.4166 93.0403 48.9164 49.8474 47.3116 25.6287 90.911 85.6505 88.5038 46.3173 45.5499 44.105 23.2877 84.1054 77.877 82.0838 41.7709 45.3612 41.5455 23.0296 76.6068 70.9643 73.893 37.2533 38.7442 36.3315 18.7414 70.9391 66.5837 71.0025 34.2662 37.8625 34.6329 18.5119 65.0961 60.5976 65.9863 31.2456 33.0766 31.9509 15.7543 60.2455 56.2144 60.3927 29.658 32.0195 28.6467 15.4912 56.0945 52.5433 54.114 27.5531 28.226 27.5678 14.1668 53.6805 47.8747 51.34 26.0359 27.8684 24.9755 13.3864 48.6348 44.257 47.6642 23.0241 25.8121 22.8992 12.6496 42.9595 40.9367 45.981 20.4683 22.8227 21.3578 10.3745 41.3788 39.8943 40.7864 21.0617 20.1368 19.5789 10.0938 40.3392 38.9534 40.6352 20.0218 21.242 20.3154 10.968 36.7975 35.5941 37.9521 17.308 19.0973 18.638 9.05387 34.2745 35.0601 35.3058 16.9005 17.7002 16.9561 8.25418 33.8302 35.5307 33.289 17.4119 16.5743 18.104 8.64633 33.3911 35.1717 34.5139 17.2277 17.2559 17.4267 8.76552 31.7394 34.1538 34.8793 16.7289 16.1352 17.745 8.46214 31.7456 32.2059 31.0357 16.3498 15.6043 16.4088 8.26674 28.8103 29.9472 31.3712 14.3904 16.1413 15.7971 8.08306 25.7748 27.412 29.3333 12.7656 12.669 14.15 6.30737 26.1766 28.6595 27.1575 13.4214 13.1058 13.2619 6.45827 24.9981 26.5933 29.385 12.6852 13.0707 15.3976 6.96308 23.1474 22.4351 23.739 11.6255 11.9274 11.1957 5.72211 22.6625 22.0614 22.1255 11.406 11.22 11.2394 5.90334 23.0284 21.3708 22.7363 11.406 11.4425 10.822 5.50265 22.4102 20.8453 22.4654 11.3985 11.5859 10.5488 5.90335 20.7483 19.9863 19.4951 10.9005 10.8243 10.2965 5.49511 9.92402 9.68975 19.3606 5.40544 9.92402 9.68975 5.40544 59.4077 19.9902 70.3805 46.5031 24.3449 31.0379 19.9902 10.7912 24.3449 10.7912 83.2839 98.0874 89.4186 43.1858 39.4175 46.0356 20.2467 87.0593 100.316 100.737 44.622 43.8664 52.0518 22.9391 86.1469 94.5843 96.389 42.5002 43.1929 48.2647 21.6829 79.6766 88.2421 93.7715 39.3333 42.954 46.3196 20.8173 71.8714 81.1163 82.4381 36.1061 36.7227 41.9224 18.516 68.2887 74.1398 79.0841 33.711 35.1487 39.1939 17.5901 66.0497 68.9297 71.3599 32.3175 33.1399 34.946 16.1209 61.283 64.3045 68.997 29.352 32.9097 33.9837 16.1966 54.2612 59.5279 62.6305 26.5564 28.3732 30.3207 13.1554 49.3596 54.9194 58.2363 24.9901 25.888 29.2072 13.401 45.3238 50.8047 53.077 21.8388 23.4716 25.7122 11.5891 45.0105 48.1689 51.1878 21.2329 21.8521 25.0925 10.2497 43.8079 45.412 47.7889 20.4684 23.1583 23.0765 10.9833 40.0429 41.9491 46.4375 18.8325 20.6496 22.3355 9.4851 38.2481 39.3322 40.9073 18.9315 19.3933 19.6136 9.34744 36.4605 38.933 39.4395 18.286 18.8549 19.7186 9.58411 34.3203 38.723 39.6112 18.1596 17.6056 19.2144 8.70193 33.9726 37.8486 36.1443 18.1188 16.7146 19.5086 9.45765 36.0021 36.9376 35.5353 17.944 17.2579 18.34 8.66117 34.1756 35.5643 36.2745 17.4249 18.7441 18.5976 9.28285 30.6613 31.5634 33.4406 15.8561 15.4314 16.9667 8.14208 31.8942 29.6693 30.6364 15.5567 15.2299 14.5968 7.71406 30.716 29.1437 32.0228 14.6463 16.6643 15.0726 7.84266 30.366 29.5983 28.8111 15.2382 14.0517 14.0712 6.80368 28.1259 28.2227 31.9303 13.9081 16.3143 15.5271 8.43448 22.717 26.4014 25.1899 10.8097 11.8116 12.6956 5.47361 22.1993 25.3751 25.9967 10.6554 10.9054 13.7058 5.33605 22.1734 20.7653 23.9836 9.96479 11.2938 11.6693 5.31938 19.5503 18.5339 22.0662 9.44684 10.8795 9.096 4.64541 18.1074 18.2281 18.8797 9.08574 8.67081 9.43789 4.80143 9.4366 8.7902 18.002 4.28432 9.4366 8.7902 4.28432 76.514 26.5129 98.0576 70.7532 35.436 39.3426 26.5129 13.5537 35.436 13.5537 106.872 131.069 120.72 54.9016 50.0011 62.6217 25.7889 110.067 131.869 134.928 55.6945 56.8709 68.4474 29.1127 104.014 123.857 126.158 52.0842 53.1961 63.4218 26.5818 96.533 114.234 119.321 48.9088 50.8176 60.435 25.5024 89.6508 103.789 107.417 45.0102 45.7154 53.7989 23.4065 82.1554 95.909 102.426 40.4288 43.9354 49.9906 21.6038 74.3073 87.7859 91.5387 36.6122 38.22 45.9184 18.825 70.3445 81.1602 84.2663 34.9525 36.0873 41.8675 17.7872 66.6056 75.2644 80.0423 32.9715 34.2572 39.2927 17.1653 61.9537 67.2941 73.8987 29.9293 32.3484 35.9717 15.8062 58.941 62.807 64.4117 28.9659 29.6054 31.3224 14.1231 53.9663 59.5144 62.5595 26.936 29.3357 31.4846 14.8428 50.4185 55.6667 55.7445 24.9436 24.6306 28.0298 12.0932 47.3019 50.4803 56.6555 23.1166 25.7879 27.6369 12.8504 42.0987 45.5654 46.7303 20.4006 21.514 22.8434 10.2661 42.5902 45.2037 45.7961 20.6469 20.5847 22.722 10.1345 41.4352 43.8636 45.7498 20.5634 22.0056 22.4816 10.5125 37.707 41.3862 42.2718 19.7298 19.4296 21.382 10.0509 35.8077 39.6968 38.0393 18.9936 18.2774 20.0043 9.67884 35.5395 38.3421 37.8158 18.1393 17.5304 19.6926 9.31473 33.4157 33.1853 36.8364 15.7073 18.0092 18.6495 8.8246 30.765 30.4419 33.2824 14.1126 15.4066 14.5358 6.8827 30.1179 28.9263 32.1585 14.4974 15.3584 15.9061 7.22991 30.3754 26.1615 26.8989 14.3601 14.7594 13.0202 7.26747 28.9943 25.74 29.0641 14.3146 15.6159 13.1413 7.09262 28.4696 27.2886 26.0682 15.5917 13.3783 12.5986 7.22198 27.781 27.7873 26.7248 14.7197 15.0913 14.69 8.36977 23.8764 22.3395 24.5859 10.8005 12.6898 13.0974 6.3499 21.3955 18.8773 21.6631 9.08705 11.1866 9.24213 4.45059 18.7743 19.5615 21.0889 9.14234 10.2089 9.63519 4.63646 8.56544 9.92634 18.4222 4.50588 8.56544 9.92634 4.50588 114.96 44.2403 141.689 115.472 55.8056 58.715 44.2403 21.8822 55.8056 21.8822 148.777 175.63 170.956 76.1675 70.7193 85.8832 36.8328 151.019 173.835 181.438 76.1747 78.0572 89.7469 39.3347 141.465 163.493 169.082 71.7726 72.9615 84.0881 36.8399 130.205 150.749 157.4 65.3251 68.5032 79.4046 34.9326 120.192 137.854 144.653 58.7793 61.7018 71.3442 30.3924 111.809 127.758 132.558 55.4802 58.4905 66.5098 28.3869 101.498 116.577 122.418 51.1737 53.3187 61.2483 27.0933 93.9641 106.707 111.156 46.2077 48.179 55.3283 24.0804 87.3354 97.2548 103.85 42.2928 45.7851 51.379 22.1273 76.3566 87.1857 93.7709 37.3648 41.5503 45.8758 20.1655 68.0301 79.5896 82.5444 33.8411 34.8063 41.3099 17.1993 64.3377 73.8654 76.3729 32.5784 33.2238 38.2797 16.6418 61.9816 68.9373 70.6197 30.7231 31.1139 35.5857 15.9366 56.0839 61.9715 68.4581 27.3637 30.8677 33.3516 14.7865 50.4277 56.6482 58.4314 25.1648 25.2162 28.6199 12.5772 48.9556 53.6566 57.3024 24.5567 25.2114 28.0283 12.5876 46.5864 51.2522 51.1269 23.3002 23.7442 25.6284 11.9692 42.6041 46.6704 48.8143 21.6564 22.8422 25.6238 11.331 40.0473 42.9546 41.8979 20.7033 19.7619 21.0466 10.3254 39.1127 40.9038 42.1136 20.2028 20.2854 21.9079 10.3778 36.7031 34.8998 38.2456 17.478 18.8273 18.9958 9.82495 34.676 32.6339 36.1101 16.3293 17.8759 15.904 7.65305 28.9396 28.0082 33.0921 14.4289 16.8001 16.7299 8.67622 25.5877 24.1643 26.7387 11.8014 12.1395 11.2782 5.75271 26.1381 25.858 27.9228 11.4254 13.4482 12.8861 6.0487 24.3234 26.6941 27.69 11.6969 12.6899 12.9719 5.37666 23.5296 27.4214 23.9264 13.0677 11.6335 13.7222 6.32021 22.3726 24.7874 26.1424 11.539 11.8961 13.6992 6.74747 21.3566 22.0028 22.6953 9.79027 10.4765 11.0882 4.79154 20.7368 19.7979 21.9353 10.4192 10.8801 10.9146 4.99873 9.85672 8.88325 17.7926 5.42046 9.85672 8.88325 5.42046 171.469 71.2318 205.633 186.738 91.1385 82.9738 71.2318 33.9234 91.1385 33.9234 203.618 227.054 233.846 99.4626 100.237 114.494 49.0504 199.501 218.918 230.12 97.6604 103.381 112.559 50.4122 185.017 205.457 214.291 91.7202 96.1205 106.359 47.2482 171.848 192.506 199.464 85.4238 88.8964 99.0978 44.472 157.019 178.662 188.366 79.0747 82.9513 93.4081 40.9518 143.167 162.789 166.741 72.2779 74.0676 85.2536 38.1229 132.076 147.323 155.381 65.4029 69.099 77.5353 34.155 121.041 135.006 141.396 60.4996 62.9765 69.7877 31.2479 110.285 122.985 128.286 54.962 58.0647 65.2179 29.2516 99.9587 111.321 118.154 49.8209 52.2206 57.7675 25.7103 90.8872 101.666 106.113 45.7485 47.7381 53.5538 24.1106 82.6549 92.5141 95.9961 41.287 43.1491 48.1124 21.6379 77.0962 84.8793 87.6657 38.2142 39.5058 44.4018 19.6491 70.8056 74.8156 82.0522 34.6078 37.5904 40.4775 18.5651 65.3062 66.8888 70.0819 31.4833 33.2152 34.3381 16.0427 59.4737 61.3472 66.414 29.0999 32.091 32.5507 15.4407 53.3547 56.2467 59.2723 27.952 27.3827 28.7965 13.6592 48.108 51.9619 53.9548 25.014 25.9721 27.4502 14.2928 43.9642 47.7758 49.5387 22.2513 22.136 24.5117 10.7212 41.2466 44.1025 45.1036 20.701 21.8282 23.2641 11.5301 37.6526 39.0336 40.9298 17.4218 19.4183 20.8383 9.17086 34.5263 35.4031 37.5416 16.3047 18.2342 18.1952 8.25097 30.8912 29.808 33.4128 13.5792 16.292 17.2079 8.0537 29.0738 28.1053 29.9879 12.3629 14.5992 12.6002 5.52553 29.4747 30.0959 29.622 14.4326 14.4746 15.5051 6.83737 27.293 29.0777 28.7196 14.9973 15.0001 14.5907 7.59526 26.5392 26.8466 25.5966 14.3537 12.2929 14.487 7.40202 26.4651 24.8552 26.2356 13.2484 14.2463 12.3596 6.95171 23.274 22.3867 23.409 12.2125 12.2188 12.4956 6.29666 18.9911 16.8388 20.0537 9.37867 11.0552 9.89109 5.91588 7.93589 6.9477 16.0514 3.46279 7.93589 6.9477 3.46279 249.116 115.507 122.659 115.507 57.2151 122.659 115.507 57.2151 57.2151 57.2151 260.348 127.591 133.609 127.591 133.609 65.4438 65.4438 244.909 121.258 126.739 121.258 126.739 62.1471 62.1471 228.738 113.737 118.171 113.737 118.171 59.1109 59.1109 215.982 107.082 110.567 107.082 110.567 54.6258 54.6258 198.088 99.5869 105.415 99.5869 105.415 52.4562 52.4562 178.955 90.511 92.6735 90.511 92.6735 47.1307 47.1307 164.701 81.92 86.2817 81.92 86.2817 43.3803 43.3803 148.641 74.506 78.4192 74.506 78.4192 38.5397 38.5397 136.154 68.0234 70.2215 68.0234 70.2215 35.9663 35.9663 124.308 61.5003 65.9329 61.5003 65.9329 32.0572 32.0572 111.222 55.9177 58.3752 55.9177 58.3752 29.4432 29.4432 101.007 51.2271 52.847 51.2271 52.847 26.4745 26.4745 92.6217 46.665 48.1599 46.665 48.1599 24.7526 24.7526 81.3285 40.2078 44.4618 40.2078 44.4618 21.9124 21.9124 71.1898 35.4054 36.8667 35.4054 36.8667 18.2954 18.2954 66.2126 32.2473 34.323 32.2473 34.323 17.11 17.11 59.8723 28.2947 31.8896 28.2947 31.8896 15.1373 15.1373 55.3855 26.9478 27.9827 26.9478 27.9827 13.1574 13.1574 50.6782 25.5245 27.4028 25.5245 27.4028 13.7905 13.7905 44.7868 23.4015 23.2754 23.4015 23.2754 11.734 11.734 40.8188 21.6117 21.5114 21.6117 21.5114 11.6675 11.6675 36.4281 19.0984 19.3073 19.0984 19.3073 9.94428 9.94428 32.5096 16.2288 17.1208 16.2288 17.1208 9.15416 9.15416 30.5361 15.7424 15.3887 15.7424 15.3887 7.07464 7.07464 28.8669 15.6632 15.1473 15.6632 15.1473 8.66776 8.66776 27.0233 14.0804 13.7195 14.0804 13.7195 6.99548 6.99548 25.293 12.4928 13.3037 12.4928 13.3037 7.08494 7.08494 23.1796 11.6069 11.9893 11.6069 11.9893 5.40789 5.40789 20.1888 10.1742 11.1903 10.1742 11.1903 6.19899 6.19899 17.114 7.46012 8.9985 7.46012 8.9985 3.97522 3.97522 8.11555 3.48491 8.11555 3.48491 8.11555 3.48491 3.48491 112.163 114.751 55.9954 227.444 114.751 176.374 173.846 83.1835 55.9954 112.163 114.751 55.9954 83.1835 55.9954 110.822 112.693 218.764 185.287 186.21 56.1676 110.822 112.693 93.1901 56.1676 105.506 106.071 203.401 177.931 177.152 54.6544 105.506 106.071 92.0967 54.6544 95.7643 97.3304 186.026 163.564 165.258 50.8521 95.7643 97.3304 85.8342 50.8521 86.4647 88.6954 170.105 148.439 150.864 44.9122 86.4647 88.6954 77.7302 44.9122 78.5091 81.4097 154.394 135.725 139.16 41.5525 78.5091 81.4097 70.7087 41.5525 69.889 72.984 138.099 121.667 126.322 36.9566 69.889 72.984 65.0158 36.9566 63.0134 65.115 125.25 109.74 113.03 32.9324 63.0134 65.115 56.6508 32.9324 57.0942 60.135 114.297 100.128 106.834 30.081 57.0942 60.135 53.0889 30.081 51.8899 54.1622 103.092 90.6735 96.2456 27.0132 51.8899 54.1622 47.0387 27.0132 46.1147 48.9295 91.4191 81.465 87.0404 24.8767 46.1147 48.9295 43.6348 24.8767 40.071 42.4896 80.5717 71.5802 76.4199 21.238 40.071 42.4896 37.8302 21.238 36.3403 38.0821 73.1864 64.6042 68.5627 18.8329 36.3403 38.0821 33.7499 18.8329 33.87 35.1043 67.3209 59.1581 63.2725 17.5074 33.87 35.1043 30.8542 17.5074 30.914 32.2165 61.4808 54.1962 57.8488 16.3627 30.914 32.2165 28.3039 16.3627 26.8037 29.2643 54.1441 48.8475 52.5203 14.5514 26.8037 29.2643 25.8923 14.5514 22.3969 24.8798 46.2821 42.3564 46.2312 12.2523 22.3969 24.8798 22.9552 12.2523 19.6877 21.4023 41.1735 39.3296 40.4252 10.1446 19.6877 21.4023 19.4012 10.1446 18.8417 19.7712 38.1532 36.6951 39.0099 9.54311 18.8417 19.7712 19.9284 9.54311 17.2698 18.3819 35.133 32.151 34.4417 9.29855 17.2698 18.3819 16.7666 9.29855 15.9099 16.7511 33.3525 30.8527 31.3759 7.9712 15.9099 16.7511 15.3843 7.9712 15.7623 16.6014 32.2789 30.1776 30.8281 7.93875 15.7623 16.6014 15.4684 7.93875 15.2047 15.6775 29.5433 28.8419 29.7624 7.82354 15.2047 15.6775 14.7092 7.82354 12.0544 13.8658 25.6911 25.0022 26.3266 7.38114 12.0544 13.8658 14.1327 7.38114 9.70315 11.8252 22.7722 20.8759 23.514 4.67323 9.70315 11.8252 10.8695 4.67323 10.2057 10.9469 20.9927 21.5228 23.0709 5.02993 10.2057 10.9469 10.0065 5.02993 9.84208 10.0458 19.1812 21.9655 23.1738 5.17579 9.84208 10.0458 11.5164 5.17579 10.2663 9.13537 19.6653 23.4221 20.0524 4.66628 10.2663 9.13537 10.4491 4.66628 11.4506 10.53 20.8617 25.239 24.3526 5.60005 11.4506 10.53 12.973 5.60005 10.7277 10.3317 19.1161 20.4751 22.0622 5.85056 10.7277 10.3317 12.266 5.85056 8.67058 8.78435 16.3941 16.2217 17.4935 4.87711 8.67058 8.78435 8.20911 4.87711 3.79347 7.60975 7.60975 8.01258 18.1589 3.79347 3.79347 7.60975 8.01258 3.79347 132.611 59.0951 101.645 90.4953 41.422 64.2106 59.0951 27.1881 41.422 27.1881 144.597 123.724 118.457 74.4648 73.5162 60.2228 37.0225 139.009 122.702 118.187 72.4245 71.0808 63.5015 37.4424 130.096 114.281 113.737 67.8001 67.9277 59.2008 34.9821 119.918 106.568 106.577 61.9742 62.1685 55.0802 32.818 111.088 99.5499 100.542 57.2154 57.7498 51.4877 29.1561 101.253 91.1312 93.9981 51.7777 53.3381 48.0621 28.0592 94.6134 83.3991 86.799 46.7262 47.9146 43.069 23.7184 88.7822 76.8839 81.4251 43.0333 46.6988 40.3301 23.0078 80.1944 69.3711 75.8515 38.7836 42.0834 36.5538 20.0255 72.0412 63.8916 66.9883 35.3503 38.111 32.8174 18.7581 64.4108 59.1538 62.1114 31.5092 33.9302 31.0742 16.5922 58.6487 53.8745 55.8062 28.2638 30.4806 28.0795 14.917 53.8004 47.7793 52.3262 25.288 28.1681 25.795 13.3468 48.8882 43.5993 47.2097 23.2822 25.6322 21.9843 11.9412 44.6074 42.3612 44.8843 22.0438 23.256 21.615 11.341 40.3743 39.4489 41.9364 19.9595 21.3514 20.7463 10.7029 38.2615 37.0159 39.024 19.6419 19.0229 18.7026 9.25661 35.2984 34.2718 34.6821 17.8534 19.2386 18.3133 10.3853 30.6845 31.0446 32.4731 14.8812 16.0598 15.9585 7.46808 28.8515 29.9533 31.3855 14.9427 14.6248 15.0861 7.41312 28.3117 29.811 28.9517 14.4153 14.2267 14.8672 7.52962 26.5457 28.0571 30.591 13.6373 14.0849 14.9439 6.88567 24.1495 25.957 25.4511 12.9478 12.4607 13.1132 6.7516 23.8128 23.928 25.5498 11.1728 11.6887 12.8438 6.19623 25.252 23.63 25.8579 11.3171 12.124 11.0842 4.97653 24.045 23.6454 25.2945 12.1234 13.128 12.5458 6.34059 24.7397 24.4123 22.7123 13.1558 10.9171 11.0995 5.78285 25.5531 25.4107 24.1185 13.7883 13.8226 13.3127 7.37291 20.4395 20.7592 23.1381 9.74743 11.7304 12.098 6.41543 19.2583 17.3989 19.0217 7.55111 8.7091 8.6612 3.33199 10.5491 8.7377 20.7067 4.21911 10.5491 8.7377 4.21911 76.3407 31.4002 65.804 50.9551 23.4329 37.4342 31.4002 14.2339 23.4329 14.2339 92.0471 89.3575 78.8865 49.2594 44.9404 42.3711 23.2003 92.9159 92.7151 86.504 50.2778 47.1066 46.9864 26.0591 90.2179 90.1275 87.8611 46.4808 45.8092 45.7287 24.2187 87.2011 84.9371 87.7865 44.5937 44.4087 44.3988 22.2621 83.4524 78.0998 80.8201 42.3345 42.7924 40.5383 22.3316 79.5445 73.9311 76.1812 39.3535 40.66 37.5615 20.0029 73.6108 70.405 74.003 36.6729 38.8844 36.3696 19.3506 68.4944 65.7815 67.7311 33.8505 34.7263 34.0354 17.3223 62.6454 58.2923 62.8282 30.5875 33.7681 31.7461 16.5283 57.0585 52.9108 56.2127 28.5413 28.8773 26.5462 14.0593 53.5067 51.1296 54.4418 27.6446 28.1811 26.3646 14.4821 49.4837 49.3882 50.0428 25.6107 25.3256 24.765 13.1625 45.7356 45.8308 48.3031 22.4912 24.1581 24.6232 12.4482 43.2058 41.5274 44.0696 20.3171 21.5775 21.2075 10.0431 42.2134 39.634 42.6866 20.3174 21.6283 20.3198 10.274 40.5861 37.6639 39.8231 19.4894 20.5851 19.3142 10.0434 35.4446 33.5347 39.544 17.374 20.0011 18.3497 9.44601 31.8568 32.2721 32.9615 16.4184 15.4435 15.185 7.92797 33.1741 34.2215 34.0279 16.1634 16.4133 17.0872 8.4904 31.4857 31.7612 35.5891 15.0105 16.7607 17.1343 7.67301 31.231 30.2009 30.3013 15.3958 14.725 14.6269 7.33753 29.4964 30.7573 32.7386 14.4198 16.5061 15.574 8.05822 26.8514 29.0788 29.3282 13.0092 12.9903 15.1833 6.36162 27.5949 27.883 29.453 12.7552 13.861 13.8956 6.64758 25.9005 26.5307 28.4551 12.3129 13.7339 13.9875 6.10763 23.9618 23.4293 25.7731 11.5219 12.1666 12.5432 6.20526 22.0911 22.8003 23.3794 11.2565 11.7952 10.8861 5.31669 21.7035 23.831 21.843 11.6224 10.2958 11.9143 5.93982 21.7202 21.1153 22.7532 11.0118 11.4076 11.9167 5.68257 20.4701 18.8695 19.1783 9.84779 10.3126 9.19858 5.32921 10.1575 9.67088 20.6481 4.51859 10.1575 9.67088 4.51859 53.5009 19.5549 65.5412 44.1443 22.1582 28.3698 19.5549 9.19899 22.1582 9.19899 73.3434 92.0686 80.3065 40.0981 33.946 43.383 19.1708 81.4492 96.8098 93.8359 42.4373 39.3974 48.6855 20.9273 85.4296 95.5762 94.9876 43.6467 42.0518 48.1243 21.51 81.4055 87.9675 94.7212 40.3434 43.3778 47.4519 22.1367 73.5488 80.4059 84.9604 35.7653 38.0277 40.5157 18.2067 70.6397 76.3042 82.1694 34.5776 35.5211 39.8902 17.5586 68.1233 71.4272 74.336 33.7321 35.1186 36.414 17.019 62.0649 67.323 71.0465 31.931 33.0047 35.0133 16.7132 56.3955 61.3389 62.3706 27.7048 29.0601 32.3097 15.2178 53.596 56.3939 61.0587 24.3695 27.3354 29.0292 12.487 50.9778 53.4601 56.7285 23.485 26.2606 27.3648 11.8825 48.8623 50.8078 53.7169 23.7775 24.7172 26.0953 11.6025 46.6372 48.8144 49.9922 23.3395 24.145 24.7125 12.1751 43.5505 45.3957 48.2977 21.2103 22.4921 24.1019 11.1645 40.2963 41.0147 44.0828 19.3166 21.0583 21.2937 10.0458 38.7809 40.1178 39.4742 18.1745 19.238 19.7209 9.27076 37.0609 37.0325 41.8339 16.1607 19.5429 20.3968 8.90371 35.1326 33.8309 37.4708 15.8538 17.518 16.6357 7.257 36.4429 34.8722 36.559 18.0581 17.6146 17.1953 8.59677 34.4047 34.1508 38.2188 16.7506 18.8284 17.6769 9.46129 31.8089 32.5136 33.7672 14.8052 15.5764 16.4739 7.28934 32.5705 32.9899 33.1729 16.3375 16.2326 16.0397 7.51582 31.9298 31.6901 32.4929 16.0696 16.3379 16.9502 8.82165 30.3131 31.1431 29.7785 15.1278 15.5919 14.7399 7.24797 28.3277 28.8975 31.6642 14.2178 14.7212 16.4032 7.87983 25.1908 24.7852 27.617 11.9073 13.6066 12.4943 6.33798 23.1314 24.6052 25.6237 11.5438 11.5842 12.2909 5.56937 22.8928 25.2845 22.6636 12.2086 11.5472 12.3143 5.97446 20.2112 22.4119 24.8128 10.1035 11.3456 12.9702 6.23411 19.3562 18.6536 19.5838 9.02167 8.86567 9.44177 3.86938 10.4905 9.21185 19.8776 5.15229 10.4905 9.21185 5.15229 70.9499 24.5894 93.416 72.4075 35.3173 37.1714 24.5894 12.9592 35.3173 12.9592 100.799 124.579 115.02 51.9705 46.3604 58.0988 24.2122 107.374 129.217 132.229 54.3726 54.4385 66.4807 27.7582 104.279 121.622 125.105 51.9295 52.9358 62.7359 26.6143 98.2761 112.504 119.045 47.6242 51.3434 58.8857 25.3152 93.581 106.054 111.641 44.6406 46.9327 53.6183 22.309 85.8657 98.0555 106.024 41.7266 46.6483 52.4352 22.3316 77.2592 88.019 92.5164 37.6951 39.2174 45.6203 19.395 71.3523 83.1484 87.7739 35.392 38.0418 42.3987 18.3001 67.0338 78.6766 82.0151 33.6341 33.3105 40.7496 17.0919 64.1912 71.0162 77.3542 32.0244 33.7233 37.927 16.5422 59.4675 64.1641 66.5963 29.9751 30.4679 33.0892 15.4822 54.8469 58.7896 63.6285 27.0303 28.9997 31.0749 14.4929 51.6527 56.7333 59.0098 25.4749 25.8472 27.7147 12.5374 48.8301 52.9055 55.5105 24.1853 25.8056 29.0186 12.9374 43.2607 46.9609 49.8247 21.6981 23.0245 23.8869 11.2479 42.5272 46.3422 46.6631 21.9433 20.2362 23.0741 10.4502 42.2437 44.158 46.3751 20.8718 22.291 23.2681 11.4931 38.8971 38.9249 43.54 17.9772 19.9527 20.8899 9.37866 38.3348 36.1582 40.4173 16.8142 18.9444 18.035 8.59852 37.5813 36.3101 39.8428 17.4002 19.3904 18.1232 8.21564 35.1312 36.9336 35.3883 17.7084 18.1908 18.1869 9.18456 33.0954 34.9991 36.2812 16.6524 16.9403 18.7467 8.52387 30.3416 30.1312 32.9972 15.6205 16.155 16.2524 8.12853 31.1296 29.8016 28.2388 16.0153 14.1866 13.8788 7.49195 30.9535 29.3924 32.4237 14.6797 16.943 15.9228 8.52333 28.05 25.5044 26.7907 12.8778 14.0105 13.4696 6.15634 25.1559 23.5233 25.406 13.0614 14.0395 12.0348 6.72151 24.5836 23.9095 21.7769 13.0759 11.1164 11.4885 6.33986 24.1853 23.8747 26.4825 12.3084 13.4672 12.421 6.73606 20.1051 19.9496 21.9473 9.63195 10.7181 11.4538 5.57239 9.38705 8.49581 17.4854 4.05956 9.38705 8.49581 4.05956 116.477 47.8181 144.739 126.552 59.6666 56.2446 47.8181 22.3581 59.6666 22.3581 146.45 176.764 169.936 72.6091 68.6593 85.0728 33.8866 149.96 176.685 180.801 74.844 77.7908 91.6913 38.7225 139.871 162.989 170.041 69.6921 72.1692 84.9938 36.1215 132.41 151.304 155.636 64.8799 67.7015 77.9949 33.5705 124.085 139.357 147.551 61.413 64.7086 73.3089 31.3094 112.675 127.218 133.16 56.329 59.3762 66.0484 30.1037 103.031 116.997 122.031 50.324 53.299 61.1694 26.2253 98.4367 108.298 112.627 47.7563 49.7321 55.8272 24.0986 92.3355 100.366 106.548 45.0425 48.7046 52.4707 23.6577 79.7594 89.1296 97.4393 38.9918 43.6309 47.8951 21.3848 70.7573 79.3277 85.3445 34.189 36.1285 41.2345 17.607 67.7915 73.1272 76.5463 31.7593 34.6289 38.0932 16.582 62.8676 70.1405 74.9742 31.2585 33.1626 35.034 15.1773 56.5052 64.918 68.3068 28.7201 29.705 35.1065 16.0812 53.2271 59.0857 62.3282 25.2628 26.8002 29.8115 12.639 50.511 54.7727 58.3992 24.3989 26.4269 29.2742 12.6239 47.6714 48.689 52.316 23.2862 24.0841 25.4985 11.775 45.0601 44.0417 48.1891 20.9477 23.5872 23.1905 11.5112 41.9252 41.0569 44.5995 19.3441 21.4729 20.8512 9.43649 37.6498 39.4555 42.2438 18.9099 20.4524 20.2057 9.90756 36.5383 39.4559 36.3012 19.2251 17.1974 19.2498 9.00233 36.1831 36.5683 39.9374 18.3467 19.3409 20.2061 10.2228 30.8943 31.8226 32.5343 14.5107 16.8422 16.3622 8.12387 29.5328 30.4972 32.2835 13.7863 14.0522 15.4604 6.38681 28.2609 29.7548 31.886 14.7127 15.4806 15.0367 7.39948 24.1468 24.9222 25.1599 12.6266 12.7803 14.7181 7.31327 22.027 22.6474 23.8425 10.462 11.3665 10.2042 5.3133 23.6757 24.0503 23.7165 10.8336 10.6605 12.4432 5.14867 24.2444 22.6277 24.3217 11.5663 13.0152 11.6071 5.68494 19.3275 19.93 21.862 10.3176 11.2292 11.0207 5.88136 8.09831 8.90935 17.2107 4.43625 8.09831 8.90935 4.43625 180.011 78.7344 214.952 199.433 95.5999 88.4948 78.7344 37.3085 95.5999 37.3085 204.287 236.912 237.25 104.155 101.277 119.352 51.1863 200.882 225.492 230.301 101.841 103.01 117.56 52.9688 185.806 208.298 216.168 93.2967 97.872 107.932 48.8723 170.776 195.324 198.57 86.4239 87.9341 100.366 44.4244 156.626 176.445 188.81 77.9442 82.8422 94.9578 41.9995 142.516 159.333 167.608 70.8887 73.7839 81.4875 35.9447 131.626 149.453 155.152 66.6726 68.7319 77.8454 34.944 120.738 134.676 144.906 60.5416 62.8945 71.608 31.7286 111.652 123.454 129.303 55.3233 57.8438 63.0683 28.813 103.024 112.946 120.011 50.1378 53.8084 60.386 26.5103 91.1335 100.443 108.469 45.1387 49.2161 52.5595 23.6275 83.729 91.1477 95.5193 41.3679 41.9174 47.8837 21.5112 80.4134 84.8387 89.0499 38.882 41.8116 43.264 19.8567 74.1298 77.3185 82.7921 36.1978 38.6018 41.5747 19.0253 67.5003 69.6071 74.2253 33.8228 35.528 35.7438 17.1725 60.2042 64.3391 66.7723 30.3738 31.9724 33.8633 16.6503 52.8337 56.9804 61.7615 25.4028 28.2319 30.4758 13.7235 47.7285 51.5317 53.6473 23.094 24.6019 26.5046 11.6793 44.9181 46.8665 50.5869 21.7129 23.1266 25.0271 11.4147 40.8953 41.9309 46.47 20.5456 21.7915 21.8395 10.2981 39.7003 39.4378 39.5428 20.2308 19.1038 20.0915 10.2475 36.2887 35.5513 39.9944 18.2216 20.5965 19.3463 9.98327 33.9235 33.5927 33.1062 17.3119 15.6921 16.205 8.23833 34.6367 31.5046 34.344 16.7109 18.2313 17.3877 9.07362 28.785 28.2457 30.1105 15.0421 16.4054 14.1168 7.63726 24.8556 25.2385 25.1503 12.2957 12.3797 14.1288 7.4048 25.532 24.9856 25.3708 12.1854 12.476 11.1097 4.89088 24.3624 24.7894 26.7118 13.2167 13.056 13.876 7.29457 21.9392 21.076 20.0862 11.0614 11.3064 10.9134 5.92212 19.7452 19.2663 20.5496 9.61241 10.6328 10.1626 5.13931 9.11237 9.10374 18.4817 4.4731 9.11237 9.10374 4.4731 256.671 120.698 126.457 120.698 58.2915 126.457 120.698 58.2915 58.2915 58.2915 263.264 132.757 135.973 132.757 135.973 68.1653 68.1653 245.587 123.651 127.291 123.651 127.291 64.5914 64.5914 228.932 115.002 118.296 115.002 118.296 59.06 59.06 216.604 108.9 110.636 108.9 110.636 55.9416 55.9416 199.792 98.5011 105.968 98.5011 105.968 52.9583 52.9583 180.243 88.4442 93.8237 88.4442 93.8237 45.5428 45.5428 168.431 82.7808 86.4198 82.7808 86.4198 42.9014 42.9014 153.47 74.1346 82.0116 74.1346 82.0116 39.8794 39.8794 137.661 68.131 71.4588 68.131 71.4588 34.2552 34.2552 125.455 62.8077 66.2023 62.8077 66.2023 33.8757 33.8757 112.855 55.3045 59.2529 55.3045 59.2529 28.932 28.932 100.84 49.7798 53.6019 49.7798 53.6019 26.3725 26.3725 91.4286 45.9567 47.2383 45.9567 47.2383 23.4073 23.4073 82.8876 41.1207 44.1903 41.1207 44.1903 22.5494 22.5494 73.4972 35.7843 38.6973 35.7843 38.6973 18.5713 18.5713 68.3296 33.9653 34.7999 33.9653 34.7999 17.213 17.213 62.575 31.5777 33.5297 31.5777 33.5297 16.7523 16.7523 56.5057 28.4377 29.0454 28.4377 29.0454 14.8254 14.8254 52.1388 25.1537 27.4603 25.1537 27.4603 13.6123 13.6123 45.1175 21.3853 24.6785 21.3853 24.6785 11.5413 11.5413 39.8369 19.207 20.439 19.207 20.439 9.84398 9.84398 36.8119 17.3297 19.3979 17.3297 19.3979 9.36304 9.36304 33.5267 16.2808 17.414 16.2808 17.414 7.96667 7.96667 29.8178 14.7937 16.1127 14.7937 16.1127 8.31409 8.31409 26.4758 13.2036 13.7051 13.2036 13.7051 6.47958 6.47958 25.6655 12.9428 12.7707 12.9428 12.7707 6.72405 6.72405 26.5506 12.8002 12.8948 12.8002 12.8948 6.2188 6.2188 22.4356 11.5727 13.6558 11.5727 13.6558 6.5814 6.5814 18.6966 10.0146 8.77981 10.0146 8.77981 4.99127 4.99127 19.2862 9.65393 9.91679 9.65393 9.91679 5.02328 5.02328 9.36938 4.63064 9.36938 4.63064 9.36938 4.63064 4.63064 115.281 58.7555 58.7555 115.281 58.7555 183.682 90.6625 90.6625 58.7555 115.281 58.7555 58.7555 90.6625 58.7555 107.942 56.5258 107.942 178.074 93.0195 56.5258 107.942 56.5258 93.0195 56.5258 97.8948 51.4165 97.8948 164.479 85.055 51.4165 97.8948 51.4165 85.055 51.4165 90.2616 46.4783 90.2616 152.558 79.4239 46.4783 90.2616 46.4783 79.4239 46.4783 83.6404 43.7833 83.6404 141.585 73.1337 43.7833 83.6404 43.7833 73.1337 43.7833 75.8846 39.8571 75.8846 129.757 68.4508 39.8571 75.8846 39.8571 68.4508 39.8571 68.2101 36.0274 68.2101 117.685 61.3063 36.0274 68.2101 36.0274 61.3063 36.0274 62.2365 32.1826 62.2365 110.124 56.3788 32.1826 62.2365 32.1826 56.3788 32.1826 57.2029 30.0539 57.2029 102.952 53.7449 30.0539 57.2029 30.0539 53.7449 30.0539 51.2018 27.149 51.2018 92.6125 49.2069 27.149 51.2018 27.149 49.2069 27.149 45.3044 24.0528 45.3044 81.9953 43.4057 24.0528 45.3044 24.0528 43.4057 24.0528 40.5008 21.2516 40.5008 73.4024 38.5896 21.2516 40.5008 21.2516 38.5896 21.2516 36.8461 19.2492 36.8461 67.231 34.8128 19.2492 36.8461 19.2492 34.8128 19.2492 33.4508 17.5969 33.4508 61.9632 32.4183 17.5969 33.4508 17.5969 32.4183 17.5969 30.5668 15.8539 30.5668 56.1728 29.5449 15.8539 30.5668 15.8539 29.5449 15.8539 27.3404 14.7129 27.3404 49.9039 26.6279 14.7129 27.3404 14.7129 26.6279 14.7129 23.8851 12.6275 23.8851 44.2999 23.276 12.6275 23.8851 12.6275 23.276 12.6275 21.4858 11.2577 21.4858 40.1054 21.024 11.2577 21.4858 11.2577 21.024 11.2577 19.3115 10.2281 19.3115 36.7565 19.0814 10.2281 19.3115 10.2281 19.0814 10.2281 17.8633 9.08339 17.8633 33.6666 17.6751 9.08339 17.8633 9.08339 17.6751 9.08339 17.4425 8.77988 17.4425 31.3513 15.9915 8.77988 17.4425 8.77988 15.9915 8.77988 16.5166 8.66263 16.5166 30.413 15.3597 8.66263 16.5166 8.66263 15.3597 8.66263 14.3387 7.85396 14.3387 27.2471 15.0532 7.85396 14.3387 7.85396 15.0532 7.85396 13.6367 6.48469 13.6367 24.8383 12.1938 6.48469 13.6367 6.48469 12.1938 6.48469 13.069 7.15202 13.069 25.709 12.6445 7.15202 13.069 7.15202 12.6445 7.15202 10.787 5.91698 10.787 24.7219 13.0645 5.91698 10.787 5.91698 13.0645 5.91698 9.33912 4.87003 9.33912 21.2607 11.6574 4.87003 9.33912 4.87003 11.6574 4.87003 9.39898 4.46908 9.39898 20.9829 9.60331 4.46908 9.39898 4.46908 9.60331 4.46908 9.41106 4.9299 9.41106 21.1758 11.3796 4.9299 9.41106 4.9299 11.3796 4.9299 8.38839 4.48116 8.38839 19.0805 9.79616 4.48116 8.38839 4.48116 9.79616 4.48116 7.72351 3.90724 7.72351 19.4307 9.28435 3.90724 7.72351 3.90724 9.28435 3.90724 3.81628 3.81628 3.81628 10.1463 10.1463 3.81628 3.81628 3.81628 10.1463 3.81628 68.4007 31.907 107.307 49.0733 49.0733 68.4007 31.907 31.907 49.0733 31.907 70.1322 112.92 58.2339 70.1322 36.4937 58.2339 36.4937 66.5841 109.222 54.686 66.5841 33.6385 54.686 33.6385 62.2961 106.033 54.5362 62.2961 32.9456 54.5362 32.9456 57.9441 100.551 51.497 57.9441 29.3504 51.497 29.3504 53.8726 94.9905 49.0545 53.8726 28.5937 49.0545 28.5937 49.475 89.666 45.936 49.475 25.2789 45.936 25.2789 47.8871 84.825 43.73 47.8871 24.1961 43.73 24.1961 45.7489 80.3928 41.0951 45.7489 23.691 41.0951 23.691 41.4107 73.4686 39.2977 41.4107 22.0579 39.2977 22.0579 36.6909 65.208 34.1709 36.6909 19.3529 34.1709 19.3529 32.9016 58.7638 31.0371 32.9016 17.338 31.0371 17.338 30.3849 54.2579 27.7267 30.3849 15.5636 27.7267 15.5636 28.5123 51.7567 26.5313 28.5123 14.8213 26.5313 14.8213 25.606 48.4948 25.2255 25.606 13.691 25.2255 13.691 22.5635 44.4595 23.2694 22.5635 11.915 23.2694 11.915 20.4148 41.5115 21.1902 20.4148 10.6485 21.1902 10.6485 18.6196 36.6902 20.3214 18.6196 9.7663 20.3214 9.7663 17.445 32.8835 16.3688 17.445 8.85328 16.3688 8.85328 15.8033 32.814 16.5146 15.8033 8.5917 16.5146 8.5917 13.9088 30.3839 16.2993 13.9088 7.21165 16.2993 7.21165 13.8964 29.7316 14.0845 13.8964 6.69711 14.0845 6.69711 12.9084 27.9849 15.6471 12.9084 7.19926 15.6471 7.19926 11.2016 25.0438 12.3378 11.2016 5.70913 12.3378 5.70913 12.64 27.4797 12.706 12.64 5.4925 12.706 5.4925 13.9349 27.5224 14.7738 13.9349 7.14751 14.7738 7.14751 11.9216 24.3614 12.7487 11.9216 6.78736 12.7487 6.78736 11.5839 22.4185 11.6128 11.5839 5.13422 11.6128 5.13422 11.7647 21.8458 10.8057 11.7647 6.4497 10.8057 6.4497 10.6921 21.4006 11.0401 10.6921 5.31501 11.0401 5.31501 11.7071 22.3295 10.3605 11.7071 5.37711 10.3605 5.37711 6.33004 11.969 11.969 6.33004 6.33004 11.969 6.33004 38.9064 17.1663 64.0375 27.5222 27.5222 38.9064 17.1663 17.1663 27.5222 17.1663 42.7877 76.033 36.5154 42.7877 21.7401 36.5154 21.7401 42.6381 81.65 39.5176 42.6381 21.0475 39.5176 21.0475 43.7371 85.52 42.1324 43.7371 21.5905 42.1324 21.5905 42.6074 83.6694 43.3876 42.6074 22.1465 43.3876 22.1465 41.118 78.9015 40.2818 41.118 20.4608 40.2818 20.4608 40.191 76.2531 38.6197 40.191 20.6571 38.6197 20.6571 36.9379 71.3291 37.6334 36.9379 19.5338 37.6334 19.5338 34.6439 64.7778 33.6957 34.6439 17.4041 33.6957 17.4041 32.0579 60.7486 31.0821 32.0579 17.2398 31.0821 17.2398 28.5172 57.7437 29.6665 28.5172 14.8181 29.6665 14.8181 25.8621 53.355 28.0772 25.8621 13.6991 28.0772 13.6991 23.873 48.9577 25.2778 23.873 12.1631 25.2778 12.1631 23.2444 46.542 23.6799 23.2444 11.7099 23.6799 11.7099 22.8888 45.2289 22.8621 22.8888 11.5344 22.8621 11.5344 21.896 42.8757 22.3668 21.896 11.3544 22.3668 11.3544 21.0967 41.7032 20.5089 21.0967 10.5417 20.5089 10.5417 18.0706 38.9708 21.1943 18.0706 10.5551 21.1943 10.5551 15.4385 34.7173 17.7766 15.4385 7.51553 17.7766 7.51553 17.0107 35.3955 16.9408 17.0107 7.92295 16.9408 7.92295 16.4751 34.1292 18.4548 16.4751 9.0877 18.4548 9.0877 15.8353 32.839 15.6744 15.8353 7.38743 15.6744 7.38743 15.0765 31.3095 17.1646 15.0765 8.44783 17.1646 8.44783 13.8422 29.7024 14.1449 13.8422 6.62871 14.1449 6.62871 14.8397 30.025 15.5574 14.8397 7.21347 15.5574 7.21347 13.5876 27.6975 14.4676 13.5876 7.62628 14.4676 7.62628 12.4398 25.7233 13.2299 12.4398 5.9613 13.2299 5.9613 10.8346 22.4221 12.4934 10.8346 6.47854 12.4934 6.47854 10.0811 20.7653 9.92877 10.0811 4.35602 9.92877 4.35602 10.7085 20.8162 10.8365 10.7085 5.72505 10.8365 5.72505 10.6224 20.9569 9.97969 10.6224 4.9834 9.97969 4.9834 5.63895 10.9772 10.9772 5.63895 5.63895 10.9772 5.63895 25.1311 10.3559 58.9096 21.9861 21.9861 25.1311 10.3559 10.3559 21.9861 10.3559 33.2453 82.0738 36.9235 33.2453 14.7752 36.9235 14.7752 39.0119 92.0137 45.1503 39.0119 18.4701 45.1503 18.4701 41.7829 94.1326 46.8633 41.7829 20.5418 46.8633 20.5418 41.0621 91.714 47.2693 41.0621 21.2411 47.2693 21.2411 37.7835 86.7239 44.4447 37.7835 19.821 44.4447 19.821 36.0621 80.2012 42.2792 36.0621 17.9625 42.2792 17.9625 34.3912 73.9553 37.922 34.3912 18.0996 37.922 18.0996 30.1339 66.0941 36.0332 30.1339 16.2916 36.0332 16.2916 28.6907 62.0905 30.0609 28.6907 13.8423 30.0609 13.8423 29.2265 61.3933 32.0296 29.2265 14.8484 32.0296 14.8484 27.4929 56.9853 29.3637 27.4929 14.3781 29.3637 14.3781 25.0847 52.9013 27.6216 25.0847 13.1148 27.6216 13.1148 23.2976 49.4755 25.2797 23.2976 11.97 25.2797 11.97 22.3401 46.9849 24.1958 22.3401 11.3277 24.1958 11.3277 20.9797 42.5423 22.7891 20.9797 11.0125 22.7891 11.0125 20.6064 41.1904 19.7533 20.6064 9.96724 19.7533 9.96724 20.9002 42.2722 21.4371 20.9002 10.6392 21.4371 10.6392 19.2789 40.1988 20.8351 19.2789 10.261 20.8351 10.261 18.3849 39.9056 19.3637 18.3849 9.01781 19.3637 9.01781 17.6541 37.8351 20.5419 17.6541 9.36707 20.5419 9.36707 17.0038 34.4265 17.2933 17.0038 8.28701 17.2933 8.28701 16.233 32.6759 17.1332 16.233 8.71677 17.1332 8.71677 15.8602 30.5813 15.5427 15.8602 7.51623 15.5427 7.51623 15.1853 30.2997 15.0386 15.1853 8.34397 15.0386 8.34397 14.1099 30.3838 15.261 14.1099 6.84133 15.261 6.84133 13.2834 28.4555 15.1227 13.2834 7.26858 15.1227 7.26858 11.5876 23.6822 13.3328 11.5876 6.01484 13.3328 6.01484 10.6842 22.1919 10.3493 10.6842 5.57275 10.3493 5.57275 10.1077 21.9846 11.8426 10.1077 5.11146 11.8426 5.11146 10.3345 20.8077 10.142 10.3345 4.99629 10.142 4.99629 5.33823 10.6657 10.6657 5.33823 5.33823 10.6657 5.33823 33.7785 11.6303 94.0112 37.0902 37.0902 33.7785 11.6303 11.6303 37.0902 11.6303 48.8285 122.67 56.921 48.8285 22.1482 56.921 22.1482 53.0018 128.118 65.7486 53.0018 26.6803 65.7486 26.6803 52.3497 122.528 62.3691 52.3497 26.3215 62.3691 26.3215 50.6519 118.182 60.1592 50.6519 26.0282 60.1592 26.0282 48.9404 111.612 58.023 48.9404 24.6237 58.023 24.6237 44.1391 100.485 53.5892 44.1391 24.3167 53.5892 24.3167 39.5641 92.2712 46.8961 39.5641 19.8224 46.8961 19.8224 35.9603 86.6406 45.3752 35.9603 19.7417 45.3752 19.7417 33.3997 80.6927 41.2654 33.3997 16.2186 41.2654 16.2186 32.1667 72.9343 39.4272 32.1667 17.1811 39.4272 17.1811 29.4924 66.0608 33.5071 29.4924 14.9856 33.5071 14.9856 27.8166 63.8487 32.5537 27.8166 14.5068 32.5537 14.5068 26.1779 57.787 31.2951 26.1779 13.3098 31.2951 13.3098 24.6448 52.4298 26.4919 24.6448 12.8681 26.4919 12.8681 21.5626 49.5269 25.9379 21.5626 11.7766 25.9379 11.7766 20.5839 46.696 23.589 20.5839 9.78601 23.589 9.78601 21.372 45.7571 23.107 21.372 10.7979 23.107 10.7979 20.92 45.0324 22.6501 20.92 10.5741 22.6501 10.5741 21.5207 44.1019 22.3823 21.5207 10.3459 22.3823 10.3459 20.1811 38.921 21.7196 20.1811 11.1748 21.7196 11.1748 17.4227 34.7359 17.2014 17.4227 9.00626 17.2014 9.00626 16.443 34.2794 17.5345 16.443 8.41646 17.5345 8.41646 14.7211 31.1048 16.7448 14.7211 8.0265 16.7448 8.0265 15.1144 30.8609 14.36 15.1144 6.69464 14.36 6.69464 16.2738 29.822 16.5009 16.2738 8.41972 16.5009 8.41972 15.1721 26.6923 13.3211 15.1721 7.85412 13.3211 7.85412 12.0946 23.6596 13.3712 12.0946 7.318 13.3712 7.318 11.5077 24.3498 10.2884 11.5077 4.77657 10.2884 4.77657 11.8769 24.555 14.0615 11.8769 6.73116 14.0615 6.73116 10.4732 19.4831 10.4935 10.4732 5.14569 10.4935 5.14569 5.32749 8.98955 8.98955 5.32749 5.32749 8.98955 5.32749 60.2327 25.46 151.749 66.8859 66.8859 60.2327 25.46 25.46 66.8859 25.46 73.8411 173.973 84.8632 73.8411 34.7727 84.8632 34.7727 75.116 174.157 89.1096 75.116 39.0683 89.1096 39.0683 70.1786 162.688 85.0474 70.1786 36.0476 85.0474 36.0476 67.5302 151.883 77.6407 67.5302 34.131 77.6407 34.131 62.6718 141.354 74.2419 62.6718 33.3993 74.2419 33.3993 56.3462 127.973 67.1118 56.3462 29.2726 67.1118 29.2726 52.7071 117.661 60.8615 52.7071 27.0736 60.8615 27.0736 50.6804 110.877 56.7994 50.6804 25.6335 56.7994 25.6335 47.2929 103.622 54.0776 47.2929 25.0468 54.0776 25.0468 40.7676 93.6542 49.5442 40.7676 22.2461 49.5442 22.2461 36.5684 82.5631 44.1101 36.5684 18.5215 44.1101 18.5215 36.0322 78.3933 38.4531 36.0322 18.0469 38.4531 18.0469 31.6091 73.1405 39.9402 31.6091 17.9853 39.9402 17.9853 27.785 65.717 33.2003 27.785 13.6238 33.2003 13.6238 27.9642 61.6417 32.5167 27.9642 14.1612 32.5167 14.1612 26.1121 55.9425 29.1251 26.1121 13.803 29.1251 13.803 24.3851 51.8161 26.8174 24.3851 12.3091 26.8174 12.3091 24.1125 48.7469 24.9987 24.1125 12.0761 24.9987 12.0761 22.5812 45.7864 23.7483 22.5812 12.0364 23.7483 12.0364 18.7399 39.0896 22.0382 18.7399 10.5448 22.0382 10.5448 17.3132 36.7827 17.0514 17.3132 8.1951 17.0514 8.1951 17.8364 35.9034 19.7313 17.8364 9.11808 19.7313 9.11808 16.3837 32.9952 16.1721 16.3837 8.71831 16.1721 8.71831 15.7465 33.6723 16.823 15.7465 7.66535 16.823 7.66535 13.5481 27.2911 16.8493 13.5481 8.08117 16.8493 8.08117 11.5202 24.0801 10.4419 11.5202 5.46698 10.4419 5.46698 11.565 24.9115 13.6383 11.565 6.0532 13.6383 6.0532 12.8421 23.9879 11.2733 12.8421 5.51181 11.2733 5.51181 12.6781 23.5559 12.7146 12.6781 7.33031 12.7146 7.33031 9.00989 19.1426 10.8413 9.00989 5.34783 10.8413 5.34783 3.66206 8.30132 8.30132 3.66206 3.66206 8.30132 3.66206 91.5163 41.4259 221.731 103.833 103.833 91.5163 41.4259 41.4259 103.833 41.4259 100.132 230.639 117.898 100.132 50.0905 117.898 50.0905 99.041 220.977 112.741 99.041 50.0413 112.741 50.0413 92.5094 206.439 108.236 92.5094 48.9997 108.236 48.9997 84.3524 192.056 98.2038 84.3524 43.5097 98.2038 43.5097 78.6819 179.972 93.8522 78.6819 40.8427 93.8522 40.8427 71.6271 163.426 86.1201 71.6271 37.8392 86.1201 37.8392 64.9538 150.604 77.3063 64.9538 33.7879 77.3063 33.7879 60.1967 139.532 73.2981 60.1967 31.1659 73.2981 31.1659 56.3289 125.859 66.2343 56.3289 29.0308 66.2343 29.0308 52.8867 115.534 59.6247 52.8867 27.2981 59.6247 27.2981 45.9948 103.545 55.9095 45.9948 25.5886 55.9095 25.5886 42.3611 93.4215 47.6356 42.3611 20.4062 47.6356 20.4062 41.5314 87.0034 45.786 41.5314 21.9549 45.786 21.9549 37.9319 79.6989 41.2174 37.9319 19.5765 41.2174 19.5765 33.6775 71.3904 38.4815 33.6775 18.3554 38.4815 18.3554 29.8304 64.1947 32.9089 29.8304 15.3221 32.9089 15.3221 27.431 58.4284 31.2857 27.431 14.5084 31.2857 14.5084 24.6345 52.7025 27.1426 24.6345 12.9226 27.1426 12.9226 23.2052 50.1904 25.5599 23.2052 11.7119 25.5599 11.7119 20.3497 44.0819 24.6305 20.3497 11.4934 24.6305 11.4934 19.4695 40.0994 19.4513 19.4695 8.85631 19.4513 8.85631 18.0671 37.5493 20.6481 18.0671 10.6132 20.6481 10.6132 16.6115 33.8574 16.9012 16.6115 7.45382 16.9012 7.45382 17.9258 32.9499 16.9562 17.9258 9.15768 16.9562 9.15768 13.743 27.0151 15.9936 13.743 8.7681 15.9936 8.7681 12.5599 25.2826 11.0215 12.5599 4.97487 11.0215 4.97487 13.3465 27.0969 14.2611 13.3465 7.58508 14.2611 7.58508 11.1457 22.0086 12.8358 11.1457 5.76146 12.8358 5.76146 10.8778 19.5598 9.17282 10.8778 5.38428 9.17282 5.38428 10.1328 19.765 10.387 10.1328 5.49349 10.387 5.49349 4.63927 9.37801 9.37801 4.63927 4.63927 9.37801 4.63927 130.214 62.4067 130.214 62.4067 62.4067 130.214 62.4067 62.4067 62.4067 62.4067 130.507 130.507 67.8075 130.507 67.8075 67.8075 67.8075 121.936 121.936 62.6997 121.936 62.6997 62.6997 62.6997 113.93 113.93 59.2359 113.93 59.2359 59.2359 59.2359 107.704 107.704 54.6941 107.704 54.6941 54.6941 54.6941 101.29 101.29 53.0096 101.29 53.0096 53.0096 53.0096 91.7993 91.7993 48.2809 91.7993 48.2809 48.2809 48.2809 85.6506 85.6506 43.5184 85.6506 43.5184 43.5184 43.5184 79.3357 79.3357 42.1322 79.3357 42.1322 42.1322 42.1322 69.5301 69.5301 37.2035 69.5301 37.2035 37.2035 37.2035 62.6475 62.6475 32.3266 62.6475 32.3266 32.3266 32.3266 57.5503 57.5503 30.321 57.5503 30.321 30.321 30.321 51.0604 51.0604 27.2293 51.0604 27.2293 27.2293 27.2293 45.472 45.472 23.8311 45.472 23.8311 23.8311 23.8311 41.7669 41.7669 21.6409 41.7669 21.6409 21.6409 21.6409 37.7129 37.7129 20.126 37.7129 20.126 20.126 20.126 34.3642 34.3642 17.5869 34.3642 17.5869 17.5869 17.5869 30.9974 30.9974 16.7774 30.9974 16.7774 16.7774 16.7774 28.068 28.068 14.22 28.068 14.22 14.22 14.22 26.9852 26.9852 13.848 26.9852 13.848 13.848 13.848 23.7322 23.7322 13.1372 23.7322 13.1372 13.1372 13.1372 20.6299 20.6299 10.595 20.6299 10.595 10.595 10.595 19.4822 19.4822 10.0349 19.4822 10.0349 10.0349 10.0349 17.2459 17.2459 9.44737 17.2459 9.44737 9.44737 9.44737 15.0241 15.0241 7.79857 15.0241 7.79857 7.79857 7.79857 13.2722 13.2722 7.22553 13.2722 7.22553 7.22553 7.22553 12.7226 12.7226 6.04662 12.7226 6.04662 6.04662 6.04662 13.7504 13.7504 6.67602 13.7504 6.67602 6.67602 6.67602 10.8629 10.8629 7.07435 10.8629 7.07435 7.07435 7.07435 8.68205 8.68205 3.78854 8.68205 3.78854 3.78854 3.78854 9.63225 9.63225 4.89351 9.63225 4.89351 4.89351 4.89351 4.73874 4.73874 4.73874 4.73874 4.73874 4.73874 4.73874 
CELL_DATA 2048
SCALARS stress float 1
LOOKUP_TABLE default
68.5211 49.4638 47.2612 43.7585 42.2519 37.659 34.7255 33.8436 29.303 25.7886 23.9476 21.8659 20.2175 17.2861 15.5712 15.0369 12.2173 13.2295 10.8765 8.79915 7.80619 7.2569 7.19535 7.28209 6.10056 5.28852 4.68583 5.73126 5.29316 5.34295 4.78004 5.48431 39.5626 32.229 27.6991 28.4046 29.9638 27.4248 26.1167 23.8522 22.4363 20.7137 19.3304 17.5234 15.4814 14.6477 13.1988 11.9566 11.2042 10.0893 9.40996 8.42472 7.97045 7.61951 7.31351 7.04971 5.53192 5.06781 5.691 5.5093 4.57081 5.8183 4.22834 4.86715 24.373 17.2256 18.8575 21.1473 22.9307 22.4888 20.9744 19.6029 19.0447 16.5183 16.1917 14.0036 11.7097 12.7152 10.2788 11.6136 10.1974 9.64331 8.34899 7.40652 8.73014 8.21495 6.80978 7.4238 7.39915 7.24293 5.15811 5.60261 7.69245 4.28332 5.80314 4.95122 10.5282 14.4522 17.8876 20.6338 19.7201 20.9191 20.2734 18.0623 17.0633 17.3148 15.5391 13.7602 13.872 10.8804 10.2668 10.8357 9.93082 9.51102 9.1545 10.043 9.01426 7.38241 8.0879 7.9255 7.84856 6.86246 5.49648 7.16414 6.1344 5.33437 5.64963 5.46918 12.2024 21.7291 25.7048 26.5554 26.5711 24.9179 24.4772 22.8371 20.204 17.7512 16.5123 16.1793 14.8988 13.255 14.88 14.0925 11.4917 11.2008 9.46451 10.1075 9.62815 8.27873 8.31222 7.31648 7.49131 7.21256 7.94232 6.51696 5.44633 5.23047 4.93505 5.09518 27.5619 35.3868 37.3263 36.2398 34.6223 33.0981 30.589 28.7457 26.2941 25.6337 21.3466 19.4969 18.3961 17.1692 15.8228 14.8162 13.0985 11.7111 13.2561 11.4633 9.47467 9.27567 8.37766 9.72762 8.39313 7.36334 6.5648 5.87829 6.09019 5.96889 5.46347 4.80546 46.0849 50.1222 49.8877 46.8764 44.1599 40.9129 38.4125 35.5291 32.2456 28.8654 27.4944 24.2939 22.6678 19.6372 17.6392 16.9466 16.7054 14.0442 13.4923 11.7448 9.47089 11.4486 8.60318 8.57203 8.05787 8.24308 6.20835 7.83949 5.38445 5.47003 4.8672 5.67699 67.3342 67.7375 61.6652 57.9389 55.2724 52.7882 47.4766 44.1402 39.6534 35.4534 31.9243 29.8309 27.4079 25.065 21.9537 19.7718 18.3746 16.9467 14.7305 14.5246 11.9185 11.0451 9.57371 9.73381 8.85037 7.92167 6.88079 6.73037 6.39953 5.31483 4.95914 6.97032 56.7657 58.9551 55.177 50.0872 45.0072 41.4388 36.7628 32.857 30.1549 26.5162 24.3741 20.5098 19.4169 18.0568 14.9917 14.9514 12.397 10.649 11.0483 10.0354 10.3976 7.59892 6.41614 4.97814 6.53285 5.65274 5.18931 4.85586 5.63258 5.06454 4.46856 5.17179 26.4381 38.2509 37.5547 33.9352 31.1432 29.7973 28.4132 24.8493 22.602 21.5263 17.6663 17.213 15.3279 14.6674 12.3784 12.3093 10.9196 8.07252 8.97603 8.56495 7.88522 6.25485 7.04115 6.72983 5.16203 7.00222 6.22423 6.58498 5.49969 5.42109 5.02908 4.85564 17.6207 23.5367 24.1956 23.6661 22.482 22.9264 19.7001 17.3536 17.8219 14.7201 14.129 12.9263 12.8843 10.5764 11.1175 9.75034 9.79452 9.12846 8.52653 9.13735 6.94352 7.73944 6.79101 7.82428 6.14654 5.7108 6.0149 5.09331 5.23044 5.39486 6.52768 6.06754 10.397 18.085 21.0463 20.949 20.3011 20.2964 18.765 17.9262 16.9627 15.1496 12.9684 12.4937 12.2542 10.2499 9.9228 10.3951 9.17592 9.69875 8.12755 7.57822 8.81536 6.88109 8.12277 7.82166 8.18773 6.58033 6.96816 7.34887 5.68761 5.84017 4.29329 5.37148 12.5112 22.9074 26.8751 26.4503 25.5667 22.9414 23.9518 20.1755 19.1158 17.4719 16.1152 13.0321 14.6367 12.8471 11.8131 11.795 10.3221 12.4687 8.98625 9.4226 9.14004 8.81821 8.56436 7.93502 7.66385 7.58051 6.42839 6.27418 7.18524 5.98119 5.97127 5.23493 24.1225 36.6319 39.8935 35.966 34.0173 32.0358 30.668 26.7653 24.6164 23.2372 20.7442 18.6769 18.2079 15.8119 16.0504 13.8869 11.5199 13.026 11.6143 10.3796 9.81891 10.1009 7.58197 7.73166 8.65328 7.83134 6.37173 6.8546 5.22396 4.95402 4.8109 5.08346 37.2489 53.6215 50.5745 47.915 43.9918 41.6749 37.8749 34.8721 31.789 27.8627 27.1146 24.6868 21.5316 20.8444 18.0179 16.2497 14.9042 14.5572 13.3674 12.3324 10.4062 10.2745 9.65722 9.51706 7.93085 6.88187 6.05753 6.79264 5.28106 5.71585 6.0581 5.86934 59.9041 66.8305 62.9339 59.528 55.3179 50.2934 47.7163 44.1884 39.3039 37.0262 31.8849 29.3732 27.5544 24.5778 21.9685 19.4875 18.6463 16.5779 14.6376 12.2348 11.2675 10.3097 10.8435 9.32639 7.42355 7.64664 5.80792 4.99334 6.27572 5.70339 5.8678 5.05038 55.1567 57.6057 57.6377 53.9507 46.5045 43.5602 39.7293 34.9478 28.879 27.3845 25.3065 21.9487 19.0944 17.5142 15.8736 14.5837 12.2032 11.7685 9.45807 10.3843 7.46003 6.85598 7.59816 7.66845 6.67255 5.36536 5.55898 3.62282 4.63362 6.13419 4.78944 5.01806 23.7227 38.0884 39.2376 36.73 33.0514 31.2096 28.0339 26.6123 23.5478 21.4738 18.4501 16.4721 14.6936 13.3287 12.9534 12.0118 11.2386 10.1956 9.7534 6.83387 8.34793 9.11365 7.403 6.32979 5.73523 5.57494 5.02372 5.49329 6.2719 3.9961 5.19205 5.01887 15.4741 23.4926 27.0776 24.7222 23.3582 21.097 20.8309 18.0553 16.3474 16.2134 12.6469 12.2251 12.3809 12.387 10.4075 8.1887 9.52939 8.37642 8.87592 8.54758 8.10948 6.85261 8.06981 7.67288 7.52231 7.37799 6.28436 6.18985 4.88101 5.29954 4.97722 6.35702 10.4158 19.1009 22.3731 20.8925 21.1496 18.9917 17.0871 16.7587 14.7892 14.1523 12.8496 11.427 11.5153 9.99447 10.689 9.95207 9.99945 9.77603 8.62236 7.89727 8.23565 7.82303 8.06565 7.25838 6.98685 6.17317 5.68072 7.96148 7.41103 6.19079 5.90976 5.26185 15.0982 26.0243 29.3424 27.6519 24.785 23.0655 21.5567 19.7598 17.1656 16.6757 14.5806 15.4535 13.2583 12.6164 12.6534 10.307 11.2693 10.4788 10.2281 9.11523 9.64556 7.77227 8.29883 8.04776 7.82606 7.94127 6.35828 7.32236 5.3357 5.50683 5.20513 5.08861 21.6842 35.4331 38.704 36.2747 34.6634 29.8001 29.7178 26.8244 22.3268 22.1871 20.3719 17.8367 15.9546 15.7911 14.9362 13.7756 14.2201 10.7313 10.9929 9.42811 9.37368 9.38995 8.41448 7.90129 6.56812 6.87316 5.82269 6.00493 5.3727 6.32822 5.22847 4.07247 35.9081 49.009 52.4322 47.9208 45.2362 42.7295 38.4455 33.5158 31.1551 28.4405 26.5531 23.5178 23.0001 19.0499 17.5345 15.6544 15.2934 13.6753 13.6062 11.5259 10.735 9.41602 8.85148 8.3903 7.98141 8.16022 6.98366 7.12606 6.43194 5.84549 6.25403 4.43254 57.4737 65.592 64.1049 60.2964 56.1672 50.5598 46.8676 45.0338 39.2168 34.9917 32.4577 30.2035 26.0598 25.0168 22.0401 20.6685 17.8676 17.3705 14.6552 13.0744 12.493 10.6257 10.6484 8.70536 6.86788 7.49808 6.59446 7.66845 5.82043 4.16465 4.58577 5.60985 54.2754 56.5076 54.4353 52.2688 46.9526 44.7972 39.7298 33.9389 30.478 27.5959 26.1067 22.9126 18.2075 17.7748 15.7055 14.0388 12.1191 10.7231 11.3991 8.19003 8.36367 7.85804 8.23343 5.87821 5.54935 6.37605 4.09612 4.69649 5.86588 4.33535 4.43193 3.59982 23.6445 38.2994 37.4731 37.0345 35.5209 32.5332 29.0138 25.6917 22.7502 20.6253 17.7334 16.3467 14.5215 12.8453 13.504 11.2899 9.70197 8.72733 8.14508 8.35588 8.3061 7.61445 6.79025 7.29873 5.74447 5.25446 6.9508 4.44331 6.03904 5.01099 5.10413 5.35462 13.8105 25.3092 27.6482 26.9549 24.531 22.64 19.9212 19.0803 17.0764 14.666 13.4213 12.8937 12.4201 9.80941 10.4897 9.54665 9.47855 8.00381 10.3784 6.61335 6.64048 7.57125 6.48914 6.84639 7.04122 5.6965 6.47967 6.14523 6.17286 4.9039 4.73646 5.2669 10.5596 20.7464 22.9605 23.3472 19.9623 18.6179 16.9986 17.0335 14.7605 13.5474 12.3208 12.7872 11.4707 10.2669 9.65896 10.5544 7.42681 9.41134 8.80975 7.52263 6.59888 7.22004 7.3804 7.25653 6.88476 7.52949 6.06092 5.41028 5.50869 5.96158 5.24452 5.60359 14.2103 25.1954 29.6512 27.4142 24.9399 23.8162 22.679 19.8767 17.1374 15.0809 15.5246 14.2962 14.3513 11.0561 10.9529 11.3424 9.71584 9.35513 8.16645 9.98139 7.89294 7.83127 7.23504 8.08678 6.79268 8.57137 5.43874 7.07768 7.18817 5.76001 5.57628 5.17138 21.8972 35.1962 40.1834 37.0977 32.4626 31.6264 28.9784 25.8452 24.1831 23.482 20.9697 18.6917 18.1561 15.3802 14.7741 13.6916 13.0362 11.6947 11.0429 12.0193 7.84859 8.42696 8.35278 7.79628 7.90314 7.10652 6.27011 5.98989 6.94364 5.58378 4.73999 4.75357 34.9314 49.2839 52.833 48.2237 46.4511 41.6207 37.2496 33.6756 30.5994 28.9291 26.4146 23.5985 21.7193 18.8959 17.3227 16.0418 14.2918 14.1345 12.7196 10.2757 11.6494 10.1114 8.21112 7.91157 7.80053 6.13557 6.99818 7.07333 6.80445 4.60125 4.70855 4.24124 57.2468 66.021 62.4573 59.2938 53.8901 51.268 47.0012 42.2373 39.0005 35.129 32.7468 27.7537 27.5177 23.4613 22.3281 20.6747 18.1177 15.7701 15.4109 13.6395 12.0336 10.8781 10.6004 8.66018 7.70004 6.75978 5.01001 6.39121 5.96835 5.74865 6.27736 4.50574 55.9915 56.2283 56.6427 53.8041 47.9222 42.6309 39.3262 34.5829 30.7744 27.0439 24.03 21.115 19.9446 17.3279 15.991 14.1597 12.5494 11.1677 11.3291 10.1174 9.77871 7.83054 6.10847 6.36397 4.67947 4.6679 4.92333 5.24626 5.22826 4.87258 4.38812 4.10755 24.2752 37.845 38.4962 37.2329 34.9932 31.0431 28.8608 27.1502 22.9186 20.4242 18.6944 16.5308 14.6896 13.9582 12.7076 12.339 9.71775 10.3749 10.224 8.1146 7.57759 7.10556 6.21965 5.52294 6.28331 4.85899 5.44007 5.72607 4.25213 4.1996 5.42831 5.17221 13.2855 23.8501 27.3536 27.3215 23.7181 24.3057 21.2893 19.2098 18.4509 15.2029 14.9036 13.7155 12.333 11.4431 10.4111 9.30437 8.53842 8.83712 8.26294 7.23311 7.02377 7.97181 6.64986 8.34236 7.03091 5.09908 7.1908 6.15094 5.66858 5.56349 4.96201 4.33014 12.1475 20.0152 23.5694 22.333 22.0744 19.7359 15.6839 16.3208 14.8774 13.0778 13.6966 12.4519 11.1325 10.643 10.6256 9.28603 9.46931 8.0209 8.35887 8.9884 8.10078 8.12467 8.70244 7.58503 8.38586 6.54569 6.47701 6.70335 6.01974 6.59305 4.63121 3.74334 14.8595 25.08 28.9353 27.5633 25.1045 25.0921 21.0552 19.131 17.9376 16.7307 15.6486 13.6342 14.1145 11.1333 12.0858 11.0091 11.6918 10.6772 10.5292 9.76896 6.52602 9.10876 7.41444 6.80279 6.98377 7.48683 5.82625 6.98675 5.49592 4.64654 5.24341 4.2426 22.5747 35.7939 38.9169 38.0984 33.9196 30.6568 29.5789 27.4201 24.455 21.5873 20.0944 17.4745 17.0647 16.9608 14.1066 13.8202 12.4466 11.265 10.4864 11.4108 10.3885 8.88688 9.15082 8.49606 7.60968 6.01334 5.96417 5.42417 5.87329 5.42187 5.694 5.3736 33.894 49.7496 52.511 48.6904 44.5429 40.4192 36.9677 34.1396 30.2872 27.8669 25.2778 24.3007 20.7727 18.949 17.8199 15.5304 14.0486 13.0424 12.6644 11.3957 11.9504 9.04433 8.30484 7.54743 7.14968 7.09892 5.2313 5.9941 5.40989 5.6873 5.55516 4.73319 55.6664 63.8442 62.942 59.2858 54.9078 50.9326 45.9197 42.1037 38.0312 34.575 32.5832 28.3108 25.6088 23.2643 21.451 19.0482 17.8047 13.8675 13.9058 13.7576 12.054 10.01 10.1327 8.42926 8.61195 7.73508 7.40909 6.89298 5.49602 4.0751 5.51489 5.45489 55.2525 57.0449 55.6127 52.7567 46.5745 44.0834 39.1566 33.6823 31.6641 27.8136 23.2466 21.6488 18.7844 18.3452 15.9441 14.946 12.7633 11.23 10.7209 9.98136 8.70231 6.99482 6.03636 7.44272 6.0667 5.4109 5.1581 4.96925 5.07419 4.58983 4.77193 5.66167 23.9793 37.9702 38.8982 36.5024 34.1797 31.9106 27.3694 24.4029 22.534 20.906 17.5718 17.3017 14.8624 12.9423 12.9356 11.4317 10.3749 8.67356 8.64799 10.007 8.48957 5.6407 5.93351 7.03474 5.08467 5.15501 6.76232 4.70805 5.87919 5.18727 5.28553 4.10633 14.8335 25.3813 27.0302 25.6287 23.2877 23.0296 18.7414 18.5119 15.7543 15.4912 14.1668 13.3864 12.6496 10.3745 10.0938 10.968 9.05387 8.25418 8.64633 8.76552 8.46214 8.26674 8.08306 6.30737 6.45827 6.96308 5.72211 5.90334 5.50265 5.90335 5.49511 5.40544 10.7912 20.2467 22.9391 21.6829 20.8173 18.516 17.5901 16.1209 16.1966 13.1554 13.401 11.5891 10.2497 10.9833 9.4851 9.34744 9.58411 8.70193 9.45765 8.66117 9.28285 8.14208 7.71406 7.84266 6.80368 8.43448 5.47361 5.33605 5.31938 4.64541 4.80143 4.28432 13.5537 25.7889 29.1127 26.5818 25.5024 23.4065 21.6038 18.825 17.7872 17.1653 15.8062 14.1231 14.8428 12.0932 12.8504 10.2661 10.1345 10.5125 10.0509 9.67884 9.31473 8.8246 6.8827 7.22991 7.26747 7.09262 7.22198 8.36977 6.3499 4.45059 4.63646 4.50588 21.8822 36.8328 39.3347 36.8399 34.9326 30.3924 28.3869 27.0933 24.0804 22.1273 20.1655 17.1993 16.6418 15.9366 14.7865 12.5772 12.5876 11.9692 11.331 10.3254 10.3778 9.82495 7.65305 8.67622 5.75271 6.0487 5.37666 6.32021 6.74747 4.79154 4.99873 5.42046 33.9234 49.0504 50.4122 47.2482 44.472 40.9518 38.1229 34.155 31.2479 29.2516 25.7103 24.1106 21.6379 19.6491 18.5651 16.0427 15.4407 13.6592 14.2928 10.7212 11.5301 9.17086 8.25097 8.0537 5.52553 6.83737 7.59526 7.40202 6.95171 6.29666 5.91588 3.46279 57.2151 65.4438 62.1471 59.1109 54.6258 52.4562 47.1307 43.3803 38.5397 35.9663 32.0572 29.4432 26.4745 24.7526 21.9124 18.2954 17.11 15.1373 13.1574 13.7905 11.734 11.6675 9.94428 9.15416 7.07464 8.66776 6.99548 7.08494 5.40789 6.19899 3.97522 3.48491 55.9954 56.1676 54.6544 50.8521 44.9122 41.5525 36.9566 32.9324 30.081 27.0132 24.8767 21.238 18.8329 17.5074 16.3627 14.5514 12.2523 10.1446 9.54311 9.29855 7.9712 7.93875 7.82354 7.38114 4.67323 5.02993 5.17579 4.66628 5.60005 5.85056 4.87711 3.79347 27.1881 37.0225 37.4424 34.9821 32.818 29.1561 28.0592 23.7184 23.0078 20.0255 18.7581 16.5922 14.917 13.3468 11.9412 11.341 10.7029 9.25661 10.3853 7.46808 7.41312 7.52962 6.88567 6.7516 6.19623 4.97653 6.34059 5.78285 7.37291 6.41543 3.33199 4.21911 14.2339 23.2003 26.0591 24.2187 22.2621 22.3316 20.0029 19.3506 17.3223 16.5283 14.0593 14.4821 13.1625 12.4482 10.0431 10.274 10.0434 9.44601 7.92797 8.4904 7.67301 7.33753 8.05822 6.36162 6.64758 6.10763 6.20526 5.31669 5.93982 5.68257 5.32921 4.51859 9.19899 19.1708 20.9273 21.51 22.1367 18.2067 17.5586 17.019 16.7132 15.2178 12.487 11.8825 11.6025 12.1751 11.1645 10.0458 9.27076 8.90371 7.257 8.59677 9.46129 7.28934 7.51582 8.82165 7.24797 7.87983 6.33798 5.56937 5.97446 6.23411 3.86938 5.15229 12.9592 24.2122 27.7582 26.6143 25.3152 22.309 22.3316 19.395 18.3001 17.0919 16.5422 15.4822 14.4929 12.5374 12.9374 11.2479 10.4502 11.4931 9.37866 8.59852 8.21564 9.18456 8.52387 8.12853 7.49195 8.52333 6.15634 6.72151 6.33986 6.73606 5.57239 4.05956 22.3581 33.8866 38.7225 36.1215 33.5705 31.3094 30.1037 26.2253 24.0986 23.6577 21.3848 17.607 16.582 15.1773 16.0812 12.639 12.6239 11.775 11.5112 9.43649 9.90756 9.00233 10.2228 8.12387 6.38681 7.39948 7.31327 5.3133 5.14867 5.68494 5.88136 4.43625 37.3085 51.1863 52.9688 48.8723 44.4244 41.9995 35.9447 34.944 31.7286 28.813 26.5103 23.6275 21.5112 19.8567 19.0253 17.1725 16.6503 13.7235 11.6793 11.4147 10.2981 10.2475 9.98327 8.23833 9.07362 7.63726 7.4048 4.89088 7.29457 5.92212 5.13931 4.4731 58.2915 68.1653 64.5914 59.06 55.9416 52.9583 45.5428 42.9014 39.8794 34.2552 33.8757 28.932 26.3725 23.4073 22.5494 18.5713 17.213 16.7523 14.8254 13.6123 11.5413 9.84398 9.36304 7.96667 8.31409 6.47958 6.72405 6.2188 6.5814 4.99127 5.02328 4.63064 58.7555 56.5258 51.4165 46.4783 43.7833 39.8571 36.0274 32.1826 30.0539 27.149 24.0528 21.2516 19.2492 17.5969 15.8539 14.7129 12.6275 11.2577 10.2281 9.08339 8.77988 8.66263 7.85396 6.48469 7.15202 5.91698 4.87003 4.46908 4.9299 4.48116 3.90724 3.81628 31.907 36.4937 33.6385 32.9456 29.3504 28.5937 25.2789 24.1961 23.691 22.0579 19.3529 17.338 15.5636 14.8213 13.691 11.915 10.6485 9.7663 8.85328 8.5917 7.21165 6.69711 7.19926 5.70913 5.4925 7.14751 6.78736 5.13422 6.4497 5.31501 5.37711 6.33004 17.1663 21.7401 21.0475 21.5905 22.1465 20.4608 20.6571 19.5338 17.4041 17.2398 14.8181 13.6991 12.1631 11.7099 11.5344 11.3544 10.5417 10.5551 7.51553 7.92295 9.0877 7.38743 8.44783 6.62871 7.21347 7.62628 5.9613 6.47854 4.35602 5.72505 4.9834 5.63895 10.3559 14.7752 18.4701 20.5418 21.2411 19.821 17.9625 18.0996 16.2916 13.8423 14.8484 14.3781 13.1148 11.97 11.3277 11.0125 9.96724 10.6392 10.261 9.01781 9.36707 8.28701 8.71677 7.51623 8.34397 6.84133 7.26858 6.01484 5.57275 5.11146 4.99629 5.33823 11.6303 22.1482 26.6803 26.3215 26.0282 24.6237 24.3167 19.8224 19.7417 16.2186 17.1811 14.9856 14.5068 13.3098 12.8681 11.7766 9.78601 10.7979 10.5741 10.3459 11.1748 9.00626 8.41646 8.0265 6.69464 8.41972 7.85412 7.318 4.77657 6.73116 5.14569 5.32749 25.46 34.7727 39.0683 36.0476 34.131 33.3993 29.2726 27.0736 25.6335 25.0468 22.2461 18.5215 18.0469 17.9853 13.6238 14.1612 13.803 12.3091 12.0761 12.0364 10.5448 8.1951 9.11808 8.71831 7.66535 8.08117 5.46698 6.0532 5.51181 7.33031 5.34783 3.66206 41.4259 50.0905 50.0413 48.9997 43.5097 40.8427 37.8392 33.7879 31.1659 29.0308 27.2981 25.5886 20.4062 21.9549 19.5765 18.3554 15.3221 14.5084 12.9226 11.7119 11.4934 8.85631 10.6132 7.45382 9.15768 8.7681 4.97487 7.58508 5.76146 5.38428 5.49349 4.63927 62.4067 67.8075 62.6997 59.2359 54.6941 53.0096 48.2809 43.5184 42.1322 37.2035 32.3266 30.321 27.2293 23.8311 21.6409 20.126 17.5869 16.7774 14.22 13.848 13.1372 10.595 10.0349 9.44737 7.79857 7.22553 6.04662 6.67602 7.07435 3.78854 4.89351 4.73874 
SCALARS volume float 1
LOOKUP_TABLE default
13.4874 14.2847 14.3296 14.3613 14.3959 14.4311 14.4654 14.4982 14.5285 14.5569 14.5828 14.6067 14.6277 14.6469 14.6647 14.6801 14.6945 14.7069 14.7183 14.7283 14.7372 14.7455 14.7519 14.758 14.7625 14.767 14.7705 14.7729 14.7745 14.7756 14.7754 14.774 14.015 14.422 14.4928 14.5064 14.5196 14.5374 14.5584 14.5805 14.6021 14.6227 14.6415 14.6585 14.6743 14.6882 14.7008 14.7117 14.7219 14.7307 14.7388 14.7454 14.7516 14.7567 14.7616 14.7656 14.7685 14.7712 14.773 14.7746 14.7754 14.7754 14.7755 14.7749 14.3871 14.5836 14.6166 14.6249 14.6301 14.6386 14.6501 14.663 14.6766 14.6895 14.7012 14.7119 14.7217 14.7305 14.7377 14.7443 14.7503 14.7553 14.7595 14.7635 14.7666 14.7692 14.7718 14.7734 14.7747 14.7756 14.7762 14.7766 14.7764 14.7763 14.7755 14.7748 14.6996 14.729 14.7331 14.732 14.7321 14.7344 14.7388 14.7445 14.7503 14.7561 14.7612 14.766 14.7697 14.7728 14.7752 14.7776 14.779 14.7805 14.7814 14.7819 14.7821 14.7824 14.7821 14.7817 14.7811 14.7807 14.78 14.779 14.7779 14.7768 14.7758 14.7743 14.9764 14.8614 14.8425 14.833 14.8281 14.8258 14.8243 14.8231 14.8226 14.8216 14.8205 14.8189 14.8172 14.8152 14.813 14.8106 14.8082 14.8056 14.8032 14.8004 14.7978 14.7951 14.793 14.7908 14.7882 14.7861 14.784 14.7821 14.7795 14.7776 14.7755 14.7736 15.2342 14.9835 14.9445 14.9291 14.9206 14.9134 14.9065 14.8996 14.893 14.8858 14.8785 14.8713 14.8641 14.8572 14.85 14.8436 14.8366 14.8304 14.8247 14.8186 14.8137 14.8085 14.8038 14.7992 14.7949 14.7909 14.7875 14.7842 14.7812 14.7786 14.7759 14.7727 15.4897 15.0938 15.0396 15.0222 15.0103 14.9987 14.9867 14.9738 14.9607 14.9475 14.9347 14.9223 14.9098 14.8978 14.886 14.8753 14.8649 14.8552 14.8458 14.8372 14.8293 14.8214 14.8141 14.8076 14.8014 14.796 14.7907 14.7864 14.7825 14.7792 14.7764 14.7724 15.8168 15.1579 15.1346 15.1163 15.1003 15.0831 15.0656 15.0467 15.0278 15.0083 14.9898 14.9717 14.9545 14.9375 14.9215 14.9066 14.8923 14.8789 14.8664 14.8545 14.8439 14.8337 14.8241 14.8154 14.8077 14.8001 14.794 14.788 14.7832 14.7794 14.7761 14.7733 13.615 14.0736 14.2043 14.2868 14.355 14.411 14.4573 14.4961 14.5297 14.5591 14.5851 14.609 14.6301 14.6493 14.6667 14.6823 14.6962 14.7087 14.72 14.7303 14.7387 14.7466 14.7535 14.7594 14.7644 14.7684 14.7719 14.7741 14.7756 14.7765 14.7762 14.774 14.1085 14.2456 14.3798 14.4405 14.4814 14.5161 14.5471 14.5747 14.5995 14.6215 14.6412 14.6589 14.6747 14.6886 14.701 14.7124 14.7226 14.7313 14.7394 14.7462 14.7525 14.7577 14.7623 14.766 14.7695 14.7719 14.7738 14.775 14.7759 14.7758 14.7753 14.7754 14.4314 14.4847 14.5426 14.5765 14.5991 14.6189 14.6374 14.6551 14.6712 14.6857 14.6986 14.7102 14.7202 14.7292 14.7371 14.7438 14.7498 14.755 14.7596 14.7634 14.7669 14.7696 14.7721 14.7738 14.7754 14.776 14.7766 14.7769 14.7766 14.7763 14.7757 14.7754 14.7157 14.6968 14.6979 14.7029 14.7099 14.718 14.7263 14.7349 14.7432 14.7507 14.7571 14.7624 14.7672 14.7712 14.7739 14.7763 14.7783 14.7799 14.7808 14.7813 14.782 14.7823 14.7821 14.7817 14.7816 14.7807 14.7802 14.779 14.7782 14.777 14.7757 14.7745 14.9788 14.8882 14.8398 14.8211 14.8146 14.8129 14.8133 14.814 14.8149 14.8156 14.8155 14.8149 14.8144 14.8128 14.8109 14.8089 14.807 14.8047 14.8024 14.8001 14.7976 14.7951 14.7925 14.7903 14.788 14.7858 14.7835 14.7816 14.7796 14.7775 14.7756 14.7735 15.234 15.06 14.9665 14.9304 14.9144 14.9049 14.8981 14.8916 14.8857 14.8796 14.8735 14.8671 14.8605 14.8544 14.8479 14.8416 14.8355 14.8294 14.8239 14.818 14.813 14.8079 14.8033 14.7986 14.7945 14.7903 14.7873 14.7839 14.7808 14.778 14.7754 14.772 15.4883 15.201 15.0737 15.0321 15.0105 14.9948 14.9812 14.9684 14.9556 14.943 14.9305 14.9187 14.9065 14.8953 14.8842 14.8736 14.8637 14.8539 14.8448 14.8364 14.8281 14.8202 14.8134 14.8067 14.8008 14.7952 14.7901 14.7858 14.782 14.7786 14.7757 14.7721 15.8096 15.2466 15.1643 15.1292 15.1052 15.0838 15.0637 15.0441 15.0246 15.0053 14.9867 14.9689 14.9516 14.9352 14.9198 14.9047 14.8907 14.8775 14.8652 14.8536 14.8424 14.8324 14.8226 14.8144 14.8062 14.7991 14.7927 14.787 14.782 14.7782 14.7758 14.7733 13.5185 14.0432 14.1516 14.2431 14.3249 14.3933 14.4481 14.4922 14.5287 14.5599 14.5866 14.6104 14.6317 14.6508 14.668 14.6836 14.6975 14.7099 14.721 14.731 14.7398 14.7477 14.7544 14.7603 14.7652 14.7693 14.7724 14.7747 14.7764 14.7768 14.7765 14.7744 14.0825 14.2043 14.328 14.4018 14.4561 14.5006 14.5383 14.5701 14.5972 14.6205 14.6409 14.6589 14.6746 14.689 14.7015 14.7131 14.7229 14.7319 14.7399 14.7469 14.7531 14.7584 14.7629 14.7667 14.7701 14.7723 14.7743 14.7756 14.7763 14.7762 14.7757 14.7756 14.417 14.4579 14.5059 14.5479 14.5791 14.6055 14.6287 14.6492 14.6674 14.6835 14.6971 14.7089 14.7194 14.7288 14.7366 14.7439 14.7499 14.7553 14.76 14.7637 14.7672 14.7698 14.7721 14.7741 14.7754 14.7764 14.7769 14.7774 14.7767 14.7763 14.7758 14.7759 14.7101 14.6871 14.6809 14.6864 14.6961 14.7073 14.7186 14.7296 14.739 14.7473 14.7546 14.7605 14.7654 14.7699 14.7731 14.7756 14.7778 14.7796 14.7808 14.7816 14.7819 14.7822 14.7823 14.7822 14.7815 14.7811 14.7801 14.779 14.778 14.7768 14.7758 14.7746 14.9828 14.8961 14.8411 14.8159 14.807 14.8055 14.8067 14.8089 14.8108 14.812 14.8127 14.8126 14.8124 14.8112 14.8097 14.808 14.8063 14.8042 14.8017 14.7997 14.7974 14.7948 14.7923 14.7901 14.7878 14.7858 14.7836 14.7817 14.7791 14.7773 14.7753 14.7731 15.2472 15.0837 14.9822 14.9342 14.9123 14.9005 14.8932 14.8875 14.8818 14.8764 14.8707 14.8651 14.8588 14.853 14.8464 14.8406 14.8347 14.8287 14.8235 14.8175 14.8127 14.8077 14.8029 14.7985 14.7942 14.7904 14.7869 14.7834 14.7806 14.778 14.7754 14.7725 15.5045 15.234 15.0974 15.0416 15.0128 14.9937 14.9789 14.9654 14.953 14.9406 14.9283 14.9166 14.905 14.8937 14.8829 14.8723 14.8625 14.853 14.8441 14.8354 14.8275 14.8197 14.8128 14.806 14.8004 14.7946 14.7898 14.7855 14.7815 14.7782 14.7754 14.7725 15.8427 15.2787 15.1894 15.1425 15.1114 15.0863 15.0641 15.0433 15.0234 15.0039 14.9853 14.9677 14.9501 14.9338 14.9186 14.9037 14.8895 14.8764 14.8642 14.8525 14.8416 14.8313 14.8218 14.8132 14.8055 14.7984 14.7919 14.7867 14.7817 14.7777 14.7752 14.7732 13.4674 14.0241 14.134 14.2248 14.3104 14.3833 14.4425 14.4896 14.5277 14.5595 14.5873 14.6109 14.6325 14.6514 14.6684 14.684 14.6981 14.7105 14.7216 14.7314 14.7406 14.7482 14.7549 14.7605 14.7656 14.7695 14.7729 14.7753 14.7766 14.7771 14.7762 14.7746 14.0662 14.185 14.3097 14.3853 14.4434 14.4923 14.533 14.5673 14.5958 14.6198 14.6408 14.6589 14.675 14.6893 14.7019 14.7129 14.7232 14.7322 14.74 14.7471 14.7533 14.7585 14.7631 14.7671 14.77 14.7726 14.7749 14.7758 14.7767 14.7762 14.776 14.7756 14.4086 14.4466 14.4926 14.5352 14.5695 14.5986 14.624 14.6465 14.6656 14.6823 14.6963 14.7083 14.7192 14.7285 14.7368 14.7439 14.75 14.7554 14.7601 14.7641 14.7671 14.7701 14.7724 14.7739 14.7755 14.7764 14.7774 14.7774 14.7768 14.7764 14.7756 14.7755 14.7066 14.6828 14.6748 14.6792 14.6896 14.702 14.7145 14.7262 14.7369 14.7458 14.7531 14.7598 14.7651 14.7691 14.7725 14.7755 14.7776 14.7793 14.7803 14.7814 14.7819 14.782 14.7822 14.7823 14.7818 14.781 14.7799 14.7794 14.7782 14.7767 14.7756 14.7748 14.9834 14.8989 14.8422 14.814 14.8038 14.8021 14.8039 14.8064 14.8086 14.8104 14.8115 14.8116 14.8113 14.8106 14.8092 14.8076 14.8056 14.804 14.8016 14.7994 14.7971 14.7946 14.7924 14.7904 14.7878 14.7854 14.7832 14.7814 14.7794 14.7774 14.7754 14.773 15.2509 15.0921 14.9889 14.9368 14.9118 14.8992 14.8912 14.8856 14.8802 14.8749 14.8694 14.864 14.8577 14.852 14.8459 14.8401 14.834 14.8282 14.8229 14.8173 14.8124 14.8074 14.8026 14.7982 14.7942 14.7902 14.7869 14.7835 14.7805 14.778 14.7752 14.7724 15.5105 15.2466 15.1079 15.0472 15.0148 14.9941 14.9782 14.9645 14.9518 14.9395 14.9275 14.9156 14.904 14.893 14.8825 14.8719 14.862 14.8525 14.8434 14.8351 14.8273 14.8196 14.8127 14.8059 14.7998 14.7946 14.7893 14.785 14.7814 14.7781 14.7754 14.772 15.8587 15.2939 15.2022 15.1504 15.1155 15.0883 15.0649 15.0431 15.0226 15.0033 14.9848 14.9667 14.9492 14.933 14.9178 14.9031 14.8891 14.8759 14.8634 14.8518 14.841 14.831 14.8217 14.8131 14.8051 14.798 14.7915 14.7859 14.7814 14.7777 14.775 14.7729 13.4673 14.0242 14.1338 14.2244 14.3103 14.3834 14.4426 14.4897 14.5278 14.5597 14.5872 14.611 14.6323 14.6515 14.6686 14.6842 14.6982 14.7107 14.7213 14.7315 14.7406 14.748 14.7549 14.7611 14.7659 14.7698 14.7727 14.7753 14.7767 14.7773 14.7765 14.7747 14.0663 14.1848 14.3096 14.3852 14.4435 14.4921 14.533 14.5672 14.5953 14.6201 14.6409 14.6593 14.6749 14.6892 14.7017 14.7133 14.7232 14.7325 14.7402 14.7473 14.7532 14.7585 14.7634 14.7671 14.7701 14.7726 14.7747 14.7759 14.7763 14.7764 14.7759 14.7755 14.4087 14.4465 14.4927 14.5351 14.5695 14.5987 14.6244 14.6464 14.6657 14.6822 14.6963 14.7086 14.7192 14.7286 14.7366 14.7439 14.7498 14.7553 14.7598 14.7639 14.7672 14.7702 14.7724 14.7742 14.7754 14.7765 14.7772 14.7772 14.7771 14.7766 14.7757 14.7755 14.7066 14.6827 14.6747 14.6791 14.6894 14.7019 14.7149 14.7266 14.7369 14.7459 14.7535 14.7596 14.7649 14.7692 14.7725 14.7754 14.7776 14.7793 14.7805 14.7812 14.7821 14.7826 14.7825 14.7821 14.7815 14.7808 14.78 14.7794 14.7781 14.7768 14.7754 14.7748 14.9835 14.8991 14.8419 14.8142 14.8041 14.8023 14.8038 14.8064 14.8088 14.8104 14.8111 14.8116 14.8114 14.8106 14.8093 14.8077 14.8059 14.8035 14.8018 14.7996 14.7972 14.7948 14.7923 14.79 14.7878 14.7857 14.7836 14.7815 14.7793 14.7774 14.7751 14.7735 15.2512 15.0921 14.989 14.9367 14.9123 14.8991 14.8916 14.8858 14.8802 14.8749 14.8693 14.8638 14.8578 14.8521 14.8457 14.8399 14.8339 14.8282 14.8228 14.8176 14.8121 14.8074 14.8026 14.7982 14.7942 14.7904 14.7865 14.7836 14.7804 14.7778 14.7753 14.7725 15.5106 15.2465 15.1081 15.0475 15.015 14.9942 14.9785 14.9643 14.9516 14.9393 14.9272 14.9157 14.9041 14.8931 14.8823 14.872 14.8618 14.8526 14.8439 14.8352 14.8272 14.8196 14.8129 14.8061 14.8002 14.7945 14.7893 14.785 14.7813 14.7778 14.7754 14.7723 15.8587 15.2939 15.2023 15.1507 15.1156 15.0886 15.0648 15.0433 15.0229 15.0034 14.9846 14.9667 14.9495 14.9332 14.9177 14.903 14.8893 14.8761 14.8638 14.8521 14.8413 14.8311 14.8218 14.8132 14.8046 14.7982 14.7915 14.7859 14.7816 14.7775 14.7749 14.773 13.5182 14.0429 14.1508 14.2425 14.3246 14.3931 14.4481 14.4924 14.5288 14.5597 14.5866 14.6103 14.6317 14.6509 14.6679 14.6834 14.6974 14.7099 14.7212 14.7312 14.7401 14.7476 14.7546 14.7602 14.7652 14.7694 14.7729 14.7751 14.7763 14.7769 14.7764 14.7744 14.0821 14.204 14.3278 14.4016 14.4558 14.5003 14.5379 14.5698 14.5972 14.6207 14.6408 14.6588 14.6747 14.6889 14.7019 14.7132 14.7231 14.7323 14.7396 14.747 14.7532 14.7578 14.7628 14.7667 14.77 14.7724 14.7744 14.7757 14.7762 14.7763 14.7756 14.7756 14.4169 14.4578 14.5059 14.5474 14.5789 14.6053 14.6287 14.6492 14.6675 14.6832 14.697 14.7093 14.7198 14.7287 14.7368 14.7438 14.7497 14.7553 14.7599 14.7641 14.7672 14.7697 14.7721 14.774 14.7753 14.7766 14.7768 14.7773 14.7771 14.7763 14.7758 14.7757 14.7102 14.6869 14.6809 14.6861 14.6959 14.7072 14.7185 14.7291 14.7388 14.7473 14.7548 14.7605 14.7658 14.7696 14.7731 14.7757 14.7777 14.7795 14.7806 14.7815 14.7818 14.7823 14.7823 14.7819 14.7817 14.781 14.7803 14.7793 14.7783 14.777 14.7757 14.7749 14.983 14.8963 14.8413 14.816 14.8071 14.8053 14.8064 14.8087 14.8106 14.8121 14.8126 14.8126 14.8122 14.8111 14.8097 14.8079 14.8062 14.804 14.8018 14.7997 14.7973 14.795 14.7923 14.7903 14.7876 14.7856 14.7836 14.7813 14.7795 14.7773 14.7757 14.7733 15.2475 15.0839 14.9826 14.9342 14.9123 14.9007 14.8934 14.8874 14.8821 14.8765 14.8707 14.8646 14.8587 14.8528 14.8464 14.8407 14.8347 14.8289 14.8229 14.8174 14.8124 14.8076 14.8029 14.7987 14.7944 14.7904 14.7868 14.7835 14.7807 14.778 14.7752 14.7722 15.5047 15.2342 15.0975 15.0419 15.0128 14.994 14.9792 14.9653 14.9529 14.9402 14.9283 14.9164 14.9049 14.8935 14.8828 14.8724 14.8624 14.8531 14.844 14.8353 14.8271 14.8198 14.8129 14.8065 14.8002 14.7949 14.7901 14.7853 14.7817 14.7783 14.7754 14.7721 15.8428 15.2789 15.1897 15.1426 15.1115 15.0866 15.0642 15.0435 15.0232 15.004 14.9855 14.9676 14.9499 14.9339 14.9186 14.9034 14.8897 14.8764 14.8643 14.8523 14.8418 14.8315 14.8221 14.8133 14.8053 14.7982 14.7919 14.7865 14.7814 14.7778 14.7753 14.7732 13.6145 14.0725 14.2036 14.2863 14.3547 14.4109 14.4572 14.4962 14.5296 14.5591 14.5853 14.609 14.6303 14.6494 14.6667 14.6823 14.6959 14.7088 14.72 14.7301 14.739 14.7469 14.754 14.7592 14.7641 14.7684 14.7719 14.774 14.7756 14.7765 14.7757 14.7741 14.1079 14.2448 14.3791 14.44 14.481 14.516 14.547 14.5747 14.5993 14.6213 14.641 14.6589 14.6744 14.6888 14.701 14.7121 14.7224 14.7314 14.739 14.7462 14.7524 14.7578 14.762 14.7662 14.7694 14.7717 14.7737 14.7753 14.7758 14.7763 14.7756 14.7754 14.4311 14.4846 14.5419 14.5758 14.5989 14.6186 14.6374 14.655 14.6713 14.6857 14.6986 14.7102 14.7205 14.7294 14.7372 14.7442 14.7498 14.7553 14.7597 14.7637 14.7667 14.7695 14.7719 14.7738 14.7751 14.7761 14.7766 14.7768 14.7767 14.7763 14.7754 14.7753 14.7155 14.6967 14.6975 14.7027 14.7096 14.7177 14.7265 14.7351 14.7432 14.7507 14.7571 14.7625 14.7673 14.771 14.7739 14.7762 14.7783 14.7796 14.7808 14.7813 14.7819 14.7824 14.7821 14.7818 14.7818 14.7812 14.7799 14.7792 14.7778 14.7767 14.7757 14.7743 14.9788 14.8883 14.8399 14.8214 14.8147 14.8128 14.813 14.8141 14.8147 14.8155 14.8156 14.8152 14.8141 14.8125 14.811 14.809 14.8066 14.8044 14.8023 14.7998 14.7975 14.7951 14.7926 14.7905 14.788 14.7857 14.7837 14.7813 14.7795 14.7775 14.7757 14.7733 15.2347 15.0605 14.9667 14.9304 14.9141 14.9046 14.8978 14.8917 14.8855 14.8796 14.8732 14.8672 14.8609 14.8542 14.848 14.8416 14.8354 14.8295 14.824 14.8183 14.8128 14.8079 14.803 14.7987 14.7946 14.7907 14.787 14.7839 14.7811 14.778 14.7754 14.7729 15.4888 15.2016 15.0738 15.0319 15.0104 14.9948 14.9813 14.9682 14.9557 14.9429 14.9309 14.9185 14.9069 14.8952 14.8841 14.8737 14.8635 14.854 14.8449 14.836 14.8281 14.8203 14.8133 14.8067 14.8009 14.7951 14.7903 14.7858 14.7818 14.7785 14.7754 14.7725 15.8098 15.2472 15.1645 15.1294 15.1052 15.0841 15.0636 15.044 15.0244 15.005 14.9866 14.9689 14.9517 14.9353 14.9198 14.905 14.8908 14.8777 14.8648 14.8532 14.8425 14.8323 14.8228 14.8143 14.8062 14.7989 14.7929 14.787 14.7821 14.7785 14.7752 14.7736 13.4891 14.2811 14.3272 14.3599 14.3951 14.4306 14.4655 14.4983 14.5287 14.557 14.5825 14.6065 14.6278 14.6468 14.6646 14.68 14.6943 14.7071 14.7183 14.7284 14.7375 14.7452 14.7523 14.7578 14.7631 14.7671 14.7701 14.7731 14.7747 14.7755 14.7753 14.7742 14.0149 14.4196 14.4912 14.5056 14.5188 14.5369 14.5581 14.5802 14.6021 14.6224 14.6413 14.6586 14.6741 14.688 14.7007 14.7118 14.7216 14.7309 14.7387 14.7457 14.752 14.7569 14.7615 14.7655 14.7685 14.7708 14.7732 14.7742 14.7753 14.7757 14.7753 14.7751 14.3869 14.5824 14.6157 14.624 14.6301 14.638 14.6502 14.6628 14.6764 14.6896 14.7012 14.7122 14.7216 14.7305 14.7377 14.7442 14.7504 14.7554 14.7596 14.7635 14.7667 14.7691 14.7715 14.7735 14.7748 14.7756 14.7764 14.7766 14.7765 14.7761 14.7752 14.7749 14.6996 14.728 14.7327 14.7315 14.7317 14.734 14.7389 14.7441 14.75 14.7561 14.7612 14.7656 14.7694 14.7731 14.7754 14.7773 14.7792 14.7803 14.7813 14.7818 14.7823 14.7821 14.7819 14.7818 14.7812 14.7805 14.7797 14.7791 14.7779 14.7771 14.7759 14.7743 14.9769 14.8616 14.8423 14.833 14.8281 14.8255 14.8238 14.8229 14.8226 14.8214 14.8206 14.8189 14.8171 14.815 14.8128 14.8109 14.8079 14.8053 14.803 14.8006 14.7978 14.7953 14.7929 14.7902 14.7882 14.786 14.784 14.7815 14.7797 14.7776 14.7758 14.7733 15.2356 14.9839 14.9448 14.9292 14.9205 14.9135 14.9062 14.8995 14.8924 14.8857 14.8783 14.871 14.8642 14.8571 14.8502 14.8435 14.8366 14.8306 14.8247 14.8191 14.8136 14.8086 14.8038 14.7988 14.7951 14.7911 14.7876 14.7841 14.7814 14.7787 14.7759 14.7727 15.4921 15.0951 15.0401 15.0228 15.0101 14.9986 14.9866 14.9737 14.9606 14.948 14.9351 14.9218 14.9097 14.8978 14.8863 14.8754 14.865 14.8551 14.846 14.8372 14.8291 14.8212 14.8142 14.8075 14.8016 14.796 14.7912 14.7866 14.7826 14.7793 14.7761 14.7723 15.8186 15.1591 15.1349 15.1168 15.1005 15.0833 15.0654 15.0466 15.0273 15.0082 14.9895 14.9713 14.9544 14.9374 14.9217 14.9065 14.8922 14.8792 14.8666 14.8548 14.8436 14.8335 14.8241 14.8155 14.807 14.8 14.7941 14.788 14.7832 14.7793 14.7761 14.7734 
SCALARS volume_diff float 1
LOOKUP_TABLE default
13.4855 14.2827 14.3276 14.3593 14.3939 14.4291 14.4635 14.4962 14.5265 14.555 14.5808 14.6048 14.6257 14.645 14.6627 14.6782 14.6925 14.7049 14.7163 14.7263 14.7352 14.7435 14.75 14.7561 14.7606 14.7651 14.7686 14.771 14.7726 14.7737 14.7734 14.772 14.013 14.42 14.4908 14.5045 14.5177 14.5354 14.5564 14.5785 14.6001 14.6208 14.6396 14.6566 14.6724 14.6862 14.6988 14.7098 14.72 14.7287 14.7368 14.7435 14.7496 14.7548 14.7596 14.7636 14.7665 14.7692 14.7711 14.7727 14.7735 14.7734 14.7735 14.7729 14.3852 14.5817 14.6147 14.6229 14.6281 14.6367 14.6482 14.6611 14.6746 14.6875 14.6993 14.7099 14.7197 14.7285 14.7358 14.7424 14.7483 14.7533 14.7575 14.7615 14.7646 14.7673 14.7698 14.7714 14.7727 14.7736 14.7743 14.7747 14.7745 14.7744 14.7736 14.7729 14.6976 14.727 14.7312 14.73 14.7301 14.7324 14.7368 14.7426 14.7483 14.7541 14.7592 14.764 14.7677 14.7708 14.7733 14.7756 14.777 14.7786 14.7794 14.78 14.7801 14.7804 14.7801 14.7798 14.7792 14.7787 14.7781 14.7771 14.776 14.7749 14.7738 14.7724 14.9744 14.8594 14.8406 14.8311 14.8261 14.8239 14.8223 14.8211 14.8207 14.8196 14.8185 14.8169 14.8153 14.8133 14.811 14.8087 14.8062 14.8036 14.8013 14.7985 14.7958 14.7932 14.791 14.7888 14.7862 14.7842 14.7821 14.7802 14.7776 14.7757 14.7736 14.7717 15.2322 14.9815 14.9425 14.9272 14.9187 14.9115 14.9046 14.8976 14.891 14.8838 14.8766 14.8693 14.8622 14.8552 14.8481 14.8416 14.8346 14.8284 14.8227 14.8166 14.8118 14.8065 14.8019 14.7972 14.793 14.7889 14.7855 14.7822 14.7793 14.7767 14.7739 14.7708 15.4877 15.0919 15.0377 15.0203 15.0084 14.9967 14.9848 14.9718 14.9588 14.9456 14.9327 14.9203 14.9078 14.8959 14.8841 14.8733 14.8629 14.8533 14.8438 14.8353 14.8274 14.8194 14.8122 14.8057 14.7995 14.794 14.7888 14.7844 14.7805 14.7773 14.7744 14.7704 15.8149 15.156 15.1326 15.1144 15.0984 15.0812 15.0636 15.0448 15.0259 15.0064 14.9878 14.9697 14.9525 14.9356 14.9196 14.9046 14.8903 14.8769 14.8644 14.8525 14.842 14.8317 14.8221 14.8134 14.8057 14.7981 14.7921 14.7861 14.7813 14.7774 14.7742 14.7713 13.613 14.0716 14.2024 14.2849 14.3531 14.4091 14.4553 14.4942 14.5277 14.5572 14.5831 14.607 14.6282 14.6474 14.6647 14.6803 14.6943 14.7067 14.718 14.7283 14.7367 14.7446 14.7515 14.7574 14.7625 14.7665 14.7699 14.7721 14.7736 14.7745 14.7742 14.7721 14.1066 14.2437 14.3779 14.4386 14.4795 14.5142 14.5452 14.5728 14.5976 14.6195 14.6392 14.6569 14.6727 14.6866 14.6991 14.7105 14.7207 14.7293 14.7374 14.7442 14.7506 14.7557 14.7603 14.7641 14.7675 14.77 14.7718 14.773 14.7739 14.7738 14.7734 14.7734 14.4294 14.4827 14.5406 14.5745 14.5971 14.617 14.6355 14.6531 14.6692 14.6837 14.6967 14.7083 14.7182 14.7273 14.7352 14.7419 14.7478 14.7531 14.7576 14.7615 14.765 14.7676 14.7702 14.7719 14.7734 14.7741 14.7746 14.7749 14.7747 14.7743 14.7737 14.7734 14.7137 14.6949 14.6959 14.701 14.708 14.716 14.7243 14.733 14.7412 14.7487 14.7551 14.7604 14.7652 14.7692 14.772 14.7744 14.7764 14.778 14.7788 14.7794 14.7801 14.7804 14.7801 14.7798 14.7797 14.7787 14.7782 14.7771 14.7762 14.7751 14.7737 14.7725 14.9768 14.8862 14.8378 14.8192 14.8127 14.8109 14.8114 14.812 14.813 14.8137 14.8135 14.813 14.8124 14.8109 14.8089 14.8069 14.805 14.8027 14.8004 14.7982 14.7957 14.7931 14.7906 14.7884 14.786 14.7838 14.7816 14.7797 14.7776 14.7755 14.7736 14.7716 15.2321 15.0581 14.9645 14.9284 14.9124 14.903 14.8962 14.8897 14.8838 14.8776 14.8715 14.8652 14.8585 14.8524 14.8459 14.8397 14.8335 14.8274 14.822 14.8161 14.811 14.806 14.8013 14.7966 14.7926 14.7884 14.7854 14.7819 14.7789 14.7761 14.7734 14.7701 15.4864 15.1991 15.0718 15.0301 15.0085 14.9929 14.9793 14.9665 14.9536 14.9411 14.9286 14.9167 14.9045 14.8933 14.8822 14.8716 14.8617 14.8519 14.8429 14.8345 14.8262 14.8183 14.8114 14.8048 14.7988 14.7933 14.7881 14.7839 14.7801 14.7767 14.7738 14.7701 15.8076 15.2446 15.1624 15.1272 15.1032 15.0819 15.0617 15.0421 15.0227 15.0034 14.9848 14.967 14.9497 14.9333 14.9178 14.9027 14.8888 14.8755 14.8632 14.8516 14.8405 14.8305 14.8206 14.8124 14.8042 14.7971 14.7908 14.785 14.78 14.7763 14.7738 14.7714 13.5165 14.0413 14.1496 14.2412 14.3229 14.3914 14.4461 14.4902 14.5267 14.5579 14.5847 14.6084 14.6298 14.6488 14.6661 14.6816 14.6955 14.7079 14.719 14.729 14.7379 14.7457 14.7524 14.7584 14.7633 14.7673 14.7705 14.7728 14.7744 14.7748 14.7745 14.7725 14.0806 14.2024 14.326 14.3999 14.4541 14.4987 14.5364 14.5682 14.5953 14.6186 14.639 14.6569 14.6727 14.687 14.6996 14.7111 14.721 14.7299 14.7379 14.745 14.7512 14.7564 14.7609 14.7647 14.7681 14.7703 14.7723 14.7737 14.7743 14.7743 14.7737 14.7737 14.4151 14.456 14.5039 14.546 14.5771 14.6036 14.6267 14.6473 14.6655 14.6816 14.6951 14.707 14.7174 14.7269 14.7346 14.7419 14.7479 14.7534 14.758 14.7617 14.7652 14.7678 14.7701 14.7722 14.7735 14.7744 14.775 14.7754 14.7747 14.7744 14.7739 14.7739 14.7081 14.6851 14.6789 14.6844 14.6941 14.7054 14.7166 14.7276 14.737 14.7454 14.7527 14.7586 14.7635 14.768 14.7711 14.7737 14.7759 14.7777 14.7788 14.7796 14.78 14.7802 14.7803 14.7803 14.7796 14.7791 14.7782 14.777 14.7761 14.7749 14.7739 14.7726 14.9808 14.8941 14.8391 14.814 14.805 14.8036 14.8047 14.8069 14.8088 14.81 14.8107 14.8106 14.8104 14.8093 14.8077 14.806 14.8043 14.8022 14.7998 14.7978 14.7954 14.7929 14.7904 14.7882 14.7859 14.7839 14.7816 14.7797 14.7772 14.7754 14.7734 14.7712 15.2452 15.0817 14.9803 14.9323 14.9103 14.8985 14.8912 14.8855 14.8799 14.8745 14.8687 14.8631 14.8569 14.851 14.8444 14.8386 14.8327 14.8267 14.8215 14.8156 14.8107 14.8057 14.8009 14.7965 14.7922 14.7884 14.7849 14.7815 14.7787 14.7761 14.7734 14.7706 15.5026 15.2321 15.0954 15.0397 15.0108 14.9918 14.977 14.9635 14.951 14.9387 14.9263 14.9146 14.903 14.8918 14.881 14.8704 14.8606 14.8511 14.8422 14.8334 14.8255 14.8177 14.8109 14.8041 14.7984 14.7927 14.7879 14.7835 14.7796 14.7762 14.7734 14.7705 15.8408 15.2767 15.1874 15.1405 15.1095 15.0843 15.0622 15.0413 15.0214 15.002 14.9834 14.9658 14.9482 14.9319 14.9167 14.9017 14.8876 14.8744 14.8622 14.8505 14.8397 14.8293 14.8198 14.8112 14.8035 14.7965 14.7899 14.7848 14.7797 14.7757 14.7733 14.7712 13.4654 14.0221 14.1321 14.2228 14.3085 14.3814 14.4406 14.4876 14.5257 14.5575 14.5853 14.6089 14.6305 14.6494 14.6665 14.682 14.6961 14.7086 14.7197 14.7294 14.7386 14.7462 14.753 14.7585 14.7636 14.7675 14.7709 14.7734 14.7747 14.7752 14.7743 14.7726 14.0643 14.1831 14.3078 14.3834 14.4415 14.4903 14.531 14.5653 14.5938 14.6178 14.6388 14.657 14.673 14.6873 14.6999 14.7109 14.7212 14.7303 14.7381 14.7451 14.7513 14.7565 14.7612 14.7652 14.7681 14.7707 14.7729 14.7739 14.7747 14.7742 14.774 14.7737 14.4066 14.4446 14.4906 14.5332 14.5675 14.5966 14.622 14.6445 14.6636 14.6804 14.6944 14.7064 14.7173 14.7265 14.7348 14.7419 14.748 14.7535 14.7582 14.7621 14.7652 14.7682 14.7705 14.772 14.7735 14.7744 14.7755 14.7755 14.7748 14.7745 14.7736 14.7735 14.7047 14.6808 14.6729 14.6772 14.6877 14.7001 14.7125 14.7243 14.735 14.7439 14.7512 14.7578 14.7631 14.7672 14.7706 14.7735 14.7757 14.7774 14.7784 14.7795 14.78 14.7801 14.7802 14.7804 14.7799 14.779 14.7779 14.7775 14.7763 14.7748 14.7736 14.7728 14.9815 14.897 14.8402 14.8121 14.8018 14.8002 14.802 14.8045 14.8066 14.8084 14.8095 14.8097 14.8093 14.8087 14.8072 14.8057 14.8036 14.8021 14.7997 14.7975 14.7952 14.7927 14.7904 14.7884 14.7859 14.7835 14.7813 14.7795 14.7774 14.7754 14.7734 14.7711 15.249 15.0902 14.9869 14.9348 14.9098 14.8972 14.8893 14.8836 14.8782 14.8729 14.8674 14.862 14.8557 14.8501 14.844 14.8381 14.8321 14.8262 14.821 14.8153 14.8105 14.8054 14.8007 14.7962 14.7922 14.7882 14.785 14.7816 14.7786 14.7761 14.7732 14.7704 15.5085 15.2446 15.1059 15.0453 15.0129 14.9922 14.9763 14.9626 14.9499 14.9376 14.9256 14.9137 14.9021 14.891 14.8805 14.8699 14.86 14.8505 14.8415 14.8331 14.8253 14.8176 14.8108 14.804 14.7978 14.7926 14.7873 14.7831 14.7795 14.7762 14.7734 14.7701 15.8568 15.2919 15.2002 15.1484 15.1135 15.0864 15.0629 15.0412 15.0207 15.0014 14.9828 14.9647 14.9473 14.931 14.9159 14.9012 14.8872 14.8739 14.8615 14.8499 14.839 14.829 14.8198 14.8111 14.8031 14.796 14.7895 14.7839 14.7795 14.7757 14.7731 14.771 13.4654 14.0222 14.1318 14.2225 14.3083 14.3814 14.4406 14.4877 14.5259 14.5577 14.5852 14.609 14.6304 14.6495 14.6667 14.6823 14.6962 14.7087 14.7194 14.7296 14.7386 14.7461 14.7529 14.7591 14.7639 14.7679 14.7707 14.7733 14.7747 14.7753 14.7746 14.7728 14.0644 14.1829 14.3076 14.3832 14.4415 14.4902 14.5311 14.5653 14.5934 14.6181 14.639 14.6573 14.673 14.6872 14.6998 14.7113 14.7213 14.7305 14.7383 14.7453 14.7512 14.7566 14.7614 14.7652 14.7681 14.7707 14.7728 14.7739 14.7744 14.7744 14.774 14.7735 14.4068 14.4445 14.4907 14.5332 14.5676 14.5968 14.6224 14.6444 14.6638 14.6802 14.6944 14.7067 14.7173 14.7266 14.7347 14.7419 14.7478 14.7533 14.7578 14.7619 14.7653 14.7682 14.7704 14.7722 14.7735 14.7746 14.7752 14.7753 14.7751 14.7746 14.7738 14.7735 14.7047 14.6807 14.6727 14.6771 14.6875 14.7 14.7129 14.7246 14.7349 14.744 14.7515 14.7576 14.7629 14.7672 14.7706 14.7735 14.7756 14.7773 14.7785 14.7793 14.7802 14.7806 14.7805 14.7801 14.7796 14.7788 14.7781 14.7775 14.7762 14.7749 14.7734 14.7728 14.9815 14.8971 14.84 14.8122 14.8022 14.8004 14.8019 14.8045 14.8068 14.8084 14.8092 14.8096 14.8094 14.8086 14.8074 14.8058 14.8039 14.8016 14.7999 14.7976 14.7953 14.7928 14.7904 14.788 14.7858 14.7837 14.7816 14.7796 14.7773 14.7754 14.7731 14.7715 15.2492 15.0901 14.987 14.9348 14.9103 14.8972 14.8897 14.8838 14.8782 14.873 14.8674 14.8618 14.8559 14.8501 14.8437 14.838 14.832 14.8262 14.8208 14.8157 14.8102 14.8054 14.8006 14.7963 14.7922 14.7884 14.7846 14.7816 14.7784 14.7758 14.7733 14.7705 15.5087 15.2445 15.1061 15.0455 15.0131 14.9922 14.9765 14.9624 14.9496 14.9374 14.9253 14.9137 14.9022 14.8912 14.8803 14.87 14.8599 14.8507 14.8419 14.8333 14.8252 14.8176 14.8109 14.8041 14.7983 14.7926 14.7874 14.783 14.7794 14.7759 14.7735 14.7703 15.8567 15.2919 15.2003 15.1487 15.1137 15.0866 15.0629 15.0413 15.0209 15.0014 14.9827 14.9647 14.9475 14.9312 14.9157 14.9011 14.8873 14.8742 14.8618 14.8501 14.8393 14.8291 14.8198 14.8113 14.8027 14.7963 14.7896 14.784 14.7797 14.7755 14.7729 14.7711 13.5162 14.041 14.1489 14.2405 14.3227 14.3911 14.4461 14.4905 14.5269 14.5577 14.5847 14.6083 14.6297 14.649 14.666 14.6815 14.6955 14.7079 14.7193 14.7292 14.7382 14.7456 14.7526 14.7582 14.7633 14.7674 14.7709 14.7731 14.7744 14.775 14.7745 14.7724 14.0801 14.2021 14.3258 14.3996 14.4539 14.4984 14.536 14.5679 14.5953 14.6187 14.6388 14.6569 14.6727 14.687 14.6999 14.7113 14.7211 14.7303 14.7377 14.745 14.7513 14.7559 14.7608 14.7647 14.768 14.7705 14.7725 14.7737 14.7742 14.7743 14.7737 14.7736 14.4149 14.4558 14.5039 14.5454 14.5769 14.6033 14.6268 14.6473 14.6655 14.6812 14.6951 14.7073 14.7178 14.7268 14.7348 14.7419 14.7478 14.7534 14.758 14.7621 14.7653 14.7677 14.7701 14.772 14.7733 14.7746 14.7749 14.7753 14.7751 14.7743 14.7738 14.7738 14.7082 14.685 14.6789 14.6842 14.694 14.7052 14.7166 14.7272 14.7368 14.7453 14.7528 14.7585 14.7638 14.7676 14.7711 14.7737 14.7758 14.7775 14.7787 14.7796 14.7799 14.7803 14.7803 14.7799 14.7797 14.7791 14.7783 14.7774 14.7764 14.775 14.7737 14.7729 14.981 14.8944 14.8394 14.8141 14.8052 14.8034 14.8045 14.8067 14.8087 14.8102 14.8106 14.8106 14.8103 14.8092 14.8078 14.8059 14.8043 14.802 14.7999 14.7977 14.7953 14.7931 14.7904 14.7884 14.7857 14.7836 14.7817 14.7793 14.7775 14.7754 14.7737 14.7713 15.2455 15.082 14.9807 14.9322 14.9103 14.8987 14.8914 14.8854 14.8802 14.8745 14.8687 14.8626 14.8568 14.8509 14.8444 14.8387 14.8327 14.8269 14.821 14.8154 14.8105 14.8057 14.8009 14.7967 14.7924 14.7884 14.7848 14.7815 14.7787 14.7761 14.7732 14.7703 15.5028 15.2322 15.0956 15.0399 15.0108 14.9921 14.9772 14.9633 14.9509 14.9383 14.9263 14.9144 14.9029 14.8916 14.8809 14.8705 14.8605 14.8512 14.842 14.8333 14.8252 14.8178 14.811 14.8045 14.7983 14.7929 14.7881 14.7834 14.7797 14.7764 14.7734 14.7702 15.8409 15.277 15.1878 15.1407 15.1096 15.0846 15.0623 15.0415 15.0213 15.0021 14.9836 14.9657 14.9479 14.932 14.9166 14.9014 14.8877 14.8744 14.8623 14.8504 14.8398 14.8295 14.8201 14.8114 14.8033 14.7963 14.79 14.7845 14.7794 14.7758 14.7734 14.7712 13.6125 14.0706 14.2016 14.2843 14.3527 14.4089 14.4552 14.4943 14.5276 14.5572 14.5833 14.607 14.6284 14.6474 14.6648 14.6803 14.694 14.7068 14.718 14.7282 14.737 14.745 14.752 14.7573 14.7621 14.7665 14.7699 14.7721 14.7737 14.7746 14.7738 14.7722 14.1059 14.2428 14.3771 14.4381 14.4791 14.514 14.5451 14.5728 14.5974 14.6194 14.639 14.6569 14.6725 14.6868 14.6991 14.7102 14.7205 14.7295 14.737 14.7442 14.7504 14.7558 14.7601 14.7643 14.7674 14.7698 14.7718 14.7734 14.7738 14.7744 14.7736 14.7734 14.4291 14.4826 14.5399 14.5739 14.5969 14.6167 14.6354 14.6531 14.6693 14.6838 14.6967 14.7083 14.7185 14.7274 14.7352 14.7422 14.7479 14.7533 14.7578 14.7618 14.7648 14.7675 14.7699 14.7718 14.7731 14.7742 14.7747 14.7749 14.7748 14.7744 14.7735 14.7733 14.7135 14.6947 14.6956 14.7007 14.7077 14.7157 14.7245 14.7331 14.7412 14.7488 14.7551 14.7605 14.7654 14.769 14.7719 14.7742 14.7763 14.7777 14.7789 14.7793 14.78 14.7804 14.7802 14.7798 14.7798 14.7792 14.778 14.7773 14.7759 14.7748 14.7738 14.7724 14.9769 14.8863 14.8379 14.8194 14.8128 14.8109 14.8111 14.8122 14.8128 14.8135 14.8136 14.8132 14.8121 14.8105 14.8091 14.807 14.8047 14.8024 14.8003 14.7978 14.7956 14.7931 14.7906 14.7886 14.786 14.7837 14.7817 14.7794 14.7775 14.7755 14.7737 14.7714 15.2327 15.0585 14.9647 14.9284 14.9122 14.9026 14.8959 14.8898 14.8836 14.8776 14.8713 14.8652 14.859 14.8523 14.846 14.8397 14.8334 14.8275 14.822 14.8163 14.8108 14.8059 14.801 14.7967 14.7926 14.7887 14.7851 14.7819 14.7791 14.776 14.7735 14.7709 15.4869 15.1997 15.0719 15.03 15.0085 14.9929 14.9793 14.9662 14.9537 14.9409 14.929 14.9166 14.9049 14.8933 14.8821 14.8718 14.8616 14.8521 14.8429 14.8341 14.8262 14.8184 14.8113 14.8048 14.7989 14.7932 14.7883 14.7839 14.7798 14.7765 14.7735 14.7705 15.8079 15.2452 15.1626 15.1275 15.1033 15.0821 15.0617 15.0421 15.0224 15.0031 14.9846 14.967 14.9497 14.9333 14.9178 14.903 14.8888 14.8758 14.8628 14.8513 14.8405 14.8303 14.8209 14.8123 14.8043 14.7969 14.7909 14.785 14.7801 14.7765 14.7732 14.7716 13.4872 14.2792 14.3252 14.3579 14.3931 14.4286 14.4635 14.4963 14.5267 14.555 14.5805 14.6046 14.6259 14.6448 14.6626 14.6781 14.6923 14.7052 14.7163 14.7264 14.7356 14.7433 14.7504 14.7558 14.7611 14.7651 14.7681 14.7711 14.7728 14.7735 14.7733 14.7723 14.013 14.4177 14.4892 14.5036 14.5168 14.535 14.5562 14.5782 14.6001 14.6205 14.6394 14.6566 14.6721 14.686 14.6988 14.7098 14.7197 14.7289 14.7367 14.7437 14.7501 14.755 14.7595 14.7635 14.7666 14.7689 14.7713 14.7723 14.7733 14.7737 14.7733 14.7732 14.385 14.5805 14.6137 14.6221 14.6281 14.6361 14.6483 14.6608 14.6744 14.6876 14.6992 14.7102 14.7197 14.7285 14.7357 14.7422 14.7484 14.7535 14.7577 14.7616 14.7648 14.7671 14.7696 14.7716 14.7729 14.7736 14.7745 14.7747 14.7745 14.7741 14.7733 14.7729 14.6976 14.7261 14.7308 14.7295 14.7298 14.7321 14.737 14.7421 14.748 14.7542 14.7592 14.7636 14.7675 14.7711 14.7734 14.7754 14.7772 14.7783 14.7794 14.7798 14.7804 14.7802 14.78 14.7799 14.7792 14.7785 14.7778 14.7771 14.776 14.7751 14.7739 14.7724 14.9749 14.8597 14.8403 14.8311 14.8261 14.8235 14.8218 14.821 14.8206 14.8195 14.8186 14.8169 14.8152 14.8131 14.8108 14.8089 14.806 14.8034 14.801 14.7987 14.7958 14.7934 14.791 14.7883 14.7862 14.7841 14.782 14.7795 14.7777 14.7757 14.7738 14.7713 15.2336 14.9819 14.9429 14.9272 14.9186 14.9115 14.9043 14.8975 14.8905 14.8837 14.8764 14.8691 14.8622 14.8552 14.8482 14.8416 14.8346 14.8286 14.8228 14.8171 14.8116 14.8067 14.8018 14.7969 14.7932 14.7892 14.7857 14.7821 14.7794 14.7767 14.7739 14.7707 15.4901 15.0932 15.0382 15.0209 15.0082 14.9967 14.9847 14.9717 14.9587 14.946 14.9331 14.9198 14.9077 14.8959 14.8843 14.8735 14.863 14.8532 14.844 14.8352 14.8271 14.8193 14.8122 14.8055 14.7997 14.7941 14.7892 14.7847 14.7806 14.7773 14.7741 14.7703 15.8167 15.1571 15.1329 15.1148 15.0985 15.0814 15.0634 15.0446 15.0253 15.0062 14.9876 14.9693 14.9524 14.9354 14.9197 14.9045 14.8902 14.8772 14.8646 14.8528 14.8416 14.8316 14.8221 14.8136 14.8051 14.798 14.7922 14.786 14.7813 14.7774 14.7741 14.7714 
