# vtk DataFile Version 5.1
vtk output
ASCII

DATASET UNSTRUCTURED_GRID
POINTS 18785 float
0 0 3.4
0.125 0 3.4
0.25 0 3.4
0.375 0 3.4
0.5 0 3.4
0.625 0 3.4
0.75 0 3.4
0.875 0 3.4
1 0 3.4
1.125 0 3.4
1.25 0 3.4
1.375 0 3.4
1.5 0 3.4
1.625 0 3.4
1.75 0 3.4
1.875 0 3.4
2 0 3.4
2.125 0 3.4
2.25 0 3.4
2.375 0 3.4
2.5 0 3.4
2.625 0 3.4
2.75 0 3.4
2.875 0 3.4
3 0 3.4
3.125 0 3.4
3.25 0 3.4
3.375 0 3.4
3.5 0 3.4
3.625 0 3.4
3.75 0 3.4
3.875 0 3.4
4 0 3.4
0 0.125 3.4
0.125 0.125 3.4
0.25 0.125 3.4
0.375 0.125 3.4
0.5 0.125 3.4
0.625 0.125 3.4
0.75 0.125 3.4
0.875 0.125 3.4
1 0.125 3.4
1.125 0.125 3.4
1.25 0.125 3.4
1.375 0.125 3.4
1.5 0.125 3.4
1.625 0.125 3.4
1.75 0.125 3.4
1.875 0.125 3.4
2 0.125 3.4
2.125 0.125 3.4
2.25 0.125 3.4
2.375 0.125 3.4
2.5 0.125 3.4
2.625 0.125 3.4
2.75 0.125 3.4
2.875 0.125 3.4
3 0.125 3.4
3.125 0.125 3.4
3.25 0.125 3.4
3.375 0.125 3.4
3.5 0.125 3.4
3.625 0.125 3.4
3.75 0.125 3.4
3.875 0.125 3.4
4 0.125 3.4
0 0.25 3.4
0.125 0.25 3.4
0.25 0.25 3.4
0.375 0.25 3.4
0.5 0.25 3.4
0.625 0.25 3.4
0.75 0.25 3.4
0.875 0.25 3.4
1 0.25 3.4
1.125 0.25 3.4
1.25 0.25 3.4
1.375 0.25 3.4
1.5 0.25 3.4
1.625 0.25 3.4
1.75 0.25 3.4
1.875 0.25 3.4
2 0.25 3.4
2.125 0.25 3.4
2.25 0.25 3.4
2.375 0.25 3.4
2.5 0.25 3.4
2.625 0.25 3.4
2.75 0.25 3.4
2.875 0.25 3.4
3 0.25 3.4
3.125 0.25 3.4
3.25 0.25 3.4
3.375 0.25 3.4
3.5 0.25 3.4
3.625 0.25 3.4
3.75 0.25 3.4
3.875 0.25 3.4
4 0.25 3.4
0 0.375 3.4
0.125 0.375 3.4
0.25 0.375 3.4
0.375 0.375 3.4
0.5 0.375 3.4
0.625 0.375 3.4
0.75 0.375 3.4
0.875 0.375 3.4
1 0.375 3.4
1.125 0.375 3.4
1.25 0.375 3.4
1.375 0.375 3.4
1.5 0.375 3.4
1.625 0.375 3.4
1.75 0.375 3.4
1.875 0.375 3.4
2 0.375 3.4
2.125 0.375 3.4
2.25 0.375 3.4
2.375 0.375 3.4
2.5 0.375 3.4
2.625 0.375 3.4
2.75 0.375 3.4
2.875 0.375 3.4
3 0.375 3.4
3.125 0.375 3.4
3.25 0.375 3.4
3.375 0.375 3.4
3.5 0.375 3.4
3.625 0.375 3.4
3.75 0.375 3.4
3.875 0.375 3.4
4 0.375 3.4
0 0.5 3.4
0.125 0.5 3.4
0.25 0.5 3.4
0.375 0.5 3.4
0.5 0.5 3.4
0.625 0.5 3.4
0.75 0.5 3.4
0.875 0.5 3.4
1 0.5 3.4
1.125 0.5 3.4
1.25 0.5 3.4
1.375 0.5 3.4
1.5 0.5 3.4
1.625 0.5 3.4
1.75 0.5 3.4
1.875 0.5 3.4
2 0.5 3.4
2.125 0.5 3.4
2.25 0.5 3.4
2.375 0.5 3.4
2.5 0.5 3.4
2.625 0.5 3.4
2.75 0.5 3.4
2.875 0.5 3.4
3 0.5 3.4
3.125 0.5 3.4
3.25 0.5 3.4
3.375 0.5 3.4
3.5 0.5 3.4
3.625 0.5 3.4
3.75 0.5 3.4
3.875 0.5 3.4
4 0.5 3.4
0 0.625 3.4
0.125 0.625 3.4
0.25 0.625 3.4
0.375 0.625 3.4
0.5 0.625 3.4
0.625 0.625 3.4
0.75 0.625 3.4
0.875 0.625 3.4
1 0.625 3.4
1.125 0.625 3.4
1.25 0.625 3.4
1.375 0.625 3.4
1.5 0.625 3.4
1.625 0.625 3.4
1.75 0.625 3.4
1.875 0.625 3.4
2 0.625 3.4
2.125 0.625 3.4
2.25 0.625 3.4
2.375 0.625 3.4
2.5 0.625 3.4
2.625 0.625 3.4
2.75 0.625 3.4
2.875 0.625 3.4
3 0.625 3.4
3.125 0.625 3.4
3.25 0.625 3.4
3.375 0.625 3.4
3.5 0.625 3.4
3.625 0.625 3.4
3.75 0.625 3.4
3.875 0.625 3.4
4 0.625 3.4
0 0.75 3.4
0.125 0.75 3.4
0.25 0.75 3.4
0.375 0.75 3.4
0.5 0.75 3.4
0.625 0.75 3.4
0.75 0.75 3.4
0.875 0.75 3.4
1 0.75 3.4
1.125 0.75 3.4
1.25 0.75 3.4
1.375 0.75 3.4
1.5 0.75 3.4
1.625 0.75 3.4
1.75 0.75 3.4
1.875 0.75 3.4
2 0.75 3.4
2.125 0.75 3.4
2.25 0.75 3.4
2.375 0.75 3.4
2.5 0.75 3.4
2.625 0.75 3.4
2.75 0.75 3.4
2.875 0.75 3.4
3 0.75 3.4
3.125 0.75 3.4
3.25 0.75 3.4
3.375 0.75 3.4
3.5 0.75 3.4
3.625 0.75 3.4
3.75 0.75 3.4
3.875 0.75 3.4
4 0.75 3.4
0 0.875 3.4
0.125 0.875 3.4
0.25 0.875 3.4
0.375 0.875 3.4
0.5 0.875 3.4
0.625 0.875 3.4
0.75 0.875 3.4
0.875 0.875 3.4
1 0.875 3.4
1.125 0.875 3.4
1.25 0.875 3.4
1.375 0.875 3.4
1.5 0.875 3.4
1.625 0.875 3.4
1.75 0.875 3.4
1.875 0.875 3.4
2 0.875 3.4
2.125 0.875 3.4
2.25 0.875 3.4
2.375 0.875 3.4
2.5 0.875 3.4
2.625 0.875 3.4
2.75 0.875 3.4
2.875 0.875 3.4
3 0.875 3.4
3.125 0.875 3.4
3.25 0.875 3.4
3.375 0.875 3.4
3.5 0.875 3.4
3.625 0.875 3.4
3.75 0.875 3.4
3.875 0.875 3.4
4 0.875 3.4
0 1 3.4
0.125 1 3.4
0.25 1 3.4
0.375 1 3.4
0.5 1 3.4
0.625 1 3.4
0.75 1 3.4
0.875 1 3.4
1 1 3.4
1.125 1 3.4
1.25 1 3.4
1.375 1 3.4
1.5 1 3.4
1.625 1 3.4
1.75 1 3.4
1.875 1 3.4
2 1 3.4
2.125 1 3.4
2.25 1 3.4
2.375 1 3.4
2.5 1 3.4
2.625 1 3.4
2.75 1 3.4
2.875 1 3.4
3 1 3.4
3.125 1 3.4
3.25 1 3.4
3.375 1 3.4
3.5 1 3.4
3.625 1 3.4
3.75 1 3.4
3.875 1 3.4
4 1 3.4
0 0 3.525
0.125 0 3.525
0.25 0 3.525
0.375 0 3.525
0.5 0 3.525
0.625 0 3.525
0.75 0 3.525
0.875 0 3.525
1 0 3.525
1.125 0 3.525
1.25 0 3.525
1.375 0 3.525
1.5 0 3.525
1.625 0 3.525
1.75 0 3.525
1.875 0 3.525
2 0 3.525
2.125 0 3.525
2.25 0 3.525
2.375 0 3.525
2.5 0 3.525
2.625 0 3.525
2.75 0 3.525
2.875 0 3.525
3 0 3.525
3.125 0 3.525
3.25 0 3.525
3.375 0 3.525
3.5 0 3.525
3.625 0 3.525
3.75 0 3.525
3.875 0 3.525
4 0 3.525
0 0.125 3.525
0.125 0.125 3.525
0.25 0.125 3.525
0.375 0.125 3.525
0.5 0.125 3.525
0.625 0.125 3.525
0.75 0.125 3.525
0.875 0.125 3.525
1 0.125 3.525
1.125 0.125 3.525
1.25 0.125 3.525
1.375 0.125 3.525
1.5 0.125 3.525
1.625 0.125 3.525
1.75 0.125 3.525
1.875 0.125 3.525
2 0.125 3.525
2.125 0.125 3.525
2.25 0.125 3.525
2.375 0.125 3.525
2.5 0.125 3.525
2.625 0.125 3.525
2.75 0.125 3.525
2.875 0.125 3.525
3 0.125 3.525
3.125 0.125 3.525
3.25 0.125 3.525
3.375 0.125 3.525
3.5 0.125 3.525
3.625 0.125 3.525
3.75 0.125 3.525
3.875 0.125 3.525
4 0.125 3.525
0 0.25 3.525
0.125 0.25 3.525
0.25 0.25 3.525
0.375 0.25 3.525
0.5 0.25 3.525
0.625 0.25 3.525
0.75 0.25 3.525
0.875 0.25 3.525
1 0.25 3.525
1.125 0.25 3.525
1.25 0.25 3.525
1.375 0.25 3.525
1.5 0.25 3.525
1.625 0.25 3.525
1.75 0.25 3.525
1.875 0.25 3.525
2 0.25 3.525
2.125 0.25 3.525
2.25 0.25 3.525
2.375 0.25 3.525
2.5 0.25 3.525
2.625 0.25 3.525
2.75 0.25 3.525
2.875 0.25 3.525
3 0.25 3.525
3.125 0.25 3.525
3.25 0.25 3.525
3.375 0.25 3.525
3.5 0.25 3.525
3.625 0.25 3.525
3.75 0.25 3.525
3.875 0.25 3.525
4 0.25 3.525
0 0.375 3.525
0.125 0.375 3.525
0.25 0.375 3.525
0.375 0.375 3.525
0.5 0.375 3.525
0.625 0.375 3.525
0.75 0.375 3.525
0.875 0.375 3.525
1 0.375 3.525
1.125 0.375 3.525
1.25 0.375 3.525
1.375 0.375 3.525
1.5 0.375 3.525
1.625 0.375 3.525
1.75 0.375 3.525
1.875 0.375 3.525
2 0.375 3.525
2.125 0.375 3.525
2.25 0.375 3.525
2.375 0.375 3.525
2.5 0.375 3.525
2.625 0.375 3.525
2.75 0.375 3.525
2.875 0.375 3.525
3 0.375 3.525
3.125 0.375 3.525
3.25 0.375 3.525
3.375 0.375 3.525
3.5 0.375 3.525
3.625 0.375 3.525
3.75 0.375 3.525
3.875 0.375 3.525
4 0.375 3.525
0 0.5 3.525
0.125 0.5 3.525
0.25 0.5 3.525
0.375 0.5 3.525
0.5 0.5 3.525
0.625 0.5 3.525
0.75 0.5 3.525
0.875 0.5 3.525
1 0.5 3.525
1.125 0.5 3.525
1.25 0.5 3.525
1.375 0.5 3.525
1.5 0.5 3.525
1.625 0.5 3.525
1.75 0.5 3.525
1.875 0.5 3.525
2 0.5 3.525
2.125 0.5 3.525
2.25 0.5 3.525
2.375 0.5 3.525
2.5 0.5 3.525
2.625 0.5 3.525
2.75 0.5 3.525
2.875 0.5 3.525
3 0.5 3.525
3.125 0.5 3.525
3.25 0.5 3.525
3.375 0.5 3.525
3.5 0.5 3.525
3.625 0.5 3.525
3.75 0.5 3.525
3.875 0.5 3.525
4 0.5 3.525
0 0.625 3.525
0.125 0.625 3.525
0.25 0.625 3.525
0.375 0.625 3.525
0.5 0.625 3.525
0.625 0.625 3.525
0.75 0.625 3.525
0.875 0.625 3.525
1 0.625 3.525
1.125 0.625 3.525
1.25 0.625 3.525
1.375 0.625 3.525
1.5 0.625 3.525
1.625 0.625 3.525
1.75 0.625 3.525
1.875 0.625 3.525
2 0.625 3.525
2.125 0.625 3.525
2.25 0.625 3.525
2.375 0.625 3.525
2.5 0.625 3.525
2.625 0.625 3.525
2.75 0.625 3.525
2.875 0.625 3.525
3 0.625 3.525
3.125 0.625 3.525
3.25 0.625 3.525
3.375 0.625 3.525
3.5 0.625 3.525
3.625 0.625 3.525
3.75 0.625 3.525
3.875 0.625 3.525
4 0.625 3.525
0 0.75 3.525
0.125 0.75 3.525
0.25 0.75 3.525
0.375 0.75 3.525
0.5 0.75 3.525
0.625 0.75 3.525
0.75 0.75 3.525
0.875 0.75 3.525
1 0.75 3.525
1.125 0.75 3.525
1.25 0.75 3.525
1.375 0.75 3.525
1.5 0.75 3.525
1.625 0.75 3.525
1.75 0.75 3.525
1.875 0.75 3.525
2 0.75 3.525
2.125 0.75 3.525
2.25 0.75 3.525
2.375 0.75 3.525
2.5 0.75 3.525
2.625 0.75 3.525
2.75 0.75 3.525
2.875 0.75 3.525
3 0.75 3.525
3.125 0.75 3.525
3.25 0.75 3.525
3.375 0.75 3.525
3.5 0.75 3.525
3.625 0.75 3.525
3.75 0.75 3.525
3.875 0.75 3.525
4 0.75 3.525
0 0.875 3.525
0.125 0.875 3.525
0.25 0.875 3.525
0.375 0.875 3.525
0.5 0.875 3.525
0.625 0.875 3.525
0.75 0.875 3.525
0.875 0.875 3.525
1 0.875 3.525
1.125 0.875 3.525
1.25 0.875 3.525
1.375 0.875 3.525
1.5 0.875 3.525
1.625 0.875 3.525
1.75 0.875 3.525
1.875 0.875 3.525
2 0.875 3.525
2.125 0.875 3.525
2.25 0.875 3.525
2.375 0.875 3.525
2.5 0.875 3.525
2.625 0.875 3.525
2.75 0.875 3.525
2.875 0.875 3.525
3 0.875 3.525
3.125 0.875 3.525
3.25 0.875 3.525
3.375 0.875 3.525
3.5 0.875 3.525
3.625 0.875 3.525
3.75 0.875 3.525
3.875 0.875 3.525
4 0.875 3.525
0 1 3.525
0.125 1 3.525
0.25 1 3.525
0.375 1 3.525
0.5 1 3.525
0.625 1 3.525
0.75 1 3.525
0.875 1 3.525
1 1 3.525
1.125 1 3.525
1.25 1 3.525
1.375 1 3.525
1.5 1 3.525
1.625 1 3.525
1.75 1 3.525
1.875 1 3.525
2 1 3.525
2.125 1 3.525
2.25 1 3.525
2.375 1 3.525
2.5 1 3.525
2.625 1 3.525
2.75 1 3.525
2.875 1 3.525
3 1 3.525
3.125 1 3.525
3.25 1 3.525
3.375 1 3.525
3.5 1 3.525
3.625 1 3.525
3.75 1 3.525
3.875 1 3.525
4 1 3.525
0 0 3.65
0.125 0 3.65
0.25 0 3.65
0.375 0 3.65
0.5 0 3.65
0.625 0 3.65
0.75 0 3.65
0.875 0 3.65
1 0 3.65
1.125 0 3.65
1.25 0 3.65
1.375 0 3.65
1.5 0 3.65
1.625 0 3.65
1.75 0 3.65
1.875 0 3.65
2 0 3.65
2.125 0 3.65
2.25 0 3.65
2.375 0 3.65
2.5 0 3.65
2.625 0 3.65
2.75 0 3.65
2.875 0 3.65
3 0 3.65
3.125 0 3.65
3.25 0 3.65
3.375 0 3.65
3.5 0 3.65
3.625 0 3.65
3.75 0 3.65
3.875 0 3.65
4 0 3.65
0 0.125 3.65
0.125 0.125 3.65
0.25 0.125 3.65
0.375 0.125 3.65
0.5 0.125 3.65
0.625 0.125 3.65
0.75 0.125 3.65
0.875 0.125 3.65
1 0.125 3.65
1.125 0.125 3.65
1.25 0.125 3.65
1.375 0.125 3.65
1.5 0.125 3.65
1.625 0.125 3.65
1.75 0.125 3.65
1.875 0.125 3.65
2 0.125 3.65
2.125 0.125 3.65
2.25 0.125 3.65
2.375 0.125 3.65
2.5 0.125 3.65
2.625 0.125 3.65
2.75 0.125 3.65
2.875 0.125 3.65
3 0.125 3.65
3.125 0.125 3.65
3.25 0.125 3.65
3.375 0.125 3.65
3.5 0.125 3.65
3.625 0.125 3.65
3.75 0.125 3.65
3.875 0.125 3.65
4 0.125 3.65
0 0.25 3.65
0.125 0.25 3.65
0.25 0.25 3.65
0.375 0.25 3.65
0.5 0.25 3.65
0.625 0.25 3.65
0.75 0.25 3.65
0.875 0.25 3.65
1 0.25 3.65
1.125 0.25 3.65
1.25 0.25 3.65
1.375 0.25 3.65
1.5 0.25 3.65
1.625 0.25 3.65
1.75 0.25 3.65
1.875 0.25 3.65
2 0.25 3.65
2.125 0.25 3.65
2.25 0.25 3.65
2.375 0.25 3.65
2.5 0.25 3.65
2.625 0.25 3.65
2.75 0.25 3.65
2.875 0.25 3.65
3 0.25 3.65
3.125 0.25 3.65
3.25 0.25 3.65
3.375 0.25 3.65
3.5 0.25 3.65
3.625 0.25 3.65
3.75 0.25 3.65
3.875 0.25 3.65
4 0.25 3.65
0 0.375 3.65
0.125 0.375 3.65
0.25 0.375 3.65
0.375 0.375 3.65
0.5 0.375 3.65
0.625 0.375 3.65
0.75 0.375 3.65
0.875 0.375 3.65
1 0.375 3.65
1.125 0.375 3.65
1.25 0.375 3.65
1.375 0.375 3.65
1.5 0.375 3.65
1.625 0.375 3.65
1.75 0.375 3.65
1.875 0.375 3.65
2 0.375 3.65
2.125 0.375 3.65
2.25 0.375 3.65
2.375 0.375 3.65
2.5 0.375 3.65
2.625 0.375 3.65
2.75 0.375 3.65
2.875 0.375 3.65
3 0.375 3.65
3.125 0.375 3.65
3.25 0.375 3.65
3.375 0.375 3.65
3.5 0.375 3.65
3.625 0.375 3.65
3.75 0.375 3.65
3.875 0.375 3.65
4 0.375 3.65
0 0.5 3.65
0.125 0.5 3.65
0.25 0.5 3.65
0.375 0.5 3.65
0.5 0.5 3.65
0.625 0.5 3.65
0.75 0.5 3.65
0.875 0.5 3.65
1 0.5 3.65
1.125 0.5 3.65
1.25 0.5 3.65
1.375 0.5 3.65
1.5 0.5 3.65
1.625 0.5 3.65
1.75 0.5 3.65
1.875 0.5 3.65
2 0.5 3.65
2.125 0.5 3.65
2.25 0.5 3.65
2.375 0.5 3.65
2.5 0.5 3.65
2.625 0.5 3.65
2.75 0.5 3.65
2.875 0.5 3.65
3 0.5 3.65
3.125 0.5 3.65
3.25 0.5 3.65
3.375 0.5 3.65
3.5 0.5 3.65
3.625 0.5 3.65
3.75 0.5 3.65
3.875 0.5 3.65
4 0.5 3.65
0 0.625 3.65
0.125 0.625 3.65
0.25 0.625 3.65
0.375 0.625 3.65
0.5 0.625 3.65
0.625 0.625 3.65
0.75 0.625 3.65
0.875 0.625 3.65
1 0.625 3.65
1.125 0.625 3.65
1.25 0.625 3.65
1.375 0.625 3.65
1.5 0.625 3.65
1.625 0.625 3.65
1.75 0.625 3.65
1.875 0.625 3.65
2 0.625 3.65
2.125 0.625 3.65
2.25 0.625 3.65
2.375 0.625 3.65
2.5 0.625 3.65
2.625 0.625 3.65
2.75 0.625 3.65
2.875 0.625 3.65
3 0.625 3.65
3.125 0.625 3.65
3.25 0.625 3.65
3.375 0.625 3.65
3.5 0.625 3.65
3.625 0.625 3.65
3.75 0.625 3.65
3.875 0.625 3.65
4 0.625 3.65
0 0.75 3.65
0.125 0.75 3.65
0.25 0.75 3.65
0.375 0.75 3.65
0.5 0.75 3.65
0.625 0.75 3.65
0.75 0.75 3.65
0.875 0.75 3.65
1 0.75 3.65
1.125 0.75 3.65
1.25 0.75 3.65
1.375 0.75 3.65
1.5 0.75 3.65
1.625 0.75 3.65
1.75 0.75 3.65
1.875 0.75 3.65
2 0.75 3.65
2.125 0.75 3.65
2.25 0.75 3.65
2.375 0.75 3.65
2.5 0.75 3.65
2.625 0.75 3.65
2.75 0.75 3.65
2.875 0.75 3.65
3 0.75 3.65
3.125 0.75 3.65
3.25 0.75 3.65
3.375 0.75 3.65
3.5 0.75 3.65
3.625 0.75 3.65
3.75 0.75 3.65
3.875 0.75 3.65
4 0.75 3.65
0 0.875 3.65
0.125 0.875 3.65
0.25 0.875 3.65
0.375 0.875 3.65
0.5 0.875 3.65
0.625 0.875 3.65
0.75 0.875 3.65
0.875 0.875 3.65
1 0.875 3.65
1.125 0.875 3.65
1.25 0.875 3.65
1.375 0.875 3.65
1.5 0.875 3.65
1.625 0.875 3.65
1.75 0.875 3.65
1.875 0.875 3.65
2 0.875 3.65
2.125 0.875 3.65
2.25 0.875 3.65
2.375 0.875 3.65
2.5 0.875 3.65
2.625 0.875 3.65
2.75 0.875 3.65
2.875 0.875 3.65
3 0.875 3.65
3.125 0.875 3.65
3.25 0.875 3.65
3.375 0.875 3.65
3.5 0.875 3.65
3.625 0.875 3.65
3.75 0.875 3.65
3.875 0.875 3.65
4 0.875 3.65
0 1 3.65
0.125 1 3.65
0.25 1 3.65
0.375 1 3.65
0.5 1 3.65
0.625 1 3.65
0.75 1 3.65
0.875 1 3.65
1 1 3.65
1.125 1 3.65
1.25 1 3.65
1.375 1 3.65
1.5 1 3.65
1.625 1 3.65
1.75 1 3.65
1.875 1 3.65
2 1 3.65
2.125 1 3.65
2.25 1 3.65
2.375 1 3.65
2.5 1 3.65
2.625 1 3.65
2.75 1 3.65
2.875 1 3.65
3 1 3.65
3.125 1 3.65
3.25 1 3.65
3.375 1 3.65
3.5 1 3.65
3.625 1 3.65
3.75 1 3.65
3.875 1 3.65
4 1 3.65
0 0 3.775
0.125 0 3.775
0.25 0 3.775
0.375 0 3.775
0.5 0 3.775
0.625 0 3.775
0.75 0 3.775
0.875 0 3.775
1 0 3.775
1.125 0 3.775
1.25 0 3.775
1.375 0 3.775
1.5 0 3.775
1.625 0 3.775
1.75 0 3.775
1.875 0 3.775
2 0 3.775
2.125 0 3.775
2.25 0 3.775
2.375 0 3.775
2.5 0 3.775
2.625 0 3.775
2.75 0 3.775
2.875 0 3.775
3 0 3.775
3.125 0 3.775
3.25 0 3.775
3.375 0 3.775
3.5 0 3.775
3.625 0 3.775
3.75 0 3.775
3.875 0 3.775
4 0 3.775
0 0.125 3.775
0.125 0.125 3.775
0.25 0.125 3.775
0.375 0.125 3.775
0.5 0.125 3.775
0.625 0.125 3.775
0.75 0.125 3.775
0.875 0.125 3.775
1 0.125 3.775
1.125 0.125 3.775
1.25 0.125 3.775
1.375 0.125 3.775
1.5 0.125 3.775
1.625 0.125 3.775
1.75 0.125 3.775
1.875 0.125 3.775
2 0.125 3.775
2.125 0.125 3.775
2.25 0.125 3.775
2.375 0.125 3.775
2.5 0.125 3.775
2.625 0.125 3.775
2.75 0.125 3.775
2.875 0.125 3.775
3 0.125 3.775
3.125 0.125 3.775
3.25 0.125 3.775
3.375 0.125 3.775
3.5 0.125 3.775
3.625 0.125 3.775
3.75 0.125 3.775
3.875 0.125 3.775
4 0.125 3.775
0 0.25 3.775
0.125 0.25 3.775
0.25 0.25 3.775
0.375 0.25 3.775
0.5 0.25 3.775
0.625 0.25 3.775
0.75 0.25 3.775
0.875 0.25 3.775
1 0.25 3.775
1.125 0.25 3.775
1.25 0.25 3.775
1.375 0.25 3.775
1.5 0.25 3.775
1.625 0.25 3.775
1.75 0.25 3.775
1.875 0.25 3.775
2 0.25 3.775
2.125 0.25 3.775
2.25 0.25 3.775
2.375 0.25 3.775
2.5 0.25 3.775
2.625 0.25 3.775
2.75 0.25 3.775
2.875 0.25 3.775
3 0.25 3.775
3.125 0.25 3.775
3.25 0.25 3.775
3.375 0.25 3.775
3.5 0.25 3.775
3.625 0.25 3.775
3.75 0.25 3.775
3.875 0.25 3.775
4 0.25 3.775
0 0.375 3.775
0.125 0.375 3.775
0.25 0.375 3.775
0.375 0.375 3.775
0.5 0.375 3.775
0.625 0.375 3.775
0.75 0.375 3.775
0.875 0.375 3.775
1 0.375 3.775
1.125 0.375 3.775
1.25 0.375 3.775
1.375 0.375 3.775
1.5 0.375 3.775
1.625 0.375 3.775
1.75 0.375 3.775
1.875 0.375 3.775
2 0.375 3.775
2.125 0.375 3.775
2.25 0.375 3.775
2.375 0.375 3.775
2.5 0.375 3.775
2.625 0.375 3.775
2.75 0.375 3.775
2.875 0.375 3.775
3 0.375 3.775
3.125 0.375 3.775
3.25 0.375 3.775
3.375 0.375 3.775
3.5 0.375 3.775
3.625 0.375 3.775
3.75 0.375 3.775
3.875 0.375 3.775
4 0.375 3.775
0 0.5 3.775
0.125 0.5 3.775
0.25 0.5 3.775
0.375 0.5 3.775
0.5 0.5 3.775
0.625 0.5 3.775
0.75 0.5 3.775
0.875 0.5 3.775
1 0.5 3.775
1.125 0.5 3.775
1.25 0.5 3.775
1.375 0.5 3.775
1.5 0.5 3.775
1.625 0.5 3.775
1.75 0.5 3.775
1.875 0.5 3.775
2 0.5 3.775
2.125 0.5 3.775
2.25 0.5 3.775
2.375 0.5 3.775
2.5 0.5 3.775
2.625 0.5 3.775
2.75 0.5 3.775
2.875 0.5 3.775
3 0.5 3.775
3.125 0.5 3.775
3.25 0.5 3.775
3.375 0.5 3.775
3.5 0.5 3.775
3.625 0.5 3.775
3.75 0.5 3.775
3.875 0.5 3.775
4 0.5 3.775
0 0.625 3.775
0.125 0.625 3.775
0.25 0.625 3.775
0.375 0.625 3.775
0.5 0.625 3.775
0.625 0.625 3.775
0.75 0.625 3.775
0.875 0.625 3.775
1 0.625 3.775
1.125 0.625 3.775
1.25 0.625 3.775
1.375 0.625 3.775
1.5 0.625 3.775
1.625 0.625 3.775
1.75 0.625 3.775
1.875 0.625 3.775
2 0.625 3.775
2.125 0.625 3.775
2.25 0.625 3.775
2.375 0.625 3.775
2.5 0.625 3.775
2.625 0.625 3.775
2.75 0.625 3.775
2.875 0.625 3.775
3 0.625 3.775
3.125 0.625 3.775
3.25 0.625 3.775
3.375 0.625 3.775
3.5 0.625 3.775
3.625 0.625 3.775
3.75 0.625 3.775
3.875 0.625 3.775
4 0.625 3.775
0 0.75 3.775
0.125 0.75 3.775
0.25 0.75 3.775
0.375 0.75 3.775
0.5 0.75 3.775
0.625 0.75 3.775
0.75 0.75 3.775
0.875 0.75 3.775
1 0.75 3.775
1.125 0.75 3.775
1.25 0.75 3.775
1.375 0.75 3.775
1.5 0.75 3.775
1.625 0.75 3.775
1.75 0.75 3.775
1.875 0.75 3.775
2 0.75 3.775
2.125 0.75 3.775
2.25 0.75 3.775
2.375 0.75 3.775
2.5 0.75 3.775
2.625 0.75 3.775
2.75 0.75 3.775
2.875 0.75 3.775
3 0.75 3.775
3.125 0.75 3.775
3.25 0.75 3.775
3.375 0.75 3.775
3.5 0.75 3.775
3.625 0.75 3.775
3.75 0.75 3.775
3.875 0.75 3.775
4 0.75 3.775
0 0.875 3.775
0.125 0.875 3.775
0.25 0.875 3.775
0.375 0.875 3.775
0.5 0.875 3.775
0.625 0.875 3.775
0.75 0.875 3.775
0.875 0.875 3.775
1 0.875 3.775
1.125 0.875 3.775
1.25 0.875 3.775
1.375 0.875 3.775
1.5 0.875 3.775
1.625 0.875 3.775
1.75 0.875 3.775
1.875 0.875 3.775
2 0.875 3.775
2.125 0.875 3.775
2.25 0.875 3.775
2.375 0.875 3.775
2.5 0.875 3.775
2.625 0.875 3.775
2.75 0.875 3.775
2.875 0.875 3.775
3 0.875 3.775
3.125 0.875 3.775
3.25 0.875 3.775
3.375 0.875 3.775
3.5 0.875 3.775
3.625 0.875 3.775
3.75 0.875 3.775
3.875 0.875 3.775
4 0.875 3.775
0 1 3.775
0.125 1 3.775
0.25 1 3.775
0.375 1 3.775
0.5 1 3.775
0.625 1 3.775
0.75 1 3.775
0.875 1 3.775
1 1 3.775
1.125 1 3.775
1.25 1 3.775
1.375 1 3.775
1.5 1 3.775
1.625 1 3.775
1.75 1 3.775
1.875 1 3.775
2 1 3.775
2.125 1 3.775
2.25 1 3.775
2.375 1 3.775
2.5 1 3.775
2.625 1 3.775
2.75 1 3.775
2.875 1 3.775
3 1 3.775
3.125 1 3.775
3.25 1 3.775
3.375 1 3.775
3.5 1 3.775
3.625 1 3.775
3.75 1 3.775
3.875 1 3.775
4 1 3.775
0 0 3.9
0.125 0 3.9
0.25 0 3.9
0.375 0 3.9
0.5 0 3.9
0.625 0 3.9
0.75 0 3.9
0.875 0 3.9
1 0 3.9
1.125 0 3.9
1.25 0 3.9
1.375 0 3.9
1.5 0 3.9
1.625 0 3.9
1.75 0 3.9
1.875 0 3.9
2 0 3.9
2.125 0 3.9
2.25 0 3.9
2.375 0 3.9
2.5 0 3.9
2.625 0 3.9
2.75 0 3.9
2.875 0 3.9
3 0 3.9
3.125 0 3.9
3.25 0 3.9
3.375 0 3.9
3.5 0 3.9
3.625 0 3.9
3.75 0 3.9
3.875 0 3.9
4 0 3.9
0 0.125 3.9
0.125 0.125 3.9
0.25 0.125 3.9
0.375 0.125 3.9
0.5 0.125 3.9
0.625 0.125 3.9
0.75 0.125 3.9
0.875 0.125 3.9
1 0.125 3.9
1.125 0.125 3.9
1.25 0.125 3.9
1.375 0.125 3.9
1.5 0.125 3.9
1.625 0.125 3.9
1.75 0.125 3.9
1.875 0.125 3.9
2 0.125 3.9
2.125 0.125 3.9
2.25 0.125 3.9
2.375 0.125 3.9
2.5 0.125 3.9
2.625 0.125 3.9
2.75 0.125 3.9
2.875 0.125 3.9
3 0.125 3.9
3.125 0.125 3.9
3.25 0.125 3.9
3.375 0.125 3.9
3.5 0.125 3.9
3.625 0.125 3.9
3.75 0.125 3.9
3.875 0.125 3.9
4 0.125 3.9
0 0.25 3.9
0.125 0.25 3.9
0.25 0.25 3.9
0.375 0.25 3.9
0.5 0.25 3.9
0.625 0.25 3.9
0.75 0.25 3.9
0.875 0.25 3.9
1 0.25 3.9
1.125 0.25 3.9
1.25 0.25 3.9
1.375 0.25 3.9
1.5 0.25 3.9
1.625 0.25 3.9
1.75 0.25 3.9
1.875 0.25 3.9
2 0.25 3.9
2.125 0.25 3.9
2.25 0.25 3.9
2.375 0.25 3.9
2.5 0.25 3.9
2.625 0.25 3.9
2.75 0.25 3.9
2.875 0.25 3.9
3 0.25 3.9
3.125 0.25 3.9
3.25 0.25 3.9
3.375 0.25 3.9
3.5 0.25 3.9
3.625 0.25 3.9
3.75 0.25 3.9
3.875 0.25 3.9
4 0.25 3.9
0 0.375 3.9
0.125 0.375 3.9
0.25 0.375 3.9
0.375 0.375 3.9
0.5 0.375 3.9
0.625 0.375 3.9
0.75 0.375 3.9
0.875 0.375 3.9
1 0.375 3.9
1.125 0.375 3.9
1.25 0.375 3.9
1.375 0.375 3.9
1.5 0.375 3.9
1.625 0.375 3.9
1.75 0.375 3.9
1.875 0.375 3.9
2 0.375 3.9
2.125 0.375 3.9
2.25 0.375 3.9
2.375 0.375 3.9
2.5 0.375 3.9
2.625 0.375 3.9
2.75 0.375 3.9
2.875 0.375 3.9
3 0.375 3.9
3.125 0.375 3.9
3.25 0.375 3.9
3.375 0.375 3.9
3.5 0.375 3.9
3.625 0.375 3.9
3.75 0.375 3.9
3.875 0.375 3.9
4 0.375 3.9
0 0.5 3.9
0.125 0.5 3.9
0.25 0.5 3.9
0.375 0.5 3.9
0.5 0.5 3.9
0.625 0.5 3.9
0.75 0.5 3.9
0.875 0.5 3.9
1 0.5 3.9
1.125 0.5 3.9
1.25 0.5 3.9
1.375 0.5 3.9
1.5 0.5 3.9
1.625 0.5 3.9
1.75 0.5 3.9
1.875 0.5 3.9
2 0.5 3.9
2.125 0.5 3.9
2.25 0.5 3.9
2.375 0.5 3.9
2.5 0.5 3.9
2.625 0.5 3.9
2.75 0.5 3.9
2.875 0.5 3.9
3 0.5 3.9
3.125 0.5 3.9
3.25 0.5 3.9
3.375 0.5 3.9
3.5 0.5 3.9
3.625 0.5 3.9
3.75 0.5 3.9
3.875 0.5 3.9
4 0.5 3.9
0 0.625 3.9
0.125 0.625 3.9
0.25 0.625 3.9
0.375 0.625 3.9
0.5 0.625 3.9
0.625 0.625 3.9
0.75 0.625 3.9
0.875 0.625 3.9
1 0.625 3.9
1.125 0.625 3.9
1.25 0.625 3.9
1.375 0.625 3.9
1.5 0.625 3.9
1.625 0.625 3.9
1.75 0.625 3.9
1.875 0.625 3.9
2 0.625 3.9
2.125 0.625 3.9
2.25 0.625 3.9
2.375 0.625 3.9
2.5 0.625 3.9
2.625 0.625 3.9
2.75 0.625 3.9
2.875 0.625 3.9
3 0.625 3.9
3.125 0.625 3.9
3.25 0.625 3.9
3.375 0.625 3.9
3.5 0.625 3.9
3.625 0.625 3.9
3.75 0.625 3.9
3.875 0.625 3.9
4 0.625 3.9
0 0.75 3.9
0.125 0.75 3.9
0.25 0.75 3.9
0.375 0.75 3.9
0.5 0.75 3.9
0.625 0.75 3.9
0.75 0.75 3.9
0.875 0.75 3.9
1 0.75 3.9
1.125 0.75 3.9
1.25 0.75 3.9
1.375 0.75 3.9
1.5 0.75 3.9
1.625 0.75 3.9
1.75 0.75 3.9
1.875 0.75 3.9
2 0.75 3.9
2.125 0.75 3.9
2.25 0.75 3.9
2.375 0.75 3.9
2.5 0.75 3.9
2.625 0.75 3.9
2.75 0.75 3.9
2.875 0.75 3.9
3 0.75 3.9
3.125 0.75 3.9
3.25 0.75 3.9
3.375 0.75 3.9
3.5 0.75 3.9
3.625 0.75 3.9
3.75 0.75 3.9
3.875 0.75 3.9
4 0.75 3.9
0 0.875 3.9
0.125 0.875 3.9
0.25 0.875 3.9
0.375 0.875 3.9
0.5 0.875 3.9
0.625 0.875 3.9
0.75 0.875 3.9
0.875 0.875 3.9
1 0.875 3.9
1.125 0.875 3.9
1.25 0.875 3.9
1.375 0.875 3.9
1.5 0.875 3.9
1.625 0.875 3.9
1.75 0.875 3.9
1.875 0.875 3.9
2 0.875 3.9
2.125 0.875 3.9
2.25 0.875 3.9
2.375 0.875 3.9
2.5 0.875 3.9
2.625 0.875 3.9
2.75 0.875 3.9
2.875 0.875 3.9
3 0.875 3.9
3.125 0.875 3.9
3.25 0.875 3.9
3.375 0.875 3.9
3.5 0.875 3.9
3.625 0.875 3.9
3.75 0.875 3.9
3.875 0.875 3.9
4 0.875 3.9
0 1 3.9
0.125 1 3.9
0.25 1 3.9
0.375 1 3.9
0.5 1 3.9
0.625 1 3.9
0.75 1 3.9
0.875 1 3.9
1 1 3.9
1.125 1 3.9
1.25 1 3.9
1.375 1 3.9
1.5 1 3.9
1.625 1 3.9
1.75 1 3.9
1.875 1 3.9
2 1 3.9
2.125 1 3.9
2.25 1 3.9
2.375 1 3.9
2.5 1 3.9
2.625 1 3.9
2.75 1 3.9
2.875 1 3.9
3 1 3.9
3.125 1 3.9
3.25 1 3.9
3.375 1 3.9
3.5 1 3.9
3.625 1 3.9
3.75 1 3.9
3.875 1 3.9
4 1 3.9
0 0 4.025
0.125 0 4.025
0.25 0 4.025
0.375 0 4.025
0.5 0 4.025
0.625 0 4.025
0.75 0 4.025
0.875 0 4.025
1 0 4.025
1.125 0 4.025
1.25 0 4.025
1.375 0 4.025
1.5 0 4.025
1.625 0 4.025
1.75 0 4.025
1.875 0 4.025
2 0 4.025
2.125 0 4.025
2.25 0 4.025
2.375 0 4.025
2.5 0 4.025
2.625 0 4.025
2.75 0 4.025
2.875 0 4.025
3 0 4.025
3.125 0 4.025
3.25 0 4.025
3.375 0 4.025
3.5 0 4.025
3.625 0 4.025
3.75 0 4.025
3.875 0 4.025
4 0 4.025
0 0.125 4.025
0.125 0.125 4.025
0.25 0.125 4.025
0.375 0.125 4.025
0.5 0.125 4.025
0.625 0.125 4.025
0.75 0.125 4.025
0.875 0.125 4.025
1 0.125 4.025
1.125 0.125 4.025
1.25 0.125 4.025
1.375 0.125 4.025
1.5 0.125 4.025
1.625 0.125 4.025
1.75 0.125 4.025
1.875 0.125 4.025
2 0.125 4.025
2.125 0.125 4.025
2.25 0.125 4.025
2.375 0.125 4.025
2.5 0.125 4.025
2.625 0.125 4.025
2.75 0.125 4.025
2.875 0.125 4.025
3 0.125 4.025
3.125 0.125 4.025
3.25 0.125 4.025
3.375 0.125 4.025
3.5 0.125 4.025
3.625 0.125 4.025
3.75 0.125 4.025
3.875 0.125 4.025
4 0.125 4.025
0 0.25 4.025
0.125 0.25 4.025
0.25 0.25 4.025
0.375 0.25 4.025
0.5 0.25 4.025
0.625 0.25 4.025
0.75 0.25 4.025
0.875 0.25 4.025
1 0.25 4.025
1.125 0.25 4.025
1.25 0.25 4.025
1.375 0.25 4.025
1.5 0.25 4.025
1.625 0.25 4.025
1.75 0.25 4.025
1.875 0.25 4.025
2 0.25 4.025
2.125 0.25 4.025
2.25 0.25 4.025
2.375 0.25 4.025
2.5 0.25 4.025
2.625 0.25 4.025
2.75 0.25 4.025
2.875 0.25 4.025
3 0.25 4.025
3.125 0.25 4.025
3.25 0.25 4.025
3.375 0.25 4.025
3.5 0.25 4.025
3.625 0.25 4.025
3.75 0.25 4.025
3.875 0.25 4.025
4 0.25 4.025
0 0.375 4.025
0.125 0.375 4.025
0.25 0.375 4.025
0.375 0.375 4.025
0.5 0.375 4.025
0.625 0.375 4.025
0.75 0.375 4.025
0.875 0.375 4.025
1 0.375 4.025
1.125 0.375 4.025
1.25 0.375 4.025
1.375 0.375 4.025
1.5 0.375 4.025
1.625 0.375 4.025
1.75 0.375 4.025
1.875 0.375 4.025
2 0.375 4.025
2.125 0.375 4.025
2.25 0.375 4.025
2.375 0.375 4.025
2.5 0.375 4.025
2.625 0.375 4.025
2.75 0.375 4.025
2.875 0.375 4.025
3 0.375 4.025
3.125 0.375 4.025
3.25 0.375 4.025
3.375 0.375 4.025
3.5 0.375 4.025
3.625 0.375 4.025
3.75 0.375 4.025
3.875 0.375 4.025
4 0.375 4.025
0 0.5 4.025
0.125 0.5 4.025
0.25 0.5 4.025
0.375 0.5 4.025
0.5 0.5 4.025
0.625 0.5 4.025
0.75 0.5 4.025
0.875 0.5 4.025
1 0.5 4.025
1.125 0.5 4.025
1.25 0.5 4.025
1.375 0.5 4.025
1.5 0.5 4.025
1.625 0.5 4.025
1.75 0.5 4.025
1.875 0.5 4.025
2 0.5 4.025
2.125 0.5 4.025
2.25 0.5 4.025
2.375 0.5 4.025
2.5 0.5 4.025
2.625 0.5 4.025
2.75 0.5 4.025
2.875 0.5 4.025
3 0.5 4.025
3.125 0.5 4.025
3.25 0.5 4.025
3.375 0.5 4.025
3.5 0.5 4.025
3.625 0.5 4.025
3.75 0.5 4.025
3.875 0.5 4.025
4 0.5 4.025
0 0.625 4.025
0.125 0.625 4.025
0.25 0.625 4.025
0.375 0.625 4.025
0.5 0.625 4.025
0.625 0.625 4.025
0.75 0.625 4.025
0.875 0.625 4.025
1 0.625 4.025
1.125 0.625 4.025
1.25 0.625 4.025
1.375 0.625 4.025
1.5 0.625 4.025
1.625 0.625 4.025
1.75 0.625 4.025
1.875 0.625 4.025
2 0.625 4.025
2.125 0.625 4.025
2.25 0.625 4.025
2.375 0.625 4.025
2.5 0.625 4.025
2.625 0.625 4.025
2.75 0.625 4.025
2.875 0.625 4.025
3 0.625 4.025
3.125 0.625 4.025
3.25 0.625 4.025
3.375 0.625 4.025
3.5 0.625 4.025
3.625 0.625 4.025
3.75 0.625 4.025
3.875 0.625 4.025
4 0.625 4.025
0 0.75 4.025
0.125 0.75 4.025
0.25 0.75 4.025
0.375 0.75 4.025
0.5 0.75 4.025
0.625 0.75 4.025
0.75 0.75 4.025
0.875 0.75 4.025
1 0.75 4.025
1.125 0.75 4.025
1.25 0.75 4.025
1.375 0.75 4.025
1.5 0.75 4.025
1.625 0.75 4.025
1.75 0.75 4.025
1.875 0.75 4.025
2 0.75 4.025
2.125 0.75 4.025
2.25 0.75 4.025
2.375 0.75 4.025
2.5 0.75 4.025
2.625 0.75 4.025
2.75 0.75 4.025
2.875 0.75 4.025
3 0.75 4.025
3.125 0.75 4.025
3.25 0.75 4.025
3.375 0.75 4.025
3.5 0.75 4.025
3.625 0.75 4.025
3.75 0.75 4.025
3.875 0.75 4.025
4 0.75 4.025
0 0.875 4.025
0.125 0.875 4.025
0.25 0.875 4.025
0.375 0.875 4.025
0.5 0.875 4.025
0.625 0.875 4.025
0.75 0.875 4.025
0.875 0.875 4.025
1 0.875 4.025
1.125 0.875 4.025
1.25 0.875 4.025
1.375 0.875 4.025
1.5 0.875 4.025
1.625 0.875 4.025
1.75 0.875 4.025
1.875 0.875 4.025
2 0.875 4.025
2.125 0.875 4.025
2.25 0.875 4.025
2.375 0.875 4.025
2.5 0.875 4.025
2.625 0.875 4.025
2.75 0.875 4.025
2.875 0.875 4.025
3 0.875 4.025
3.125 0.875 4.025
3.25 0.875 4.025
3.375 0.875 4.025
3.5 0.875 4.025
3.625 0.875 4.025
3.75 0.875 4.025
3.875 0.875 4.025
4 0.875 4.025
0 1 4.025
0.125 1 4.025
0.25 1 4.025
0.375 1 4.025
0.5 1 4.025
0.625 1 4.025
0.75 1 4.025
0.875 1 4.025
1 1 4.025
1.125 1 4.025
1.25 1 4.025
1.375 1 4.025
1.5 1 4.025
1.625 1 4.025
1.75 1 4.025
1.875 1 4.025
2 1 4.025
2.125 1 4.025
2.25 1 4.025
2.375 1 4.025
2.5 1 4.025
2.625 1 4.025
2.75 1 4.025
2.875 1 4.025
3 1 4.025
3.125 1 4.025
3.25 1 4.025
3.375 1 4.025
3.5 1 4.025
3.625 1 4.025
3.75 1 4.025
3.875 1 4.025
4 1 4.025
0 0 4.15
0.125 0 4.15
0.25 0 4.15
0.375 0 4.15
0.5 0 4.15
0.625 0 4.15
0.75 0 4.15
0.875 0 4.15
1 0 4.15
1.125 0 4.15
1.25 0 4.15
1.375 0 4.15
1.5 0 4.15
1.625 0 4.15
1.75 0 4.15
1.875 0 4.15
2 0 4.15
2.125 0 4.15
2.25 0 4.15
2.375 0 4.15
2.5 0 4.15
2.625 0 4.15
2.75 0 4.15
2.875 0 4.15
3 0 4.15
3.125 0 4.15
3.25 0 4.15
3.375 0 4.15
3.5 0 4.15
3.625 0 4.15
3.75 0 4.15
3.875 0 4.15
4 0 4.15
0 0.125 4.15
0.125 0.125 4.15
0.25 0.125 4.15
0.375 0.125 4.15
0.5 0.125 4.15
0.625 0.125 4.15
0.75 0.125 4.15
0.875 0.125 4.15
1 0.125 4.15
1.125 0.125 4.15
1.25 0.125 4.15
1.375 0.125 4.15
1.5 0.125 4.15
1.625 0.125 4.15
1.75 0.125 4.15
1.875 0.125 4.15
2 0.125 4.15
2.125 0.125 4.15
2.25 0.125 4.15
2.375 0.125 4.15
2.5 0.125 4.15
2.625 0.125 4.15
2.75 0.125 4.15
2.875 0.125 4.15
3 0.125 4.15
3.125 0.125 4.15
3.25 0.125 4.15
3.375 0.125 4.15
3.5 0.125 4.15
3.625 0.125 4.15
3.75 0.125 4.15
3.875 0.125 4.15
4 0.125 4.15
0 0.25 4.15
0.125 0.25 4.15
0.25 0.25 4.15
0.375 0.25 4.15
0.5 0.25 4.15
0.625 0.25 4.15
0.75 0.25 4.15
0.875 0.25 4.15
1 0.25 4.15
1.125 0.25 4.15
1.25 0.25 4.15
1.375 0.25 4.15
1.5 0.25 4.15
1.625 0.25 4.15
1.75 0.25 4.15
1.875 0.25 4.15
2 0.25 4.15
2.125 0.25 4.15
2.25 0.25 4.15
2.375 0.25 4.15
2.5 0.25 4.15
2.625 0.25 4.15
2.75 0.25 4.15
2.875 0.25 4.15
3 0.25 4.15
3.125 0.25 4.15
3.25 0.25 4.15
3.375 0.25 4.15
3.5 0.25 4.15
3.625 0.25 4.15
3.75 0.25 4.15
3.875 0.25 4.15
4 0.25 4.15
0 0.375 4.15
0.125 0.375 4.15
0.25 0.375 4.15
0.375 0.375 4.15
0.5 0.375 4.15
0.625 0.375 4.15
0.75 0.375 4.15
0.875 0.375 4.15
1 0.375 4.15
1.125 0.375 4.15
1.25 0.375 4.15
1.375 0.375 4.15
1.5 0.375 4.15
1.625 0.375 4.15
1.75 0.375 4.15
1.875 0.375 4.15
2 0.375 4.15
2.125 0.375 4.15
2.25 0.375 4.15
2.375 0.375 4.15
2.5 0.375 4.15
2.625 0.375 4.15
2.75 0.375 4.15
2.875 0.375 4.15
3 0.375 4.15
3.125 0.375 4.15
3.25 0.375 4.15
3.375 0.375 4.15
3.5 0.375 4.15
3.625 0.375 4.15
3.75 0.375 4.15
3.875 0.375 4.15
4 0.375 4.15
0 0.5 4.15
0.125 0.5 4.15
0.25 0.5 4.15
0.375 0.5 4.15
0.5 0.5 4.15
0.625 0.5 4.15
0.75 0.5 4.15
0.875 0.5 4.15
1 0.5 4.15
1.125 0.5 4.15
1.25 0.5 4.15
1.375 0.5 4.15
1.5 0.5 4.15
1.625 0.5 4.15
1.75 0.5 4.15
1.875 0.5 4.15
2 0.5 4.15
2.125 0.5 4.15
2.25 0.5 4.15
2.375 0.5 4.15
2.5 0.5 4.15
2.625 0.5 4.15
2.75 0.5 4.15
2.875 0.5 4.15
3 0.5 4.15
3.125 0.5 4.15
3.25 0.5 4.15
3.375 0.5 4.15
3.5 0.5 4.15
3.625 0.5 4.15
3.75 0.5 4.15
3.875 0.5 4.15
4 0.5 4.15
0 0.625 4.15
0.125 0.625 4.15
0.25 0.625 4.15
0.375 0.625 4.15
0.5 0.625 4.15
0.625 0.625 4.15
0.75 0.625 4.15
0.875 0.625 4.15
1 0.625 4.15
1.125 0.625 4.15
1.25 0.625 4.15
1.375 0.625 4.15
1.5 0.625 4.15
1.625 0.625 4.15
1.75 0.625 4.15
1.875 0.625 4.15
2 0.625 4.15
2.125 0.625 4.15
2.25 0.625 4.15
2.375 0.625 4.15
2.5 0.625 4.15
2.625 0.625 4.15
2.75 0.625 4.15
2.875 0.625 4.15
3 0.625 4.15
3.125 0.625 4.15
3.25 0.625 4.15
3.375 0.625 4.15
3.5 0.625 4.15
3.625 0.625 4.15
3.75 0.625 4.15
3.875 0.625 4.15
4 0.625 4.15
0 0.75 4.15
0.125 0.75 4.15
0.25 0.75 4.15
0.375 0.75 4.15
0.5 0.75 4.15
0.625 0.75 4.15
0.75 0.75 4.15
0.875 0.75 4.15
1 0.75 4.15
1.125 0.75 4.15
1.25 0.75 4.15
1.375 0.75 4.15
1.5 0.75 4.15
1.625 0.75 4.15
1.75 0.75 4.15
1.875 0.75 4.15
2 0.75 4.15
2.125 0.75 4.15
2.25 0.75 4.15
2.375 0.75 4.15
2.5 0.75 4.15
2.625 0.75 4.15
2.75 0.75 4.15
2.875 0.75 4.15
3 0.75 4.15
3.125 0.75 4.15
3.25 0.75 4.15
3.375 0.75 4.15
3.5 0.75 4.15
3.625 0.75 4.15
3.75 0.75 4.15
3.875 0.75 4.15
4 0.75 4.15
0 0.875 4.15
0.125 0.875 4.15
0.25 0.875 4.15
0.375 0.875 4.15
0.5 0.875 4.15
0.625 0.875 4.15
0.75 0.875 4.15
0.875 0.875 4.15
1 0.875 4.15
1.125 0.875 4.15
1.25 0.875 4.15
1.375 0.875 4.15
1.5 0.875 4.15
1.625 0.875 4.15
1.75 0.875 4.15
1.875 0.875 4.15
2 0.875 4.15
2.125 0.875 4.15
2.25 0.875 4.15
2.375 0.875 4.15
2.5 0.875 4.15
2.625 0.875 4.15
2.75 0.875 4.15
2.875 0.875 4.15
3 0.875 4.15
3.125 0.875 4.15
3.25 0.875 4.15
3.375 0.875 4.15
3.5 0.875 4.15
3.625 0.875 4.15
3.75 0.875 4.15
3.875 0.875 4.15
4 0.875 4.15
0 1 4.15
0.125 1 4.15
0.25 1 4.15
0.375 1 4.15
0.5 1 4.15
0.625 1 4.15
0.75 1 4.15
0.875 1 4.15
1 1 4.15
1.125 1 4.15
1.25 1 4.15
1.375 1 4.15
1.5 1 4.15
1.625 1 4.15
1.75 1 4.15
1.875 1 4.15
2 1 4.15
2.125 1 4.15
2.25 1 4.15
2.375 1 4.15
2.5 1 4.15
2.625 1 4.15
2.75 1 4.15
2.875 1 4.15
3 1 4.15
3.125 1 4.15
3.25 1 4.15
3.375 1 4.15
3.5 1 4.15
3.625 1 4.15
3.75 1 4.15
3.875 1 4.15
4 1 4.15
0 0 4.275
0.125 0 4.275
0.25 0 4.275
0.375 0 4.275
0.5 0 4.275
0.625 0 4.275
0.75 0 4.275
0.875 0 4.275
1 0 4.275
1.125 0 4.275
1.25 0 4.275
1.375 0 4.275
1.5 0 4.275
1.625 0 4.275
1.75 0 4.275
1.875 0 4.275
2 0 4.275
2.125 0 4.275
2.25 0 4.275
2.375 0 4.275
2.5 0 4.275
2.625 0 4.275
2.75 0 4.275
2.875 0 4.275
3 0 4.275
3.125 0 4.275
3.25 0 4.275
3.375 0 4.275
3.5 0 4.275
3.625 0 4.275
3.75 0 4.275
3.875 0 4.275
4 0 4.275
0 0.125 4.275
0.125 0.125 4.275
0.25 0.125 4.275
0.375 0.125 4.275
0.5 0.125 4.275
0.625 0.125 4.275
0.75 0.125 4.275
0.875 0.125 4.275
1 0.125 4.275
1.125 0.125 4.275
1.25 0.125 4.275
1.375 0.125 4.275
1.5 0.125 4.275
1.625 0.125 4.275
1.75 0.125 4.275
1.875 0.125 4.275
2 0.125 4.275
2.125 0.125 4.275
2.25 0.125 4.275
2.375 0.125 4.275
2.5 0.125 4.275
2.625 0.125 4.275
2.75 0.125 4.275
2.875 0.125 4.275
3 0.125 4.275
3.125 0.125 4.275
3.25 0.125 4.275
3.375 0.125 4.275
3.5 0.125 4.275
3.625 0.125 4.275
3.75 0.125 4.275
3.875 0.125 4.275
4 0.125 4.275
0 0.25 4.275
0.125 0.25 4.275
0.25 0.25 4.275
0.375 0.25 4.275
0.5 0.25 4.275
0.625 0.25 4.275
0.75 0.25 4.275
0.875 0.25 4.275
1 0.25 4.275
1.125 0.25 4.275
1.25 0.25 4.275
1.375 0.25 4.275
1.5 0.25 4.275
1.625 0.25 4.275
1.75 0.25 4.275
1.875 0.25 4.275
2 0.25 4.275
2.125 0.25 4.275
2.25 0.25 4.275
2.375 0.25 4.275
2.5 0.25 4.275
2.625 0.25 4.275
2.75 0.25 4.275
2.875 0.25 4.275
3 0.25 4.275
3.125 0.25 4.275
3.25 0.25 4.275
3.375 0.25 4.275
3.5 0.25 4.275
3.625 0.25 4.275
3.75 0.25 4.275
3.875 0.25 4.275
4 0.25 4.275
0 0.375 4.275
0.125 0.375 4.275
0.25 0.375 4.275
0.375 0.375 4.275
0.5 0.375 4.275
0.625 0.375 4.275
0.75 0.375 4.275
0.875 0.375 4.275
1 0.375 4.275
1.125 0.375 4.275
1.25 0.375 4.275
1.375 0.375 4.275
1.5 0.375 4.275
1.625 0.375 4.275
1.75 0.375 4.275
1.875 0.375 4.275
2 0.375 4.275
2.125 0.375 4.275
2.25 0.375 4.275
2.375 0.375 4.275
2.5 0.375 4.275
2.625 0.375 4.275
2.75 0.375 4.275
2.875 0.375 4.275
3 0.375 4.275
3.125 0.375 4.275
3.25 0.375 4.275
3.375 0.375 4.275
3.5 0.375 4.275
3.625 0.375 4.275
3.75 0.375 4.275
3.875 0.375 4.275
4 0.375 4.275
0 0.5 4.275
0.125 0.5 4.275
0.25 0.5 4.275
0.375 0.5 4.275
0.5 0.5 4.275
0.625 0.5 4.275
0.75 0.5 4.275
0.875 0.5 4.275
1 0.5 4.275
1.125 0.5 4.275
1.25 0.5 4.275
1.375 0.5 4.275
1.5 0.5 4.275
1.625 0.5 4.275
1.75 0.5 4.275
1.875 0.5 4.275
2 0.5 4.275
2.125 0.5 4.275
2.25 0.5 4.275
2.375 0.5 4.275
2.5 0.5 4.275
2.625 0.5 4.275
2.75 0.5 4.275
2.875 0.5 4.275
3 0.5 4.275
3.125 0.5 4.275
3.25 0.5 4.275
3.375 0.5 4.275
3.5 0.5 4.275
3.625 0.5 4.275
3.75 0.5 4.275
3.875 0.5 4.275
4 0.5 4.275
0 0.625 4.275
0.125 0.625 4.275
0.25 0.625 4.275
0.375 0.625 4.275
0.5 0.625 4.275
0.625 0.625 4.275
0.75 0.625 4.275
0.875 0.625 4.275
1 0.625 4.275
1.125 0.625 4.275
1.25 0.625 4.275
1.375 0.625 4.275
1.5 0.625 4.275
1.625 0.625 4.275
1.75 0.625 4.275
1.875 0.625 4.275
2 0.625 4.275
2.125 0.625 4.275
2.25 0.625 4.275
2.375 0.625 4.275
2.5 0.625 4.275
2.625 0.625 4.275
2.75 0.625 4.275
2.875 0.625 4.275
3 0.625 4.275
3.125 0.625 4.275
3.25 0.625 4.275
3.375 0.625 4.275
3.5 0.625 4.275
3.625 0.625 4.275
3.75 0.625 4.275
3.875 0.625 4.275
4 0.625 4.275
0 0.75 4.275
0.125 0.75 4.275
0.25 0.75 4.275
0.375 0.75 4.275
0.5 0.75 4.275
0.625 0.75 4.275
0.75 0.75 4.275
0.875 0.75 4.275
1 0.75 4.275
1.125 0.75 4.275
1.25 0.75 4.275
1.375 0.75 4.275
1.5 0.75 4.275
1.625 0.75 4.275
1.75 0.75 4.275
1.875 0.75 4.275
2 0.75 4.275
2.125 0.75 4.275
2.25 0.75 4.275
2.375 0.75 4.275
2.5 0.75 4.275
2.625 0.75 4.275
2.75 0.75 4.275
2.875 0.75 4.275
3 0.75 4.275
3.125 0.75 4.275
3.25 0.75 4.275
3.375 0.75 4.275
3.5 0.75 4.275
3.625 0.75 4.275
3.75 0.75 4.275
3.875 0.75 4.275
4 0.75 4.275
0 0.875 4.275
0.125 0.875 4.275
0.25 0.875 4.275
0.375 0.875 4.275
0.5 0.875 4.275
0.625 0.875 4.275
0.75 0.875 4.275
0.875 0.875 4.275
1 0.875 4.275
1.125 0.875 4.275
1.25 0.875 4.275
1.375 0.875 4.275
1.5 0.875 4.275
1.625 0.875 4.275
1.75 0.875 4.275
1.875 0.875 4.275
2 0.875 4.275
2.125 0.875 4.275
2.25 0.875 4.275
2.375 0.875 4.275
2.5 0.875 4.275
2.625 0.875 4.275
2.75 0.875 4.275
2.875 0.875 4.275
3 0.875 4.275
3.125 0.875 4.275
3.25 0.875 4.275
3.375 0.875 4.275
3.5 0.875 4.275
3.625 0.875 4.275
3.75 0.875 4.275
3.875 0.875 4.275
4 0.875 4.275
0 1 4.275
0.125 1 4.275
0.25 1 4.275
0.375 1 4.275
0.5 1 4.275
0.625 1 4.275
0.75 1 4.275
0.875 1 4.275
1 1 4.275
1.125 1 4.275
1.25 1 4.275
1.375 1 4.275
1.5 1 4.275
1.625 1 4.275
1.75 1 4.275
1.875 1 4.275
2 1 4.275
2.125 1 4.275
2.25 1 4.275
2.375 1 4.275
2.5 1 4.275
2.625 1 4.275
2.75 1 4.275
2.875 1 4.275
3 1 4.275
3.125 1 4.275
3.25 1 4.275
3.375 1 4.275
3.5 1 4.275
3.625 1 4.275
3.75 1 4.275
3.875 1 4.275
4 1 4.275
0 0 4.4
0.125 0 4.4
0.25 0 4.4
0.375 0 4.4
0.5 0 4.4
0.625 0 4.4
0.75 0 4.4
0.875 0 4.4
1 0 4.4
1.125 0 4.4
1.25 0 4.4
1.375 0 4.4
1.5 0 4.4
1.625 0 4.4
1.75 0 4.4
1.875 0 4.4
2 0 4.4
2.125 0 4.4
2.25 0 4.4
2.375 0 4.4
2.5 0 4.4
2.625 0 4.4
2.75 0 4.4
2.875 0 4.4
3 0 4.4
3.125 0 4.4
3.25 0 4.4
3.375 0 4.4
3.5 0 4.4
3.625 0 4.4
3.75 0 4.4
3.875 0 4.4
4 0 4.4
0 0.125 4.4
0.125 0.125 4.4
0.25 0.125 4.4
0.375 0.125 4.4
0.5 0.125 4.4
0.625 0.125 4.4
0.75 0.125 4.4
0.875 0.125 4.4
1 0.125 4.4
1.125 0.125 4.4
1.25 0.125 4.4
1.375 0.125 4.4
1.5 0.125 4.4
1.625 0.125 4.4
1.75 0.125 4.4
1.875 0.125 4.4
2 0.125 4.4
2.125 0.125 4.4
2.25 0.125 4.4
2.375 0.125 4.4
2.5 0.125 4.4
2.625 0.125 4.4
2.75 0.125 4.4
2.875 0.125 4.4
3 0.125 4.4
3.125 0.125 4.4
3.25 0.125 4.4
3.375 0.125 4.4
3.5 0.125 4.4
3.625 0.125 4.4
3.75 0.125 4.4
3.875 0.125 4.4
4 0.125 4.4
0 0.25 4.4
0.125 0.25 4.4
0.25 0.25 4.4
0.375 0.25 4.4
0.5 0.25 4.4
0.625 0.25 4.4
0.75 0.25 4.4
0.875 0.25 4.4
1 0.25 4.4
1.125 0.25 4.4
1.25 0.25 4.4
1.375 0.25 4.4
1.5 0.25 4.4
1.625 0.25 4.4
1.75 0.25 4.4
1.875 0.25 4.4
2 0.25 4.4
2.125 0.25 4.4
2.25 0.25 4.4
2.375 0.25 4.4
2.5 0.25 4.4
2.625 0.25 4.4
2.75 0.25 4.4
2.875 0.25 4.4
3 0.25 4.4
3.125 0.25 4.4
3.25 0.25 4.4
3.375 0.25 4.4
3.5 0.25 4.4
3.625 0.25 4.4
3.75 0.25 4.4
3.875 0.25 4.4
4 0.25 4.4
0 0.375 4.4
0.125 0.375 4.4
0.25 0.375 4.4
0.375 0.375 4.4
0.5 0.375 4.4
0.625 0.375 4.4
0.75 0.375 4.4
0.875 0.375 4.4
1 0.375 4.4
1.125 0.375 4.4
1.25 0.375 4.4
1.375 0.375 4.4
1.5 0.375 4.4
1.625 0.375 4.4
1.75 0.375 4.4
1.875 0.375 4.4
2 0.375 4.4
2.125 0.375 4.4
2.25 0.375 4.4
2.375 0.375 4.4
2.5 0.375 4.4
2.625 0.375 4.4
2.75 0.375 4.4
2.875 0.375 4.4
3 0.375 4.4
3.125 0.375 4.4
3.25 0.375 4.4
3.375 0.375 4.4
3.5 0.375 4.4
3.625 0.375 4.4
3.75 0.375 4.4
3.875 0.375 4.4
4 0.375 4.4
0 0.5 4.4
0.125 0.5 4.4
0.25 0.5 4.4
0.375 0.5 4.4
0.5 0.5 4.4
0.625 0.5 4.4
0.75 0.5 4.4
0.875 0.5 4.4
1 0.5 4.4
1.125 0.5 4.4
1.25 0.5 4.4
1.375 0.5 4.4
1.5 0.5 4.4
1.625 0.5 4.4
1.75 0.5 4.4
1.875 0.5 4.4
2 0.5 4.4
2.125 0.5 4.4
2.25 0.5 4.4
2.375 0.5 4.4
2.5 0.5 4.4
2.625 0.5 4.4
2.75 0.5 4.4
2.875 0.5 4.4
3 0.5 4.4
3.125 0.5 4.4
3.25 0.5 4.4
3.375 0.5 4.4
3.5 0.5 4.4
3.625 0.5 4.4
3.75 0.5 4.4
3.875 0.5 4.4
4 0.5 4.4
0 0.625 4.4
0.125 0.625 4.4
0.25 0.625 4.4
0.375 0.625 4.4
0.5 0.625 4.4
0.625 0.625 4.4
0.75 0.625 4.4
0.875 0.625 4.4
1 0.625 4.4
1.125 0.625 4.4
1.25 0.625 4.4
1.375 0.625 4.4
1.5 0.625 4.4
1.625 0.625 4.4
1.75 0.625 4.4
1.875 0.625 4.4
2 0.625 4.4
2.125 0.625 4.4
2.25 0.625 4.4
2.375 0.625 4.4
2.5 0.625 4.4
2.625 0.625 4.4
2.75 0.625 4.4
2.875 0.625 4.4
3 0.625 4.4
3.125 0.625 4.4
3.25 0.625 4.4
3.375 0.625 4.4
3.5 0.625 4.4
3.625 0.625 4.4
3.75 0.625 4.4
3.875 0.625 4.4
4 0.625 4.4
0 0.75 4.4
0.125 0.75 4.4
0.25 0.75 4.4
0.375 0.75 4.4
0.5 0.75 4.4
0.625 0.75 4.4
0.75 0.75 4.4
0.875 0.75 4.4
1 0.75 4.4
1.125 0.75 4.4
1.25 0.75 4.4
1.375 0.75 4.4
1.5 0.75 4.4
1.625 0.75 4.4
1.75 0.75 4.4
1.875 0.75 4.4
2 0.75 4.4
2.125 0.75 4.4
2.25 0.75 4.4
2.375 0.75 4.4
2.5 0.75 4.4
2.625 0.75 4.4
2.75 0.75 4.4
2.875 0.75 4.4
3 0.75 4.4
3.125 0.75 4.4
3.25 0.75 4.4
3.375 0.75 4.4
3.5 0.75 4.4
3.625 0.75 4.4
3.75 0.75 4.4
3.875 0.75 4.4
4 0.75 4.4
0 0.875 4.4
0.125 0.875 4.4
0.25 0.875 4.4
0.375 0.875 4.4
0.5 0.875 4.4
0.625 0.875 4.4
0.75 0.875 4.4
0.875 0.875 4.4
1 0.875 4.4
1.125 0.875 4.4
1.25 0.875 4.4
1.375 0.875 4.4
1.5 0.875 4.4
1.625 0.875 4.4
1.75 0.875 4.4
1.875 0.875 4.4
2 0.875 4.4
2.125 0.875 4.4
2.25 0.875 4.4
2.375 0.875 4.4
2.5 0.875 4.4
2.625 0.875 4.4
2.75 0.875 4.4
2.875 0.875 4.4
3 0.875 4.4
3.125 0.875 4.4
3.25 0.875 4.4
3.375 0.875 4.4
3.5 0.875 4.4
3.625 0.875 4.4
3.75 0.875 4.4
3.875 0.875 4.4
4 0.875 4.4
0 1 4.4
0.125 1 4.4
0.25 1 4.4
0.375 1 4.4
0.5 1 4.4
0.625 1 4.4
0.75 1 4.4
0.875 1 4.4
1 1 4.4
1.125 1 4.4
1.25 1 4.4
1.375 1 4.4
1.5 1 4.4
1.625 1 4.4
1.75 1 4.4
1.875 1 4.4
2 1 4.4
2.125 1 4.4
2.25 1 4.4
2.375 1 4.4
2.5 1 4.4
2.625 1 4.4
2.75 1 4.4
2.875 1 4.4
3 1 4.4
3.125 1 4.4
3.25 1 4.4
3.375 1 4.4
3.5 1 4.4
3.625 1 4.4
3.75 1 4.4
3.875 1 4.4
4 1 4.4
0.0625 0 3.4
0.125 0 3.4625
0.0625 0 3.525
0 0 3.4625
0 0.0625 3.4
0.125 0.0625 3.4
0.125 0.0625 3.525
0 0.0625 3.525
0.0625 0.125 3.4
0.125 0.125 3.4625
0.0625 0.125 3.525
0 0.125 3.4625
0.0625 0 3.4625
0.0625 0.0625 3.4
0.125 0.0625 3.4625
0.0625 0.0625 3.525
0 0.0625 3.4625
0.0625 0.125 3.4625
0.0625 0.0625 3.4625
0.1875 0 3.4
0.25 0 3.4625
0.1875 0 3.525
0.25 0.0625 3.4
0.25 0.0625 3.525
0.1875 0.125 3.4
0.25 0.125 3.4625
0.1875 0.125 3.525
0.1875 0 3.4625
0.1875 0.0625 3.4
0.25 0.0625 3.4625
0.1875 0.0625 3.525
0.1875 0.125 3.4625
0.1875 0.0625 3.4625
0.3125 0 3.4
0.375 0 3.4625
0.3125 0 3.525
0.375 0.0625 3.4
0.375 0.0625 3.525
0.3125 0.125 3.4
0.375 0.125 3.4625
0.3125 0.125 3.525
0.3125 0 3.4625
0.3125 0.0625 3.4
0.375 0.0625 3.4625
0.3125 0.0625 3.525
0.3125 0.125 3.4625
0.3125 0.0625 3.4625
0.4375 0 3.4
0.5 0 3.4625
0.4375 0 3.525
0.5 0.0625 3.4
0.5 0.0625 3.525
0.4375 0.125 3.4
0.5 0.125 3.4625
0.4375 0.125 3.525
0.4375 0 3.4625
0.4375 0.0625 3.4
0.5 0.0625 3.4625
0.4375 0.0625 3.525
0.4375 0.125 3.4625
0.4375 0.0625 3.4625
0.5625 0 3.4
0.625 0 3.4625
0.5625 0 3.525
0.625 0.0625 3.4
0.625 0.0625 3.525
0.5625 0.125 3.4
0.625 0.125 3.4625
0.5625 0.125 3.525
0.5625 0 3.4625
0.5625 0.0625 3.4
0.625 0.0625 3.4625
0.5625 0.0625 3.525
0.5625 0.125 3.4625
0.5625 0.0625 3.4625
0.6875 0 3.4
0.75 0 3.4625
0.6875 0 3.525
0.75 0.0625 3.4
0.75 0.0625 3.525
0.6875 0.125 3.4
0.75 0.125 3.4625
0.6875 0.125 3.525
0.6875 0 3.4625
0.6875 0.0625 3.4
0.75 0.0625 3.4625
0.6875 0.0625 3.525
0.6875 0.125 3.4625
0.6875 0.0625 3.4625
0.8125 0 3.4
0.875 0 3.4625
0.8125 0 3.525
0.875 0.0625 3.4
0.875 0.0625 3.525
0.8125 0.125 3.4
0.875 0.125 3.4625
0.8125 0.125 3.525
0.8125 0 3.4625
0.8125 0.0625 3.4
0.875 0.0625 3.4625
0.8125 0.0625 3.525
0.8125 0.125 3.4625
0.8125 0.0625 3.4625
0.9375 0 3.4
1 0 3.4625
0.9375 0 3.525
1 0.0625 3.4
1 0.0625 3.525
0.9375 0.125 3.4
1 0.125 3.4625
0.9375 0.125 3.525
0.9375 0 3.4625
0.9375 0.0625 3.4
1 0.0625 3.4625
0.9375 0.0625 3.525
0.9375 0.125 3.4625
0.9375 0.0625 3.4625
1.0625 0 3.4
1.125 0 3.4625
1.0625 0 3.525
1.125 0.0625 3.4
1.125 0.0625 3.525
1.0625 0.125 3.4
1.125 0.125 3.4625
1.0625 0.125 3.525
1.0625 0 3.4625
1.0625 0.0625 3.4
1.125 0.0625 3.4625
1.0625 0.0625 3.525
1.0625 0.125 3.4625
1.0625 0.0625 3.4625
1.1875 0 3.4
1.25 0 3.4625
1.1875 0 3.525
1.25 0.0625 3.4
1.25 0.0625 3.525
1.1875 0.125 3.4
1.25 0.125 3.4625
1.1875 0.125 3.525
1.1875 0 3.4625
1.1875 0.0625 3.4
1.25 0.0625 3.4625
1.1875 0.0625 3.525
1.1875 0.125 3.4625
1.1875 0.0625 3.4625
1.3125 0 3.4
1.375 0 3.4625
1.3125 0 3.525
1.375 0.0625 3.4
1.375 0.0625 3.525
1.3125 0.125 3.4
1.375 0.125 3.4625
1.3125 0.125 3.525
1.3125 0 3.4625
1.3125 0.0625 3.4
1.375 0.0625 3.4625
1.3125 0.0625 3.525
1.3125 0.125 3.4625
1.3125 0.0625 3.4625
1.4375 0 3.4
1.5 0 3.4625
1.4375 0 3.525
1.5 0.0625 3.4
1.5 0.0625 3.525
1.4375 0.125 3.4
1.5 0.125 3.4625
1.4375 0.125 3.525
1.4375 0 3.4625
1.4375 0.0625 3.4
1.5 0.0625 3.4625
1.4375 0.0625 3.525
1.4375 0.125 3.4625
1.4375 0.0625 3.4625
1.5625 0 3.4
1.625 0 3.4625
1.5625 0 3.525
1.625 0.0625 3.4
1.625 0.0625 3.525
1.5625 0.125 3.4
1.625 0.125 3.4625
1.5625 0.125 3.525
1.5625 0 3.4625
1.5625 0.0625 3.4
1.625 0.0625 3.4625
1.5625 0.0625 3.525
1.5625 0.125 3.4625
1.5625 0.0625 3.4625
1.6875 0 3.4
1.75 0 3.4625
1.6875 0 3.525
1.75 0.0625 3.4
1.75 0.0625 3.525
1.6875 0.125 3.4
1.75 0.125 3.4625
1.6875 0.125 3.525
1.6875 0 3.4625
1.6875 0.0625 3.4
1.75 0.0625 3.4625
1.6875 0.0625 3.525
1.6875 0.125 3.4625
1.6875 0.0625 3.4625
1.8125 0 3.4
1.875 0 3.4625
1.8125 0 3.525
1.875 0.0625 3.4
1.875 0.0625 3.525
1.8125 0.125 3.4
1.875 0.125 3.4625
1.8125 0.125 3.525
1.8125 0 3.4625
1.8125 0.0625 3.4
1.875 0.0625 3.4625
1.8125 0.0625 3.525
1.8125 0.125 3.4625
1.8125 0.0625 3.4625
1.9375 0 3.4
2 0 3.4625
1.9375 0 3.525
2 0.0625 3.4
2 0.0625 3.525
1.9375 0.125 3.4
2 0.125 3.4625
1.9375 0.125 3.525
1.9375 0 3.4625
1.9375 0.0625 3.4
2 0.0625 3.4625
1.9375 0.0625 3.525
1.9375 0.125 3.4625
1.9375 0.0625 3.4625
2.0625 0 3.4
2.125 0 3.4625
2.0625 0 3.525
2.125 0.0625 3.4
2.125 0.0625 3.525
2.0625 0.125 3.4
2.125 0.125 3.4625
2.0625 0.125 3.525
2.0625 0 3.4625
2.0625 0.0625 3.4
2.125 0.0625 3.4625
2.0625 0.0625 3.525
2.0625 0.125 3.4625
2.0625 0.0625 3.4625
2.1875 0 3.4
2.25 0 3.4625
2.1875 0 3.525
2.25 0.0625 3.4
2.25 0.0625 3.525
2.1875 0.125 3.4
2.25 0.125 3.4625
2.1875 0.125 3.525
2.1875 0 3.4625
2.1875 0.0625 3.4
2.25 0.0625 3.4625
2.1875 0.0625 3.525
2.1875 0.125 3.4625
2.1875 0.0625 3.4625
2.3125 0 3.4
2.375 0 3.4625
2.3125 0 3.525
2.375 0.0625 3.4
2.375 0.0625 3.525
2.3125 0.125 3.4
2.375 0.125 3.4625
2.3125 0.125 3.525
2.3125 0 3.4625
2.3125 0.0625 3.4
2.375 0.0625 3.4625
2.3125 0.0625 3.525
2.3125 0.125 3.4625
2.3125 0.0625 3.4625
2.4375 0 3.4
2.5 0 3.4625
2.4375 0 3.525
2.5 0.0625 3.4
2.5 0.0625 3.525
2.4375 0.125 3.4
2.5 0.125 3.4625
2.4375 0.125 3.525
2.4375 0 3.4625
2.4375 0.0625 3.4
2.5 0.0625 3.4625
2.4375 0.0625 3.525
2.4375 0.125 3.4625
2.4375 0.0625 3.4625
2.5625 0 3.4
2.625 0 3.4625
2.5625 0 3.525
2.625 0.0625 3.4
2.625 0.0625 3.525
2.5625 0.125 3.4
2.625 0.125 3.4625
2.5625 0.125 3.525
2.5625 0 3.4625
2.5625 0.0625 3.4
2.625 0.0625 3.4625
2.5625 0.0625 3.525
2.5625 0.125 3.4625
2.5625 0.0625 3.4625
2.6875 0 3.4
2.75 0 3.4625
2.6875 0 3.525
2.75 0.0625 3.4
2.75 0.0625 3.525
2.6875 0.125 3.4
2.75 0.125 3.4625
2.6875 0.125 3.525
2.6875 0 3.4625
2.6875 0.0625 3.4
2.75 0.0625 3.4625
2.6875 0.0625 3.525
2.6875 0.125 3.4625
2.6875 0.0625 3.4625
2.8125 0 3.4
2.875 0 3.4625
2.8125 0 3.525
2.875 0.0625 3.4
2.875 0.0625 3.525
2.8125 0.125 3.4
2.875 0.125 3.4625
2.8125 0.125 3.525
2.8125 0 3.4625
2.8125 0.0625 3.4
2.875 0.0625 3.4625
2.8125 0.0625 3.525
2.8125 0.125 3.4625
2.8125 0.0625 3.4625
2.9375 0 3.4
3 0 3.4625
2.9375 0 3.525
3 0.0625 3.4
3 0.0625 3.525
2.9375 0.125 3.4
3 0.125 3.4625
2.9375 0.125 3.525
2.9375 0 3.4625
2.9375 0.0625 3.4
3 0.0625 3.4625
2.9375 0.0625 3.525
2.9375 0.125 3.4625
2.9375 0.0625 3.4625
3.0625 0 3.4
3.125 0 3.4625
3.0625 0 3.525
3.125 0.0625 3.4
3.125 0.0625 3.525
3.0625 0.125 3.4
3.125 0.125 3.4625
3.0625 0.125 3.525
3.0625 0 3.4625
3.0625 0.0625 3.4
3.125 0.0625 3.4625
3.0625 0.0625 3.525
3.0625 0.125 3.4625
3.0625 0.0625 3.4625
3.1875 0 3.4
3.25 0 3.4625
3.1875 0 3.525
3.25 0.0625 3.4
3.25 0.0625 3.525
3.1875 0.125 3.4
3.25 0.125 3.4625
3.1875 0.125 3.525
3.1875 0 3.4625
3.1875 0.0625 3.4
3.25 0.0625 3.4625
3.1875 0.0625 3.525
3.1875 0.125 3.4625
3.1875 0.0625 3.4625
3.3125 0 3.4
3.375 0 3.4625
3.3125 0 3.525
3.375 0.0625 3.4
3.375 0.0625 3.525
3.3125 0.125 3.4
3.375 0.125 3.4625
3.3125 0.125 3.525
3.3125 0 3.4625
3.3125 0.0625 3.4
3.375 0.0625 3.4625
3.3125 0.0625 3.525
3.3125 0.125 3.4625
3.3125 0.0625 3.4625
3.4375 0 3.4
3.5 0 3.4625
3.4375 0 3.525
3.5 0.0625 3.4
3.5 0.0625 3.525
3.4375 0.125 3.4
3.5 0.125 3.4625
3.4375 0.125 3.525
3.4375 0 3.4625
3.4375 0.0625 3.4
3.5 0.0625 3.4625
3.4375 0.0625 3.525
3.4375 0.125 3.4625
3.4375 0.0625 3.4625
3.5625 0 3.4
3.625 0 3.4625
3.5625 0 3.525
3.625 0.0625 3.4
3.625 0.0625 3.525
3.5625 0.125 3.4
3.625 0.125 3.4625
3.5625 0.125 3.525
3.5625 0 3.4625
3.5625 0.0625 3.4
3.625 0.0625 3.4625
3.5625 0.0625 3.525
3.5625 0.125 3.4625
3.5625 0.0625 3.4625
3.6875 0 3.4
3.75 0 3.4625
3.6875 0 3.525
3.75 0.0625 3.4
3.75 0.0625 3.525
3.6875 0.125 3.4
3.75 0.125 3.4625
3.6875 0.125 3.525
3.6875 0 3.4625
3.6875 0.0625 3.4
3.75 0.0625 3.4625
3.6875 0.0625 3.525
3.6875 0.125 3.4625
3.6875 0.0625 3.4625
3.8125 0 3.4
3.875 0 3.4625
3.8125 0 3.525
3.875 0.0625 3.4
3.875 0.0625 3.525
3.8125 0.125 3.4
3.875 0.125 3.4625
3.8125 0.125 3.525
3.8125 0 3.4625
3.8125 0.0625 3.4
3.875 0.0625 3.4625
3.8125 0.0625 3.525
3.8125 0.125 3.4625
3.8125 0.0625 3.4625
3.9375 0 3.4
4 0 3.4625
3.9375 0 3.525
4 0.0625 3.4
4 0.0625 3.525
3.9375 0.125 3.4
4 0.125 3.4625
3.9375 0.125 3.525
3.9375 0 3.4625
3.9375 0.0625 3.4
4 0.0625 3.4625
3.9375 0.0625 3.525
3.9375 0.125 3.4625
3.9375 0.0625 3.4625
0 0.1875 3.4
0.125 0.1875 3.4
0.125 0.1875 3.525
0 0.1875 3.525
0.0625 0.25 3.4
0.125 0.25 3.4625
0.0625 0.25 3.525
0 0.25 3.4625
0.0625 0.1875 3.4
0.125 0.1875 3.4625
0.0625 0.1875 3.525
0 0.1875 3.4625
0.0625 0.25 3.4625
0.0625 0.1875 3.4625
0.25 0.1875 3.4
0.25 0.1875 3.525
0.1875 0.25 3.4
0.25 0.25 3.4625
0.1875 0.25 3.525
0.1875 0.1875 3.4
0.25 0.1875 3.4625
0.1875 0.1875 3.525
0.1875 0.25 3.4625
0.1875 0.1875 3.4625
0.375 0.1875 3.4
0.375 0.1875 3.525
0.3125 0.25 3.4
0.375 0.25 3.4625
0.3125 0.25 3.525
0.3125 0.1875 3.4
0.375 0.1875 3.4625
0.3125 0.1875 3.525
0.3125 0.25 3.4625
0.3125 0.1875 3.4625
0.5 0.1875 3.4
0.5 0.1875 3.525
0.4375 0.25 3.4
0.5 0.25 3.4625
0.4375 0.25 3.525
0.4375 0.1875 3.4
0.5 0.1875 3.4625
0.4375 0.1875 3.525
0.4375 0.25 3.4625
0.4375 0.1875 3.4625
0.625 0.1875 3.4
0.625 0.1875 3.525
0.5625 0.25 3.4
0.625 0.25 3.4625
0.5625 0.25 3.525
0.5625 0.1875 3.4
0.625 0.1875 3.4625
0.5625 0.1875 3.525
0.5625 0.25 3.4625
0.5625 0.1875 3.4625
0.75 0.1875 3.4
0.75 0.1875 3.525
0.6875 0.25 3.4
0.75 0.25 3.4625
0.6875 0.25 3.525
0.6875 0.1875 3.4
0.75 0.1875 3.4625
0.6875 0.1875 3.525
0.6875 0.25 3.4625
0.6875 0.1875 3.4625
0.875 0.1875 3.4
0.875 0.1875 3.525
0.8125 0.25 3.4
0.875 0.25 3.4625
0.8125 0.25 3.525
0.8125 0.1875 3.4
0.875 0.1875 3.4625
0.8125 0.1875 3.525
0.8125 0.25 3.4625
0.8125 0.1875 3.4625
1 0.1875 3.4
1 0.1875 3.525
0.9375 0.25 3.4
1 0.25 3.4625
0.9375 0.25 3.525
0.9375 0.1875 3.4
1 0.1875 3.4625
0.9375 0.1875 3.525
0.9375 0.25 3.4625
0.9375 0.1875 3.4625
1.125 0.1875 3.4
1.125 0.1875 3.525
1.0625 0.25 3.4
1.125 0.25 3.4625
1.0625 0.25 3.525
1.0625 0.1875 3.4
1.125 0.1875 3.4625
1.0625 0.1875 3.525
1.0625 0.25 3.4625
1.0625 0.1875 3.4625
1.25 0.1875 3.4
1.25 0.1875 3.525
1.1875 0.25 3.4
1.25 0.25 3.4625
1.1875 0.25 3.525
1.1875 0.1875 3.4
1.25 0.1875 3.4625
1.1875 0.1875 3.525
1.1875 0.25 3.4625
1.1875 0.1875 3.4625
1.375 0.1875 3.4
1.375 0.1875 3.525
1.3125 0.25 3.4
1.375 0.25 3.4625
1.3125 0.25 3.525
1.3125 0.1875 3.4
1.375 0.1875 3.4625
1.3125 0.1875 3.525
1.3125 0.25 3.4625
1.3125 0.1875 3.4625
1.5 0.1875 3.4
1.5 0.1875 3.525
1.4375 0.25 3.4
1.5 0.25 3.4625
1.4375 0.25 3.525
1.4375 0.1875 3.4
1.5 0.1875 3.4625
1.4375 0.1875 3.525
1.4375 0.25 3.4625
1.4375 0.1875 3.4625
1.625 0.1875 3.4
1.625 0.1875 3.525
1.5625 0.25 3.4
1.625 0.25 3.4625
1.5625 0.25 3.525
1.5625 0.1875 3.4
1.625 0.1875 3.4625
1.5625 0.1875 3.525
1.5625 0.25 3.4625
1.5625 0.1875 3.4625
1.75 0.1875 3.4
1.75 0.1875 3.525
1.6875 0.25 3.4
1.75 0.25 3.4625
1.6875 0.25 3.525
1.6875 0.1875 3.4
1.75 0.1875 3.4625
1.6875 0.1875 3.525
1.6875 0.25 3.4625
1.6875 0.1875 3.4625
1.875 0.1875 3.4
1.875 0.1875 3.525
1.8125 0.25 3.4
1.875 0.25 3.4625
1.8125 0.25 3.525
1.8125 0.1875 3.4
1.875 0.1875 3.4625
1.8125 0.1875 3.525
1.8125 0.25 3.4625
1.8125 0.1875 3.4625
2 0.1875 3.4
2 0.1875 3.525
1.9375 0.25 3.4
2 0.25 3.4625
1.9375 0.25 3.525
1.9375 0.1875 3.4
2 0.1875 3.4625
1.9375 0.1875 3.525
1.9375 0.25 3.4625
1.9375 0.1875 3.4625
2.125 0.1875 3.4
2.125 0.1875 3.525
2.0625 0.25 3.4
2.125 0.25 3.4625
2.0625 0.25 3.525
2.0625 0.1875 3.4
2.125 0.1875 3.4625
2.0625 0.1875 3.525
2.0625 0.25 3.4625
2.0625 0.1875 3.4625
2.25 0.1875 3.4
2.25 0.1875 3.525
2.1875 0.25 3.4
2.25 0.25 3.4625
2.1875 0.25 3.525
2.1875 0.1875 3.4
2.25 0.1875 3.4625
2.1875 0.1875 3.525
2.1875 0.25 3.4625
2.1875 0.1875 3.4625
2.375 0.1875 3.4
2.375 0.1875 3.525
2.3125 0.25 3.4
2.375 0.25 3.4625
2.3125 0.25 3.525
2.3125 0.1875 3.4
2.375 0.1875 3.4625
2.3125 0.1875 3.525
2.3125 0.25 3.4625
2.3125 0.1875 3.4625
2.5 0.1875 3.4
2.5 0.1875 3.525
2.4375 0.25 3.4
2.5 0.25 3.4625
2.4375 0.25 3.525
2.4375 0.1875 3.4
2.5 0.1875 3.4625
2.4375 0.1875 3.525
2.4375 0.25 3.4625
2.4375 0.1875 3.4625
2.625 0.1875 3.4
2.625 0.1875 3.525
2.5625 0.25 3.4
2.625 0.25 3.4625
2.5625 0.25 3.525
2.5625 0.1875 3.4
2.625 0.1875 3.4625
2.5625 0.1875 3.525
2.5625 0.25 3.4625
2.5625 0.1875 3.4625
2.75 0.1875 3.4
2.75 0.1875 3.525
2.6875 0.25 3.4
2.75 0.25 3.4625
2.6875 0.25 3.525
2.6875 0.1875 3.4
2.75 0.1875 3.4625
2.6875 0.1875 3.525
2.6875 0.25 3.4625
2.6875 0.1875 3.4625
2.875 0.1875 3.4
2.875 0.1875 3.525
2.8125 0.25 3.4
2.875 0.25 3.4625
2.8125 0.25 3.525
2.8125 0.1875 3.4
2.875 0.1875 3.4625
2.8125 0.1875 3.525
2.8125 0.25 3.4625
2.8125 0.1875 3.4625
3 0.1875 3.4
3 0.1875 3.525
2.9375 0.25 3.4
3 0.25 3.4625
2.9375 0.25 3.525
2.9375 0.1875 3.4
3 0.1875 3.4625
2.9375 0.1875 3.525
2.9375 0.25 3.4625
2.9375 0.1875 3.4625
3.125 0.1875 3.4
3.125 0.1875 3.525
3.0625 0.25 3.4
3.125 0.25 3.4625
3.0625 0.25 3.525
3.0625 0.1875 3.4
3.125 0.1875 3.4625
3.0625 0.1875 3.525
3.0625 0.25 3.4625
3.0625 0.1875 3.4625
3.25 0.1875 3.4
3.25 0.1875 3.525
3.1875 0.25 3.4
3.25 0.25 3.4625
3.1875 0.25 3.525
3.1875 0.1875 3.4
3.25 0.1875 3.4625
3.1875 0.1875 3.525
3.1875 0.25 3.4625
3.1875 0.1875 3.4625
3.375 0.1875 3.4
3.375 0.1875 3.525
3.3125 0.25 3.4
3.375 0.25 3.4625
3.3125 0.25 3.525
3.3125 0.1875 3.4
3.375 0.1875 3.4625
3.3125 0.1875 3.525
3.3125 0.25 3.4625
3.3125 0.1875 3.4625
3.5 0.1875 3.4
3.5 0.1875 3.525
3.4375 0.25 3.4
3.5 0.25 3.4625
3.4375 0.25 3.525
3.4375 0.1875 3.4
3.5 0.1875 3.4625
3.4375 0.1875 3.525
3.4375 0.25 3.4625
3.4375 0.1875 3.4625
3.625 0.1875 3.4
3.625 0.1875 3.525
3.5625 0.25 3.4
3.625 0.25 3.4625
3.5625 0.25 3.525
3.5625 0.1875 3.4
3.625 0.1875 3.4625
3.5625 0.1875 3.525
3.5625 0.25 3.4625
3.5625 0.1875 3.4625
3.75 0.1875 3.4
3.75 0.1875 3.525
3.6875 0.25 3.4
3.75 0.25 3.4625
3.6875 0.25 3.525
3.6875 0.1875 3.4
3.75 0.1875 3.4625
3.6875 0.1875 3.525
3.6875 0.25 3.4625
3.6875 0.1875 3.4625
3.875 0.1875 3.4
3.875 0.1875 3.525
3.8125 0.25 3.4
3.875 0.25 3.4625
3.8125 0.25 3.525
3.8125 0.1875 3.4
3.875 0.1875 3.4625
3.8125 0.1875 3.525
3.8125 0.25 3.4625
3.8125 0.1875 3.4625
4 0.1875 3.4
4 0.1875 3.525
3.9375 0.25 3.4
4 0.25 3.4625
3.9375 0.25 3.525
3.9375 0.1875 3.4
4 0.1875 3.4625
3.9375 0.1875 3.525
3.9375 0.25 3.4625
3.9375 0.1875 3.4625
0 0.3125 3.4
0.125 0.3125 3.4
0.125 0.3125 3.525
0 0.3125 3.525
0.0625 0.375 3.4
0.125 0.375 3.4625
0.0625 0.375 3.525
0 0.375 3.4625
0.0625 0.3125 3.4
0.125 0.3125 3.4625
0.0625 0.3125 3.525
0 0.3125 3.4625
0.0625 0.375 3.4625
0.0625 0.3125 3.4625
0.25 0.3125 3.4
0.25 0.3125 3.525
0.1875 0.375 3.4
0.25 0.375 3.4625
0.1875 0.375 3.525
0.1875 0.3125 3.4
0.25 0.3125 3.4625
0.1875 0.3125 3.525
0.1875 0.375 3.4625
0.1875 0.3125 3.4625
0.375 0.3125 3.4
0.375 0.3125 3.525
0.3125 0.375 3.4
0.375 0.375 3.4625
0.3125 0.375 3.525
0.3125 0.3125 3.4
0.375 0.3125 3.4625
0.3125 0.3125 3.525
0.3125 0.375 3.4625
0.3125 0.3125 3.4625
0.5 0.3125 3.4
0.5 0.3125 3.525
0.4375 0.375 3.4
0.5 0.375 3.4625
0.4375 0.375 3.525
0.4375 0.3125 3.4
0.5 0.3125 3.4625
0.4375 0.3125 3.525
0.4375 0.375 3.4625
0.4375 0.3125 3.4625
0.625 0.3125 3.4
0.625 0.3125 3.525
0.5625 0.375 3.4
0.625 0.375 3.4625
0.5625 0.375 3.525
0.5625 0.3125 3.4
0.625 0.3125 3.4625
0.5625 0.3125 3.525
0.5625 0.375 3.4625
0.5625 0.3125 3.4625
0.75 0.3125 3.4
0.75 0.3125 3.525
0.6875 0.375 3.4
0.75 0.375 3.4625
0.6875 0.375 3.525
0.6875 0.3125 3.4
0.75 0.3125 3.4625
0.6875 0.3125 3.525
0.6875 0.375 3.4625
0.6875 0.3125 3.4625
0.875 0.3125 3.4
0.875 0.3125 3.525
0.8125 0.375 3.4
0.875 0.375 3.4625
0.8125 0.375 3.525
0.8125 0.3125 3.4
0.875 0.3125 3.4625
0.8125 0.3125 3.525
0.8125 0.375 3.4625
0.8125 0.3125 3.4625
1 0.3125 3.4
1 0.3125 3.525
0.9375 0.375 3.4
1 0.375 3.4625
0.9375 0.375 3.525
0.9375 0.3125 3.4
1 0.3125 3.4625
0.9375 0.3125 3.525
0.9375 0.375 3.4625
0.9375 0.3125 3.4625
1.125 0.3125 3.4
1.125 0.3125 3.525
1.0625 0.375 3.4
1.125 0.375 3.4625
1.0625 0.375 3.525
1.0625 0.3125 3.4
1.125 0.3125 3.4625
1.0625 0.3125 3.525
1.0625 0.375 3.4625
1.0625 0.3125 3.4625
1.25 0.3125 3.4
1.25 0.3125 3.525
1.1875 0.375 3.4
1.25 0.375 3.4625
1.1875 0.375 3.525
1.1875 0.3125 3.4
1.25 0.3125 3.4625
1.1875 0.3125 3.525
1.1875 0.375 3.4625
1.1875 0.3125 3.4625
1.375 0.3125 3.4
1.375 0.3125 3.525
1.3125 0.375 3.4
1.375 0.375 3.4625
1.3125 0.375 3.525
1.3125 0.3125 3.4
1.375 0.3125 3.4625
1.3125 0.3125 3.525
1.3125 0.375 3.4625
1.3125 0.3125 3.4625
1.5 0.3125 3.4
1.5 0.3125 3.525
1.4375 0.375 3.4
1.5 0.375 3.4625
1.4375 0.375 3.525
1.4375 0.3125 3.4
1.5 0.3125 3.4625
1.4375 0.3125 3.525
1.4375 0.375 3.4625
1.4375 0.3125 3.4625
1.625 0.3125 3.4
1.625 0.3125 3.525
1.5625 0.375 3.4
1.625 0.375 3.4625
1.5625 0.375 3.525
1.5625 0.3125 3.4
1.625 0.3125 3.4625
1.5625 0.3125 3.525
1.5625 0.375 3.4625
1.5625 0.3125 3.4625
1.75 0.3125 3.4
1.75 0.3125 3.525
1.6875 0.375 3.4
1.75 0.375 3.4625
1.6875 0.375 3.525
1.6875 0.3125 3.4
1.75 0.3125 3.4625
1.6875 0.3125 3.525
1.6875 0.375 3.4625
1.6875 0.3125 3.4625
1.875 0.3125 3.4
1.875 0.3125 3.525
1.8125 0.375 3.4
1.875 0.375 3.4625
1.8125 0.375 3.525
1.8125 0.3125 3.4
1.875 0.3125 3.4625
1.8125 0.3125 3.525
1.8125 0.375 3.4625
1.8125 0.3125 3.4625
2 0.3125 3.4
2 0.3125 3.525
1.9375 0.375 3.4
2 0.375 3.4625
1.9375 0.375 3.525
1.9375 0.3125 3.4
2 0.3125 3.4625
1.9375 0.3125 3.525
1.9375 0.375 3.4625
1.9375 0.3125 3.4625
2.125 0.3125 3.4
2.125 0.3125 3.525
2.0625 0.375 3.4
2.125 0.375 3.4625
2.0625 0.375 3.525
2.0625 0.3125 3.4
2.125 0.3125 3.4625
2.0625 0.3125 3.525
2.0625 0.375 3.4625
2.0625 0.3125 3.4625
2.25 0.3125 3.4
2.25 0.3125 3.525
2.1875 0.375 3.4
2.25 0.375 3.4625
2.1875 0.375 3.525
2.1875 0.3125 3.4
2.25 0.3125 3.4625
2.1875 0.3125 3.525
2.1875 0.375 3.4625
2.1875 0.3125 3.4625
2.375 0.3125 3.4
2.375 0.3125 3.525
2.3125 0.375 3.4
2.375 0.375 3.4625
2.3125 0.375 3.525
2.3125 0.3125 3.4
2.375 0.3125 3.4625
2.3125 0.3125 3.525
2.3125 0.375 3.4625
2.3125 0.3125 3.4625
2.5 0.3125 3.4
2.5 0.3125 3.525
2.4375 0.375 3.4
2.5 0.375 3.4625
2.4375 0.375 3.525
2.4375 0.3125 3.4
2.5 0.3125 3.4625
2.4375 0.3125 3.525
2.4375 0.375 3.4625
2.4375 0.3125 3.4625
2.625 0.3125 3.4
2.625 0.3125 3.525
2.5625 0.375 3.4
2.625 0.375 3.4625
2.5625 0.375 3.525
2.5625 0.3125 3.4
2.625 0.3125 3.4625
2.5625 0.3125 3.525
2.5625 0.375 3.4625
2.5625 0.3125 3.4625
2.75 0.3125 3.4
2.75 0.3125 3.525
2.6875 0.375 3.4
2.75 0.375 3.4625
2.6875 0.375 3.525
2.6875 0.3125 3.4
2.75 0.3125 3.4625
2.6875 0.3125 3.525
2.6875 0.375 3.4625
2.6875 0.3125 3.4625
2.875 0.3125 3.4
2.875 0.3125 3.525
2.8125 0.375 3.4
2.875 0.375 3.4625
2.8125 0.375 3.525
2.8125 0.3125 3.4
2.875 0.3125 3.4625
2.8125 0.3125 3.525
2.8125 0.375 3.4625
2.8125 0.3125 3.4625
3 0.3125 3.4
3 0.3125 3.525
2.9375 0.375 3.4
3 0.375 3.4625
2.9375 0.375 3.525
2.9375 0.3125 3.4
3 0.3125 3.4625
2.9375 0.3125 3.525
2.9375 0.375 3.4625
2.9375 0.3125 3.4625
3.125 0.3125 3.4
3.125 0.3125 3.525
3.0625 0.375 3.4
3.125 0.375 3.4625
3.0625 0.375 3.525
3.0625 0.3125 3.4
3.125 0.3125 3.4625
3.0625 0.3125 3.525
3.0625 0.375 3.4625
3.0625 0.3125 3.4625
3.25 0.3125 3.4
3.25 0.3125 3.525
3.1875 0.375 3.4
3.25 0.375 3.4625
3.1875 0.375 3.525
3.1875 0.3125 3.4
3.25 0.3125 3.4625
3.1875 0.3125 3.525
3.1875 0.375 3.4625
3.1875 0.3125 3.4625
3.375 0.3125 3.4
3.375 0.3125 3.525
3.3125 0.375 3.4
3.375 0.375 3.4625
3.3125 0.375 3.525
3.3125 0.3125 3.4
3.375 0.3125 3.4625
3.3125 0.3125 3.525
3.3125 0.375 3.4625
3.3125 0.3125 3.4625
3.5 0.3125 3.4
3.5 0.3125 3.525
3.4375 0.375 3.4
3.5 0.375 3.4625
3.4375 0.375 3.525
3.4375 0.3125 3.4
3.5 0.3125 3.4625
3.4375 0.3125 3.525
3.4375 0.375 3.4625
3.4375 0.3125 3.4625
3.625 0.3125 3.4
3.625 0.3125 3.525
3.5625 0.375 3.4
3.625 0.375 3.4625
3.5625 0.375 3.525
3.5625 0.3125 3.4
3.625 0.3125 3.4625
3.5625 0.3125 3.525
3.5625 0.375 3.4625
3.5625 0.3125 3.4625
3.75 0.3125 3.4
3.75 0.3125 3.525
3.6875 0.375 3.4
3.75 0.375 3.4625
3.6875 0.375 3.525
3.6875 0.3125 3.4
3.75 0.3125 3.4625
3.6875 0.3125 3.525
3.6875 0.375 3.4625
3.6875 0.3125 3.4625
3.875 0.3125 3.4
3.875 0.3125 3.525
3.8125 0.375 3.4
3.875 0.375 3.4625
3.8125 0.375 3.525
3.8125 0.3125 3.4
3.875 0.3125 3.4625
3.8125 0.3125 3.525
3.8125 0.375 3.4625
3.8125 0.3125 3.4625
4 0.3125 3.4
4 0.3125 3.525
3.9375 0.375 3.4
4 0.375 3.4625
3.9375 0.375 3.525
3.9375 0.3125 3.4
4 0.3125 3.4625
3.9375 0.3125 3.525
3.9375 0.375 3.4625
3.9375 0.3125 3.4625
0 0.4375 3.4
0.125 0.4375 3.4
0.125 0.4375 3.525
0 0.4375 3.525
0.0625 0.5 3.4
0.125 0.5 3.4625
0.0625 0.5 3.525
0 0.5 3.4625
0.0625 0.4375 3.4
0.125 0.4375 3.4625
0.0625 0.4375 3.525
0 0.4375 3.4625
0.0625 0.5 3.4625
0.0625 0.4375 3.4625
0.25 0.4375 3.4
0.25 0.4375 3.525
0.1875 0.5 3.4
0.25 0.5 3.4625
0.1875 0.5 3.525
0.1875 0.4375 3.4
0.25 0.4375 3.4625
0.1875 0.4375 3.525
0.1875 0.5 3.4625
0.1875 0.4375 3.4625
0.375 0.4375 3.4
0.375 0.4375 3.525
0.3125 0.5 3.4
0.375 0.5 3.4625
0.3125 0.5 3.525
0.3125 0.4375 3.4
0.375 0.4375 3.4625
0.3125 0.4375 3.525
0.3125 0.5 3.4625
0.3125 0.4375 3.4625
0.5 0.4375 3.4
0.5 0.4375 3.525
0.4375 0.5 3.4
0.5 0.5 3.4625
0.4375 0.5 3.525
0.4375 0.4375 3.4
0.5 0.4375 3.4625
0.4375 0.4375 3.525
0.4375 0.5 3.4625
0.4375 0.4375 3.4625
0.625 0.4375 3.4
0.625 0.4375 3.525
0.5625 0.5 3.4
0.625 0.5 3.4625
0.5625 0.5 3.525
0.5625 0.4375 3.4
0.625 0.4375 3.4625
0.5625 0.4375 3.525
0.5625 0.5 3.4625
0.5625 0.4375 3.4625
0.75 0.4375 3.4
0.75 0.4375 3.525
0.6875 0.5 3.4
0.75 0.5 3.4625
0.6875 0.5 3.525
0.6875 0.4375 3.4
0.75 0.4375 3.4625
0.6875 0.4375 3.525
0.6875 0.5 3.4625
0.6875 0.4375 3.4625
0.875 0.4375 3.4
0.875 0.4375 3.525
0.8125 0.5 3.4
0.875 0.5 3.4625
0.8125 0.5 3.525
0.8125 0.4375 3.4
0.875 0.4375 3.4625
0.8125 0.4375 3.525
0.8125 0.5 3.4625
0.8125 0.4375 3.4625
1 0.4375 3.4
1 0.4375 3.525
0.9375 0.5 3.4
1 0.5 3.4625
0.9375 0.5 3.525
0.9375 0.4375 3.4
1 0.4375 3.4625
0.9375 0.4375 3.525
0.9375 0.5 3.4625
0.9375 0.4375 3.4625
1.125 0.4375 3.4
1.125 0.4375 3.525
1.0625 0.5 3.4
1.125 0.5 3.4625
1.0625 0.5 3.525
1.0625 0.4375 3.4
1.125 0.4375 3.4625
1.0625 0.4375 3.525
1.0625 0.5 3.4625
1.0625 0.4375 3.4625
1.25 0.4375 3.4
1.25 0.4375 3.525
1.1875 0.5 3.4
1.25 0.5 3.4625
1.1875 0.5 3.525
1.1875 0.4375 3.4
1.25 0.4375 3.4625
1.1875 0.4375 3.525
1.1875 0.5 3.4625
1.1875 0.4375 3.4625
1.375 0.4375 3.4
1.375 0.4375 3.525
1.3125 0.5 3.4
1.375 0.5 3.4625
1.3125 0.5 3.525
1.3125 0.4375 3.4
1.375 0.4375 3.4625
1.3125 0.4375 3.525
1.3125 0.5 3.4625
1.3125 0.4375 3.4625
1.5 0.4375 3.4
1.5 0.4375 3.525
1.4375 0.5 3.4
1.5 0.5 3.4625
1.4375 0.5 3.525
1.4375 0.4375 3.4
1.5 0.4375 3.4625
1.4375 0.4375 3.525
1.4375 0.5 3.4625
1.4375 0.4375 3.4625
1.625 0.4375 3.4
1.625 0.4375 3.525
1.5625 0.5 3.4
1.625 0.5 3.4625
1.5625 0.5 3.525
1.5625 0.4375 3.4
1.625 0.4375 3.4625
1.5625 0.4375 3.525
1.5625 0.5 3.4625
1.5625 0.4375 3.4625
1.75 0.4375 3.4
1.75 0.4375 3.525
1.6875 0.5 3.4
1.75 0.5 3.4625
1.6875 0.5 3.525
1.6875 0.4375 3.4
1.75 0.4375 3.4625
1.6875 0.4375 3.525
1.6875 0.5 3.4625
1.6875 0.4375 3.4625
1.875 0.4375 3.4
1.875 0.4375 3.525
1.8125 0.5 3.4
1.875 0.5 3.4625
1.8125 0.5 3.525
1.8125 0.4375 3.4
1.875 0.4375 3.4625
1.8125 0.4375 3.525
1.8125 0.5 3.4625
1.8125 0.4375 3.4625
2 0.4375 3.4
2 0.4375 3.525
1.9375 0.5 3.4
2 0.5 3.4625
1.9375 0.5 3.525
1.9375 0.4375 3.4
2 0.4375 3.4625
1.9375 0.4375 3.525
1.9375 0.5 3.4625
1.9375 0.4375 3.4625
2.125 0.4375 3.4
2.125 0.4375 3.525
2.0625 0.5 3.4
2.125 0.5 3.4625
2.0625 0.5 3.525
2.0625 0.4375 3.4
2.125 0.4375 3.4625
2.0625 0.4375 3.525
2.0625 0.5 3.4625
2.0625 0.4375 3.4625
2.25 0.4375 3.4
2.25 0.4375 3.525
2.1875 0.5 3.4
2.25 0.5 3.4625
2.1875 0.5 3.525
2.1875 0.4375 3.4
2.25 0.4375 3.4625
2.1875 0.4375 3.525
2.1875 0.5 3.4625
2.1875 0.4375 3.4625
2.375 0.4375 3.4
2.375 0.4375 3.525
2.3125 0.5 3.4
2.375 0.5 3.4625
2.3125 0.5 3.525
2.3125 0.4375 3.4
2.375 0.4375 3.4625
2.3125 0.4375 3.525
2.3125 0.5 3.4625
2.3125 0.4375 3.4625
2.5 0.4375 3.4
2.5 0.4375 3.525
2.4375 0.5 3.4
2.5 0.5 3.4625
2.4375 0.5 3.525
2.4375 0.4375 3.4
2.5 0.4375 3.4625
2.4375 0.4375 3.525
2.4375 0.5 3.4625
2.4375 0.4375 3.4625
2.625 0.4375 3.4
2.625 0.4375 3.525
2.5625 0.5 3.4
2.625 0.5 3.4625
2.5625 0.5 3.525
2.5625 0.4375 3.4
2.625 0.4375 3.4625
2.5625 0.4375 3.525
2.5625 0.5 3.4625
2.5625 0.4375 3.4625
2.75 0.4375 3.4
2.75 0.4375 3.525
2.6875 0.5 3.4
2.75 0.5 3.4625
2.6875 0.5 3.525
2.6875 0.4375 3.4
2.75 0.4375 3.4625
2.6875 0.4375 3.525
2.6875 0.5 3.4625
2.6875 0.4375 3.4625
2.875 0.4375 3.4
2.875 0.4375 3.525
2.8125 0.5 3.4
2.875 0.5 3.4625
2.8125 0.5 3.525
2.8125 0.4375 3.4
2.875 0.4375 3.4625
2.8125 0.4375 3.525
2.8125 0.5 3.4625
2.8125 0.4375 3.4625
3 0.4375 3.4
3 0.4375 3.525
2.9375 0.5 3.4
3 0.5 3.4625
2.9375 0.5 3.525
2.9375 0.4375 3.4
3 0.4375 3.4625
2.9375 0.4375 3.525
2.9375 0.5 3.4625
2.9375 0.4375 3.4625
3.125 0.4375 3.4
3.125 0.4375 3.525
3.0625 0.5 3.4
3.125 0.5 3.4625
3.0625 0.5 3.525
3.0625 0.4375 3.4
3.125 0.4375 3.4625
3.0625 0.4375 3.525
3.0625 0.5 3.4625
3.0625 0.4375 3.4625
3.25 0.4375 3.4
3.25 0.4375 3.525
3.1875 0.5 3.4
3.25 0.5 3.4625
3.1875 0.5 3.525
3.1875 0.4375 3.4
3.25 0.4375 3.4625
3.1875 0.4375 3.525
3.1875 0.5 3.4625
3.1875 0.4375 3.4625
3.375 0.4375 3.4
3.375 0.4375 3.525
3.3125 0.5 3.4
3.375 0.5 3.4625
3.3125 0.5 3.525
3.3125 0.4375 3.4
3.375 0.4375 3.4625
3.3125 0.4375 3.525
3.3125 0.5 3.4625
3.3125 0.4375 3.4625
3.5 0.4375 3.4
3.5 0.4375 3.525
3.4375 0.5 3.4
3.5 0.5 3.4625
3.4375 0.5 3.525
3.4375 0.4375 3.4
3.5 0.4375 3.4625
3.4375 0.4375 3.525
3.4375 0.5 3.4625
3.4375 0.4375 3.4625
3.625 0.4375 3.4
3.625 0.4375 3.525
3.5625 0.5 3.4
3.625 0.5 3.4625
3.5625 0.5 3.525
3.5625 0.4375 3.4
3.625 0.4375 3.4625
3.5625 0.4375 3.525
3.5625 0.5 3.4625
3.5625 0.4375 3.4625
3.75 0.4375 3.4
3.75 0.4375 3.525
3.6875 0.5 3.4
3.75 0.5 3.4625
3.6875 0.5 3.525
3.6875 0.4375 3.4
3.75 0.4375 3.4625
3.6875 0.4375 3.525
3.6875 0.5 3.4625
3.6875 0.4375 3.4625
3.875 0.4375 3.4
3.875 0.4375 3.525
3.8125 0.5 3.4
3.875 0.5 3.4625
3.8125 0.5 3.525
3.8125 0.4375 3.4
3.875 0.4375 3.4625
3.8125 0.4375 3.525
3.8125 0.5 3.4625
3.8125 0.4375 3.4625
4 0.4375 3.4
4 0.4375 3.525
3.9375 0.5 3.4
4 0.5 3.4625
3.9375 0.5 3.525
3.9375 0.4375 3.4
4 0.4375 3.4625
3.9375 0.4375 3.525
3.9375 0.5 3.4625
3.9375 0.4375 3.4625
0 0.5625 3.4
0.125 0.5625 3.4
0.125 0.5625 3.525
0 0.5625 3.525
0.0625 0.625 3.4
0.125 0.625 3.4625
0.0625 0.625 3.525
0 0.625 3.4625
0.0625 0.5625 3.4
0.125 0.5625 3.4625
0.0625 0.5625 3.525
0 0.5625 3.4625
0.0625 0.625 3.4625
0.0625 0.5625 3.4625
0.25 0.5625 3.4
0.25 0.5625 3.525
0.1875 0.625 3.4
0.25 0.625 3.4625
0.1875 0.625 3.525
0.1875 0.5625 3.4
0.25 0.5625 3.4625
0.1875 0.5625 3.525
0.1875 0.625 3.4625
0.1875 0.5625 3.4625
0.375 0.5625 3.4
0.375 0.5625 3.525
0.3125 0.625 3.4
0.375 0.625 3.4625
0.3125 0.625 3.525
0.3125 0.5625 3.4
0.375 0.5625 3.4625
0.3125 0.5625 3.525
0.3125 0.625 3.4625
0.3125 0.5625 3.4625
0.5 0.5625 3.4
0.5 0.5625 3.525
0.4375 0.625 3.4
0.5 0.625 3.4625
0.4375 0.625 3.525
0.4375 0.5625 3.4
0.5 0.5625 3.4625
0.4375 0.5625 3.525
0.4375 0.625 3.4625
0.4375 0.5625 3.4625
0.625 0.5625 3.4
0.625 0.5625 3.525
0.5625 0.625 3.4
0.625 0.625 3.4625
0.5625 0.625 3.525
0.5625 0.5625 3.4
0.625 0.5625 3.4625
0.5625 0.5625 3.525
0.5625 0.625 3.4625
0.5625 0.5625 3.4625
0.75 0.5625 3.4
0.75 0.5625 3.525
0.6875 0.625 3.4
0.75 0.625 3.4625
0.6875 0.625 3.525
0.6875 0.5625 3.4
0.75 0.5625 3.4625
0.6875 0.5625 3.525
0.6875 0.625 3.4625
0.6875 0.5625 3.4625
0.875 0.5625 3.4
0.875 0.5625 3.525
0.8125 0.625 3.4
0.875 0.625 3.4625
0.8125 0.625 3.525
0.8125 0.5625 3.4
0.875 0.5625 3.4625
0.8125 0.5625 3.525
0.8125 0.625 3.4625
0.8125 0.5625 3.4625
1 0.5625 3.4
1 0.5625 3.525
0.9375 0.625 3.4
1 0.625 3.4625
0.9375 0.625 3.525
0.9375 0.5625 3.4
1 0.5625 3.4625
0.9375 0.5625 3.525
0.9375 0.625 3.4625
0.9375 0.5625 3.4625
1.125 0.5625 3.4
1.125 0.5625 3.525
1.0625 0.625 3.4
1.125 0.625 3.4625
1.0625 0.625 3.525
1.0625 0.5625 3.4
1.125 0.5625 3.4625
1.0625 0.5625 3.525
1.0625 0.625 3.4625
1.0625 0.5625 3.4625
1.25 0.5625 3.4
1.25 0.5625 3.525
1.1875 0.625 3.4
1.25 0.625 3.4625
1.1875 0.625 3.525
1.1875 0.5625 3.4
1.25 0.5625 3.4625
1.1875 0.5625 3.525
1.1875 0.625 3.4625
1.1875 0.5625 3.4625
1.375 0.5625 3.4
1.375 0.5625 3.525
1.3125 0.625 3.4
1.375 0.625 3.4625
1.3125 0.625 3.525
1.3125 0.5625 3.4
1.375 0.5625 3.4625
1.3125 0.5625 3.525
1.3125 0.625 3.4625
1.3125 0.5625 3.4625
1.5 0.5625 3.4
1.5 0.5625 3.525
1.4375 0.625 3.4
1.5 0.625 3.4625
1.4375 0.625 3.525
1.4375 0.5625 3.4
1.5 0.5625 3.4625
1.4375 0.5625 3.525
1.4375 0.625 3.4625
1.4375 0.5625 3.4625
1.625 0.5625 3.4
1.625 0.5625 3.525
1.5625 0.625 3.4
1.625 0.625 3.4625
1.5625 0.625 3.525
1.5625 0.5625 3.4
1.625 0.5625 3.4625
1.5625 0.5625 3.525
1.5625 0.625 3.4625
1.5625 0.5625 3.4625
1.75 0.5625 3.4
1.75 0.5625 3.525
1.6875 0.625 3.4
1.75 0.625 3.4625
1.6875 0.625 3.525
1.6875 0.5625 3.4
1.75 0.5625 3.4625
1.6875 0.5625 3.525
1.6875 0.625 3.4625
1.6875 0.5625 3.4625
1.875 0.5625 3.4
1.875 0.5625 3.525
1.8125 0.625 3.4
1.875 0.625 3.4625
1.8125 0.625 3.525
1.8125 0.5625 3.4
1.875 0.5625 3.4625
1.8125 0.5625 3.525
1.8125 0.625 3.4625
1.8125 0.5625 3.4625
2 0.5625 3.4
2 0.5625 3.525
1.9375 0.625 3.4
2 0.625 3.4625
1.9375 0.625 3.525
1.9375 0.5625 3.4
2 0.5625 3.4625
1.9375 0.5625 3.525
1.9375 0.625 3.4625
1.9375 0.5625 3.4625
2.125 0.5625 3.4
2.125 0.5625 3.525
2.0625 0.625 3.4
2.125 0.625 3.4625
2.0625 0.625 3.525
2.0625 0.5625 3.4
2.125 0.5625 3.4625
2.0625 0.5625 3.525
2.0625 0.625 3.4625
2.0625 0.5625 3.4625
2.25 0.5625 3.4
2.25 0.5625 3.525
2.1875 0.625 3.4
2.25 0.625 3.4625
2.1875 0.625 3.525
2.1875 0.5625 3.4
2.25 0.5625 3.4625
2.1875 0.5625 3.525
2.1875 0.625 3.4625
2.1875 0.5625 3.4625
2.375 0.5625 3.4
2.375 0.5625 3.525
2.3125 0.625 3.4
2.375 0.625 3.4625
2.3125 0.625 3.525
2.3125 0.5625 3.4
2.375 0.5625 3.4625
2.3125 0.5625 3.525
2.3125 0.625 3.4625
2.3125 0.5625 3.4625
2.5 0.5625 3.4
2.5 0.5625 3.525
2.4375 0.625 3.4
2.5 0.625 3.4625
2.4375 0.625 3.525
2.4375 0.5625 3.4
2.5 0.5625 3.4625
2.4375 0.5625 3.525
2.4375 0.625 3.4625
2.4375 0.5625 3.4625
2.625 0.5625 3.4
2.625 0.5625 3.525
2.5625 0.625 3.4
2.625 0.625 3.4625
2.5625 0.625 3.525
2.5625 0.5625 3.4
2.625 0.5625 3.4625
2.5625 0.5625 3.525
2.5625 0.625 3.4625
2.5625 0.5625 3.4625
2.75 0.5625 3.4
2.75 0.5625 3.525
2.6875 0.625 3.4
2.75 0.625 3.4625
2.6875 0.625 3.525
2.6875 0.5625 3.4
2.75 0.5625 3.4625
2.6875 0.5625 3.525
2.6875 0.625 3.4625
2.6875 0.5625 3.4625
2.875 0.5625 3.4
2.875 0.5625 3.525
2.8125 0.625 3.4
2.875 0.625 3.4625
2.8125 0.625 3.525
2.8125 0.5625 3.4
2.875 0.5625 3.4625
2.8125 0.5625 3.525
2.8125 0.625 3.4625
2.8125 0.5625 3.4625
3 0.5625 3.4
3 0.5625 3.525
2.9375 0.625 3.4
3 0.625 3.4625
2.9375 0.625 3.525
2.9375 0.5625 3.4
3 0.5625 3.4625
2.9375 0.5625 3.525
2.9375 0.625 3.4625
2.9375 0.5625 3.4625
3.125 0.5625 3.4
3.125 0.5625 3.525
3.0625 0.625 3.4
3.125 0.625 3.4625
3.0625 0.625 3.525
3.0625 0.5625 3.4
3.125 0.5625 3.4625
3.0625 0.5625 3.525
3.0625 0.625 3.4625
3.0625 0.5625 3.4625
3.25 0.5625 3.4
3.25 0.5625 3.525
3.1875 0.625 3.4
3.25 0.625 3.4625
3.1875 0.625 3.525
3.1875 0.5625 3.4
3.25 0.5625 3.4625
3.1875 0.5625 3.525
3.1875 0.625 3.4625
3.1875 0.5625 3.4625
3.375 0.5625 3.4
3.375 0.5625 3.525
3.3125 0.625 3.4
3.375 0.625 3.4625
3.3125 0.625 3.525
3.3125 0.5625 3.4
3.375 0.5625 3.4625
3.3125 0.5625 3.525
3.3125 0.625 3.4625
3.3125 0.5625 3.4625
3.5 0.5625 3.4
3.5 0.5625 3.525
3.4375 0.625 3.4
3.5 0.625 3.4625
3.4375 0.625 3.525
3.4375 0.5625 3.4
3.5 0.5625 3.4625
3.4375 0.5625 3.525
3.4375 0.625 3.4625
3.4375 0.5625 3.4625
3.625 0.5625 3.4
3.625 0.5625 3.525
3.5625 0.625 3.4
3.625 0.625 3.4625
3.5625 0.625 3.525
3.5625 0.5625 3.4
3.625 0.5625 3.4625
3.5625 0.5625 3.525
3.5625 0.625 3.4625
3.5625 0.5625 3.4625
3.75 0.5625 3.4
3.75 0.5625 3.525
3.6875 0.625 3.4
3.75 0.625 3.4625
3.6875 0.625 3.525
3.6875 0.5625 3.4
3.75 0.5625 3.4625
3.6875 0.5625 3.525
3.6875 0.625 3.4625
3.6875 0.5625 3.4625
3.875 0.5625 3.4
3.875 0.5625 3.525
3.8125 0.625 3.4
3.875 0.625 3.4625
3.8125 0.625 3.525
3.8125 0.5625 3.4
3.875 0.5625 3.4625
3.8125 0.5625 3.525
3.8125 0.625 3.4625
3.8125 0.5625 3.4625
4 0.5625 3.4
4 0.5625 3.525
3.9375 0.625 3.4
4 0.625 3.4625
3.9375 0.625 3.525
3.9375 0.5625 3.4
4 0.5625 3.4625
3.9375 0.5625 3.525
3.9375 0.625 3.4625
3.9375 0.5625 3.4625
0 0.6875 3.4
0.125 0.6875 3.4
0.125 0.6875 3.525
0 0.6875 3.525
0.0625 0.75 3.4
0.125 0.75 3.4625
0.0625 0.75 3.525
0 0.75 3.4625
0.0625 0.6875 3.4
0.125 0.6875 3.4625
0.0625 0.6875 3.525
0 0.6875 3.4625
0.0625 0.75 3.4625
0.0625 0.6875 3.4625
0.25 0.6875 3.4
0.25 0.6875 3.525
0.1875 0.75 3.4
0.25 0.75 3.4625
0.1875 0.75 3.525
0.1875 0.6875 3.4
0.25 0.6875 3.4625
0.1875 0.6875 3.525
0.1875 0.75 3.4625
0.1875 0.6875 3.4625
0.375 0.6875 3.4
0.375 0.6875 3.525
0.3125 0.75 3.4
0.375 0.75 3.4625
0.3125 0.75 3.525
0.3125 0.6875 3.4
0.375 0.6875 3.4625
0.3125 0.6875 3.525
0.3125 0.75 3.4625
0.3125 0.6875 3.4625
0.5 0.6875 3.4
0.5 0.6875 3.525
0.4375 0.75 3.4
0.5 0.75 3.4625
0.4375 0.75 3.525
0.4375 0.6875 3.4
0.5 0.6875 3.4625
0.4375 0.6875 3.525
0.4375 0.75 3.4625
0.4375 0.6875 3.4625
0.625 0.6875 3.4
0.625 0.6875 3.525
0.5625 0.75 3.4
0.625 0.75 3.4625
0.5625 0.75 3.525
0.5625 0.6875 3.4
0.625 0.6875 3.4625
0.5625 0.6875 3.525
0.5625 0.75 3.4625
0.5625 0.6875 3.4625
0.75 0.6875 3.4
0.75 0.6875 3.525
0.6875 0.75 3.4
0.75 0.75 3.4625
0.6875 0.75 3.525
0.6875 0.6875 3.4
0.75 0.6875 3.4625
0.6875 0.6875 3.525
0.6875 0.75 3.4625
0.6875 0.6875 3.4625
0.875 0.6875 3.4
0.875 0.6875 3.525
0.8125 0.75 3.4
0.875 0.75 3.4625
0.8125 0.75 3.525
0.8125 0.6875 3.4
0.875 0.6875 3.4625
0.8125 0.6875 3.525
0.8125 0.75 3.4625
0.8125 0.6875 3.4625
1 0.6875 3.4
1 0.6875 3.525
0.9375 0.75 3.4
1 0.75 3.4625
0.9375 0.75 3.525
0.9375 0.6875 3.4
1 0.6875 3.4625
0.9375 0.6875 3.525
0.9375 0.75 3.4625
0.9375 0.6875 3.4625
1.125 0.6875 3.4
1.125 0.6875 3.525
1.0625 0.75 3.4
1.125 0.75 3.4625
1.0625 0.75 3.525
1.0625 0.6875 3.4
1.125 0.6875 3.4625
1.0625 0.6875 3.525
1.0625 0.75 3.4625
1.0625 0.6875 3.4625
1.25 0.6875 3.4
1.25 0.6875 3.525
1.1875 0.75 3.4
1.25 0.75 3.4625
1.1875 0.75 3.525
1.1875 0.6875 3.4
1.25 0.6875 3.4625
1.1875 0.6875 3.525
1.1875 0.75 3.4625
1.1875 0.6875 3.4625
1.375 0.6875 3.4
1.375 0.6875 3.525
1.3125 0.75 3.4
1.375 0.75 3.4625
1.3125 0.75 3.525
1.3125 0.6875 3.4
1.375 0.6875 3.4625
1.3125 0.6875 3.525
1.3125 0.75 3.4625
1.3125 0.6875 3.4625
1.5 0.6875 3.4
1.5 0.6875 3.525
1.4375 0.75 3.4
1.5 0.75 3.4625
1.4375 0.75 3.525
1.4375 0.6875 3.4
1.5 0.6875 3.4625
1.4375 0.6875 3.525
1.4375 0.75 3.4625
1.4375 0.6875 3.4625
1.625 0.6875 3.4
1.625 0.6875 3.525
1.5625 0.75 3.4
1.625 0.75 3.4625
1.5625 0.75 3.525
1.5625 0.6875 3.4
1.625 0.6875 3.4625
1.5625 0.6875 3.525
1.5625 0.75 3.4625
1.5625 0.6875 3.4625
1.75 0.6875 3.4
1.75 0.6875 3.525
1.6875 0.75 3.4
1.75 0.75 3.4625
1.6875 0.75 3.525
1.6875 0.6875 3.4
1.75 0.6875 3.4625
1.6875 0.6875 3.525
1.6875 0.75 3.4625
1.6875 0.6875 3.4625
1.875 0.6875 3.4
1.875 0.6875 3.525
1.8125 0.75 3.4
1.875 0.75 3.4625
1.8125 0.75 3.525
1.8125 0.6875 3.4
1.875 0.6875 3.4625
1.8125 0.6875 3.525
1.8125 0.75 3.4625
1.8125 0.6875 3.4625
2 0.6875 3.4
2 0.6875 3.525
1.9375 0.75 3.4
2 0.75 3.4625
1.9375 0.75 3.525
1.9375 0.6875 3.4
2 0.6875 3.4625
1.9375 0.6875 3.525
1.9375 0.75 3.4625
1.9375 0.6875 3.4625
2.125 0.6875 3.4
2.125 0.6875 3.525
2.0625 0.75 3.4
2.125 0.75 3.4625
2.0625 0.75 3.525
2.0625 0.6875 3.4
2.125 0.6875 3.4625
2.0625 0.6875 3.525
2.0625 0.75 3.4625
2.0625 0.6875 3.4625
2.25 0.6875 3.4
2.25 0.6875 3.525
2.1875 0.75 3.4
2.25 0.75 3.4625
2.1875 0.75 3.525
2.1875 0.6875 3.4
2.25 0.6875 3.4625
2.1875 0.6875 3.525
2.1875 0.75 3.4625
2.1875 0.6875 3.4625
2.375 0.6875 3.4
2.375 0.6875 3.525
2.3125 0.75 3.4
2.375 0.75 3.4625
2.3125 0.75 3.525
2.3125 0.6875 3.4
2.375 0.6875 3.4625
2.3125 0.6875 3.525
2.3125 0.75 3.4625
2.3125 0.6875 3.4625
2.5 0.6875 3.4
2.5 0.6875 3.525
2.4375 0.75 3.4
2.5 0.75 3.4625
2.4375 0.75 3.525
2.4375 0.6875 3.4
2.5 0.6875 3.4625
2.4375 0.6875 3.525
2.4375 0.75 3.4625
2.4375 0.6875 3.4625
2.625 0.6875 3.4
2.625 0.6875 3.525
2.5625 0.75 3.4
2.625 0.75 3.4625
2.5625 0.75 3.525
2.5625 0.6875 3.4
2.625 0.6875 3.4625
2.5625 0.6875 3.525
2.5625 0.75 3.4625
2.5625 0.6875 3.4625
2.75 0.6875 3.4
2.75 0.6875 3.525
2.6875 0.75 3.4
2.75 0.75 3.4625
2.6875 0.75 3.525
2.6875 0.6875 3.4
2.75 0.6875 3.4625
2.6875 0.6875 3.525
2.6875 0.75 3.4625
2.6875 0.6875 3.4625
2.875 0.6875 3.4
2.875 0.6875 3.525
2.8125 0.75 3.4
2.875 0.75 3.4625
2.8125 0.75 3.525
2.8125 0.6875 3.4
2.875 0.6875 3.4625
2.8125 0.6875 3.525
2.8125 0.75 3.4625
2.8125 0.6875 3.4625
3 0.6875 3.4
3 0.6875 3.525
2.9375 0.75 3.4
3 0.75 3.4625
2.9375 0.75 3.525
2.9375 0.6875 3.4
3 0.6875 3.4625
2.9375 0.6875 3.525
2.9375 0.75 3.4625
2.9375 0.6875 3.4625
3.125 0.6875 3.4
3.125 0.6875 3.525
3.0625 0.75 3.4
3.125 0.75 3.4625
3.0625 0.75 3.525
3.0625 0.6875 3.4
3.125 0.6875 3.4625
3.0625 0.6875 3.525
3.0625 0.75 3.4625
3.0625 0.6875 3.4625
3.25 0.6875 3.4
3.25 0.6875 3.525
3.1875 0.75 3.4
3.25 0.75 3.4625
3.1875 0.75 3.525
3.1875 0.6875 3.4
3.25 0.6875 3.4625
3.1875 0.6875 3.525
3.1875 0.75 3.4625
3.1875 0.6875 3.4625
3.375 0.6875 3.4
3.375 0.6875 3.525
3.3125 0.75 3.4
3.375 0.75 3.4625
3.3125 0.75 3.525
3.3125 0.6875 3.4
3.375 0.6875 3.4625
3.3125 0.6875 3.525
3.3125 0.75 3.4625
3.3125 0.6875 3.4625
3.5 0.6875 3.4
3.5 0.6875 3.525
3.4375 0.75 3.4
3.5 0.75 3.4625
3.4375 0.75 3.525
3.4375 0.6875 3.4
3.5 0.6875 3.4625
3.4375 0.6875 3.525
3.4375 0.75 3.4625
3.4375 0.6875 3.4625
3.625 0.6875 3.4
3.625 0.6875 3.525
3.5625 0.75 3.4
3.625 0.75 3.4625
3.5625 0.75 3.525
3.5625 0.6875 3.4
3.625 0.6875 3.4625
3.5625 0.6875 3.525
3.5625 0.75 3.4625
3.5625 0.6875 3.4625
3.75 0.6875 3.4
3.75 0.6875 3.525
3.6875 0.75 3.4
3.75 0.75 3.4625
3.6875 0.75 3.525
3.6875 0.6875 3.4
3.75 0.6875 3.4625
3.6875 0.6875 3.525
3.6875 0.75 3.4625
3.6875 0.6875 3.4625
3.875 0.6875 3.4
3.875 0.6875 3.525
3.8125 0.75 3.4
3.875 0.75 3.4625
3.8125 0.75 3.525
3.8125 0.6875 3.4
3.875 0.6875 3.4625
3.8125 0.6875 3.525
3.8125 0.75 3.4625
3.8125 0.6875 3.4625
4 0.6875 3.4
4 0.6875 3.525
3.9375 0.75 3.4
4 0.75 3.4625
3.9375 0.75 3.525
3.9375 0.6875 3.4
4 0.6875 3.4625
3.9375 0.6875 3.525
3.9375 0.75 3.4625
3.9375 0.6875 3.4625
0 0.8125 3.4
0.125 0.8125 3.4
0.125 0.8125 3.525
0 0.8125 3.525
0.0625 0.875 3.4
0.125 0.875 3.4625
0.0625 0.875 3.525
0 0.875 3.4625
0.0625 0.8125 3.4
0.125 0.8125 3.4625
0.0625 0.8125 3.525
0 0.8125 3.4625
0.0625 0.875 3.4625
0.0625 0.8125 3.4625
0.25 0.8125 3.4
0.25 0.8125 3.525
0.1875 0.875 3.4
0.25 0.875 3.4625
0.1875 0.875 3.525
0.1875 0.8125 3.4
0.25 0.8125 3.4625
0.1875 0.8125 3.525
0.1875 0.875 3.4625
0.1875 0.8125 3.4625
0.375 0.8125 3.4
0.375 0.8125 3.525
0.3125 0.875 3.4
0.375 0.875 3.4625
0.3125 0.875 3.525
0.3125 0.8125 3.4
0.375 0.8125 3.4625
0.3125 0.8125 3.525
0.3125 0.875 3.4625
0.3125 0.8125 3.4625
0.5 0.8125 3.4
0.5 0.8125 3.525
0.4375 0.875 3.4
0.5 0.875 3.4625
0.4375 0.875 3.525
0.4375 0.8125 3.4
0.5 0.8125 3.4625
0.4375 0.8125 3.525
0.4375 0.875 3.4625
0.4375 0.8125 3.4625
0.625 0.8125 3.4
0.625 0.8125 3.525
0.5625 0.875 3.4
0.625 0.875 3.4625
0.5625 0.875 3.525
0.5625 0.8125 3.4
0.625 0.8125 3.4625
0.5625 0.8125 3.525
0.5625 0.875 3.4625
0.5625 0.8125 3.4625
0.75 0.8125 3.4
0.75 0.8125 3.525
0.6875 0.875 3.4
0.75 0.875 3.4625
0.6875 0.875 3.525
0.6875 0.8125 3.4
0.75 0.8125 3.4625
0.6875 0.8125 3.525
0.6875 0.875 3.4625
0.6875 0.8125 3.4625
0.875 0.8125 3.4
0.875 0.8125 3.525
0.8125 0.875 3.4
0.875 0.875 3.4625
0.8125 0.875 3.525
0.8125 0.8125 3.4
0.875 0.8125 3.4625
0.8125 0.8125 3.525
0.8125 0.875 3.4625
0.8125 0.8125 3.4625
1 0.8125 3.4
1 0.8125 3.525
0.9375 0.875 3.4
1 0.875 3.4625
0.9375 0.875 3.525
0.9375 0.8125 3.4
1 0.8125 3.4625
0.9375 0.8125 3.525
0.9375 0.875 3.4625
0.9375 0.8125 3.4625
1.125 0.8125 3.4
1.125 0.8125 3.525
1.0625 0.875 3.4
1.125 0.875 3.4625
1.0625 0.875 3.525
1.0625 0.8125 3.4
1.125 0.8125 3.4625
1.0625 0.8125 3.525
1.0625 0.875 3.4625
1.0625 0.8125 3.4625
1.25 0.8125 3.4
1.25 0.8125 3.525
1.1875 0.875 3.4
1.25 0.875 3.4625
1.1875 0.875 3.525
1.1875 0.8125 3.4
1.25 0.8125 3.4625
1.1875 0.8125 3.525
1.1875 0.875 3.4625
1.1875 0.8125 3.4625
1.375 0.8125 3.4
1.375 0.8125 3.525
1.3125 0.875 3.4
1.375 0.875 3.4625
1.3125 0.875 3.525
1.3125 0.8125 3.4
1.375 0.8125 3.4625
1.3125 0.8125 3.525
1.3125 0.875 3.4625
1.3125 0.8125 3.4625
1.5 0.8125 3.4
1.5 0.8125 3.525
1.4375 0.875 3.4
1.5 0.875 3.4625
1.4375 0.875 3.525
1.4375 0.8125 3.4
1.5 0.8125 3.4625
1.4375 0.8125 3.525
1.4375 0.875 3.4625
1.4375 0.8125 3.4625
1.625 0.8125 3.4
1.625 0.8125 3.525
1.5625 0.875 3.4
1.625 0.875 3.4625
1.5625 0.875 3.525
1.5625 0.8125 3.4
1.625 0.8125 3.4625
1.5625 0.8125 3.525
1.5625 0.875 3.4625
1.5625 0.8125 3.4625
1.75 0.8125 3.4
1.75 0.8125 3.525
1.6875 0.875 3.4
1.75 0.875 3.4625
1.6875 0.875 3.525
1.6875 0.8125 3.4
1.75 0.8125 3.4625
1.6875 0.8125 3.525
1.6875 0.875 3.4625
1.6875 0.8125 3.4625
1.875 0.8125 3.4
1.875 0.8125 3.525
1.8125 0.875 3.4
1.875 0.875 3.4625
1.8125 0.875 3.525
1.8125 0.8125 3.4
1.875 0.8125 3.4625
1.8125 0.8125 3.525
1.8125 0.875 3.4625
1.8125 0.8125 3.4625
2 0.8125 3.4
2 0.8125 3.525
1.9375 0.875 3.4
2 0.875 3.4625
1.9375 0.875 3.525
1.9375 0.8125 3.4
2 0.8125 3.4625
1.9375 0.8125 3.525
1.9375 0.875 3.4625
1.9375 0.8125 3.4625
2.125 0.8125 3.4
2.125 0.8125 3.525
2.0625 0.875 3.4
2.125 0.875 3.4625
2.0625 0.875 3.525
2.0625 0.8125 3.4
2.125 0.8125 3.4625
2.0625 0.8125 3.525
2.0625 0.875 3.4625
2.0625 0.8125 3.4625
2.25 0.8125 3.4
2.25 0.8125 3.525
2.1875 0.875 3.4
2.25 0.875 3.4625
2.1875 0.875 3.525
2.1875 0.8125 3.4
2.25 0.8125 3.4625
2.1875 0.8125 3.525
2.1875 0.875 3.4625
2.1875 0.8125 3.4625
2.375 0.8125 3.4
2.375 0.8125 3.525
2.3125 0.875 3.4
2.375 0.875 3.4625
2.3125 0.875 3.525
2.3125 0.8125 3.4
2.375 0.8125 3.4625
2.3125 0.8125 3.525
2.3125 0.875 3.4625
2.3125 0.8125 3.4625
2.5 0.8125 3.4
2.5 0.8125 3.525
2.4375 0.875 3.4
2.5 0.875 3.4625
2.4375 0.875 3.525
2.4375 0.8125 3.4
2.5 0.8125 3.4625
2.4375 0.8125 3.525
2.4375 0.875 3.4625
2.4375 0.8125 3.4625
2.625 0.8125 3.4
2.625 0.8125 3.525
2.5625 0.875 3.4
2.625 0.875 3.4625
2.5625 0.875 3.525
2.5625 0.8125 3.4
2.625 0.8125 3.4625
2.5625 0.8125 3.525
2.5625 0.875 3.4625
2.5625 0.8125 3.4625
2.75 0.8125 3.4
2.75 0.8125 3.525
2.6875 0.875 3.4
2.75 0.875 3.4625
2.6875 0.875 3.525
2.6875 0.8125 3.4
2.75 0.8125 3.4625
2.6875 0.8125 3.525
2.6875 0.875 3.4625
2.6875 0.8125 3.4625
2.875 0.8125 3.4
2.875 0.8125 3.525
2.8125 0.875 3.4
2.875 0.875 3.4625
2.8125 0.875 3.525
2.8125 0.8125 3.4
2.875 0.8125 3.4625
2.8125 0.8125 3.525
2.8125 0.875 3.4625
2.8125 0.8125 3.4625
3 0.8125 3.4
3 0.8125 3.525
2.9375 0.875 3.4
3 0.875 3.4625
2.9375 0.875 3.525
2.9375 0.8125 3.4
3 0.8125 3.4625
2.9375 0.8125 3.525
2.9375 0.875 3.4625
2.9375 0.8125 3.4625
3.125 0.8125 3.4
3.125 0.8125 3.525
3.0625 0.875 3.4
3.125 0.875 3.4625
3.0625 0.875 3.525
3.0625 0.8125 3.4
3.125 0.8125 3.4625
3.0625 0.8125 3.525
3.0625 0.875 3.4625
3.0625 0.8125 3.4625
3.25 0.8125 3.4
3.25 0.8125 3.525
3.1875 0.875 3.4
3.25 0.875 3.4625
3.1875 0.875 3.525
3.1875 0.8125 3.4
3.25 0.8125 3.4625
3.1875 0.8125 3.525
3.1875 0.875 3.4625
3.1875 0.8125 3.4625
3.375 0.8125 3.4
3.375 0.8125 3.525
3.3125 0.875 3.4
3.375 0.875 3.4625
3.3125 0.875 3.525
3.3125 0.8125 3.4
3.375 0.8125 3.4625
3.3125 0.8125 3.525
3.3125 0.875 3.4625
3.3125 0.8125 3.4625
3.5 0.8125 3.4
3.5 0.8125 3.525
3.4375 0.875 3.4
3.5 0.875 3.4625
3.4375 0.875 3.525
3.4375 0.8125 3.4
3.5 0.8125 3.4625
3.4375 0.8125 3.525
3.4375 0.875 3.4625
3.4375 0.8125 3.4625
3.625 0.8125 3.4
3.625 0.8125 3.525
3.5625 0.875 3.4
3.625 0.875 3.4625
3.5625 0.875 3.525
3.5625 0.8125 3.4
3.625 0.8125 3.4625
3.5625 0.8125 3.525
3.5625 0.875 3.4625
3.5625 0.8125 3.4625
3.75 0.8125 3.4
3.75 0.8125 3.525
3.6875 0.875 3.4
3.75 0.875 3.4625
3.6875 0.875 3.525
3.6875 0.8125 3.4
3.75 0.8125 3.4625
3.6875 0.8125 3.525
3.6875 0.875 3.4625
3.6875 0.8125 3.4625
3.875 0.8125 3.4
3.875 0.8125 3.525
3.8125 0.875 3.4
3.875 0.875 3.4625
3.8125 0.875 3.525
3.8125 0.8125 3.4
3.875 0.8125 3.4625
3.8125 0.8125 3.525
3.8125 0.875 3.4625
3.8125 0.8125 3.4625
4 0.8125 3.4
4 0.8125 3.525
3.9375 0.875 3.4
4 0.875 3.4625
3.9375 0.875 3.525
3.9375 0.8125 3.4
4 0.8125 3.4625
3.9375 0.8125 3.525
3.9375 0.875 3.4625
3.9375 0.8125 3.4625
0 0.9375 3.4
0.125 0.9375 3.4
0.125 0.9375 3.525
0 0.9375 3.525
0.0625 1 3.4
0.125 1 3.4625
0.0625 1 3.525
0 1 3.4625
0.0625 0.9375 3.4
0.125 0.9375 3.4625
0.0625 0.9375 3.525
0 0.9375 3.4625
0.0625 1 3.4625
0.0625 0.9375 3.4625
0.25 0.9375 3.4
0.25 0.9375 3.525
0.1875 1 3.4
0.25 1 3.4625
0.1875 1 3.525
0.1875 0.9375 3.4
0.25 0.9375 3.4625
0.1875 0.9375 3.525
0.1875 1 3.4625
0.1875 0.9375 3.4625
0.375 0.9375 3.4
0.375 0.9375 3.525
0.3125 1 3.4
0.375 1 3.4625
0.3125 1 3.525
0.3125 0.9375 3.4
0.375 0.9375 3.4625
0.3125 0.9375 3.525
0.3125 1 3.4625
0.3125 0.9375 3.4625
0.5 0.9375 3.4
0.5 0.9375 3.525
0.4375 1 3.4
0.5 1 3.4625
0.4375 1 3.525
0.4375 0.9375 3.4
0.5 0.9375 3.4625
0.4375 0.9375 3.525
0.4375 1 3.4625
0.4375 0.9375 3.4625
0.625 0.9375 3.4
0.625 0.9375 3.525
0.5625 1 3.4
0.625 1 3.4625
0.5625 1 3.525
0.5625 0.9375 3.4
0.625 0.9375 3.4625
0.5625 0.9375 3.525
0.5625 1 3.4625
0.5625 0.9375 3.4625
0.75 0.9375 3.4
0.75 0.9375 3.525
0.6875 1 3.4
0.75 1 3.4625
0.6875 1 3.525
0.6875 0.9375 3.4
0.75 0.9375 3.4625
0.6875 0.9375 3.525
0.6875 1 3.4625
0.6875 0.9375 3.4625
0.875 0.9375 3.4
0.875 0.9375 3.525
0.8125 1 3.4
0.875 1 3.4625
0.8125 1 3.525
0.8125 0.9375 3.4
0.875 0.9375 3.4625
0.8125 0.9375 3.525
0.8125 1 3.4625
0.8125 0.9375 3.4625
1 0.9375 3.4
1 0.9375 3.525
0.9375 1 3.4
1 1 3.4625
0.9375 1 3.525
0.9375 0.9375 3.4
1 0.9375 3.4625
0.9375 0.9375 3.525
0.9375 1 3.4625
0.9375 0.9375 3.4625
1.125 0.9375 3.4
1.125 0.9375 3.525
1.0625 1 3.4
1.125 1 3.4625
1.0625 1 3.525
1.0625 0.9375 3.4
1.125 0.9375 3.4625
1.0625 0.9375 3.525
1.0625 1 3.4625
1.0625 0.9375 3.4625
1.25 0.9375 3.4
1.25 0.9375 3.525
1.1875 1 3.4
1.25 1 3.4625
1.1875 1 3.525
1.1875 0.9375 3.4
1.25 0.9375 3.4625
1.1875 0.9375 3.525
1.1875 1 3.4625
1.1875 0.9375 3.4625
1.375 0.9375 3.4
1.375 0.9375 3.525
1.3125 1 3.4
1.375 1 3.4625
1.3125 1 3.525
1.3125 0.9375 3.4
1.375 0.9375 3.4625
1.3125 0.9375 3.525
1.3125 1 3.4625
1.3125 0.9375 3.4625
1.5 0.9375 3.4
1.5 0.9375 3.525
1.4375 1 3.4
1.5 1 3.4625
1.4375 1 3.525
1.4375 0.9375 3.4
1.5 0.9375 3.4625
1.4375 0.9375 3.525
1.4375 1 3.4625
1.4375 0.9375 3.4625
1.625 0.9375 3.4
1.625 0.9375 3.525
1.5625 1 3.4
1.625 1 3.4625
1.5625 1 3.525
1.5625 0.9375 3.4
1.625 0.9375 3.4625
1.5625 0.9375 3.525
1.5625 1 3.4625
1.5625 0.9375 3.4625
1.75 0.9375 3.4
1.75 0.9375 3.525
1.6875 1 3.4
1.75 1 3.4625
1.6875 1 3.525
1.6875 0.9375 3.4
1.75 0.9375 3.4625
1.6875 0.9375 3.525
1.6875 1 3.4625
1.6875 0.9375 3.4625
1.875 0.9375 3.4
1.875 0.9375 3.525
1.8125 1 3.4
1.875 1 3.4625
1.8125 1 3.525
1.8125 0.9375 3.4
1.875 0.9375 3.4625
1.8125 0.9375 3.525
1.8125 1 3.4625
1.8125 0.9375 3.4625
2 0.9375 3.4
2 0.9375 3.525
1.9375 1 3.4
2 1 3.4625
1.9375 1 3.525
1.9375 0.9375 3.4
2 0.9375 3.4625
1.9375 0.9375 3.525
1.9375 1 3.4625
1.9375 0.9375 3.4625
2.125 0.9375 3.4
2.125 0.9375 3.525
2.0625 1 3.4
2.125 1 3.4625
2.0625 1 3.525
2.0625 0.9375 3.4
2.125 0.9375 3.4625
2.0625 0.9375 3.525
2.0625 1 3.4625
2.0625 0.9375 3.4625
2.25 0.9375 3.4
2.25 0.9375 3.525
2.1875 1 3.4
2.25 1 3.4625
2.1875 1 3.525
2.1875 0.9375 3.4
2.25 0.9375 3.4625
2.1875 0.9375 3.525
2.1875 1 3.4625
2.1875 0.9375 3.4625
2.375 0.9375 3.4
2.375 0.9375 3.525
2.3125 1 3.4
2.375 1 3.4625
2.3125 1 3.525
2.3125 0.9375 3.4
2.375 0.9375 3.4625
2.3125 0.9375 3.525
2.3125 1 3.4625
2.3125 0.9375 3.4625
2.5 0.9375 3.4
2.5 0.9375 3.525
2.4375 1 3.4
2.5 1 3.4625
2.4375 1 3.525
2.4375 0.9375 3.4
2.5 0.9375 3.4625
2.4375 0.9375 3.525
2.4375 1 3.4625
2.4375 0.9375 3.4625
2.625 0.9375 3.4
2.625 0.9375 3.525
2.5625 1 3.4
2.625 1 3.4625
2.5625 1 3.525
2.5625 0.9375 3.4
2.625 0.9375 3.4625
2.5625 0.9375 3.525
2.5625 1 3.4625
2.5625 0.9375 3.4625
2.75 0.9375 3.4
2.75 0.9375 3.525
2.6875 1 3.4
2.75 1 3.4625
2.6875 1 3.525
2.6875 0.9375 3.4
2.75 0.9375 3.4625
2.6875 0.9375 3.525
2.6875 1 3.4625
2.6875 0.9375 3.4625
2.875 0.9375 3.4
2.875 0.9375 3.525
2.8125 1 3.4
2.875 1 3.4625
2.8125 1 3.525
2.8125 0.9375 3.4
2.875 0.9375 3.4625
2.8125 0.9375 3.525
2.8125 1 3.4625
2.8125 0.9375 3.4625
3 0.9375 3.4
3 0.9375 3.525
2.9375 1 3.4
3 1 3.4625
2.9375 1 3.525
2.9375 0.9375 3.4
3 0.9375 3.4625
2.9375 0.9375 3.525
2.9375 1 3.4625
2.9375 0.9375 3.4625
3.125 0.9375 3.4
3.125 0.9375 3.525
3.0625 1 3.4
3.125 1 3.4625
3.0625 1 3.525
3.0625 0.9375 3.4
3.125 0.9375 3.4625
3.0625 0.9375 3.525
3.0625 1 3.4625
3.0625 0.9375 3.4625
3.25 0.9375 3.4
3.25 0.9375 3.525
3.1875 1 3.4
3.25 1 3.4625
3.1875 1 3.525
3.1875 0.9375 3.4
3.25 0.9375 3.4625
3.1875 0.9375 3.525
3.1875 1 3.4625
3.1875 0.9375 3.4625
3.375 0.9375 3.4
3.375 0.9375 3.525
3.3125 1 3.4
3.375 1 3.4625
3.3125 1 3.525
3.3125 0.9375 3.4
3.375 0.9375 3.4625
3.3125 0.9375 3.525
3.3125 1 3.4625
3.3125 0.9375 3.4625
3.5 0.9375 3.4
3.5 0.9375 3.525
3.4375 1 3.4
3.5 1 3.4625
3.4375 1 3.525
3.4375 0.9375 3.4
3.5 0.9375 3.4625
3.4375 0.9375 3.525
3.4375 1 3.4625
3.4375 0.9375 3.4625
3.625 0.9375 3.4
3.625 0.9375 3.525
3.5625 1 3.4
3.625 1 3.4625
3.5625 1 3.525
3.5625 0.9375 3.4
3.625 0.9375 3.4625
3.5625 0.9375 3.525
3.5625 1 3.4625
3.5625 0.9375 3.4625
3.75 0.9375 3.4
3.75 0.9375 3.525
3.6875 1 3.4
3.75 1 3.4625
3.6875 1 3.525
3.6875 0.9375 3.4
3.75 0.9375 3.4625
3.6875 0.9375 3.525
3.6875 1 3.4625
3.6875 0.9375 3.4625
3.875 0.9375 3.4
3.875 0.9375 3.525
3.8125 1 3.4
3.875 1 3.4625
3.8125 1 3.525
3.8125 0.9375 3.4
3.875 0.9375 3.4625
3.8125 0.9375 3.525
3.8125 1 3.4625
3.8125 0.9375 3.4625
4 0.9375 3.4
4 0.9375 3.525
3.9375 1 3.4
4 1 3.4625
3.9375 1 3.525
3.9375 0.9375 3.4
4 0.9375 3.4625
3.9375 0.9375 3.525
3.9375 1 3.4625
3.9375 0.9375 3.4625
0.125 0 3.5875
0.0625 0 3.65
0 0 3.5875
0.125 0.0625 3.65
0 0.0625 3.65
0.125 0.125 3.5875
0.0625 0.125 3.65
0 0.125 3.5875
0.0625 0 3.5875
0.125 0.0625 3.5875
0.0625 0.0625 3.65
0 0.0625 3.5875
0.0625 0.125 3.5875
0.0625 0.0625 3.5875
0.25 0 3.5875
0.1875 0 3.65
0.25 0.0625 3.65
0.25 0.125 3.5875
0.1875 0.125 3.65
0.1875 0 3.5875
0.25 0.0625 3.5875
0.1875 0.0625 3.65
0.1875 0.125 3.5875
0.1875 0.0625 3.5875
0.375 0 3.5875
0.3125 0 3.65
0.375 0.0625 3.65
0.375 0.125 3.5875
0.3125 0.125 3.65
0.3125 0 3.5875
0.375 0.0625 3.5875
0.3125 0.0625 3.65
0.3125 0.125 3.5875
0.3125 0.0625 3.5875
0.5 0 3.5875
0.4375 0 3.65
0.5 0.0625 3.65
0.5 0.125 3.5875
0.4375 0.125 3.65
0.4375 0 3.5875
0.5 0.0625 3.5875
0.4375 0.0625 3.65
0.4375 0.125 3.5875
0.4375 0.0625 3.5875
0.625 0 3.5875
0.5625 0 3.65
0.625 0.0625 3.65
0.625 0.125 3.5875
0.5625 0.125 3.65
0.5625 0 3.5875
0.625 0.0625 3.5875
0.5625 0.0625 3.65
0.5625 0.125 3.5875
0.5625 0.0625 3.5875
0.75 0 3.5875
0.6875 0 3.65
0.75 0.0625 3.65
0.75 0.125 3.5875
0.6875 0.125 3.65
0.6875 0 3.5875
0.75 0.0625 3.5875
0.6875 0.0625 3.65
0.6875 0.125 3.5875
0.6875 0.0625 3.5875
0.875 0 3.5875
0.8125 0 3.65
0.875 0.0625 3.65
0.875 0.125 3.5875
0.8125 0.125 3.65
0.8125 0 3.5875
0.875 0.0625 3.5875
0.8125 0.0625 3.65
0.8125 0.125 3.5875
0.8125 0.0625 3.5875
1 0 3.5875
0.9375 0 3.65
1 0.0625 3.65
1 0.125 3.5875
0.9375 0.125 3.65
0.9375 0 3.5875
1 0.0625 3.5875
0.9375 0.0625 3.65
0.9375 0.125 3.5875
0.9375 0.0625 3.5875
1.125 0 3.5875
1.0625 0 3.65
1.125 0.0625 3.65
1.125 0.125 3.5875
1.0625 0.125 3.65
1.0625 0 3.5875
1.125 0.0625 3.5875
1.0625 0.0625 3.65
1.0625 0.125 3.5875
1.0625 0.0625 3.5875
1.25 0 3.5875
1.1875 0 3.65
1.25 0.0625 3.65
1.25 0.125 3.5875
1.1875 0.125 3.65
1.1875 0 3.5875
1.25 0.0625 3.5875
1.1875 0.0625 3.65
1.1875 0.125 3.5875
1.1875 0.0625 3.5875
1.375 0 3.5875
1.3125 0 3.65
1.375 0.0625 3.65
1.375 0.125 3.5875
1.3125 0.125 3.65
1.3125 0 3.5875
1.375 0.0625 3.5875
1.3125 0.0625 3.65
1.3125 0.125 3.5875
1.3125 0.0625 3.5875
1.5 0 3.5875
1.4375 0 3.65
1.5 0.0625 3.65
1.5 0.125 3.5875
1.4375 0.125 3.65
1.4375 0 3.5875
1.5 0.0625 3.5875
1.4375 0.0625 3.65
1.4375 0.125 3.5875
1.4375 0.0625 3.5875
1.625 0 3.5875
1.5625 0 3.65
1.625 0.0625 3.65
1.625 0.125 3.5875
1.5625 0.125 3.65
1.5625 0 3.5875
1.625 0.0625 3.5875
1.5625 0.0625 3.65
1.5625 0.125 3.5875
1.5625 0.0625 3.5875
1.75 0 3.5875
1.6875 0 3.65
1.75 0.0625 3.65
1.75 0.125 3.5875
1.6875 0.125 3.65
1.6875 0 3.5875
1.75 0.0625 3.5875
1.6875 0.0625 3.65
1.6875 0.125 3.5875
1.6875 0.0625 3.5875
1.875 0 3.5875
1.8125 0 3.65
1.875 0.0625 3.65
1.875 0.125 3.5875
1.8125 0.125 3.65
1.8125 0 3.5875
1.875 0.0625 3.5875
1.8125 0.0625 3.65
1.8125 0.125 3.5875
1.8125 0.0625 3.5875
2 0 3.5875
1.9375 0 3.65
2 0.0625 3.65
2 0.125 3.5875
1.9375 0.125 3.65
1.9375 0 3.5875
2 0.0625 3.5875
1.9375 0.0625 3.65
1.9375 0.125 3.5875
1.9375 0.0625 3.5875
2.125 0 3.5875
2.0625 0 3.65
2.125 0.0625 3.65
2.125 0.125 3.5875
2.0625 0.125 3.65
2.0625 0 3.5875
2.125 0.0625 3.5875
2.0625 0.0625 3.65
2.0625 0.125 3.5875
2.0625 0.0625 3.5875
2.25 0 3.5875
2.1875 0 3.65
2.25 0.0625 3.65
2.25 0.125 3.5875
2.1875 0.125 3.65
2.1875 0 3.5875
2.25 0.0625 3.5875
2.1875 0.0625 3.65
2.1875 0.125 3.5875
2.1875 0.0625 3.5875
2.375 0 3.5875
2.3125 0 3.65
2.375 0.0625 3.65
2.375 0.125 3.5875
2.3125 0.125 3.65
2.3125 0 3.5875
2.375 0.0625 3.5875
2.3125 0.0625 3.65
2.3125 0.125 3.5875
2.3125 0.0625 3.5875
2.5 0 3.5875
2.4375 0 3.65
2.5 0.0625 3.65
2.5 0.125 3.5875
2.4375 0.125 3.65
2.4375 0 3.5875
2.5 0.0625 3.5875
2.4375 0.0625 3.65
2.4375 0.125 3.5875
2.4375 0.0625 3.5875
2.625 0 3.5875
2.5625 0 3.65
2.625 0.0625 3.65
2.625 0.125 3.5875
2.5625 0.125 3.65
2.5625 0 3.5875
2.625 0.0625 3.5875
2.5625 0.0625 3.65
2.5625 0.125 3.5875
2.5625 0.0625 3.5875
2.75 0 3.5875
2.6875 0 3.65
2.75 0.0625 3.65
2.75 0.125 3.5875
2.6875 0.125 3.65
2.6875 0 3.5875
2.75 0.0625 3.5875
2.6875 0.0625 3.65
2.6875 0.125 3.5875
2.6875 0.0625 3.5875
2.875 0 3.5875
2.8125 0 3.65
2.875 0.0625 3.65
2.875 0.125 3.5875
2.8125 0.125 3.65
2.8125 0 3.5875
2.875 0.0625 3.5875
2.8125 0.0625 3.65
2.8125 0.125 3.5875
2.8125 0.0625 3.5875
3 0 3.5875
2.9375 0 3.65
3 0.0625 3.65
3 0.125 3.5875
2.9375 0.125 3.65
2.9375 0 3.5875
3 0.0625 3.5875
2.9375 0.0625 3.65
2.9375 0.125 3.5875
2.9375 0.0625 3.5875
3.125 0 3.5875
3.0625 0 3.65
3.125 0.0625 3.65
3.125 0.125 3.5875
3.0625 0.125 3.65
3.0625 0 3.5875
3.125 0.0625 3.5875
3.0625 0.0625 3.65
3.0625 0.125 3.5875
3.0625 0.0625 3.5875
3.25 0 3.5875
3.1875 0 3.65
3.25 0.0625 3.65
3.25 0.125 3.5875
3.1875 0.125 3.65
3.1875 0 3.5875
3.25 0.0625 3.5875
3.1875 0.0625 3.65
3.1875 0.125 3.5875
3.1875 0.0625 3.5875
3.375 0 3.5875
3.3125 0 3.65
3.375 0.0625 3.65
3.375 0.125 3.5875
3.3125 0.125 3.65
3.3125 0 3.5875
3.375 0.0625 3.5875
3.3125 0.0625 3.65
3.3125 0.125 3.5875
3.3125 0.0625 3.5875
3.5 0 3.5875
3.4375 0 3.65
3.5 0.0625 3.65
3.5 0.125 3.5875
3.4375 0.125 3.65
3.4375 0 3.5875
3.5 0.0625 3.5875
3.4375 0.0625 3.65
3.4375 0.125 3.5875
3.4375 0.0625 3.5875
3.625 0 3.5875
3.5625 0 3.65
3.625 0.0625 3.65
3.625 0.125 3.5875
3.5625 0.125 3.65
3.5625 0 3.5875
3.625 0.0625 3.5875
3.5625 0.0625 3.65
3.5625 0.125 3.5875
3.5625 0.0625 3.5875
3.75 0 3.5875
3.6875 0 3.65
3.75 0.0625 3.65
3.75 0.125 3.5875
3.6875 0.125 3.65
3.6875 0 3.5875
3.75 0.0625 3.5875
3.6875 0.0625 3.65
3.6875 0.125 3.5875
3.6875 0.0625 3.5875
3.875 0 3.5875
3.8125 0 3.65
3.875 0.0625 3.65
3.875 0.125 3.5875
3.8125 0.125 3.65
3.8125 0 3.5875
3.875 0.0625 3.5875
3.8125 0.0625 3.65
3.8125 0.125 3.5875
3.8125 0.0625 3.5875
4 0 3.5875
3.9375 0 3.65
4 0.0625 3.65
4 0.125 3.5875
3.9375 0.125 3.65
3.9375 0 3.5875
4 0.0625 3.5875
3.9375 0.0625 3.65
3.9375 0.125 3.5875
3.9375 0.0625 3.5875
0.125 0.1875 3.65
0 0.1875 3.65
0.125 0.25 3.5875
0.0625 0.25 3.65
0 0.25 3.5875
0.125 0.1875 3.5875
0.0625 0.1875 3.65
0 0.1875 3.5875
0.0625 0.25 3.5875
0.0625 0.1875 3.5875
0.25 0.1875 3.65
0.25 0.25 3.5875
0.1875 0.25 3.65
0.25 0.1875 3.5875
0.1875 0.1875 3.65
0.1875 0.25 3.5875
0.1875 0.1875 3.5875
0.375 0.1875 3.65
0.375 0.25 3.5875
0.3125 0.25 3.65
0.375 0.1875 3.5875
0.3125 0.1875 3.65
0.3125 0.25 3.5875
0.3125 0.1875 3.5875
0.5 0.1875 3.65
0.5 0.25 3.5875
0.4375 0.25 3.65
0.5 0.1875 3.5875
0.4375 0.1875 3.65
0.4375 0.25 3.5875
0.4375 0.1875 3.5875
0.625 0.1875 3.65
0.625 0.25 3.5875
0.5625 0.25 3.65
0.625 0.1875 3.5875
0.5625 0.1875 3.65
0.5625 0.25 3.5875
0.5625 0.1875 3.5875
0.75 0.1875 3.65
0.75 0.25 3.5875
0.6875 0.25 3.65
0.75 0.1875 3.5875
0.6875 0.1875 3.65
0.6875 0.25 3.5875
0.6875 0.1875 3.5875
0.875 0.1875 3.65
0.875 0.25 3.5875
0.8125 0.25 3.65
0.875 0.1875 3.5875
0.8125 0.1875 3.65
0.8125 0.25 3.5875
0.8125 0.1875 3.5875
1 0.1875 3.65
1 0.25 3.5875
0.9375 0.25 3.65
1 0.1875 3.5875
0.9375 0.1875 3.65
0.9375 0.25 3.5875
0.9375 0.1875 3.5875
1.125 0.1875 3.65
1.125 0.25 3.5875
1.0625 0.25 3.65
1.125 0.1875 3.5875
1.0625 0.1875 3.65
1.0625 0.25 3.5875
1.0625 0.1875 3.5875
1.25 0.1875 3.65
1.25 0.25 3.5875
1.1875 0.25 3.65
1.25 0.1875 3.5875
1.1875 0.1875 3.65
1.1875 0.25 3.5875
1.1875 0.1875 3.5875
1.375 0.1875 3.65
1.375 0.25 3.5875
1.3125 0.25 3.65
1.375 0.1875 3.5875
1.3125 0.1875 3.65
1.3125 0.25 3.5875
1.3125 0.1875 3.5875
1.5 0.1875 3.65
1.5 0.25 3.5875
1.4375 0.25 3.65
1.5 0.1875 3.5875
1.4375 0.1875 3.65
1.4375 0.25 3.5875
1.4375 0.1875 3.5875
1.625 0.1875 3.65
1.625 0.25 3.5875
1.5625 0.25 3.65
1.625 0.1875 3.5875
1.5625 0.1875 3.65
1.5625 0.25 3.5875
1.5625 0.1875 3.5875
1.75 0.1875 3.65
1.75 0.25 3.5875
1.6875 0.25 3.65
1.75 0.1875 3.5875
1.6875 0.1875 3.65
1.6875 0.25 3.5875
1.6875 0.1875 3.5875
1.875 0.1875 3.65
1.875 0.25 3.5875
1.8125 0.25 3.65
1.875 0.1875 3.5875
1.8125 0.1875 3.65
1.8125 0.25 3.5875
1.8125 0.1875 3.5875
2 0.1875 3.65
2 0.25 3.5875
1.9375 0.25 3.65
2 0.1875 3.5875
1.9375 0.1875 3.65
1.9375 0.25 3.5875
1.9375 0.1875 3.5875
2.125 0.1875 3.65
2.125 0.25 3.5875
2.0625 0.25 3.65
2.125 0.1875 3.5875
2.0625 0.1875 3.65
2.0625 0.25 3.5875
2.0625 0.1875 3.5875
2.25 0.1875 3.65
2.25 0.25 3.5875
2.1875 0.25 3.65
2.25 0.1875 3.5875
2.1875 0.1875 3.65
2.1875 0.25 3.5875
2.1875 0.1875 3.5875
2.375 0.1875 3.65
2.375 0.25 3.5875
2.3125 0.25 3.65
2.375 0.1875 3.5875
2.3125 0.1875 3.65
2.3125 0.25 3.5875
2.3125 0.1875 3.5875
2.5 0.1875 3.65
2.5 0.25 3.5875
2.4375 0.25 3.65
2.5 0.1875 3.5875
2.4375 0.1875 3.65
2.4375 0.25 3.5875
2.4375 0.1875 3.5875
2.625 0.1875 3.65
2.625 0.25 3.5875
2.5625 0.25 3.65
2.625 0.1875 3.5875
2.5625 0.1875 3.65
2.5625 0.25 3.5875
2.5625 0.1875 3.5875
2.75 0.1875 3.65
2.75 0.25 3.5875
2.6875 0.25 3.65
2.75 0.1875 3.5875
2.6875 0.1875 3.65
2.6875 0.25 3.5875
2.6875 0.1875 3.5875
2.875 0.1875 3.65
2.875 0.25 3.5875
2.8125 0.25 3.65
2.875 0.1875 3.5875
2.8125 0.1875 3.65
2.8125 0.25 3.5875
2.8125 0.1875 3.5875
3 0.1875 3.65
3 0.25 3.5875
2.9375 0.25 3.65
3 0.1875 3.5875
2.9375 0.1875 3.65
2.9375 0.25 3.5875
2.9375 0.1875 3.5875
3.125 0.1875 3.65
3.125 0.25 3.5875
3.0625 0.25 3.65
3.125 0.1875 3.5875
3.0625 0.1875 3.65
3.0625 0.25 3.5875
3.0625 0.1875 3.5875
3.25 0.1875 3.65
3.25 0.25 3.5875
3.1875 0.25 3.65
3.25 0.1875 3.5875
3.1875 0.1875 3.65
3.1875 0.25 3.5875
3.1875 0.1875 3.5875
3.375 0.1875 3.65
3.375 0.25 3.5875
3.3125 0.25 3.65
3.375 0.1875 3.5875
3.3125 0.1875 3.65
3.3125 0.25 3.5875
3.3125 0.1875 3.5875
3.5 0.1875 3.65
3.5 0.25 3.5875
3.4375 0.25 3.65
3.5 0.1875 3.5875
3.4375 0.1875 3.65
3.4375 0.25 3.5875
3.4375 0.1875 3.5875
3.625 0.1875 3.65
3.625 0.25 3.5875
3.5625 0.25 3.65
3.625 0.1875 3.5875
3.5625 0.1875 3.65
3.5625 0.25 3.5875
3.5625 0.1875 3.5875
3.75 0.1875 3.65
3.75 0.25 3.5875
3.6875 0.25 3.65
3.75 0.1875 3.5875
3.6875 0.1875 3.65
3.6875 0.25 3.5875
3.6875 0.1875 3.5875
3.875 0.1875 3.65
3.875 0.25 3.5875
3.8125 0.25 3.65
3.875 0.1875 3.5875
3.8125 0.1875 3.65
3.8125 0.25 3.5875
3.8125 0.1875 3.5875
4 0.1875 3.65
4 0.25 3.5875
3.9375 0.25 3.65
4 0.1875 3.5875
3.9375 0.1875 3.65
3.9375 0.25 3.5875
3.9375 0.1875 3.5875
0.125 0.3125 3.65
0 0.3125 3.65
0.125 0.375 3.5875
0.0625 0.375 3.65
0 0.375 3.5875
0.125 0.3125 3.5875
0.0625 0.3125 3.65
0 0.3125 3.5875
0.0625 0.375 3.5875
0.0625 0.3125 3.5875
0.25 0.3125 3.65
0.25 0.375 3.5875
0.1875 0.375 3.65
0.25 0.3125 3.5875
0.1875 0.3125 3.65
0.1875 0.375 3.5875
0.1875 0.3125 3.5875
0.375 0.3125 3.65
0.375 0.375 3.5875
0.3125 0.375 3.65
0.375 0.3125 3.5875
0.3125 0.3125 3.65
0.3125 0.375 3.5875
0.3125 0.3125 3.5875
0.5 0.3125 3.65
0.5 0.375 3.5875
0.4375 0.375 3.65
0.5 0.3125 3.5875
0.4375 0.3125 3.65
0.4375 0.375 3.5875
0.4375 0.3125 3.5875
0.625 0.3125 3.65
0.625 0.375 3.5875
0.5625 0.375 3.65
0.625 0.3125 3.5875
0.5625 0.3125 3.65
0.5625 0.375 3.5875
0.5625 0.3125 3.5875
0.75 0.3125 3.65
0.75 0.375 3.5875
0.6875 0.375 3.65
0.75 0.3125 3.5875
0.6875 0.3125 3.65
0.6875 0.375 3.5875
0.6875 0.3125 3.5875
0.875 0.3125 3.65
0.875 0.375 3.5875
0.8125 0.375 3.65
0.875 0.3125 3.5875
0.8125 0.3125 3.65
0.8125 0.375 3.5875
0.8125 0.3125 3.5875
1 0.3125 3.65
1 0.375 3.5875
0.9375 0.375 3.65
1 0.3125 3.5875
0.9375 0.3125 3.65
0.9375 0.375 3.5875
0.9375 0.3125 3.5875
1.125 0.3125 3.65
1.125 0.375 3.5875
1.0625 0.375 3.65
1.125 0.3125 3.5875
1.0625 0.3125 3.65
1.0625 0.375 3.5875
1.0625 0.3125 3.5875
1.25 0.3125 3.65
1.25 0.375 3.5875
1.1875 0.375 3.65
1.25 0.3125 3.5875
1.1875 0.3125 3.65
1.1875 0.375 3.5875
1.1875 0.3125 3.5875
1.375 0.3125 3.65
1.375 0.375 3.5875
1.3125 0.375 3.65
1.375 0.3125 3.5875
1.3125 0.3125 3.65
1.3125 0.375 3.5875
1.3125 0.3125 3.5875
1.5 0.3125 3.65
1.5 0.375 3.5875
1.4375 0.375 3.65
1.5 0.3125 3.5875
1.4375 0.3125 3.65
1.4375 0.375 3.5875
1.4375 0.3125 3.5875
1.625 0.3125 3.65
1.625 0.375 3.5875
1.5625 0.375 3.65
1.625 0.3125 3.5875
1.5625 0.3125 3.65
1.5625 0.375 3.5875
1.5625 0.3125 3.5875
1.75 0.3125 3.65
1.75 0.375 3.5875
1.6875 0.375 3.65
1.75 0.3125 3.5875
1.6875 0.3125 3.65
1.6875 0.375 3.5875
1.6875 0.3125 3.5875
1.875 0.3125 3.65
1.875 0.375 3.5875
1.8125 0.375 3.65
1.875 0.3125 3.5875
1.8125 0.3125 3.65
1.8125 0.375 3.5875
1.8125 0.3125 3.5875
2 0.3125 3.65
2 0.375 3.5875
1.9375 0.375 3.65
2 0.3125 3.5875
1.9375 0.3125 3.65
1.9375 0.375 3.5875
1.9375 0.3125 3.5875
2.125 0.3125 3.65
2.125 0.375 3.5875
2.0625 0.375 3.65
2.125 0.3125 3.5875
2.0625 0.3125 3.65
2.0625 0.375 3.5875
2.0625 0.3125 3.5875
2.25 0.3125 3.65
2.25 0.375 3.5875
2.1875 0.375 3.65
2.25 0.3125 3.5875
2.1875 0.3125 3.65
2.1875 0.375 3.5875
2.1875 0.3125 3.5875
2.375 0.3125 3.65
2.375 0.375 3.5875
2.3125 0.375 3.65
2.375 0.3125 3.5875
2.3125 0.3125 3.65
2.3125 0.375 3.5875
2.3125 0.3125 3.5875
2.5 0.3125 3.65
2.5 0.375 3.5875
2.4375 0.375 3.65
2.5 0.3125 3.5875
2.4375 0.3125 3.65
2.4375 0.375 3.5875
2.4375 0.3125 3.5875
2.625 0.3125 3.65
2.625 0.375 3.5875
2.5625 0.375 3.65
2.625 0.3125 3.5875
2.5625 0.3125 3.65
2.5625 0.375 3.5875
2.5625 0.3125 3.5875
2.75 0.3125 3.65
2.75 0.375 3.5875
2.6875 0.375 3.65
2.75 0.3125 3.5875
2.6875 0.3125 3.65
2.6875 0.375 3.5875
2.6875 0.3125 3.5875
2.875 0.3125 3.65
2.875 0.375 3.5875
2.8125 0.375 3.65
2.875 0.3125 3.5875
2.8125 0.3125 3.65
2.8125 0.375 3.5875
2.8125 0.3125 3.5875
3 0.3125 3.65
3 0.375 3.5875
2.9375 0.375 3.65
3 0.3125 3.5875
2.9375 0.3125 3.65
2.9375 0.375 3.5875
2.9375 0.3125 3.5875
3.125 0.3125 3.65
3.125 0.375 3.5875
3.0625 0.375 3.65
3.125 0.3125 3.5875
3.0625 0.3125 3.65
3.0625 0.375 3.5875
3.0625 0.3125 3.5875
3.25 0.3125 3.65
3.25 0.375 3.5875
3.1875 0.375 3.65
3.25 0.3125 3.5875
3.1875 0.3125 3.65
3.1875 0.375 3.5875
3.1875 0.3125 3.5875
3.375 0.3125 3.65
3.375 0.375 3.5875
3.3125 0.375 3.65
3.375 0.3125 3.5875
3.3125 0.3125 3.65
3.3125 0.375 3.5875
3.3125 0.3125 3.5875
3.5 0.3125 3.65
3.5 0.375 3.5875
3.4375 0.375 3.65
3.5 0.3125 3.5875
3.4375 0.3125 3.65
3.4375 0.375 3.5875
3.4375 0.3125 3.5875
3.625 0.3125 3.65
3.625 0.375 3.5875
3.5625 0.375 3.65
3.625 0.3125 3.5875
3.5625 0.3125 3.65
3.5625 0.375 3.5875
3.5625 0.3125 3.5875
3.75 0.3125 3.65
3.75 0.375 3.5875
3.6875 0.375 3.65
3.75 0.3125 3.5875
3.6875 0.3125 3.65
3.6875 0.375 3.5875
3.6875 0.3125 3.5875
3.875 0.3125 3.65
3.875 0.375 3.5875
3.8125 0.375 3.65
3.875 0.3125 3.5875
3.8125 0.3125 3.65
3.8125 0.375 3.5875
3.8125 0.3125 3.5875
4 0.3125 3.65
4 0.375 3.5875
3.9375 0.375 3.65
4 0.3125 3.5875
3.9375 0.3125 3.65
3.9375 0.375 3.5875
3.9375 0.3125 3.5875
0.125 0.4375 3.65
0 0.4375 3.65
0.125 0.5 3.5875
0.0625 0.5 3.65
0 0.5 3.5875
0.125 0.4375 3.5875
0.0625 0.4375 3.65
0 0.4375 3.5875
0.0625 0.5 3.5875
0.0625 0.4375 3.5875
0.25 0.4375 3.65
0.25 0.5 3.5875
0.1875 0.5 3.65
0.25 0.4375 3.5875
0.1875 0.4375 3.65
0.1875 0.5 3.5875
0.1875 0.4375 3.5875
0.375 0.4375 3.65
0.375 0.5 3.5875
0.3125 0.5 3.65
0.375 0.4375 3.5875
0.3125 0.4375 3.65
0.3125 0.5 3.5875
0.3125 0.4375 3.5875
0.5 0.4375 3.65
0.5 0.5 3.5875
0.4375 0.5 3.65
0.5 0.4375 3.5875
0.4375 0.4375 3.65
0.4375 0.5 3.5875
0.4375 0.4375 3.5875
0.625 0.4375 3.65
0.625 0.5 3.5875
0.5625 0.5 3.65
0.625 0.4375 3.5875
0.5625 0.4375 3.65
0.5625 0.5 3.5875
0.5625 0.4375 3.5875
0.75 0.4375 3.65
0.75 0.5 3.5875
0.6875 0.5 3.65
0.75 0.4375 3.5875
0.6875 0.4375 3.65
0.6875 0.5 3.5875
0.6875 0.4375 3.5875
0.875 0.4375 3.65
0.875 0.5 3.5875
0.8125 0.5 3.65
0.875 0.4375 3.5875
0.8125 0.4375 3.65
0.8125 0.5 3.5875
0.8125 0.4375 3.5875
1 0.4375 3.65
1 0.5 3.5875
0.9375 0.5 3.65
1 0.4375 3.5875
0.9375 0.4375 3.65
0.9375 0.5 3.5875
0.9375 0.4375 3.5875
1.125 0.4375 3.65
1.125 0.5 3.5875
1.0625 0.5 3.65
1.125 0.4375 3.5875
1.0625 0.4375 3.65
1.0625 0.5 3.5875
1.0625 0.4375 3.5875
1.25 0.4375 3.65
1.25 0.5 3.5875
1.1875 0.5 3.65
1.25 0.4375 3.5875
1.1875 0.4375 3.65
1.1875 0.5 3.5875
1.1875 0.4375 3.5875
1.375 0.4375 3.65
1.375 0.5 3.5875
1.3125 0.5 3.65
1.375 0.4375 3.5875
1.3125 0.4375 3.65
1.3125 0.5 3.5875
1.3125 0.4375 3.5875
1.5 0.4375 3.65
1.5 0.5 3.5875
1.4375 0.5 3.65
1.5 0.4375 3.5875
1.4375 0.4375 3.65
1.4375 0.5 3.5875
1.4375 0.4375 3.5875
1.625 0.4375 3.65
1.625 0.5 3.5875
1.5625 0.5 3.65
1.625 0.4375 3.5875
1.5625 0.4375 3.65
1.5625 0.5 3.5875
1.5625 0.4375 3.5875
1.75 0.4375 3.65
1.75 0.5 3.5875
1.6875 0.5 3.65
1.75 0.4375 3.5875
1.6875 0.4375 3.65
1.6875 0.5 3.5875
1.6875 0.4375 3.5875
1.875 0.4375 3.65
1.875 0.5 3.5875
1.8125 0.5 3.65
1.875 0.4375 3.5875
1.8125 0.4375 3.65
1.8125 0.5 3.5875
1.8125 0.4375 3.5875
2 0.4375 3.65
2 0.5 3.5875
1.9375 0.5 3.65
2 0.4375 3.5875
1.9375 0.4375 3.65
1.9375 0.5 3.5875
1.9375 0.4375 3.5875
2.125 0.4375 3.65
2.125 0.5 3.5875
2.0625 0.5 3.65
2.125 0.4375 3.5875
2.0625 0.4375 3.65
2.0625 0.5 3.5875
2.0625 0.4375 3.5875
2.25 0.4375 3.65
2.25 0.5 3.5875
2.1875 0.5 3.65
2.25 0.4375 3.5875
2.1875 0.4375 3.65
2.1875 0.5 3.5875
2.1875 0.4375 3.5875
2.375 0.4375 3.65
2.375 0.5 3.5875
2.3125 0.5 3.65
2.375 0.4375 3.5875
2.3125 0.4375 3.65
2.3125 0.5 3.5875
2.3125 0.4375 3.5875
2.5 0.4375 3.65
2.5 0.5 3.5875
2.4375 0.5 3.65
2.5 0.4375 3.5875
2.4375 0.4375 3.65
2.4375 0.5 3.5875
2.4375 0.4375 3.5875
2.625 0.4375 3.65
2.625 0.5 3.5875
2.5625 0.5 3.65
2.625 0.4375 3.5875
2.5625 0.4375 3.65
2.5625 0.5 3.5875
2.5625 0.4375 3.5875
2.75 0.4375 3.65
2.75 0.5 3.5875
2.6875 0.5 3.65
2.75 0.4375 3.5875
2.6875 0.4375 3.65
2.6875 0.5 3.5875
2.6875 0.4375 3.5875
2.875 0.4375 3.65
2.875 0.5 3.5875
2.8125 0.5 3.65
2.875 0.4375 3.5875
2.8125 0.4375 3.65
2.8125 0.5 3.5875
2.8125 0.4375 3.5875
3 0.4375 3.65
3 0.5 3.5875
2.9375 0.5 3.65
3 0.4375 3.5875
2.9375 0.4375 3.65
2.9375 0.5 3.5875
2.9375 0.4375 3.5875
3.125 0.4375 3.65
3.125 0.5 3.5875
3.0625 0.5 3.65
3.125 0.4375 3.5875
3.0625 0.4375 3.65
3.0625 0.5 3.5875
3.0625 0.4375 3.5875
3.25 0.4375 3.65
3.25 0.5 3.5875
3.1875 0.5 3.65
3.25 0.4375 3.5875
3.1875 0.4375 3.65
3.1875 0.5 3.5875
3.1875 0.4375 3.5875
3.375 0.4375 3.65
3.375 0.5 3.5875
3.3125 0.5 3.65
3.375 0.4375 3.5875
3.3125 0.4375 3.65
3.3125 0.5 3.5875
3.3125 0.4375 3.5875
3.5 0.4375 3.65
3.5 0.5 3.5875
3.4375 0.5 3.65
3.5 0.4375 3.5875
3.4375 0.4375 3.65
3.4375 0.5 3.5875
3.4375 0.4375 3.5875
3.625 0.4375 3.65
3.625 0.5 3.5875
3.5625 0.5 3.65
3.625 0.4375 3.5875
3.5625 0.4375 3.65
3.5625 0.5 3.5875
3.5625 0.4375 3.5875
3.75 0.4375 3.65
3.75 0.5 3.5875
3.6875 0.5 3.65
3.75 0.4375 3.5875
3.6875 0.4375 3.65
3.6875 0.5 3.5875
3.6875 0.4375 3.5875
3.875 0.4375 3.65
3.875 0.5 3.5875
3.8125 0.5 3.65
3.875 0.4375 3.5875
3.8125 0.4375 3.65
3.8125 0.5 3.5875
3.8125 0.4375 3.5875
4 0.4375 3.65
4 0.5 3.5875
3.9375 0.5 3.65
4 0.4375 3.5875
3.9375 0.4375 3.65
3.9375 0.5 3.5875
3.9375 0.4375 3.5875
0.125 0.5625 3.65
0 0.5625 3.65
0.125 0.625 3.5875
0.0625 0.625 3.65
0 0.625 3.5875
0.125 0.5625 3.5875
0.0625 0.5625 3.65
0 0.5625 3.5875
0.0625 0.625 3.5875
0.0625 0.5625 3.5875
0.25 0.5625 3.65
0.25 0.625 3.5875
0.1875 0.625 3.65
0.25 0.5625 3.5875
0.1875 0.5625 3.65
0.1875 0.625 3.5875
0.1875 0.5625 3.5875
0.375 0.5625 3.65
0.375 0.625 3.5875
0.3125 0.625 3.65
0.375 0.5625 3.5875
0.3125 0.5625 3.65
0.3125 0.625 3.5875
0.3125 0.5625 3.5875
0.5 0.5625 3.65
0.5 0.625 3.5875
0.4375 0.625 3.65
0.5 0.5625 3.5875
0.4375 0.5625 3.65
0.4375 0.625 3.5875
0.4375 0.5625 3.5875
0.625 0.5625 3.65
0.625 0.625 3.5875
0.5625 0.625 3.65
0.625 0.5625 3.5875
0.5625 0.5625 3.65
0.5625 0.625 3.5875
0.5625 0.5625 3.5875
0.75 0.5625 3.65
0.75 0.625 3.5875
0.6875 0.625 3.65
0.75 0.5625 3.5875
0.6875 0.5625 3.65
0.6875 0.625 3.5875
0.6875 0.5625 3.5875
0.875 0.5625 3.65
0.875 0.625 3.5875
0.8125 0.625 3.65
0.875 0.5625 3.5875
0.8125 0.5625 3.65
0.8125 0.625 3.5875
0.8125 0.5625 3.5875
1 0.5625 3.65
1 0.625 3.5875
0.9375 0.625 3.65
1 0.5625 3.5875
0.9375 0.5625 3.65
0.9375 0.625 3.5875
0.9375 0.5625 3.5875
1.125 0.5625 3.65
1.125 0.625 3.5875
1.0625 0.625 3.65
1.125 0.5625 3.5875
1.0625 0.5625 3.65
1.0625 0.625 3.5875
1.0625 0.5625 3.5875
1.25 0.5625 3.65
1.25 0.625 3.5875
1.1875 0.625 3.65
1.25 0.5625 3.5875
1.1875 0.5625 3.65
1.1875 0.625 3.5875
1.1875 0.5625 3.5875
1.375 0.5625 3.65
1.375 0.625 3.5875
1.3125 0.625 3.65
1.375 0.5625 3.5875
1.3125 0.5625 3.65
1.3125 0.625 3.5875
1.3125 0.5625 3.5875
1.5 0.5625 3.65
1.5 0.625 3.5875
1.4375 0.625 3.65
1.5 0.5625 3.5875
1.4375 0.5625 3.65
1.4375 0.625 3.5875
1.4375 0.5625 3.5875
1.625 0.5625 3.65
1.625 0.625 3.5875
1.5625 0.625 3.65
1.625 0.5625 3.5875
1.5625 0.5625 3.65
1.5625 0.625 3.5875
1.5625 0.5625 3.5875
1.75 0.5625 3.65
1.75 0.625 3.5875
1.6875 0.625 3.65
1.75 0.5625 3.5875
1.6875 0.5625 3.65
1.6875 0.625 3.5875
1.6875 0.5625 3.5875
1.875 0.5625 3.65
1.875 0.625 3.5875
1.8125 0.625 3.65
1.875 0.5625 3.5875
1.8125 0.5625 3.65
1.8125 0.625 3.5875
1.8125 0.5625 3.5875
2 0.5625 3.65
2 0.625 3.5875
1.9375 0.625 3.65
2 0.5625 3.5875
1.9375 0.5625 3.65
1.9375 0.625 3.5875
1.9375 0.5625 3.5875
2.125 0.5625 3.65
2.125 0.625 3.5875
2.0625 0.625 3.65
2.125 0.5625 3.5875
2.0625 0.5625 3.65
2.0625 0.625 3.5875
2.0625 0.5625 3.5875
2.25 0.5625 3.65
2.25 0.625 3.5875
2.1875 0.625 3.65
2.25 0.5625 3.5875
2.1875 0.5625 3.65
2.1875 0.625 3.5875
2.1875 0.5625 3.5875
2.375 0.5625 3.65
2.375 0.625 3.5875
2.3125 0.625 3.65
2.375 0.5625 3.5875
2.3125 0.5625 3.65
2.3125 0.625 3.5875
2.3125 0.5625 3.5875
2.5 0.5625 3.65
2.5 0.625 3.5875
2.4375 0.625 3.65
2.5 0.5625 3.5875
2.4375 0.5625 3.65
2.4375 0.625 3.5875
2.4375 0.5625 3.5875
2.625 0.5625 3.65
2.625 0.625 3.5875
2.5625 0.625 3.65
2.625 0.5625 3.5875
2.5625 0.5625 3.65
2.5625 0.625 3.5875
2.5625 0.5625 3.5875
2.75 0.5625 3.65
2.75 0.625 3.5875
2.6875 0.625 3.65
2.75 0.5625 3.5875
2.6875 0.5625 3.65
2.6875 0.625 3.5875
2.6875 0.5625 3.5875
2.875 0.5625 3.65
2.875 0.625 3.5875
2.8125 0.625 3.65
2.875 0.5625 3.5875
2.8125 0.5625 3.65
2.8125 0.625 3.5875
2.8125 0.5625 3.5875
3 0.5625 3.65
3 0.625 3.5875
2.9375 0.625 3.65
3 0.5625 3.5875
2.9375 0.5625 3.65
2.9375 0.625 3.5875
2.9375 0.5625 3.5875
3.125 0.5625 3.65
3.125 0.625 3.5875
3.0625 0.625 3.65
3.125 0.5625 3.5875
3.0625 0.5625 3.65
3.0625 0.625 3.5875
3.0625 0.5625 3.5875
3.25 0.5625 3.65
3.25 0.625 3.5875
3.1875 0.625 3.65
3.25 0.5625 3.5875
3.1875 0.5625 3.65
3.1875 0.625 3.5875
3.1875 0.5625 3.5875
3.375 0.5625 3.65
3.375 0.625 3.5875
3.3125 0.625 3.65
3.375 0.5625 3.5875
3.3125 0.5625 3.65
3.3125 0.625 3.5875
3.3125 0.5625 3.5875
3.5 0.5625 3.65
3.5 0.625 3.5875
3.4375 0.625 3.65
3.5 0.5625 3.5875
3.4375 0.5625 3.65
3.4375 0.625 3.5875
3.4375 0.5625 3.5875
3.625 0.5625 3.65
3.625 0.625 3.5875
3.5625 0.625 3.65
3.625 0.5625 3.5875
3.5625 0.5625 3.65
3.5625 0.625 3.5875
3.5625 0.5625 3.5875
3.75 0.5625 3.65
3.75 0.625 3.5875
3.6875 0.625 3.65
3.75 0.5625 3.5875
3.6875 0.5625 3.65
3.6875 0.625 3.5875
3.6875 0.5625 3.5875
3.875 0.5625 3.65
3.875 0.625 3.5875
3.8125 0.625 3.65
3.875 0.5625 3.5875
3.8125 0.5625 3.65
3.8125 0.625 3.5875
3.8125 0.5625 3.5875
4 0.5625 3.65
4 0.625 3.5875
3.9375 0.625 3.65
4 0.5625 3.5875
3.9375 0.5625 3.65
3.9375 0.625 3.5875
3.9375 0.5625 3.5875
0.125 0.6875 3.65
0 0.6875 3.65
0.125 0.75 3.5875
0.0625 0.75 3.65
0 0.75 3.5875
0.125 0.6875 3.5875
0.0625 0.6875 3.65
0 0.6875 3.5875
0.0625 0.75 3.5875
0.0625 0.6875 3.5875
0.25 0.6875 3.65
0.25 0.75 3.5875
0.1875 0.75 3.65
0.25 0.6875 3.5875
0.1875 0.6875 3.65
0.1875 0.75 3.5875
0.1875 0.6875 3.5875
0.375 0.6875 3.65
0.375 0.75 3.5875
0.3125 0.75 3.65
0.375 0.6875 3.5875
0.3125 0.6875 3.65
0.3125 0.75 3.5875
0.3125 0.6875 3.5875
0.5 0.6875 3.65
0.5 0.75 3.5875
0.4375 0.75 3.65
0.5 0.6875 3.5875
0.4375 0.6875 3.65
0.4375 0.75 3.5875
0.4375 0.6875 3.5875
0.625 0.6875 3.65
0.625 0.75 3.5875
0.5625 0.75 3.65
0.625 0.6875 3.5875
0.5625 0.6875 3.65
0.5625 0.75 3.5875
0.5625 0.6875 3.5875
0.75 0.6875 3.65
0.75 0.75 3.5875
0.6875 0.75 3.65
0.75 0.6875 3.5875
0.6875 0.6875 3.65
0.6875 0.75 3.5875
0.6875 0.6875 3.5875
0.875 0.6875 3.65
0.875 0.75 3.5875
0.8125 0.75 3.65
0.875 0.6875 3.5875
0.8125 0.6875 3.65
0.8125 0.75 3.5875
0.8125 0.6875 3.5875
1 0.6875 3.65
1 0.75 3.5875
0.9375 0.75 3.65
1 0.6875 3.5875
0.9375 0.6875 3.65
0.9375 0.75 3.5875
0.9375 0.6875 3.5875
1.125 0.6875 3.65
1.125 0.75 3.5875
1.0625 0.75 3.65
1.125 0.6875 3.5875
1.0625 0.6875 3.65
1.0625 0.75 3.5875
1.0625 0.6875 3.5875
1.25 0.6875 3.65
1.25 0.75 3.5875
1.1875 0.75 3.65
1.25 0.6875 3.5875
1.1875 0.6875 3.65
1.1875 0.75 3.5875
1.1875 0.6875 3.5875
1.375 0.6875 3.65
1.375 0.75 3.5875
1.3125 0.75 3.65
1.375 0.6875 3.5875
1.3125 0.6875 3.65
1.3125 0.75 3.5875
1.3125 0.6875 3.5875
1.5 0.6875 3.65
1.5 0.75 3.5875
1.4375 0.75 3.65
1.5 0.6875 3.5875
1.4375 0.6875 3.65
1.4375 0.75 3.5875
1.4375 0.6875 3.5875
1.625 0.6875 3.65
1.625 0.75 3.5875
1.5625 0.75 3.65
1.625 0.6875 3.5875
1.5625 0.6875 3.65
1.5625 0.75 3.5875
1.5625 0.6875 3.5875
1.75 0.6875 3.65
1.75 0.75 3.5875
1.6875 0.75 3.65
1.75 0.6875 3.5875
1.6875 0.6875 3.65
1.6875 0.75 3.5875
1.6875 0.6875 3.5875
1.875 0.6875 3.65
1.875 0.75 3.5875
1.8125 0.75 3.65
1.875 0.6875 3.5875
1.8125 0.6875 3.65
1.8125 0.75 3.5875
1.8125 0.6875 3.5875
2 0.6875 3.65
2 0.75 3.5875
1.9375 0.75 3.65
2 0.6875 3.5875
1.9375 0.6875 3.65
1.9375 0.75 3.5875
1.9375 0.6875 3.5875
2.125 0.6875 3.65
2.125 0.75 3.5875
2.0625 0.75 3.65
2.125 0.6875 3.5875
2.0625 0.6875 3.65
2.0625 0.75 3.5875
2.0625 0.6875 3.5875
2.25 0.6875 3.65
2.25 0.75 3.5875
2.1875 0.75 3.65
2.25 0.6875 3.5875
2.1875 0.6875 3.65
2.1875 0.75 3.5875
2.1875 0.6875 3.5875
2.375 0.6875 3.65
2.375 0.75 3.5875
2.3125 0.75 3.65
2.375 0.6875 3.5875
2.3125 0.6875 3.65
2.3125 0.75 3.5875
2.3125 0.6875 3.5875
2.5 0.6875 3.65
2.5 0.75 3.5875
2.4375 0.75 3.65
2.5 0.6875 3.5875
2.4375 0.6875 3.65
2.4375 0.75 3.5875
2.4375 0.6875 3.5875
2.625 0.6875 3.65
2.625 0.75 3.5875
2.5625 0.75 3.65
2.625 0.6875 3.5875
2.5625 0.6875 3.65
2.5625 0.75 3.5875
2.5625 0.6875 3.5875
2.75 0.6875 3.65
2.75 0.75 3.5875
2.6875 0.75 3.65
2.75 0.6875 3.5875
2.6875 0.6875 3.65
2.6875 0.75 3.5875
2.6875 0.6875 3.5875
2.875 0.6875 3.65
2.875 0.75 3.5875
2.8125 0.75 3.65
2.875 0.6875 3.5875
2.8125 0.6875 3.65
2.8125 0.75 3.5875
2.8125 0.6875 3.5875
3 0.6875 3.65
3 0.75 3.5875
2.9375 0.75 3.65
3 0.6875 3.5875
2.9375 0.6875 3.65
2.9375 0.75 3.5875
2.9375 0.6875 3.5875
3.125 0.6875 3.65
3.125 0.75 3.5875
3.0625 0.75 3.65
3.125 0.6875 3.5875
3.0625 0.6875 3.65
3.0625 0.75 3.5875
3.0625 0.6875 3.5875
3.25 0.6875 3.65
3.25 0.75 3.5875
3.1875 0.75 3.65
3.25 0.6875 3.5875
3.1875 0.6875 3.65
3.1875 0.75 3.5875
3.1875 0.6875 3.5875
3.375 0.6875 3.65
3.375 0.75 3.5875
3.3125 0.75 3.65
3.375 0.6875 3.5875
3.3125 0.6875 3.65
3.3125 0.75 3.5875
3.3125 0.6875 3.5875
3.5 0.6875 3.65
3.5 0.75 3.5875
3.4375 0.75 3.65
3.5 0.6875 3.5875
3.4375 0.6875 3.65
3.4375 0.75 3.5875
3.4375 0.6875 3.5875
3.625 0.6875 3.65
3.625 0.75 3.5875
3.5625 0.75 3.65
3.625 0.6875 3.5875
3.5625 0.6875 3.65
3.5625 0.75 3.5875
3.5625 0.6875 3.5875
3.75 0.6875 3.65
3.75 0.75 3.5875
3.6875 0.75 3.65
3.75 0.6875 3.5875
3.6875 0.6875 3.65
3.6875 0.75 3.5875
3.6875 0.6875 3.5875
3.875 0.6875 3.65
3.875 0.75 3.5875
3.8125 0.75 3.65
3.875 0.6875 3.5875
3.8125 0.6875 3.65
3.8125 0.75 3.5875
3.8125 0.6875 3.5875
4 0.6875 3.65
4 0.75 3.5875
3.9375 0.75 3.65
4 0.6875 3.5875
3.9375 0.6875 3.65
3.9375 0.75 3.5875
3.9375 0.6875 3.5875
0.125 0.8125 3.65
0 0.8125 3.65
0.125 0.875 3.5875
0.0625 0.875 3.65
0 0.875 3.5875
0.125 0.8125 3.5875
0.0625 0.8125 3.65
0 0.8125 3.5875
0.0625 0.875 3.5875
0.0625 0.8125 3.5875
0.25 0.8125 3.65
0.25 0.875 3.5875
0.1875 0.875 3.65
0.25 0.8125 3.5875
0.1875 0.8125 3.65
0.1875 0.875 3.5875
0.1875 0.8125 3.5875
0.375 0.8125 3.65
0.375 0.875 3.5875
0.3125 0.875 3.65
0.375 0.8125 3.5875
0.3125 0.8125 3.65
0.3125 0.875 3.5875
0.3125 0.8125 3.5875
0.5 0.8125 3.65
0.5 0.875 3.5875
0.4375 0.875 3.65
0.5 0.8125 3.5875
0.4375 0.8125 3.65
0.4375 0.875 3.5875
0.4375 0.8125 3.5875
0.625 0.8125 3.65
0.625 0.875 3.5875
0.5625 0.875 3.65
0.625 0.8125 3.5875
0.5625 0.8125 3.65
0.5625 0.875 3.5875
0.5625 0.8125 3.5875
0.75 0.8125 3.65
0.75 0.875 3.5875
0.6875 0.875 3.65
0.75 0.8125 3.5875
0.6875 0.8125 3.65
0.6875 0.875 3.5875
0.6875 0.8125 3.5875
0.875 0.8125 3.65
0.875 0.875 3.5875
0.8125 0.875 3.65
0.875 0.8125 3.5875
0.8125 0.8125 3.65
0.8125 0.875 3.5875
0.8125 0.8125 3.5875
1 0.8125 3.65
1 0.875 3.5875
0.9375 0.875 3.65
1 0.8125 3.5875
0.9375 0.8125 3.65
0.9375 0.875 3.5875
0.9375 0.8125 3.5875
1.125 0.8125 3.65
1.125 0.875 3.5875
1.0625 0.875 3.65
1.125 0.8125 3.5875
1.0625 0.8125 3.65
1.0625 0.875 3.5875
1.0625 0.8125 3.5875
1.25 0.8125 3.65
1.25 0.875 3.5875
1.1875 0.875 3.65
1.25 0.8125 3.5875
1.1875 0.8125 3.65
1.1875 0.875 3.5875
1.1875 0.8125 3.5875
1.375 0.8125 3.65
1.375 0.875 3.5875
1.3125 0.875 3.65
1.375 0.8125 3.5875
1.3125 0.8125 3.65
1.3125 0.875 3.5875
1.3125 0.8125 3.5875
1.5 0.8125 3.65
1.5 0.875 3.5875
1.4375 0.875 3.65
1.5 0.8125 3.5875
1.4375 0.8125 3.65
1.4375 0.875 3.5875
1.4375 0.8125 3.5875
1.625 0.8125 3.65
1.625 0.875 3.5875
1.5625 0.875 3.65
1.625 0.8125 3.5875
1.5625 0.8125 3.65
1.5625 0.875 3.5875
1.5625 0.8125 3.5875
1.75 0.8125 3.65
1.75 0.875 3.5875
1.6875 0.875 3.65
1.75 0.8125 3.5875
1.6875 0.8125 3.65
1.6875 0.875 3.5875
1.6875 0.8125 3.5875
1.875 0.8125 3.65
1.875 0.875 3.5875
1.8125 0.875 3.65
1.875 0.8125 3.5875
1.8125 0.8125 3.65
1.8125 0.875 3.5875
1.8125 0.8125 3.5875
2 0.8125 3.65
2 0.875 3.5875
1.9375 0.875 3.65
2 0.8125 3.5875
1.9375 0.8125 3.65
1.9375 0.875 3.5875
1.9375 0.8125 3.5875
2.125 0.8125 3.65
2.125 0.875 3.5875
2.0625 0.875 3.65
2.125 0.8125 3.5875
2.0625 0.8125 3.65
2.0625 0.875 3.5875
2.0625 0.8125 3.5875
2.25 0.8125 3.65
2.25 0.875 3.5875
2.1875 0.875 3.65
2.25 0.8125 3.5875
2.1875 0.8125 3.65
2.1875 0.875 3.5875
2.1875 0.8125 3.5875
2.375 0.8125 3.65
2.375 0.875 3.5875
2.3125 0.875 3.65
2.375 0.8125 3.5875
2.3125 0.8125 3.65
2.3125 0.875 3.5875
2.3125 0.8125 3.5875
2.5 0.8125 3.65
2.5 0.875 3.5875
2.4375 0.875 3.65
2.5 0.8125 3.5875
2.4375 0.8125 3.65
2.4375 0.875 3.5875
2.4375 0.8125 3.5875
2.625 0.8125 3.65
2.625 0.875 3.5875
2.5625 0.875 3.65
2.625 0.8125 3.5875
2.5625 0.8125 3.65
2.5625 0.875 3.5875
2.5625 0.8125 3.5875
2.75 0.8125 3.65
2.75 0.875 3.5875
2.6875 0.875 3.65
2.75 0.8125 3.5875
2.6875 0.8125 3.65
2.6875 0.875 3.5875
2.6875 0.8125 3.5875
2.875 0.8125 3.65
2.875 0.875 3.5875
2.8125 0.875 3.65
2.875 0.8125 3.5875
2.8125 0.8125 3.65
2.8125 0.875 3.5875
2.8125 0.8125 3.5875
3 0.8125 3.65
3 0.875 3.5875
2.9375 0.875 3.65
3 0.8125 3.5875
2.9375 0.8125 3.65
2.9375 0.875 3.5875
2.9375 0.8125 3.5875
3.125 0.8125 3.65
3.125 0.875 3.5875
3.0625 0.875 3.65
3.125 0.8125 3.5875
3.0625 0.8125 3.65
3.0625 0.875 3.5875
3.0625 0.8125 3.5875
3.25 0.8125 3.65
3.25 0.875 3.5875
3.1875 0.875 3.65
3.25 0.8125 3.5875
3.1875 0.8125 3.65
3.1875 0.875 3.5875
3.1875 0.8125 3.5875
3.375 0.8125 3.65
3.375 0.875 3.5875
3.3125 0.875 3.65
3.375 0.8125 3.5875
3.3125 0.8125 3.65
3.3125 0.875 3.5875
3.3125 0.8125 3.5875
3.5 0.8125 3.65
3.5 0.875 3.5875
3.4375 0.875 3.65
3.5 0.8125 3.5875
3.4375 0.8125 3.65
3.4375 0.875 3.5875
3.4375 0.8125 3.5875
3.625 0.8125 3.65
3.625 0.875 3.5875
3.5625 0.875 3.65
3.625 0.8125 3.5875
3.5625 0.8125 3.65
3.5625 0.875 3.5875
3.5625 0.8125 3.5875
3.75 0.8125 3.65
3.75 0.875 3.5875
3.6875 0.875 3.65
3.75 0.8125 3.5875
3.6875 0.8125 3.65
3.6875 0.875 3.5875
3.6875 0.8125 3.5875
3.875 0.8125 3.65
3.875 0.875 3.5875
3.8125 0.875 3.65
3.875 0.8125 3.5875
3.8125 0.8125 3.65
3.8125 0.875 3.5875
3.8125 0.8125 3.5875
4 0.8125 3.65
4 0.875 3.5875
3.9375 0.875 3.65
4 0.8125 3.5875
3.9375 0.8125 3.65
3.9375 0.875 3.5875
3.9375 0.8125 3.5875
0.125 0.9375 3.65
0 0.9375 3.65
0.125 1 3.5875
0.0625 1 3.65
0 1 3.5875
0.125 0.9375 3.5875
0.0625 0.9375 3.65
0 0.9375 3.5875
0.0625 1 3.5875
0.0625 0.9375 3.5875
0.25 0.9375 3.65
0.25 1 3.5875
0.1875 1 3.65
0.25 0.9375 3.5875
0.1875 0.9375 3.65
0.1875 1 3.5875
0.1875 0.9375 3.5875
0.375 0.9375 3.65
0.375 1 3.5875
0.3125 1 3.65
0.375 0.9375 3.5875
0.3125 0.9375 3.65
0.3125 1 3.5875
0.3125 0.9375 3.5875
0.5 0.9375 3.65
0.5 1 3.5875
0.4375 1 3.65
0.5 0.9375 3.5875
0.4375 0.9375 3.65
0.4375 1 3.5875
0.4375 0.9375 3.5875
0.625 0.9375 3.65
0.625 1 3.5875
0.5625 1 3.65
0.625 0.9375 3.5875
0.5625 0.9375 3.65
0.5625 1 3.5875
0.5625 0.9375 3.5875
0.75 0.9375 3.65
0.75 1 3.5875
0.6875 1 3.65
0.75 0.9375 3.5875
0.6875 0.9375 3.65
0.6875 1 3.5875
0.6875 0.9375 3.5875
0.875 0.9375 3.65
0.875 1 3.5875
0.8125 1 3.65
0.875 0.9375 3.5875
0.8125 0.9375 3.65
0.8125 1 3.5875
0.8125 0.9375 3.5875
1 0.9375 3.65
1 1 3.5875
0.9375 1 3.65
1 0.9375 3.5875
0.9375 0.9375 3.65
0.9375 1 3.5875
0.9375 0.9375 3.5875
1.125 0.9375 3.65
1.125 1 3.5875
1.0625 1 3.65
1.125 0.9375 3.5875
1.0625 0.9375 3.65
1.0625 1 3.5875
1.0625 0.9375 3.5875
1.25 0.9375 3.65
1.25 1 3.5875
1.1875 1 3.65
1.25 0.9375 3.5875
1.1875 0.9375 3.65
1.1875 1 3.5875
1.1875 0.9375 3.5875
1.375 0.9375 3.65
1.375 1 3.5875
1.3125 1 3.65
1.375 0.9375 3.5875
1.3125 0.9375 3.65
1.3125 1 3.5875
1.3125 0.9375 3.5875
1.5 0.9375 3.65
1.5 1 3.5875
1.4375 1 3.65
1.5 0.9375 3.5875
1.4375 0.9375 3.65
1.4375 1 3.5875
1.4375 0.9375 3.5875
1.625 0.9375 3.65
1.625 1 3.5875
1.5625 1 3.65
1.625 0.9375 3.5875
1.5625 0.9375 3.65
1.5625 1 3.5875
1.5625 0.9375 3.5875
1.75 0.9375 3.65
1.75 1 3.5875
1.6875 1 3.65
1.75 0.9375 3.5875
1.6875 0.9375 3.65
1.6875 1 3.5875
1.6875 0.9375 3.5875
1.875 0.9375 3.65
1.875 1 3.5875
1.8125 1 3.65
1.875 0.9375 3.5875
1.8125 0.9375 3.65
1.8125 1 3.5875
1.8125 0.9375 3.5875
2 0.9375 3.65
2 1 3.5875
1.9375 1 3.65
2 0.9375 3.5875
1.9375 0.9375 3.65
1.9375 1 3.5875
1.9375 0.9375 3.5875
2.125 0.9375 3.65
2.125 1 3.5875
2.0625 1 3.65
2.125 0.9375 3.5875
2.0625 0.9375 3.65
2.0625 1 3.5875
2.0625 0.9375 3.5875
2.25 0.9375 3.65
2.25 1 3.5875
2.1875 1 3.65
2.25 0.9375 3.5875
2.1875 0.9375 3.65
2.1875 1 3.5875
2.1875 0.9375 3.5875
2.375 0.9375 3.65
2.375 1 3.5875
2.3125 1 3.65
2.375 0.9375 3.5875
2.3125 0.9375 3.65
2.3125 1 3.5875
2.3125 0.9375 3.5875
2.5 0.9375 3.65
2.5 1 3.5875
2.4375 1 3.65
2.5 0.9375 3.5875
2.4375 0.9375 3.65
2.4375 1 3.5875
2.4375 0.9375 3.5875
2.625 0.9375 3.65
2.625 1 3.5875
2.5625 1 3.65
2.625 0.9375 3.5875
2.5625 0.9375 3.65
2.5625 1 3.5875
2.5625 0.9375 3.5875
2.75 0.9375 3.65
2.75 1 3.5875
2.6875 1 3.65
2.75 0.9375 3.5875
2.6875 0.9375 3.65
2.6875 1 3.5875
2.6875 0.9375 3.5875
2.875 0.9375 3.65
2.875 1 3.5875
2.8125 1 3.65
2.875 0.9375 3.5875
2.8125 0.9375 3.65
2.8125 1 3.5875
2.8125 0.9375 3.5875
3 0.9375 3.65
3 1 3.5875
2.9375 1 3.65
3 0.9375 3.5875
2.9375 0.9375 3.65
2.9375 1 3.5875
2.9375 0.9375 3.5875
3.125 0.9375 3.65
3.125 1 3.5875
3.0625 1 3.65
3.125 0.9375 3.5875
3.0625 0.9375 3.65
3.0625 1 3.5875
3.0625 0.9375 3.5875
3.25 0.9375 3.65
3.25 1 3.5875
3.1875 1 3.65
3.25 0.9375 3.5875
3.1875 0.9375 3.65
3.1875 1 3.5875
3.1875 0.9375 3.5875
3.375 0.9375 3.65
3.375 1 3.5875
3.3125 1 3.65
3.375 0.9375 3.5875
3.3125 0.9375 3.65
3.3125 1 3.5875
3.3125 0.9375 3.5875
3.5 0.9375 3.65
3.5 1 3.5875
3.4375 1 3.65
3.5 0.9375 3.5875
3.4375 0.9375 3.65
3.4375 1 3.5875
3.4375 0.9375 3.5875
3.625 0.9375 3.65
3.625 1 3.5875
3.5625 1 3.65
3.625 0.9375 3.5875
3.5625 0.9375 3.65
3.5625 1 3.5875
3.5625 0.9375 3.5875
3.75 0.9375 3.65
3.75 1 3.5875
3.6875 1 3.65
3.75 0.9375 3.5875
3.6875 0.9375 3.65
3.6875 1 3.5875
3.6875 0.9375 3.5875
3.875 0.9375 3.65
3.875 1 3.5875
3.8125 1 3.65
3.875 0.9375 3.5875
3.8125 0.9375 3.65
3.8125 1 3.5875
3.8125 0.9375 3.5875
4 0.9375 3.65
4 1 3.5875
3.9375 1 3.65
4 0.9375 3.5875
3.9375 0.9375 3.65
3.9375 1 3.5875
3.9375 0.9375 3.5875
0.125 0 3.7125
0.0625 0 3.775
0 0 3.7125
0.125 0.0625 3.775
0 0.0625 3.775
0.125 0.125 3.7125
0.0625 0.125 3.775
0 0.125 3.7125
0.0625 0 3.7125
0.125 0.0625 3.7125
0.0625 0.0625 3.775
0 0.0625 3.7125
0.0625 0.125 3.7125
0.0625 0.0625 3.7125
0.25 0 3.7125
0.1875 0 3.775
0.25 0.0625 3.775
0.25 0.125 3.7125
0.1875 0.125 3.775
0.1875 0 3.7125
0.25 0.0625 3.7125
0.1875 0.0625 3.775
0.1875 0.125 3.7125
0.1875 0.0625 3.7125
0.375 0 3.7125
0.3125 0 3.775
0.375 0.0625 3.775
0.375 0.125 3.7125
0.3125 0.125 3.775
0.3125 0 3.7125
0.375 0.0625 3.7125
0.3125 0.0625 3.775
0.3125 0.125 3.7125
0.3125 0.0625 3.7125
0.5 0 3.7125
0.4375 0 3.775
0.5 0.0625 3.775
0.5 0.125 3.7125
0.4375 0.125 3.775
0.4375 0 3.7125
0.5 0.0625 3.7125
0.4375 0.0625 3.775
0.4375 0.125 3.7125
0.4375 0.0625 3.7125
0.625 0 3.7125
0.5625 0 3.775
0.625 0.0625 3.775
0.625 0.125 3.7125
0.5625 0.125 3.775
0.5625 0 3.7125
0.625 0.0625 3.7125
0.5625 0.0625 3.775
0.5625 0.125 3.7125
0.5625 0.0625 3.7125
0.75 0 3.7125
0.6875 0 3.775
0.75 0.0625 3.775
0.75 0.125 3.7125
0.6875 0.125 3.775
0.6875 0 3.7125
0.75 0.0625 3.7125
0.6875 0.0625 3.775
0.6875 0.125 3.7125
0.6875 0.0625 3.7125
0.875 0 3.7125
0.8125 0 3.775
0.875 0.0625 3.775
0.875 0.125 3.7125
0.8125 0.125 3.775
0.8125 0 3.7125
0.875 0.0625 3.7125
0.8125 0.0625 3.775
0.8125 0.125 3.7125
0.8125 0.0625 3.7125
1 0 3.7125
0.9375 0 3.775
1 0.0625 3.775
1 0.125 3.7125
0.9375 0.125 3.775
0.9375 0 3.7125
1 0.0625 3.7125
0.9375 0.0625 3.775
0.9375 0.125 3.7125
0.9375 0.0625 3.7125
1.125 0 3.7125
1.0625 0 3.775
1.125 0.0625 3.775
1.125 0.125 3.7125
1.0625 0.125 3.775
1.0625 0 3.7125
1.125 0.0625 3.7125
1.0625 0.0625 3.775
1.0625 0.125 3.7125
1.0625 0.0625 3.7125
1.25 0 3.7125
1.1875 0 3.775
1.25 0.0625 3.775
1.25 0.125 3.7125
1.1875 0.125 3.775
1.1875 0 3.7125
1.25 0.0625 3.7125
1.1875 0.0625 3.775
1.1875 0.125 3.7125
1.1875 0.0625 3.7125
1.375 0 3.7125
1.3125 0 3.775
1.375 0.0625 3.775
1.375 0.125 3.7125
1.3125 0.125 3.775
1.3125 0 3.7125
1.375 0.0625 3.7125
1.3125 0.0625 3.775
1.3125 0.125 3.7125
1.3125 0.0625 3.7125
1.5 0 3.7125
1.4375 0 3.775
1.5 0.0625 3.775
1.5 0.125 3.7125
1.4375 0.125 3.775
1.4375 0 3.7125
1.5 0.0625 3.7125
1.4375 0.0625 3.775
1.4375 0.125 3.7125
1.4375 0.0625 3.7125
1.625 0 3.7125
1.5625 0 3.775
1.625 0.0625 3.775
1.625 0.125 3.7125
1.5625 0.125 3.775
1.5625 0 3.7125
1.625 0.0625 3.7125
1.5625 0.0625 3.775
1.5625 0.125 3.7125
1.5625 0.0625 3.7125
1.75 0 3.7125
1.6875 0 3.775
1.75 0.0625 3.775
1.75 0.125 3.7125
1.6875 0.125 3.775
1.6875 0 3.7125
1.75 0.0625 3.7125
1.6875 0.0625 3.775
1.6875 0.125 3.7125
1.6875 0.0625 3.7125
1.875 0 3.7125
1.8125 0 3.775
1.875 0.0625 3.775
1.875 0.125 3.7125
1.8125 0.125 3.775
1.8125 0 3.7125
1.875 0.0625 3.7125
1.8125 0.0625 3.775
1.8125 0.125 3.7125
1.8125 0.0625 3.7125
2 0 3.7125
1.9375 0 3.775
2 0.0625 3.775
2 0.125 3.7125
1.9375 0.125 3.775
1.9375 0 3.7125
2 0.0625 3.7125
1.9375 0.0625 3.775
1.9375 0.125 3.7125
1.9375 0.0625 3.7125
2.125 0 3.7125
2.0625 0 3.775
2.125 0.0625 3.775
2.125 0.125 3.7125
2.0625 0.125 3.775
2.0625 0 3.7125
2.125 0.0625 3.7125
2.0625 0.0625 3.775
2.0625 0.125 3.7125
2.0625 0.0625 3.7125
2.25 0 3.7125
2.1875 0 3.775
2.25 0.0625 3.775
2.25 0.125 3.7125
2.1875 0.125 3.775
2.1875 0 3.7125
2.25 0.0625 3.7125
2.1875 0.0625 3.775
2.1875 0.125 3.7125
2.1875 0.0625 3.7125
2.375 0 3.7125
2.3125 0 3.775
2.375 0.0625 3.775
2.375 0.125 3.7125
2.3125 0.125 3.775
2.3125 0 3.7125
2.375 0.0625 3.7125
2.3125 0.0625 3.775
2.3125 0.125 3.7125
2.3125 0.0625 3.7125
2.5 0 3.7125
2.4375 0 3.775
2.5 0.0625 3.775
2.5 0.125 3.7125
2.4375 0.125 3.775
2.4375 0 3.7125
2.5 0.0625 3.7125
2.4375 0.0625 3.775
2.4375 0.125 3.7125
2.4375 0.0625 3.7125
2.625 0 3.7125
2.5625 0 3.775
2.625 0.0625 3.775
2.625 0.125 3.7125
2.5625 0.125 3.775
2.5625 0 3.7125
2.625 0.0625 3.7125
2.5625 0.0625 3.775
2.5625 0.125 3.7125
2.5625 0.0625 3.7125
2.75 0 3.7125
2.6875 0 3.775
2.75 0.0625 3.775
2.75 0.125 3.7125
2.6875 0.125 3.775
2.6875 0 3.7125
2.75 0.0625 3.7125
2.6875 0.0625 3.775
2.6875 0.125 3.7125
2.6875 0.0625 3.7125
2.875 0 3.7125
2.8125 0 3.775
2.875 0.0625 3.775
2.875 0.125 3.7125
2.8125 0.125 3.775
2.8125 0 3.7125
2.875 0.0625 3.7125
2.8125 0.0625 3.775
2.8125 0.125 3.7125
2.8125 0.0625 3.7125
3 0 3.7125
2.9375 0 3.775
3 0.0625 3.775
3 0.125 3.7125
2.9375 0.125 3.775
2.9375 0 3.7125
3 0.0625 3.7125
2.9375 0.0625 3.775
2.9375 0.125 3.7125
2.9375 0.0625 3.7125
3.125 0 3.7125
3.0625 0 3.775
3.125 0.0625 3.775
3.125 0.125 3.7125
3.0625 0.125 3.775
3.0625 0 3.7125
3.125 0.0625 3.7125
3.0625 0.0625 3.775
3.0625 0.125 3.7125
3.0625 0.0625 3.7125
3.25 0 3.7125
3.1875 0 3.775
3.25 0.0625 3.775
3.25 0.125 3.7125
3.1875 0.125 3.775
3.1875 0 3.7125
3.25 0.0625 3.7125
3.1875 0.0625 3.775
3.1875 0.125 3.7125
3.1875 0.0625 3.7125
3.375 0 3.7125
3.3125 0 3.775
3.375 0.0625 3.775
3.375 0.125 3.7125
3.3125 0.125 3.775
3.3125 0 3.7125
3.375 0.0625 3.7125
3.3125 0.0625 3.775
3.3125 0.125 3.7125
3.3125 0.0625 3.7125
3.5 0 3.7125
3.4375 0 3.775
3.5 0.0625 3.775
3.5 0.125 3.7125
3.4375 0.125 3.775
3.4375 0 3.7125
3.5 0.0625 3.7125
3.4375 0.0625 3.775
3.4375 0.125 3.7125
3.4375 0.0625 3.7125
3.625 0 3.7125
3.5625 0 3.775
3.625 0.0625 3.775
3.625 0.125 3.7125
3.5625 0.125 3.775
3.5625 0 3.7125
3.625 0.0625 3.7125
3.5625 0.0625 3.775
3.5625 0.125 3.7125
3.5625 0.0625 3.7125
3.75 0 3.7125
3.6875 0 3.775
3.75 0.0625 3.775
3.75 0.125 3.7125
3.6875 0.125 3.775
3.6875 0 3.7125
3.75 0.0625 3.7125
3.6875 0.0625 3.775
3.6875 0.125 3.7125
3.6875 0.0625 3.7125
3.875 0 3.7125
3.8125 0 3.775
3.875 0.0625 3.775
3.875 0.125 3.7125
3.8125 0.125 3.775
3.8125 0 3.7125
3.875 0.0625 3.7125
3.8125 0.0625 3.775
3.8125 0.125 3.7125
3.8125 0.0625 3.7125
4 0 3.7125
3.9375 0 3.775
4 0.0625 3.775
4 0.125 3.7125
3.9375 0.125 3.775
3.9375 0 3.7125
4 0.0625 3.7125
3.9375 0.0625 3.775
3.9375 0.125 3.7125
3.9375 0.0625 3.7125
0.125 0.1875 3.775
0 0.1875 3.775
0.125 0.25 3.7125
0.0625 0.25 3.775
0 0.25 3.7125
0.125 0.1875 3.7125
0.0625 0.1875 3.775
0 0.1875 3.7125
0.0625 0.25 3.7125
0.0625 0.1875 3.7125
0.25 0.1875 3.775
0.25 0.25 3.7125
0.1875 0.25 3.775
0.25 0.1875 3.7125
0.1875 0.1875 3.775
0.1875 0.25 3.7125
0.1875 0.1875 3.7125
0.375 0.1875 3.775
0.375 0.25 3.7125
0.3125 0.25 3.775
0.375 0.1875 3.7125
0.3125 0.1875 3.775
0.3125 0.25 3.7125
0.3125 0.1875 3.7125
0.5 0.1875 3.775
0.5 0.25 3.7125
0.4375 0.25 3.775
0.5 0.1875 3.7125
0.4375 0.1875 3.775
0.4375 0.25 3.7125
0.4375 0.1875 3.7125
0.625 0.1875 3.775
0.625 0.25 3.7125
0.5625 0.25 3.775
0.625 0.1875 3.7125
0.5625 0.1875 3.775
0.5625 0.25 3.7125
0.5625 0.1875 3.7125
0.75 0.1875 3.775
0.75 0.25 3.7125
0.6875 0.25 3.775
0.75 0.1875 3.7125
0.6875 0.1875 3.775
0.6875 0.25 3.7125
0.6875 0.1875 3.7125
0.875 0.1875 3.775
0.875 0.25 3.7125
0.8125 0.25 3.775
0.875 0.1875 3.7125
0.8125 0.1875 3.775
0.8125 0.25 3.7125
0.8125 0.1875 3.7125
1 0.1875 3.775
1 0.25 3.7125
0.9375 0.25 3.775
1 0.1875 3.7125
0.9375 0.1875 3.775
0.9375 0.25 3.7125
0.9375 0.1875 3.7125
1.125 0.1875 3.775
1.125 0.25 3.7125
1.0625 0.25 3.775
1.125 0.1875 3.7125
1.0625 0.1875 3.775
1.0625 0.25 3.7125
1.0625 0.1875 3.7125
1.25 0.1875 3.775
1.25 0.25 3.7125
1.1875 0.25 3.775
1.25 0.1875 3.7125
1.1875 0.1875 3.775
1.1875 0.25 3.7125
1.1875 0.1875 3.7125
1.375 0.1875 3.775
1.375 0.25 3.7125
1.3125 0.25 3.775
1.375 0.1875 3.7125
1.3125 0.1875 3.775
1.3125 0.25 3.7125
1.3125 0.1875 3.7125
1.5 0.1875 3.775
1.5 0.25 3.7125
1.4375 0.25 3.775
1.5 0.1875 3.7125
1.4375 0.1875 3.775
1.4375 0.25 3.7125
1.4375 0.1875 3.7125
1.625 0.1875 3.775
1.625 0.25 3.7125
1.5625 0.25 3.775
1.625 0.1875 3.7125
1.5625 0.1875 3.775
1.5625 0.25 3.7125
1.5625 0.1875 3.7125
1.75 0.1875 3.775
1.75 0.25 3.7125
1.6875 0.25 3.775
1.75 0.1875 3.7125
1.6875 0.1875 3.775
1.6875 0.25 3.7125
1.6875 0.1875 3.7125
1.875 0.1875 3.775
1.875 0.25 3.7125
1.8125 0.25 3.775
1.875 0.1875 3.7125
1.8125 0.1875 3.775
1.8125 0.25 3.7125
1.8125 0.1875 3.7125
2 0.1875 3.775
2 0.25 3.7125
1.9375 0.25 3.775
2 0.1875 3.7125
1.9375 0.1875 3.775
1.9375 0.25 3.7125
1.9375 0.1875 3.7125
2.125 0.1875 3.775
2.125 0.25 3.7125
2.0625 0.25 3.775
2.125 0.1875 3.7125
2.0625 0.1875 3.775
2.0625 0.25 3.7125
2.0625 0.1875 3.7125
2.25 0.1875 3.775
2.25 0.25 3.7125
2.1875 0.25 3.775
2.25 0.1875 3.7125
2.1875 0.1875 3.775
2.1875 0.25 3.7125
2.1875 0.1875 3.7125
2.375 0.1875 3.775
2.375 0.25 3.7125
2.3125 0.25 3.775
2.375 0.1875 3.7125
2.3125 0.1875 3.775
2.3125 0.25 3.7125
2.3125 0.1875 3.7125
2.5 0.1875 3.775
2.5 0.25 3.7125
2.4375 0.25 3.775
2.5 0.1875 3.7125
2.4375 0.1875 3.775
2.4375 0.25 3.7125
2.4375 0.1875 3.7125
2.625 0.1875 3.775
2.625 0.25 3.7125
2.5625 0.25 3.775
2.625 0.1875 3.7125
2.5625 0.1875 3.775
2.5625 0.25 3.7125
2.5625 0.1875 3.7125
2.75 0.1875 3.775
2.75 0.25 3.7125
2.6875 0.25 3.775
2.75 0.1875 3.7125
2.6875 0.1875 3.775
2.6875 0.25 3.7125
2.6875 0.1875 3.7125
2.875 0.1875 3.775
2.875 0.25 3.7125
2.8125 0.25 3.775
2.875 0.1875 3.7125
2.8125 0.1875 3.775
2.8125 0.25 3.7125
2.8125 0.1875 3.7125
3 0.1875 3.775
3 0.25 3.7125
2.9375 0.25 3.775
3 0.1875 3.7125
2.9375 0.1875 3.775
2.9375 0.25 3.7125
2.9375 0.1875 3.7125
3.125 0.1875 3.775
3.125 0.25 3.7125
3.0625 0.25 3.775
3.125 0.1875 3.7125
3.0625 0.1875 3.775
3.0625 0.25 3.7125
3.0625 0.1875 3.7125
3.25 0.1875 3.775
3.25 0.25 3.7125
3.1875 0.25 3.775
3.25 0.1875 3.7125
3.1875 0.1875 3.775
3.1875 0.25 3.7125
3.1875 0.1875 3.7125
3.375 0.1875 3.775
3.375 0.25 3.7125
3.3125 0.25 3.775
3.375 0.1875 3.7125
3.3125 0.1875 3.775
3.3125 0.25 3.7125
3.3125 0.1875 3.7125
3.5 0.1875 3.775
3.5 0.25 3.7125
3.4375 0.25 3.775
3.5 0.1875 3.7125
3.4375 0.1875 3.775
3.4375 0.25 3.7125
3.4375 0.1875 3.7125
3.625 0.1875 3.775
3.625 0.25 3.7125
3.5625 0.25 3.775
3.625 0.1875 3.7125
3.5625 0.1875 3.775
3.5625 0.25 3.7125
3.5625 0.1875 3.7125
3.75 0.1875 3.775
3.75 0.25 3.7125
3.6875 0.25 3.775
3.75 0.1875 3.7125
3.6875 0.1875 3.775
3.6875 0.25 3.7125
3.6875 0.1875 3.7125
3.875 0.1875 3.775
3.875 0.25 3.7125
3.8125 0.25 3.775
3.875 0.1875 3.7125
3.8125 0.1875 3.775
3.8125 0.25 3.7125
3.8125 0.1875 3.7125
4 0.1875 3.775
4 0.25 3.7125
3.9375 0.25 3.775
4 0.1875 3.7125
3.9375 0.1875 3.775
3.9375 0.25 3.7125
3.9375 0.1875 3.7125
0.125 0.3125 3.775
0 0.3125 3.775
0.125 0.375 3.7125
0.0625 0.375 3.775
0 0.375 3.7125
0.125 0.3125 3.7125
0.0625 0.3125 3.775
0 0.3125 3.7125
0.0625 0.375 3.7125
0.0625 0.3125 3.7125
0.25 0.3125 3.775
0.25 0.375 3.7125
0.1875 0.375 3.775
0.25 0.3125 3.7125
0.1875 0.3125 3.775
0.1875 0.375 3.7125
0.1875 0.3125 3.7125
0.375 0.3125 3.775
0.375 0.375 3.7125
0.3125 0.375 3.775
0.375 0.3125 3.7125
0.3125 0.3125 3.775
0.3125 0.375 3.7125
0.3125 0.3125 3.7125
0.5 0.3125 3.775
0.5 0.375 3.7125
0.4375 0.375 3.775
0.5 0.3125 3.7125
0.4375 0.3125 3.775
0.4375 0.375 3.7125
0.4375 0.3125 3.7125
0.625 0.3125 3.775
0.625 0.375 3.7125
0.5625 0.375 3.775
0.625 0.3125 3.7125
0.5625 0.3125 3.775
0.5625 0.375 3.7125
0.5625 0.3125 3.7125
0.75 0.3125 3.775
0.75 0.375 3.7125
0.6875 0.375 3.775
0.75 0.3125 3.7125
0.6875 0.3125 3.775
0.6875 0.375 3.7125
0.6875 0.3125 3.7125
0.875 0.3125 3.775
0.875 0.375 3.7125
0.8125 0.375 3.775
0.875 0.3125 3.7125
0.8125 0.3125 3.775
0.8125 0.375 3.7125
0.8125 0.3125 3.7125
1 0.3125 3.775
1 0.375 3.7125
0.9375 0.375 3.775
1 0.3125 3.7125
0.9375 0.3125 3.775
0.9375 0.375 3.7125
0.9375 0.3125 3.7125
1.125 0.3125 3.775
1.125 0.375 3.7125
1.0625 0.375 3.775
1.125 0.3125 3.7125
1.0625 0.3125 3.775
1.0625 0.375 3.7125
1.0625 0.3125 3.7125
1.25 0.3125 3.775
1.25 0.375 3.7125
1.1875 0.375 3.775
1.25 0.3125 3.7125
1.1875 0.3125 3.775
1.1875 0.375 3.7125
1.1875 0.3125 3.7125
1.375 0.3125 3.775
1.375 0.375 3.7125
1.3125 0.375 3.775
1.375 0.3125 3.7125
1.3125 0.3125 3.775
1.3125 0.375 3.7125
1.3125 0.3125 3.7125
1.5 0.3125 3.775
1.5 0.375 3.7125
1.4375 0.375 3.775
1.5 0.3125 3.7125
1.4375 0.3125 3.775
1.4375 0.375 3.7125
1.4375 0.3125 3.7125
1.625 0.3125 3.775
1.625 0.375 3.7125
1.5625 0.375 3.775
1.625 0.3125 3.7125
1.5625 0.3125 3.775
1.5625 0.375 3.7125
1.5625 0.3125 3.7125
1.75 0.3125 3.775
1.75 0.375 3.7125
1.6875 0.375 3.775
1.75 0.3125 3.7125
1.6875 0.3125 3.775
1.6875 0.375 3.7125
1.6875 0.3125 3.7125
1.875 0.3125 3.775
1.875 0.375 3.7125
1.8125 0.375 3.775
1.875 0.3125 3.7125
1.8125 0.3125 3.775
1.8125 0.375 3.7125
1.8125 0.3125 3.7125
2 0.3125 3.775
2 0.375 3.7125
1.9375 0.375 3.775
2 0.3125 3.7125
1.9375 0.3125 3.775
1.9375 0.375 3.7125
1.9375 0.3125 3.7125
2.125 0.3125 3.775
2.125 0.375 3.7125
2.0625 0.375 3.775
2.125 0.3125 3.7125
2.0625 0.3125 3.775
2.0625 0.375 3.7125
2.0625 0.3125 3.7125
2.25 0.3125 3.775
2.25 0.375 3.7125
2.1875 0.375 3.775
2.25 0.3125 3.7125
2.1875 0.3125 3.775
2.1875 0.375 3.7125
2.1875 0.3125 3.7125
2.375 0.3125 3.775
2.375 0.375 3.7125
2.3125 0.375 3.775
2.375 0.3125 3.7125
2.3125 0.3125 3.775
2.3125 0.375 3.7125
2.3125 0.3125 3.7125
2.5 0.3125 3.775
2.5 0.375 3.7125
2.4375 0.375 3.775
2.5 0.3125 3.7125
2.4375 0.3125 3.775
2.4375 0.375 3.7125
2.4375 0.3125 3.7125
2.625 0.3125 3.775
2.625 0.375 3.7125
2.5625 0.375 3.775
2.625 0.3125 3.7125
2.5625 0.3125 3.775
2.5625 0.375 3.7125
2.5625 0.3125 3.7125
2.75 0.3125 3.775
2.75 0.375 3.7125
2.6875 0.375 3.775
2.75 0.3125 3.7125
2.6875 0.3125 3.775
2.6875 0.375 3.7125
2.6875 0.3125 3.7125
2.875 0.3125 3.775
2.875 0.375 3.7125
2.8125 0.375 3.775
2.875 0.3125 3.7125
2.8125 0.3125 3.775
2.8125 0.375 3.7125
2.8125 0.3125 3.7125
3 0.3125 3.775
3 0.375 3.7125
2.9375 0.375 3.775
3 0.3125 3.7125
2.9375 0.3125 3.775
2.9375 0.375 3.7125
2.9375 0.3125 3.7125
3.125 0.3125 3.775
3.125 0.375 3.7125
3.0625 0.375 3.775
3.125 0.3125 3.7125
3.0625 0.3125 3.775
3.0625 0.375 3.7125
3.0625 0.3125 3.7125
3.25 0.3125 3.775
3.25 0.375 3.7125
3.1875 0.375 3.775
3.25 0.3125 3.7125
3.1875 0.3125 3.775
3.1875 0.375 3.7125
3.1875 0.3125 3.7125
3.375 0.3125 3.775
3.375 0.375 3.7125
3.3125 0.375 3.775
3.375 0.3125 3.7125
3.3125 0.3125 3.775
3.3125 0.375 3.7125
3.3125 0.3125 3.7125
3.5 0.3125 3.775
3.5 0.375 3.7125
3.4375 0.375 3.775
3.5 0.3125 3.7125
3.4375 0.3125 3.775
3.4375 0.375 3.7125
3.4375 0.3125 3.7125
3.625 0.3125 3.775
3.625 0.375 3.7125
3.5625 0.375 3.775
3.625 0.3125 3.7125
3.5625 0.3125 3.775
3.5625 0.375 3.7125
3.5625 0.3125 3.7125
3.75 0.3125 3.775
3.75 0.375 3.7125
3.6875 0.375 3.775
3.75 0.3125 3.7125
3.6875 0.3125 3.775
3.6875 0.375 3.7125
3.6875 0.3125 3.7125
3.875 0.3125 3.775
3.875 0.375 3.7125
3.8125 0.375 3.775
3.875 0.3125 3.7125
3.8125 0.3125 3.775
3.8125 0.375 3.7125
3.8125 0.3125 3.7125
4 0.3125 3.775
4 0.375 3.7125
3.9375 0.375 3.775
4 0.3125 3.7125
3.9375 0.3125 3.775
3.9375 0.375 3.7125
3.9375 0.3125 3.7125
0.125 0.4375 3.775
0 0.4375 3.775
0.125 0.5 3.7125
0.0625 0.5 3.775
0 0.5 3.7125
0.125 0.4375 3.7125
0.0625 0.4375 3.775
0 0.4375 3.7125
0.0625 0.5 3.7125
0.0625 0.4375 3.7125
0.25 0.4375 3.775
0.25 0.5 3.7125
0.1875 0.5 3.775
0.25 0.4375 3.7125
0.1875 0.4375 3.775
0.1875 0.5 3.7125
0.1875 0.4375 3.7125
0.375 0.4375 3.775
0.375 0.5 3.7125
0.3125 0.5 3.775
0.375 0.4375 3.7125
0.3125 0.4375 3.775
0.3125 0.5 3.7125
0.3125 0.4375 3.7125
0.5 0.4375 3.775
0.5 0.5 3.7125
0.4375 0.5 3.775
0.5 0.4375 3.7125
0.4375 0.4375 3.775
0.4375 0.5 3.7125
0.4375 0.4375 3.7125
0.625 0.4375 3.775
0.625 0.5 3.7125
0.5625 0.5 3.775
0.625 0.4375 3.7125
0.5625 0.4375 3.775
0.5625 0.5 3.7125
0.5625 0.4375 3.7125
0.75 0.4375 3.775
0.75 0.5 3.7125
0.6875 0.5 3.775
0.75 0.4375 3.7125
0.6875 0.4375 3.775
0.6875 0.5 3.7125
0.6875 0.4375 3.7125
0.875 0.4375 3.775
0.875 0.5 3.7125
0.8125 0.5 3.775
0.875 0.4375 3.7125
0.8125 0.4375 3.775
0.8125 0.5 3.7125
0.8125 0.4375 3.7125
1 0.4375 3.775
1 0.5 3.7125
0.9375 0.5 3.775
1 0.4375 3.7125
0.9375 0.4375 3.775
0.9375 0.5 3.7125
0.9375 0.4375 3.7125
1.125 0.4375 3.775
1.125 0.5 3.7125
1.0625 0.5 3.775
1.125 0.4375 3.7125
1.0625 0.4375 3.775
1.0625 0.5 3.7125
1.0625 0.4375 3.7125
1.25 0.4375 3.775
1.25 0.5 3.7125
1.1875 0.5 3.775
1.25 0.4375 3.7125
1.1875 0.4375 3.775
1.1875 0.5 3.7125
1.1875 0.4375 3.7125
1.375 0.4375 3.775
1.375 0.5 3.7125
1.3125 0.5 3.775
1.375 0.4375 3.7125
1.3125 0.4375 3.775
1.3125 0.5 3.7125
1.3125 0.4375 3.7125
1.5 0.4375 3.775
1.5 0.5 3.7125
1.4375 0.5 3.775
1.5 0.4375 3.7125
1.4375 0.4375 3.775
1.4375 0.5 3.7125
1.4375 0.4375 3.7125
1.625 0.4375 3.775
1.625 0.5 3.7125
1.5625 0.5 3.775
1.625 0.4375 3.7125
1.5625 0.4375 3.775
1.5625 0.5 3.7125
1.5625 0.4375 3.7125
1.75 0.4375 3.775
1.75 0.5 3.7125
1.6875 0.5 3.775
1.75 0.4375 3.7125
1.6875 0.4375 3.775
1.6875 0.5 3.7125
1.6875 0.4375 3.7125
1.875 0.4375 3.775
1.875 0.5 3.7125
1.8125 0.5 3.775
1.875 0.4375 3.7125
1.8125 0.4375 3.775
1.8125 0.5 3.7125
1.8125 0.4375 3.7125
2 0.4375 3.775
2 0.5 3.7125
1.9375 0.5 3.775
2 0.4375 3.7125
1.9375 0.4375 3.775
1.9375 0.5 3.7125
1.9375 0.4375 3.7125
2.125 0.4375 3.775
2.125 0.5 3.7125
2.0625 0.5 3.775
2.125 0.4375 3.7125
2.0625 0.4375 3.775
2.0625 0.5 3.7125
2.0625 0.4375 3.7125
2.25 0.4375 3.775
2.25 0.5 3.7125
2.1875 0.5 3.775
2.25 0.4375 3.7125
2.1875 0.4375 3.775
2.1875 0.5 3.7125
2.1875 0.4375 3.7125
2.375 0.4375 3.775
2.375 0.5 3.7125
2.3125 0.5 3.775
2.375 0.4375 3.7125
2.3125 0.4375 3.775
2.3125 0.5 3.7125
2.3125 0.4375 3.7125
2.5 0.4375 3.775
2.5 0.5 3.7125
2.4375 0.5 3.775
2.5 0.4375 3.7125
2.4375 0.4375 3.775
2.4375 0.5 3.7125
2.4375 0.4375 3.7125
2.625 0.4375 3.775
2.625 0.5 3.7125
2.5625 0.5 3.775
2.625 0.4375 3.7125
2.5625 0.4375 3.775
2.5625 0.5 3.7125
2.5625 0.4375 3.7125
2.75 0.4375 3.775
2.75 0.5 3.7125
2.6875 0.5 3.775
2.75 0.4375 3.7125
2.6875 0.4375 3.775
2.6875 0.5 3.7125
2.6875 0.4375 3.7125
2.875 0.4375 3.775
2.875 0.5 3.7125
2.8125 0.5 3.775
2.875 0.4375 3.7125
2.8125 0.4375 3.775
2.8125 0.5 3.7125
2.8125 0.4375 3.7125
3 0.4375 3.775
3 0.5 3.7125
2.9375 0.5 3.775
3 0.4375 3.7125
2.9375 0.4375 3.775
2.9375 0.5 3.7125
2.9375 0.4375 3.7125
3.125 0.4375 3.775
3.125 0.5 3.7125
3.0625 0.5 3.775
3.125 0.4375 3.7125
3.0625 0.4375 3.775
3.0625 0.5 3.7125
3.0625 0.4375 3.7125
3.25 0.4375 3.775
3.25 0.5 3.7125
3.1875 0.5 3.775
3.25 0.4375 3.7125
3.1875 0.4375 3.775
3.1875 0.5 3.7125
3.1875 0.4375 3.7125
3.375 0.4375 3.775
3.375 0.5 3.7125
3.3125 0.5 3.775
3.375 0.4375 3.7125
3.3125 0.4375 3.775
3.3125 0.5 3.7125
3.3125 0.4375 3.7125
3.5 0.4375 3.775
3.5 0.5 3.7125
3.4375 0.5 3.775
3.5 0.4375 3.7125
3.4375 0.4375 3.775
3.4375 0.5 3.7125
3.4375 0.4375 3.7125
3.625 0.4375 3.775
3.625 0.5 3.7125
3.5625 0.5 3.775
3.625 0.4375 3.7125
3.5625 0.4375 3.775
3.5625 0.5 3.7125
3.5625 0.4375 3.7125
3.75 0.4375 3.775
3.75 0.5 3.7125
3.6875 0.5 3.775
3.75 0.4375 3.7125
3.6875 0.4375 3.775
3.6875 0.5 3.7125
3.6875 0.4375 3.7125
3.875 0.4375 3.775
3.875 0.5 3.7125
3.8125 0.5 3.775
3.875 0.4375 3.7125
3.8125 0.4375 3.775
3.8125 0.5 3.7125
3.8125 0.4375 3.7125
4 0.4375 3.775
4 0.5 3.7125
3.9375 0.5 3.775
4 0.4375 3.7125
3.9375 0.4375 3.775
3.9375 0.5 3.7125
3.9375 0.4375 3.7125
0.125 0.5625 3.775
0 0.5625 3.775
0.125 0.625 3.7125
0.0625 0.625 3.775
0 0.625 3.7125
0.125 0.5625 3.7125
0.0625 0.5625 3.775
0 0.5625 3.7125
0.0625 0.625 3.7125
0.0625 0.5625 3.7125
0.25 0.5625 3.775
0.25 0.625 3.7125
0.1875 0.625 3.775
0.25 0.5625 3.7125
0.1875 0.5625 3.775
0.1875 0.625 3.7125
0.1875 0.5625 3.7125
0.375 0.5625 3.775
0.375 0.625 3.7125
0.3125 0.625 3.775
0.375 0.5625 3.7125
0.3125 0.5625 3.775
0.3125 0.625 3.7125
0.3125 0.5625 3.7125
0.5 0.5625 3.775
0.5 0.625 3.7125
0.4375 0.625 3.775
0.5 0.5625 3.7125
0.4375 0.5625 3.775
0.4375 0.625 3.7125
0.4375 0.5625 3.7125
0.625 0.5625 3.775
0.625 0.625 3.7125
0.5625 0.625 3.775
0.625 0.5625 3.7125
0.5625 0.5625 3.775
0.5625 0.625 3.7125
0.5625 0.5625 3.7125
0.75 0.5625 3.775
0.75 0.625 3.7125
0.6875 0.625 3.775
0.75 0.5625 3.7125
0.6875 0.5625 3.775
0.6875 0.625 3.7125
0.6875 0.5625 3.7125
0.875 0.5625 3.775
0.875 0.625 3.7125
0.8125 0.625 3.775
0.875 0.5625 3.7125
0.8125 0.5625 3.775
0.8125 0.625 3.7125
0.8125 0.5625 3.7125
1 0.5625 3.775
1 0.625 3.7125
0.9375 0.625 3.775
1 0.5625 3.7125
0.9375 0.5625 3.775
0.9375 0.625 3.7125
0.9375 0.5625 3.7125
1.125 0.5625 3.775
1.125 0.625 3.7125
1.0625 0.625 3.775
1.125 0.5625 3.7125
1.0625 0.5625 3.775
1.0625 0.625 3.7125
1.0625 0.5625 3.7125
1.25 0.5625 3.775
1.25 0.625 3.7125
1.1875 0.625 3.775
1.25 0.5625 3.7125
1.1875 0.5625 3.775
1.1875 0.625 3.7125
1.1875 0.5625 3.7125
1.375 0.5625 3.775
1.375 0.625 3.7125
1.3125 0.625 3.775
1.375 0.5625 3.7125
1.3125 0.5625 3.775
1.3125 0.625 3.7125
1.3125 0.5625 3.7125
1.5 0.5625 3.775
1.5 0.625 3.7125
1.4375 0.625 3.775
1.5 0.5625 3.7125
1.4375 0.5625 3.775
1.4375 0.625 3.7125
1.4375 0.5625 3.7125
1.625 0.5625 3.775
1.625 0.625 3.7125
1.5625 0.625 3.775
1.625 0.5625 3.7125
1.5625 0.5625 3.775
1.5625 0.625 3.7125
1.5625 0.5625 3.7125
1.75 0.5625 3.775
1.75 0.625 3.7125
1.6875 0.625 3.775
1.75 0.5625 3.7125
1.6875 0.5625 3.775
1.6875 0.625 3.7125
1.6875 0.5625 3.7125
1.875 0.5625 3.775
1.875 0.625 3.7125
1.8125 0.625 3.775
1.875 0.5625 3.7125
1.8125 0.5625 3.775
1.8125 0.625 3.7125
1.8125 0.5625 3.7125
2 0.5625 3.775
2 0.625 3.7125
1.9375 0.625 3.775
2 0.5625 3.7125
1.9375 0.5625 3.775
1.9375 0.625 3.7125
1.9375 0.5625 3.7125
2.125 0.5625 3.775
2.125 0.625 3.7125
2.0625 0.625 3.775
2.125 0.5625 3.7125
2.0625 0.5625 3.775
2.0625 0.625 3.7125
2.0625 0.5625 3.7125
2.25 0.5625 3.775
2.25 0.625 3.7125
2.1875 0.625 3.775
2.25 0.5625 3.7125
2.1875 0.5625 3.775
2.1875 0.625 3.7125
2.1875 0.5625 3.7125
2.375 0.5625 3.775
2.375 0.625 3.7125
2.3125 0.625 3.775
2.375 0.5625 3.7125
2.3125 0.5625 3.775
2.3125 0.625 3.7125
2.3125 0.5625 3.7125
2.5 0.5625 3.775
2.5 0.625 3.7125
2.4375 0.625 3.775
2.5 0.5625 3.7125
2.4375 0.5625 3.775
2.4375 0.625 3.7125
2.4375 0.5625 3.7125
2.625 0.5625 3.775
2.625 0.625 3.7125
2.5625 0.625 3.775
2.625 0.5625 3.7125
2.5625 0.5625 3.775
2.5625 0.625 3.7125
2.5625 0.5625 3.7125
2.75 0.5625 3.775
2.75 0.625 3.7125
2.6875 0.625 3.775
2.75 0.5625 3.7125
2.6875 0.5625 3.775
2.6875 0.625 3.7125
2.6875 0.5625 3.7125
2.875 0.5625 3.775
2.875 0.625 3.7125
2.8125 0.625 3.775
2.875 0.5625 3.7125
2.8125 0.5625 3.775
2.8125 0.625 3.7125
2.8125 0.5625 3.7125
3 0.5625 3.775
3 0.625 3.7125
2.9375 0.625 3.775
3 0.5625 3.7125
2.9375 0.5625 3.775
2.9375 0.625 3.7125
2.9375 0.5625 3.7125
3.125 0.5625 3.775
3.125 0.625 3.7125
3.0625 0.625 3.775
3.125 0.5625 3.7125
3.0625 0.5625 3.775
3.0625 0.625 3.7125
3.0625 0.5625 3.7125
3.25 0.5625 3.775
3.25 0.625 3.7125
3.1875 0.625 3.775
3.25 0.5625 3.7125
3.1875 0.5625 3.775
3.1875 0.625 3.7125
3.1875 0.5625 3.7125
3.375 0.5625 3.775
3.375 0.625 3.7125
3.3125 0.625 3.775
3.375 0.5625 3.7125
3.3125 0.5625 3.775
3.3125 0.625 3.7125
3.3125 0.5625 3.7125
3.5 0.5625 3.775
3.5 0.625 3.7125
3.4375 0.625 3.775
3.5 0.5625 3.7125
3.4375 0.5625 3.775
3.4375 0.625 3.7125
3.4375 0.5625 3.7125
3.625 0.5625 3.775
3.625 0.625 3.7125
3.5625 0.625 3.775
3.625 0.5625 3.7125
3.5625 0.5625 3.775
3.5625 0.625 3.7125
3.5625 0.5625 3.7125
3.75 0.5625 3.775
3.75 0.625 3.7125
3.6875 0.625 3.775
3.75 0.5625 3.7125
3.6875 0.5625 3.775
3.6875 0.625 3.7125
3.6875 0.5625 3.7125
3.875 0.5625 3.775
3.875 0.625 3.7125
3.8125 0.625 3.775
3.875 0.5625 3.7125
3.8125 0.5625 3.775
3.8125 0.625 3.7125
3.8125 0.5625 3.7125
4 0.5625 3.775
4 0.625 3.7125
3.9375 0.625 3.775
4 0.5625 3.7125
3.9375 0.5625 3.775
3.9375 0.625 3.7125
3.9375 0.5625 3.7125
0.125 0.6875 3.775
0 0.6875 3.775
0.125 0.75 3.7125
0.0625 0.75 3.775
0 0.75 3.7125
0.125 0.6875 3.7125
0.0625 0.6875 3.775
0 0.6875 3.7125
0.0625 0.75 3.7125
0.0625 0.6875 3.7125
0.25 0.6875 3.775
0.25 0.75 3.7125
0.1875 0.75 3.775
0.25 0.6875 3.7125
0.1875 0.6875 3.775
0.1875 0.75 3.7125
0.1875 0.6875 3.7125
0.375 0.6875 3.775
0.375 0.75 3.7125
0.3125 0.75 3.775
0.375 0.6875 3.7125
0.3125 0.6875 3.775
0.3125 0.75 3.7125
0.3125 0.6875 3.7125
0.5 0.6875 3.775
0.5 0.75 3.7125
0.4375 0.75 3.775
0.5 0.6875 3.7125
0.4375 0.6875 3.775
0.4375 0.75 3.7125
0.4375 0.6875 3.7125
0.625 0.6875 3.775
0.625 0.75 3.7125
0.5625 0.75 3.775
0.625 0.6875 3.7125
0.5625 0.6875 3.775
0.5625 0.75 3.7125
0.5625 0.6875 3.7125
0.75 0.6875 3.775
0.75 0.75 3.7125
0.6875 0.75 3.775
0.75 0.6875 3.7125
0.6875 0.6875 3.775
0.6875 0.75 3.7125
0.6875 0.6875 3.7125
0.875 0.6875 3.775
0.875 0.75 3.7125
0.8125 0.75 3.775
0.875 0.6875 3.7125
0.8125 0.6875 3.775
0.8125 0.75 3.7125
0.8125 0.6875 3.7125
1 0.6875 3.775
1 0.75 3.7125
0.9375 0.75 3.775
1 0.6875 3.7125
0.9375 0.6875 3.775
0.9375 0.75 3.7125
0.9375 0.6875 3.7125
1.125 0.6875 3.775
1.125 0.75 3.7125
1.0625 0.75 3.775
1.125 0.6875 3.7125
1.0625 0.6875 3.775
1.0625 0.75 3.7125
1.0625 0.6875 3.7125
1.25 0.6875 3.775
1.25 0.75 3.7125
1.1875 0.75 3.775
1.25 0.6875 3.7125
1.1875 0.6875 3.775
1.1875 0.75 3.7125
1.1875 0.6875 3.7125
1.375 0.6875 3.775
1.375 0.75 3.7125
1.3125 0.75 3.775
1.375 0.6875 3.7125
1.3125 0.6875 3.775
1.3125 0.75 3.7125
1.3125 0.6875 3.7125
1.5 0.6875 3.775
1.5 0.75 3.7125
1.4375 0.75 3.775
1.5 0.6875 3.7125
1.4375 0.6875 3.775
1.4375 0.75 3.7125
1.4375 0.6875 3.7125
1.625 0.6875 3.775
1.625 0.75 3.7125
1.5625 0.75 3.775
1.625 0.6875 3.7125
1.5625 0.6875 3.775
1.5625 0.75 3.7125
1.5625 0.6875 3.7125
1.75 0.6875 3.775
1.75 0.75 3.7125
1.6875 0.75 3.775
1.75 0.6875 3.7125
1.6875 0.6875 3.775
1.6875 0.75 3.7125
1.6875 0.6875 3.7125
1.875 0.6875 3.775
1.875 0.75 3.7125
1.8125 0.75 3.775
1.875 0.6875 3.7125
1.8125 0.6875 3.775
1.8125 0.75 3.7125
1.8125 0.6875 3.7125
2 0.6875 3.775
2 0.75 3.7125
1.9375 0.75 3.775
2 0.6875 3.7125
1.9375 0.6875 3.775
1.9375 0.75 3.7125
1.9375 0.6875 3.7125
2.125 0.6875 3.775
2.125 0.75 3.7125
2.0625 0.75 3.775
2.125 0.6875 3.7125
2.0625 0.6875 3.775
2.0625 0.75 3.7125
2.0625 0.6875 3.7125
2.25 0.6875 3.775
2.25 0.75 3.7125
2.1875 0.75 3.775
2.25 0.6875 3.7125
2.1875 0.6875 3.775
2.1875 0.75 3.7125
2.1875 0.6875 3.7125
2.375 0.6875 3.775
2.375 0.75 3.7125
2.3125 0.75 3.775
2.375 0.6875 3.7125
2.3125 0.6875 3.775
2.3125 0.75 3.7125
2.3125 0.6875 3.7125
2.5 0.6875 3.775
2.5 0.75 3.7125
2.4375 0.75 3.775
2.5 0.6875 3.7125
2.4375 0.6875 3.775
2.4375 0.75 3.7125
2.4375 0.6875 3.7125
2.625 0.6875 3.775
2.625 0.75 3.7125
2.5625 0.75 3.775
2.625 0.6875 3.7125
2.5625 0.6875 3.775
2.5625 0.75 3.7125
2.5625 0.6875 3.7125
2.75 0.6875 3.775
2.75 0.75 3.7125
2.6875 0.75 3.775
2.75 0.6875 3.7125
2.6875 0.6875 3.775
2.6875 0.75 3.7125
2.6875 0.6875 3.7125
2.875 0.6875 3.775
2.875 0.75 3.7125
2.8125 0.75 3.775
2.875 0.6875 3.7125
2.8125 0.6875 3.775
2.8125 0.75 3.7125
2.8125 0.6875 3.7125
3 0.6875 3.775
3 0.75 3.7125
2.9375 0.75 3.775
3 0.6875 3.7125
2.9375 0.6875 3.775
2.9375 0.75 3.7125
2.9375 0.6875 3.7125
3.125 0.6875 3.775
3.125 0.75 3.7125
3.0625 0.75 3.775
3.125 0.6875 3.7125
3.0625 0.6875 3.775
3.0625 0.75 3.7125
3.0625 0.6875 3.7125
3.25 0.6875 3.775
3.25 0.75 3.7125
3.1875 0.75 3.775
3.25 0.6875 3.7125
3.1875 0.6875 3.775
3.1875 0.75 3.7125
3.1875 0.6875 3.7125
3.375 0.6875 3.775
3.375 0.75 3.7125
3.3125 0.75 3.775
3.375 0.6875 3.7125
3.3125 0.6875 3.775
3.3125 0.75 3.7125
3.3125 0.6875 3.7125
3.5 0.6875 3.775
3.5 0.75 3.7125
3.4375 0.75 3.775
3.5 0.6875 3.7125
3.4375 0.6875 3.775
3.4375 0.75 3.7125
3.4375 0.6875 3.7125
3.625 0.6875 3.775
3.625 0.75 3.7125
3.5625 0.75 3.775
3.625 0.6875 3.7125
3.5625 0.6875 3.775
3.5625 0.75 3.7125
3.5625 0.6875 3.7125
3.75 0.6875 3.775
3.75 0.75 3.7125
3.6875 0.75 3.775
3.75 0.6875 3.7125
3.6875 0.6875 3.775
3.6875 0.75 3.7125
3.6875 0.6875 3.7125
3.875 0.6875 3.775
3.875 0.75 3.7125
3.8125 0.75 3.775
3.875 0.6875 3.7125
3.8125 0.6875 3.775
3.8125 0.75 3.7125
3.8125 0.6875 3.7125
4 0.6875 3.775
4 0.75 3.7125
3.9375 0.75 3.775
4 0.6875 3.7125
3.9375 0.6875 3.775
3.9375 0.75 3.7125
3.9375 0.6875 3.7125
0.125 0.8125 3.775
0 0.8125 3.775
0.125 0.875 3.7125
0.0625 0.875 3.775
0 0.875 3.7125
0.125 0.8125 3.7125
0.0625 0.8125 3.775
0 0.8125 3.7125
0.0625 0.875 3.7125
0.0625 0.8125 3.7125
0.25 0.8125 3.775
0.25 0.875 3.7125
0.1875 0.875 3.775
0.25 0.8125 3.7125
0.1875 0.8125 3.775
0.1875 0.875 3.7125
0.1875 0.8125 3.7125
0.375 0.8125 3.775
0.375 0.875 3.7125
0.3125 0.875 3.775
0.375 0.8125 3.7125
0.3125 0.8125 3.775
0.3125 0.875 3.7125
0.3125 0.8125 3.7125
0.5 0.8125 3.775
0.5 0.875 3.7125
0.4375 0.875 3.775
0.5 0.8125 3.7125
0.4375 0.8125 3.775
0.4375 0.875 3.7125
0.4375 0.8125 3.7125
0.625 0.8125 3.775
0.625 0.875 3.7125
0.5625 0.875 3.775
0.625 0.8125 3.7125
0.5625 0.8125 3.775
0.5625 0.875 3.7125
0.5625 0.8125 3.7125
0.75 0.8125 3.775
0.75 0.875 3.7125
0.6875 0.875 3.775
0.75 0.8125 3.7125
0.6875 0.8125 3.775
0.6875 0.875 3.7125
0.6875 0.8125 3.7125
0.875 0.8125 3.775
0.875 0.875 3.7125
0.8125 0.875 3.775
0.875 0.8125 3.7125
0.8125 0.8125 3.775
0.8125 0.875 3.7125
0.8125 0.8125 3.7125
1 0.8125 3.775
1 0.875 3.7125
0.9375 0.875 3.775
1 0.8125 3.7125
0.9375 0.8125 3.775
0.9375 0.875 3.7125
0.9375 0.8125 3.7125
1.125 0.8125 3.775
1.125 0.875 3.7125
1.0625 0.875 3.775
1.125 0.8125 3.7125
1.0625 0.8125 3.775
1.0625 0.875 3.7125
1.0625 0.8125 3.7125
1.25 0.8125 3.775
1.25 0.875 3.7125
1.1875 0.875 3.775
1.25 0.8125 3.7125
1.1875 0.8125 3.775
1.1875 0.875 3.7125
1.1875 0.8125 3.7125
1.375 0.8125 3.775
1.375 0.875 3.7125
1.3125 0.875 3.775
1.375 0.8125 3.7125
1.3125 0.8125 3.775
1.3125 0.875 3.7125
1.3125 0.8125 3.7125
1.5 0.8125 3.775
1.5 0.875 3.7125
1.4375 0.875 3.775
1.5 0.8125 3.7125
1.4375 0.8125 3.775
1.4375 0.875 3.7125
1.4375 0.8125 3.7125
1.625 0.8125 3.775
1.625 0.875 3.7125
1.5625 0.875 3.775
1.625 0.8125 3.7125
1.5625 0.8125 3.775
1.5625 0.875 3.7125
1.5625 0.8125 3.7125
1.75 0.8125 3.775
1.75 0.875 3.7125
1.6875 0.875 3.775
1.75 0.8125 3.7125
1.6875 0.8125 3.775
1.6875 0.875 3.7125
1.6875 0.8125 3.7125
1.875 0.8125 3.775
1.875 0.875 3.7125
1.8125 0.875 3.775
1.875 0.8125 3.7125
1.8125 0.8125 3.775
1.8125 0.875 3.7125
1.8125 0.8125 3.7125
2 0.8125 3.775
2 0.875 3.7125
1.9375 0.875 3.775
2 0.8125 3.7125
1.9375 0.8125 3.775
1.9375 0.875 3.7125
1.9375 0.8125 3.7125
2.125 0.8125 3.775
2.125 0.875 3.7125
2.0625 0.875 3.775
2.125 0.8125 3.7125
2.0625 0.8125 3.775
2.0625 0.875 3.7125
2.0625 0.8125 3.7125
2.25 0.8125 3.775
2.25 0.875 3.7125
2.1875 0.875 3.775
2.25 0.8125 3.7125
2.1875 0.8125 3.775
2.1875 0.875 3.7125
2.1875 0.8125 3.7125
2.375 0.8125 3.775
2.375 0.875 3.7125
2.3125 0.875 3.775
2.375 0.8125 3.7125
2.3125 0.8125 3.775
2.3125 0.875 3.7125
2.3125 0.8125 3.7125
2.5 0.8125 3.775
2.5 0.875 3.7125
2.4375 0.875 3.775
2.5 0.8125 3.7125
2.4375 0.8125 3.775
2.4375 0.875 3.7125
2.4375 0.8125 3.7125
2.625 0.8125 3.775
2.625 0.875 3.7125
2.5625 0.875 3.775
2.625 0.8125 3.7125
2.5625 0.8125 3.775
2.5625 0.875 3.7125
2.5625 0.8125 3.7125
2.75 0.8125 3.775
2.75 0.875 3.7125
2.6875 0.875 3.775
2.75 0.8125 3.7125
2.6875 0.8125 3.775
2.6875 0.875 3.7125
2.6875 0.8125 3.7125
2.875 0.8125 3.775
2.875 0.875 3.7125
2.8125 0.875 3.775
2.875 0.8125 3.7125
2.8125 0.8125 3.775
2.8125 0.875 3.7125
2.8125 0.8125 3.7125
3 0.8125 3.775
3 0.875 3.7125
2.9375 0.875 3.775
3 0.8125 3.7125
2.9375 0.8125 3.775
2.9375 0.875 3.7125
2.9375 0.8125 3.7125
3.125 0.8125 3.775
3.125 0.875 3.7125
3.0625 0.875 3.775
3.125 0.8125 3.7125
3.0625 0.8125 3.775
3.0625 0.875 3.7125
3.0625 0.8125 3.7125
3.25 0.8125 3.775
3.25 0.875 3.7125
3.1875 0.875 3.775
3.25 0.8125 3.7125
3.1875 0.8125 3.775
3.1875 0.875 3.7125
3.1875 0.8125 3.7125
3.375 0.8125 3.775
3.375 0.875 3.7125
3.3125 0.875 3.775
3.375 0.8125 3.7125
3.3125 0.8125 3.775
3.3125 0.875 3.7125
3.3125 0.8125 3.7125
3.5 0.8125 3.775
3.5 0.875 3.7125
3.4375 0.875 3.775
3.5 0.8125 3.7125
3.4375 0.8125 3.775
3.4375 0.875 3.7125
3.4375 0.8125 3.7125
3.625 0.8125 3.775
3.625 0.875 3.7125
3.5625 0.875 3.775
3.625 0.8125 3.7125
3.5625 0.8125 3.775
3.5625 0.875 3.7125
3.5625 0.8125 3.7125
3.75 0.8125 3.775
3.75 0.875 3.7125
3.6875 0.875 3.775
3.75 0.8125 3.7125
3.6875 0.8125 3.775
3.6875 0.875 3.7125
3.6875 0.8125 3.7125
3.875 0.8125 3.775
3.875 0.875 3.7125
3.8125 0.875 3.775
3.875 0.8125 3.7125
3.8125 0.8125 3.775
3.8125 0.875 3.7125
3.8125 0.8125 3.7125
4 0.8125 3.775
4 0.875 3.7125
3.9375 0.875 3.775
4 0.8125 3.7125
3.9375 0.8125 3.775
3.9375 0.875 3.7125
3.9375 0.8125 3.7125
0.125 0.9375 3.775
0 0.9375 3.775
0.125 1 3.7125
0.0625 1 3.775
0 1 3.7125
0.125 0.9375 3.7125
0.0625 0.9375 3.775
0 0.9375 3.7125
0.0625 1 3.7125
0.0625 0.9375 3.7125
0.25 0.9375 3.775
0.25 1 3.7125
0.1875 1 3.775
0.25 0.9375 3.7125
0.1875 0.9375 3.775
0.1875 1 3.7125
0.1875 0.9375 3.7125
0.375 0.9375 3.775
0.375 1 3.7125
0.3125 1 3.775
0.375 0.9375 3.7125
0.3125 0.9375 3.775
0.3125 1 3.7125
0.3125 0.9375 3.7125
0.5 0.9375 3.775
0.5 1 3.7125
0.4375 1 3.775
0.5 0.9375 3.7125
0.4375 0.9375 3.775
0.4375 1 3.7125
0.4375 0.9375 3.7125
0.625 0.9375 3.775
0.625 1 3.7125
0.5625 1 3.775
0.625 0.9375 3.7125
0.5625 0.9375 3.775
0.5625 1 3.7125
0.5625 0.9375 3.7125
0.75 0.9375 3.775
0.75 1 3.7125
0.6875 1 3.775
0.75 0.9375 3.7125
0.6875 0.9375 3.775
0.6875 1 3.7125
0.6875 0.9375 3.7125
0.875 0.9375 3.775
0.875 1 3.7125
0.8125 1 3.775
0.875 0.9375 3.7125
0.8125 0.9375 3.775
0.8125 1 3.7125
0.8125 0.9375 3.7125
1 0.9375 3.775
1 1 3.7125
0.9375 1 3.775
1 0.9375 3.7125
0.9375 0.9375 3.775
0.9375 1 3.7125
0.9375 0.9375 3.7125
1.125 0.9375 3.775
1.125 1 3.7125
1.0625 1 3.775
1.125 0.9375 3.7125
1.0625 0.9375 3.775
1.0625 1 3.7125
1.0625 0.9375 3.7125
1.25 0.9375 3.775
1.25 1 3.7125
1.1875 1 3.775
1.25 0.9375 3.7125
1.1875 0.9375 3.775
1.1875 1 3.7125
1.1875 0.9375 3.7125
1.375 0.9375 3.775
1.375 1 3.7125
1.3125 1 3.775
1.375 0.9375 3.7125
1.3125 0.9375 3.775
1.3125 1 3.7125
1.3125 0.9375 3.7125
1.5 0.9375 3.775
1.5 1 3.7125
1.4375 1 3.775
1.5 0.9375 3.7125
1.4375 0.9375 3.775
1.4375 1 3.7125
1.4375 0.9375 3.7125
1.625 0.9375 3.775
1.625 1 3.7125
1.5625 1 3.775
1.625 0.9375 3.7125
1.5625 0.9375 3.775
1.5625 1 3.7125
1.5625 0.9375 3.7125
1.75 0.9375 3.775
1.75 1 3.7125
1.6875 1 3.775
1.75 0.9375 3.7125
1.6875 0.9375 3.775
1.6875 1 3.7125
1.6875 0.9375 3.7125
1.875 0.9375 3.775
1.875 1 3.7125
1.8125 1 3.775
1.875 0.9375 3.7125
1.8125 0.9375 3.775
1.8125 1 3.7125
1.8125 0.9375 3.7125
2 0.9375 3.775
2 1 3.7125
1.9375 1 3.775
2 0.9375 3.7125
1.9375 0.9375 3.775
1.9375 1 3.7125
1.9375 0.9375 3.7125
2.125 0.9375 3.775
2.125 1 3.7125
2.0625 1 3.775
2.125 0.9375 3.7125
2.0625 0.9375 3.775
2.0625 1 3.7125
2.0625 0.9375 3.7125
2.25 0.9375 3.775
2.25 1 3.7125
2.1875 1 3.775
2.25 0.9375 3.7125
2.1875 0.9375 3.775
2.1875 1 3.7125
2.1875 0.9375 3.7125
2.375 0.9375 3.775
2.375 1 3.7125
2.3125 1 3.775
2.375 0.9375 3.7125
2.3125 0.9375 3.775
2.3125 1 3.7125
2.3125 0.9375 3.7125
2.5 0.9375 3.775
2.5 1 3.7125
2.4375 1 3.775
2.5 0.9375 3.7125
2.4375 0.9375 3.775
2.4375 1 3.7125
2.4375 0.9375 3.7125
2.625 0.9375 3.775
2.625 1 3.7125
2.5625 1 3.775
2.625 0.9375 3.7125
2.5625 0.9375 3.775
2.5625 1 3.7125
2.5625 0.9375 3.7125
2.75 0.9375 3.775
2.75 1 3.7125
2.6875 1 3.775
2.75 0.9375 3.7125
2.6875 0.9375 3.775
2.6875 1 3.7125
2.6875 0.9375 3.7125
2.875 0.9375 3.775
2.875 1 3.7125
2.8125 1 3.775
2.875 0.9375 3.7125
2.8125 0.9375 3.775
2.8125 1 3.7125
2.8125 0.9375 3.7125
3 0.9375 3.775
3 1 3.7125
2.9375 1 3.775
3 0.9375 3.7125
2.9375 0.9375 3.775
2.9375 1 3.7125
2.9375 0.9375 3.7125
3.125 0.9375 3.775
3.125 1 3.7125
3.0625 1 3.775
3.125 0.9375 3.7125
3.0625 0.9375 3.775
3.0625 1 3.7125
3.0625 0.9375 3.7125
3.25 0.9375 3.775
3.25 1 3.7125
3.1875 1 3.775
3.25 0.9375 3.7125
3.1875 0.9375 3.775
3.1875 1 3.7125
3.1875 0.9375 3.7125
3.375 0.9375 3.775
3.375 1 3.7125
3.3125 1 3.775
3.375 0.9375 3.7125
3.3125 0.9375 3.775
3.3125 1 3.7125
3.3125 0.9375 3.7125
3.5 0.9375 3.775
3.5 1 3.7125
3.4375 1 3.775
3.5 0.9375 3.7125
3.4375 0.9375 3.775
3.4375 1 3.7125
3.4375 0.9375 3.7125
3.625 0.9375 3.775
3.625 1 3.7125
3.5625 1 3.775
3.625 0.9375 3.7125
3.5625 0.9375 3.775
3.5625 1 3.7125
3.5625 0.9375 3.7125
3.75 0.9375 3.775
3.75 1 3.7125
3.6875 1 3.775
3.75 0.9375 3.7125
3.6875 0.9375 3.775
3.6875 1 3.7125
3.6875 0.9375 3.7125
3.875 0.9375 3.775
3.875 1 3.7125
3.8125 1 3.775
3.875 0.9375 3.7125
3.8125 0.9375 3.775
3.8125 1 3.7125
3.8125 0.9375 3.7125
4 0.9375 3.775
4 1 3.7125
3.9375 1 3.775
4 0.9375 3.7125
3.9375 0.9375 3.775
3.9375 1 3.7125
3.9375 0.9375 3.7125
0.125 0 3.8375
0.0625 0 3.9
0 0 3.8375
0.125 0.0625 3.9
0 0.0625 3.9
0.125 0.125 3.8375
0.0625 0.125 3.9
0 0.125 3.8375
0.0625 0 3.8375
0.125 0.0625 3.8375
0.0625 0.0625 3.9
0 0.0625 3.8375
0.0625 0.125 3.8375
0.0625 0.0625 3.8375
0.25 0 3.8375
0.1875 0 3.9
0.25 0.0625 3.9
0.25 0.125 3.8375
0.1875 0.125 3.9
0.1875 0 3.8375
0.25 0.0625 3.8375
0.1875 0.0625 3.9
0.1875 0.125 3.8375
0.1875 0.0625 3.8375
0.375 0 3.8375
0.3125 0 3.9
0.375 0.0625 3.9
0.375 0.125 3.8375
0.3125 0.125 3.9
0.3125 0 3.8375
0.375 0.0625 3.8375
0.3125 0.0625 3.9
0.3125 0.125 3.8375
0.3125 0.0625 3.8375
0.5 0 3.8375
0.4375 0 3.9
0.5 0.0625 3.9
0.5 0.125 3.8375
0.4375 0.125 3.9
0.4375 0 3.8375
0.5 0.0625 3.8375
0.4375 0.0625 3.9
0.4375 0.125 3.8375
0.4375 0.0625 3.8375
0.625 0 3.8375
0.5625 0 3.9
0.625 0.0625 3.9
0.625 0.125 3.8375
0.5625 0.125 3.9
0.5625 0 3.8375
0.625 0.0625 3.8375
0.5625 0.0625 3.9
0.5625 0.125 3.8375
0.5625 0.0625 3.8375
0.75 0 3.8375
0.6875 0 3.9
0.75 0.0625 3.9
0.75 0.125 3.8375
0.6875 0.125 3.9
0.6875 0 3.8375
0.75 0.0625 3.8375
0.6875 0.0625 3.9
0.6875 0.125 3.8375
0.6875 0.0625 3.8375
0.875 0 3.8375
0.8125 0 3.9
0.875 0.0625 3.9
0.875 0.125 3.8375
0.8125 0.125 3.9
0.8125 0 3.8375
0.875 0.0625 3.8375
0.8125 0.0625 3.9
0.8125 0.125 3.8375
0.8125 0.0625 3.8375
1 0 3.8375
0.9375 0 3.9
1 0.0625 3.9
1 0.125 3.8375
0.9375 0.125 3.9
0.9375 0 3.8375
1 0.0625 3.8375
0.9375 0.0625 3.9
0.9375 0.125 3.8375
0.9375 0.0625 3.8375
1.125 0 3.8375
1.0625 0 3.9
1.125 0.0625 3.9
1.125 0.125 3.8375
1.0625 0.125 3.9
1.0625 0 3.8375
1.125 0.0625 3.8375
1.0625 0.0625 3.9
1.0625 0.125 3.8375
1.0625 0.0625 3.8375
1.25 0 3.8375
1.1875 0 3.9
1.25 0.0625 3.9
1.25 0.125 3.8375
1.1875 0.125 3.9
1.1875 0 3.8375
1.25 0.0625 3.8375
1.1875 0.0625 3.9
1.1875 0.125 3.8375
1.1875 0.0625 3.8375
1.375 0 3.8375
1.3125 0 3.9
1.375 0.0625 3.9
1.375 0.125 3.8375
1.3125 0.125 3.9
1.3125 0 3.8375
1.375 0.0625 3.8375
1.3125 0.0625 3.9
1.3125 0.125 3.8375
1.3125 0.0625 3.8375
1.5 0 3.8375
1.4375 0 3.9
1.5 0.0625 3.9
1.5 0.125 3.8375
1.4375 0.125 3.9
1.4375 0 3.8375
1.5 0.0625 3.8375
1.4375 0.0625 3.9
1.4375 0.125 3.8375
1.4375 0.0625 3.8375
1.625 0 3.8375
1.5625 0 3.9
1.625 0.0625 3.9
1.625 0.125 3.8375
1.5625 0.125 3.9
1.5625 0 3.8375
1.625 0.0625 3.8375
1.5625 0.0625 3.9
1.5625 0.125 3.8375
1.5625 0.0625 3.8375
1.75 0 3.8375
1.6875 0 3.9
1.75 0.0625 3.9
1.75 0.125 3.8375
1.6875 0.125 3.9
1.6875 0 3.8375
1.75 0.0625 3.8375
1.6875 0.0625 3.9
1.6875 0.125 3.8375
1.6875 0.0625 3.8375
1.875 0 3.8375
1.8125 0 3.9
1.875 0.0625 3.9
1.875 0.125 3.8375
1.8125 0.125 3.9
1.8125 0 3.8375
1.875 0.0625 3.8375
1.8125 0.0625 3.9
1.8125 0.125 3.8375
1.8125 0.0625 3.8375
2 0 3.8375
1.9375 0 3.9
2 0.0625 3.9
2 0.125 3.8375
1.9375 0.125 3.9
1.9375 0 3.8375
2 0.0625 3.8375
1.9375 0.0625 3.9
1.9375 0.125 3.8375
1.9375 0.0625 3.8375
2.125 0 3.8375
2.0625 0 3.9
2.125 0.0625 3.9
2.125 0.125 3.8375
2.0625 0.125 3.9
2.0625 0 3.8375
2.125 0.0625 3.8375
2.0625 0.0625 3.9
2.0625 0.125 3.8375
2.0625 0.0625 3.8375
2.25 0 3.8375
2.1875 0 3.9
2.25 0.0625 3.9
2.25 0.125 3.8375
2.1875 0.125 3.9
2.1875 0 3.8375
2.25 0.0625 3.8375
2.1875 0.0625 3.9
2.1875 0.125 3.8375
2.1875 0.0625 3.8375
2.375 0 3.8375
2.3125 0 3.9
2.375 0.0625 3.9
2.375 0.125 3.8375
2.3125 0.125 3.9
2.3125 0 3.8375
2.375 0.0625 3.8375
2.3125 0.0625 3.9
2.3125 0.125 3.8375
2.3125 0.0625 3.8375
2.5 0 3.8375
2.4375 0 3.9
2.5 0.0625 3.9
2.5 0.125 3.8375
2.4375 0.125 3.9
2.4375 0 3.8375
2.5 0.0625 3.8375
2.4375 0.0625 3.9
2.4375 0.125 3.8375
2.4375 0.0625 3.8375
2.625 0 3.8375
2.5625 0 3.9
2.625 0.0625 3.9
2.625 0.125 3.8375
2.5625 0.125 3.9
2.5625 0 3.8375
2.625 0.0625 3.8375
2.5625 0.0625 3.9
2.5625 0.125 3.8375
2.5625 0.0625 3.8375
2.75 0 3.8375
2.6875 0 3.9
2.75 0.0625 3.9
2.75 0.125 3.8375
2.6875 0.125 3.9
2.6875 0 3.8375
2.75 0.0625 3.8375
2.6875 0.0625 3.9
2.6875 0.125 3.8375
2.6875 0.0625 3.8375
2.875 0 3.8375
2.8125 0 3.9
2.875 0.0625 3.9
2.875 0.125 3.8375
2.8125 0.125 3.9
2.8125 0 3.8375
2.875 0.0625 3.8375
2.8125 0.0625 3.9
2.8125 0.125 3.8375
2.8125 0.0625 3.8375
3 0 3.8375
2.9375 0 3.9
3 0.0625 3.9
3 0.125 3.8375
2.9375 0.125 3.9
2.9375 0 3.8375
3 0.0625 3.8375
2.9375 0.0625 3.9
2.9375 0.125 3.8375
2.9375 0.0625 3.8375
3.125 0 3.8375
3.0625 0 3.9
3.125 0.0625 3.9
3.125 0.125 3.8375
3.0625 0.125 3.9
3.0625 0 3.8375
3.125 0.0625 3.8375
3.0625 0.0625 3.9
3.0625 0.125 3.8375
3.0625 0.0625 3.8375
3.25 0 3.8375
3.1875 0 3.9
3.25 0.0625 3.9
3.25 0.125 3.8375
3.1875 0.125 3.9
3.1875 0 3.8375
3.25 0.0625 3.8375
3.1875 0.0625 3.9
3.1875 0.125 3.8375
3.1875 0.0625 3.8375
3.375 0 3.8375
3.3125 0 3.9
3.375 0.0625 3.9
3.375 0.125 3.8375
3.3125 0.125 3.9
3.3125 0 3.8375
3.375 0.0625 3.8375
3.3125 0.0625 3.9
3.3125 0.125 3.8375
3.3125 0.0625 3.8375
3.5 0 3.8375
3.4375 0 3.9
3.5 0.0625 3.9
3.5 0.125 3.8375
3.4375 0.125 3.9
3.4375 0 3.8375
3.5 0.0625 3.8375
3.4375 0.0625 3.9
3.4375 0.125 3.8375
3.4375 0.0625 3.8375
3.625 0 3.8375
3.5625 0 3.9
3.625 0.0625 3.9
3.625 0.125 3.8375
3.5625 0.125 3.9
3.5625 0 3.8375
3.625 0.0625 3.8375
3.5625 0.0625 3.9
3.5625 0.125 3.8375
3.5625 0.0625 3.8375
3.75 0 3.8375
3.6875 0 3.9
3.75 0.0625 3.9
3.75 0.125 3.8375
3.6875 0.125 3.9
3.6875 0 3.8375
3.75 0.0625 3.8375
3.6875 0.0625 3.9
3.6875 0.125 3.8375
3.6875 0.0625 3.8375
3.875 0 3.8375
3.8125 0 3.9
3.875 0.0625 3.9
3.875 0.125 3.8375
3.8125 0.125 3.9
3.8125 0 3.8375
3.875 0.0625 3.8375
3.8125 0.0625 3.9
3.8125 0.125 3.8375
3.8125 0.0625 3.8375
4 0 3.8375
3.9375 0 3.9
4 0.0625 3.9
4 0.125 3.8375
3.9375 0.125 3.9
3.9375 0 3.8375
4 0.0625 3.8375
3.9375 0.0625 3.9
3.9375 0.125 3.8375
3.9375 0.0625 3.8375
0.125 0.1875 3.9
0 0.1875 3.9
0.125 0.25 3.8375
0.0625 0.25 3.9
0 0.25 3.8375
0.125 0.1875 3.8375
0.0625 0.1875 3.9
0 0.1875 3.8375
0.0625 0.25 3.8375
0.0625 0.1875 3.8375
0.25 0.1875 3.9
0.25 0.25 3.8375
0.1875 0.25 3.9
0.25 0.1875 3.8375
0.1875 0.1875 3.9
0.1875 0.25 3.8375
0.1875 0.1875 3.8375
0.375 0.1875 3.9
0.375 0.25 3.8375
0.3125 0.25 3.9
0.375 0.1875 3.8375
0.3125 0.1875 3.9
0.3125 0.25 3.8375
0.3125 0.1875 3.8375
0.5 0.1875 3.9
0.5 0.25 3.8375
0.4375 0.25 3.9
0.5 0.1875 3.8375
0.4375 0.1875 3.9
0.4375 0.25 3.8375
0.4375 0.1875 3.8375
0.625 0.1875 3.9
0.625 0.25 3.8375
0.5625 0.25 3.9
0.625 0.1875 3.8375
0.5625 0.1875 3.9
0.5625 0.25 3.8375
0.5625 0.1875 3.8375
0.75 0.1875 3.9
0.75 0.25 3.8375
0.6875 0.25 3.9
0.75 0.1875 3.8375
0.6875 0.1875 3.9
0.6875 0.25 3.8375
0.6875 0.1875 3.8375
0.875 0.1875 3.9
0.875 0.25 3.8375
0.8125 0.25 3.9
0.875 0.1875 3.8375
0.8125 0.1875 3.9
0.8125 0.25 3.8375
0.8125 0.1875 3.8375
1 0.1875 3.9
1 0.25 3.8375
0.9375 0.25 3.9
1 0.1875 3.8375
0.9375 0.1875 3.9
0.9375 0.25 3.8375
0.9375 0.1875 3.8375
1.125 0.1875 3.9
1.125 0.25 3.8375
1.0625 0.25 3.9
1.125 0.1875 3.8375
1.0625 0.1875 3.9
1.0625 0.25 3.8375
1.0625 0.1875 3.8375
1.25 0.1875 3.9
1.25 0.25 3.8375
1.1875 0.25 3.9
1.25 0.1875 3.8375
1.1875 0.1875 3.9
1.1875 0.25 3.8375
1.1875 0.1875 3.8375
1.375 0.1875 3.9
1.375 0.25 3.8375
1.3125 0.25 3.9
1.375 0.1875 3.8375
1.3125 0.1875 3.9
1.3125 0.25 3.8375
1.3125 0.1875 3.8375
1.5 0.1875 3.9
1.5 0.25 3.8375
1.4375 0.25 3.9
1.5 0.1875 3.8375
1.4375 0.1875 3.9
1.4375 0.25 3.8375
1.4375 0.1875 3.8375
1.625 0.1875 3.9
1.625 0.25 3.8375
1.5625 0.25 3.9
1.625 0.1875 3.8375
1.5625 0.1875 3.9
1.5625 0.25 3.8375
1.5625 0.1875 3.8375
1.75 0.1875 3.9
1.75 0.25 3.8375
1.6875 0.25 3.9
1.75 0.1875 3.8375
1.6875 0.1875 3.9
1.6875 0.25 3.8375
1.6875 0.1875 3.8375
1.875 0.1875 3.9
1.875 0.25 3.8375
1.8125 0.25 3.9
1.875 0.1875 3.8375
1.8125 0.1875 3.9
1.8125 0.25 3.8375
1.8125 0.1875 3.8375
2 0.1875 3.9
2 0.25 3.8375
1.9375 0.25 3.9
2 0.1875 3.8375
1.9375 0.1875 3.9
1.9375 0.25 3.8375
1.9375 0.1875 3.8375
2.125 0.1875 3.9
2.125 0.25 3.8375
2.0625 0.25 3.9
2.125 0.1875 3.8375
2.0625 0.1875 3.9
2.0625 0.25 3.8375
2.0625 0.1875 3.8375
2.25 0.1875 3.9
2.25 0.25 3.8375
2.1875 0.25 3.9
2.25 0.1875 3.8375
2.1875 0.1875 3.9
2.1875 0.25 3.8375
2.1875 0.1875 3.8375
2.375 0.1875 3.9
2.375 0.25 3.8375
2.3125 0.25 3.9
2.375 0.1875 3.8375
2.3125 0.1875 3.9
2.3125 0.25 3.8375
2.3125 0.1875 3.8375
2.5 0.1875 3.9
2.5 0.25 3.8375
2.4375 0.25 3.9
2.5 0.1875 3.8375
2.4375 0.1875 3.9
2.4375 0.25 3.8375
2.4375 0.1875 3.8375
2.625 0.1875 3.9
2.625 0.25 3.8375
2.5625 0.25 3.9
2.625 0.1875 3.8375
2.5625 0.1875 3.9
2.5625 0.25 3.8375
2.5625 0.1875 3.8375
2.75 0.1875 3.9
2.75 0.25 3.8375
2.6875 0.25 3.9
2.75 0.1875 3.8375
2.6875 0.1875 3.9
2.6875 0.25 3.8375
2.6875 0.1875 3.8375
2.875 0.1875 3.9
2.875 0.25 3.8375
2.8125 0.25 3.9
2.875 0.1875 3.8375
2.8125 0.1875 3.9
2.8125 0.25 3.8375
2.8125 0.1875 3.8375
3 0.1875 3.9
3 0.25 3.8375
2.9375 0.25 3.9
3 0.1875 3.8375
2.9375 0.1875 3.9
2.9375 0.25 3.8375
2.9375 0.1875 3.8375
3.125 0.1875 3.9
3.125 0.25 3.8375
3.0625 0.25 3.9
3.125 0.1875 3.8375
3.0625 0.1875 3.9
3.0625 0.25 3.8375
3.0625 0.1875 3.8375
3.25 0.1875 3.9
3.25 0.25 3.8375
3.1875 0.25 3.9
3.25 0.1875 3.8375
3.1875 0.1875 3.9
3.1875 0.25 3.8375
3.1875 0.1875 3.8375
3.375 0.1875 3.9
3.375 0.25 3.8375
3.3125 0.25 3.9
3.375 0.1875 3.8375
3.3125 0.1875 3.9
3.3125 0.25 3.8375
3.3125 0.1875 3.8375
3.5 0.1875 3.9
3.5 0.25 3.8375
3.4375 0.25 3.9
3.5 0.1875 3.8375
3.4375 0.1875 3.9
3.4375 0.25 3.8375
3.4375 0.1875 3.8375
3.625 0.1875 3.9
3.625 0.25 3.8375
3.5625 0.25 3.9
3.625 0.1875 3.8375
3.5625 0.1875 3.9
3.5625 0.25 3.8375
3.5625 0.1875 3.8375
3.75 0.1875 3.9
3.75 0.25 3.8375
3.6875 0.25 3.9
3.75 0.1875 3.8375
3.6875 0.1875 3.9
3.6875 0.25 3.8375
3.6875 0.1875 3.8375
3.875 0.1875 3.9
3.875 0.25 3.8375
3.8125 0.25 3.9
3.875 0.1875 3.8375
3.8125 0.1875 3.9
3.8125 0.25 3.8375
3.8125 0.1875 3.8375
4 0.1875 3.9
4 0.25 3.8375
3.9375 0.25 3.9
4 0.1875 3.8375
3.9375 0.1875 3.9
3.9375 0.25 3.8375
3.9375 0.1875 3.8375
0.125 0.3125 3.9
0 0.3125 3.9
0.125 0.375 3.8375
0.0625 0.375 3.9
0 0.375 3.8375
0.125 0.3125 3.8375
0.0625 0.3125 3.9
0 0.3125 3.8375
0.0625 0.375 3.8375
0.0625 0.3125 3.8375
0.25 0.3125 3.9
0.25 0.375 3.8375
0.1875 0.375 3.9
0.25 0.3125 3.8375
0.1875 0.3125 3.9
0.1875 0.375 3.8375
0.1875 0.3125 3.8375
0.375 0.3125 3.9
0.375 0.375 3.8375
0.3125 0.375 3.9
0.375 0.3125 3.8375
0.3125 0.3125 3.9
0.3125 0.375 3.8375
0.3125 0.3125 3.8375
0.5 0.3125 3.9
0.5 0.375 3.8375
0.4375 0.375 3.9
0.5 0.3125 3.8375
0.4375 0.3125 3.9
0.4375 0.375 3.8375
0.4375 0.3125 3.8375
0.625 0.3125 3.9
0.625 0.375 3.8375
0.5625 0.375 3.9
0.625 0.3125 3.8375
0.5625 0.3125 3.9
0.5625 0.375 3.8375
0.5625 0.3125 3.8375
0.75 0.3125 3.9
0.75 0.375 3.8375
0.6875 0.375 3.9
0.75 0.3125 3.8375
0.6875 0.3125 3.9
0.6875 0.375 3.8375
0.6875 0.3125 3.8375
0.875 0.3125 3.9
0.875 0.375 3.8375
0.8125 0.375 3.9
0.875 0.3125 3.8375
0.8125 0.3125 3.9
0.8125 0.375 3.8375
0.8125 0.3125 3.8375
1 0.3125 3.9
1 0.375 3.8375
0.9375 0.375 3.9
1 0.3125 3.8375
0.9375 0.3125 3.9
0.9375 0.375 3.8375
0.9375 0.3125 3.8375
1.125 0.3125 3.9
1.125 0.375 3.8375
1.0625 0.375 3.9
1.125 0.3125 3.8375
1.0625 0.3125 3.9
1.0625 0.375 3.8375
1.0625 0.3125 3.8375
1.25 0.3125 3.9
1.25 0.375 3.8375
1.1875 0.375 3.9
1.25 0.3125 3.8375
1.1875 0.3125 3.9
1.1875 0.375 3.8375
1.1875 0.3125 3.8375
1.375 0.3125 3.9
1.375 0.375 3.8375
1.3125 0.375 3.9
1.375 0.3125 3.8375
1.3125 0.3125 3.9
1.3125 0.375 3.8375
1.3125 0.3125 3.8375
1.5 0.3125 3.9
1.5 0.375 3.8375
1.4375 0.375 3.9
1.5 0.3125 3.8375
1.4375 0.3125 3.9
1.4375 0.375 3.8375
1.4375 0.3125 3.8375
1.625 0.3125 3.9
1.625 0.375 3.8375
1.5625 0.375 3.9
1.625 0.3125 3.8375
1.5625 0.3125 3.9
1.5625 0.375 3.8375
1.5625 0.3125 3.8375
1.75 0.3125 3.9
1.75 0.375 3.8375
1.6875 0.375 3.9
1.75 0.3125 3.8375
1.6875 0.3125 3.9
1.6875 0.375 3.8375
1.6875 0.3125 3.8375
1.875 0.3125 3.9
1.875 0.375 3.8375
1.8125 0.375 3.9
1.875 0.3125 3.8375
1.8125 0.3125 3.9
1.8125 0.375 3.8375
1.8125 0.3125 3.8375
2 0.3125 3.9
2 0.375 3.8375
1.9375 0.375 3.9
2 0.3125 3.8375
1.9375 0.3125 3.9
1.9375 0.375 3.8375
1.9375 0.3125 3.8375
2.125 0.3125 3.9
2.125 0.375 3.8375
2.0625 0.375 3.9
2.125 0.3125 3.8375
2.0625 0.3125 3.9
2.0625 0.375 3.8375
2.0625 0.3125 3.8375
2.25 0.3125 3.9
2.25 0.375 3.8375
2.1875 0.375 3.9
2.25 0.3125 3.8375
2.1875 0.3125 3.9
2.1875 0.375 3.8375
2.1875 0.3125 3.8375
2.375 0.3125 3.9
2.375 0.375 3.8375
2.3125 0.375 3.9
2.375 0.3125 3.8375
2.3125 0.3125 3.9
2.3125 0.375 3.8375
2.3125 0.3125 3.8375
2.5 0.3125 3.9
2.5 0.375 3.8375
2.4375 0.375 3.9
2.5 0.3125 3.8375
2.4375 0.3125 3.9
2.4375 0.375 3.8375
2.4375 0.3125 3.8375
2.625 0.3125 3.9
2.625 0.375 3.8375
2.5625 0.375 3.9
2.625 0.3125 3.8375
2.5625 0.3125 3.9
2.5625 0.375 3.8375
2.5625 0.3125 3.8375
2.75 0.3125 3.9
2.75 0.375 3.8375
2.6875 0.375 3.9
2.75 0.3125 3.8375
2.6875 0.3125 3.9
2.6875 0.375 3.8375
2.6875 0.3125 3.8375
2.875 0.3125 3.9
2.875 0.375 3.8375
2.8125 0.375 3.9
2.875 0.3125 3.8375
2.8125 0.3125 3.9
2.8125 0.375 3.8375
2.8125 0.3125 3.8375
3 0.3125 3.9
3 0.375 3.8375
2.9375 0.375 3.9
3 0.3125 3.8375
2.9375 0.3125 3.9
2.9375 0.375 3.8375
2.9375 0.3125 3.8375
3.125 0.3125 3.9
3.125 0.375 3.8375
3.0625 0.375 3.9
3.125 0.3125 3.8375
3.0625 0.3125 3.9
3.0625 0.375 3.8375
3.0625 0.3125 3.8375
3.25 0.3125 3.9
3.25 0.375 3.8375
3.1875 0.375 3.9
3.25 0.3125 3.8375
3.1875 0.3125 3.9
3.1875 0.375 3.8375
3.1875 0.3125 3.8375
3.375 0.3125 3.9
3.375 0.375 3.8375
3.3125 0.375 3.9
3.375 0.3125 3.8375
3.3125 0.3125 3.9
3.3125 0.375 3.8375
3.3125 0.3125 3.8375
3.5 0.3125 3.9
3.5 0.375 3.8375
3.4375 0.375 3.9
3.5 0.3125 3.8375
3.4375 0.3125 3.9
3.4375 0.375 3.8375
3.4375 0.3125 3.8375
3.625 0.3125 3.9
3.625 0.375 3.8375
3.5625 0.375 3.9
3.625 0.3125 3.8375
3.5625 0.3125 3.9
3.5625 0.375 3.8375
3.5625 0.3125 3.8375
3.75 0.3125 3.9
3.75 0.375 3.8375
3.6875 0.375 3.9
3.75 0.3125 3.8375
3.6875 0.3125 3.9
3.6875 0.375 3.8375
3.6875 0.3125 3.8375
3.875 0.3125 3.9
3.875 0.375 3.8375
3.8125 0.375 3.9
3.875 0.3125 3.8375
3.8125 0.3125 3.9
3.8125 0.375 3.8375
3.8125 0.3125 3.8375
4 0.3125 3.9
4 0.375 3.8375
3.9375 0.375 3.9
4 0.3125 3.8375
3.9375 0.3125 3.9
3.9375 0.375 3.8375
3.9375 0.3125 3.8375
0.125 0.4375 3.9
0 0.4375 3.9
0.125 0.5 3.8375
0.0625 0.5 3.9
0 0.5 3.8375
0.125 0.4375 3.8375
0.0625 0.4375 3.9
0 0.4375 3.8375
0.0625 0.5 3.8375
0.0625 0.4375 3.8375
0.25 0.4375 3.9
0.25 0.5 3.8375
0.1875 0.5 3.9
0.25 0.4375 3.8375
0.1875 0.4375 3.9
0.1875 0.5 3.8375
0.1875 0.4375 3.8375
0.375 0.4375 3.9
0.375 0.5 3.8375
0.3125 0.5 3.9
0.375 0.4375 3.8375
0.3125 0.4375 3.9
0.3125 0.5 3.8375
0.3125 0.4375 3.8375
0.5 0.4375 3.9
0.5 0.5 3.8375
0.4375 0.5 3.9
0.5 0.4375 3.8375
0.4375 0.4375 3.9
0.4375 0.5 3.8375
0.4375 0.4375 3.8375
0.625 0.4375 3.9
0.625 0.5 3.8375
0.5625 0.5 3.9
0.625 0.4375 3.8375
0.5625 0.4375 3.9
0.5625 0.5 3.8375
0.5625 0.4375 3.8375
0.75 0.4375 3.9
0.75 0.5 3.8375
0.6875 0.5 3.9
0.75 0.4375 3.8375
0.6875 0.4375 3.9
0.6875 0.5 3.8375
0.6875 0.4375 3.8375
0.875 0.4375 3.9
0.875 0.5 3.8375
0.8125 0.5 3.9
0.875 0.4375 3.8375
0.8125 0.4375 3.9
0.8125 0.5 3.8375
0.8125 0.4375 3.8375
1 0.4375 3.9
1 0.5 3.8375
0.9375 0.5 3.9
1 0.4375 3.8375
0.9375 0.4375 3.9
0.9375 0.5 3.8375
0.9375 0.4375 3.8375
1.125 0.4375 3.9
1.125 0.5 3.8375
1.0625 0.5 3.9
1.125 0.4375 3.8375
1.0625 0.4375 3.9
1.0625 0.5 3.8375
1.0625 0.4375 3.8375
1.25 0.4375 3.9
1.25 0.5 3.8375
1.1875 0.5 3.9
1.25 0.4375 3.8375
1.1875 0.4375 3.9
1.1875 0.5 3.8375
1.1875 0.4375 3.8375
1.375 0.4375 3.9
1.375 0.5 3.8375
1.3125 0.5 3.9
1.375 0.4375 3.8375
1.3125 0.4375 3.9
1.3125 0.5 3.8375
1.3125 0.4375 3.8375
1.5 0.4375 3.9
1.5 0.5 3.8375
1.4375 0.5 3.9
1.5 0.4375 3.8375
1.4375 0.4375 3.9
1.4375 0.5 3.8375
1.4375 0.4375 3.8375
1.625 0.4375 3.9
1.625 0.5 3.8375
1.5625 0.5 3.9
1.625 0.4375 3.8375
1.5625 0.4375 3.9
1.5625 0.5 3.8375
1.5625 0.4375 3.8375
1.75 0.4375 3.9
1.75 0.5 3.8375
1.6875 0.5 3.9
1.75 0.4375 3.8375
1.6875 0.4375 3.9
1.6875 0.5 3.8375
1.6875 0.4375 3.8375
1.875 0.4375 3.9
1.875 0.5 3.8375
1.8125 0.5 3.9
1.875 0.4375 3.8375
1.8125 0.4375 3.9
1.8125 0.5 3.8375
1.8125 0.4375 3.8375
2 0.4375 3.9
2 0.5 3.8375
1.9375 0.5 3.9
2 0.4375 3.8375
1.9375 0.4375 3.9
1.9375 0.5 3.8375
1.9375 0.4375 3.8375
2.125 0.4375 3.9
2.125 0.5 3.8375
2.0625 0.5 3.9
2.125 0.4375 3.8375
2.0625 0.4375 3.9
2.0625 0.5 3.8375
2.0625 0.4375 3.8375
2.25 0.4375 3.9
2.25 0.5 3.8375
2.1875 0.5 3.9
2.25 0.4375 3.8375
2.1875 0.4375 3.9
2.1875 0.5 3.8375
2.1875 0.4375 3.8375
2.375 0.4375 3.9
2.375 0.5 3.8375
2.3125 0.5 3.9
2.375 0.4375 3.8375
2.3125 0.4375 3.9
2.3125 0.5 3.8375
2.3125 0.4375 3.8375
2.5 0.4375 3.9
2.5 0.5 3.8375
2.4375 0.5 3.9
2.5 0.4375 3.8375
2.4375 0.4375 3.9
2.4375 0.5 3.8375
2.4375 0.4375 3.8375
2.625 0.4375 3.9
2.625 0.5 3.8375
2.5625 0.5 3.9
2.625 0.4375 3.8375
2.5625 0.4375 3.9
2.5625 0.5 3.8375
2.5625 0.4375 3.8375
2.75 0.4375 3.9
2.75 0.5 3.8375
2.6875 0.5 3.9
2.75 0.4375 3.8375
2.6875 0.4375 3.9
2.6875 0.5 3.8375
2.6875 0.4375 3.8375
2.875 0.4375 3.9
2.875 0.5 3.8375
2.8125 0.5 3.9
2.875 0.4375 3.8375
2.8125 0.4375 3.9
2.8125 0.5 3.8375
2.8125 0.4375 3.8375
3 0.4375 3.9
3 0.5 3.8375
2.9375 0.5 3.9
3 0.4375 3.8375
2.9375 0.4375 3.9
2.9375 0.5 3.8375
2.9375 0.4375 3.8375
3.125 0.4375 3.9
3.125 0.5 3.8375
3.0625 0.5 3.9
3.125 0.4375 3.8375
3.0625 0.4375 3.9
3.0625 0.5 3.8375
3.0625 0.4375 3.8375
3.25 0.4375 3.9
3.25 0.5 3.8375
3.1875 0.5 3.9
3.25 0.4375 3.8375
3.1875 0.4375 3.9
3.1875 0.5 3.8375
3.1875 0.4375 3.8375
3.375 0.4375 3.9
3.375 0.5 3.8375
3.3125 0.5 3.9
3.375 0.4375 3.8375
3.3125 0.4375 3.9
3.3125 0.5 3.8375
3.3125 0.4375 3.8375
3.5 0.4375 3.9
3.5 0.5 3.8375
3.4375 0.5 3.9
3.5 0.4375 3.8375
3.4375 0.4375 3.9
3.4375 0.5 3.8375
3.4375 0.4375 3.8375
3.625 0.4375 3.9
3.625 0.5 3.8375
3.5625 0.5 3.9
3.625 0.4375 3.8375
3.5625 0.4375 3.9
3.5625 0.5 3.8375
3.5625 0.4375 3.8375
3.75 0.4375 3.9
3.75 0.5 3.8375
3.6875 0.5 3.9
3.75 0.4375 3.8375
3.6875 0.4375 3.9
3.6875 0.5 3.8375
3.6875 0.4375 3.8375
3.875 0.4375 3.9
3.875 0.5 3.8375
3.8125 0.5 3.9
3.875 0.4375 3.8375
3.8125 0.4375 3.9
3.8125 0.5 3.8375
3.8125 0.4375 3.8375
4 0.4375 3.9
4 0.5 3.8375
3.9375 0.5 3.9
4 0.4375 3.8375
3.9375 0.4375 3.9
3.9375 0.5 3.8375
3.9375 0.4375 3.8375
0.125 0.5625 3.9
0 0.5625 3.9
0.125 0.625 3.8375
0.0625 0.625 3.9
0 0.625 3.8375
0.125 0.5625 3.8375
0.0625 0.5625 3.9
0 0.5625 3.8375
0.0625 0.625 3.8375
0.0625 0.5625 3.8375
0.25 0.5625 3.9
0.25 0.625 3.8375
0.1875 0.625 3.9
0.25 0.5625 3.8375
0.1875 0.5625 3.9
0.1875 0.625 3.8375
0.1875 0.5625 3.8375
0.375 0.5625 3.9
0.375 0.625 3.8375
0.3125 0.625 3.9
0.375 0.5625 3.8375
0.3125 0.5625 3.9
0.3125 0.625 3.8375
0.3125 0.5625 3.8375
0.5 0.5625 3.9
0.5 0.625 3.8375
0.4375 0.625 3.9
0.5 0.5625 3.8375
0.4375 0.5625 3.9
0.4375 0.625 3.8375
0.4375 0.5625 3.8375
0.625 0.5625 3.9
0.625 0.625 3.8375
0.5625 0.625 3.9
0.625 0.5625 3.8375
0.5625 0.5625 3.9
0.5625 0.625 3.8375
0.5625 0.5625 3.8375
0.75 0.5625 3.9
0.75 0.625 3.8375
0.6875 0.625 3.9
0.75 0.5625 3.8375
0.6875 0.5625 3.9
0.6875 0.625 3.8375
0.6875 0.5625 3.8375
0.875 0.5625 3.9
0.875 0.625 3.8375
0.8125 0.625 3.9
0.875 0.5625 3.8375
0.8125 0.5625 3.9
0.8125 0.625 3.8375
0.8125 0.5625 3.8375
1 0.5625 3.9
1 0.625 3.8375
0.9375 0.625 3.9
1 0.5625 3.8375
0.9375 0.5625 3.9
0.9375 0.625 3.8375
0.9375 0.5625 3.8375
1.125 0.5625 3.9
1.125 0.625 3.8375
1.0625 0.625 3.9
1.125 0.5625 3.8375
1.0625 0.5625 3.9
1.0625 0.625 3.8375
1.0625 0.5625 3.8375
1.25 0.5625 3.9
1.25 0.625 3.8375
1.1875 0.625 3.9
1.25 0.5625 3.8375
1.1875 0.5625 3.9
1.1875 0.625 3.8375
1.1875 0.5625 3.8375
1.375 0.5625 3.9
1.375 0.625 3.8375
1.3125 0.625 3.9
1.375 0.5625 3.8375
1.3125 0.5625 3.9
1.3125 0.625 3.8375
1.3125 0.5625 3.8375
1.5 0.5625 3.9
1.5 0.625 3.8375
1.4375 0.625 3.9
1.5 0.5625 3.8375
1.4375 0.5625 3.9
1.4375 0.625 3.8375
1.4375 0.5625 3.8375
1.625 0.5625 3.9
1.625 0.625 3.8375
1.5625 0.625 3.9
1.625 0.5625 3.8375
1.5625 0.5625 3.9
1.5625 0.625 3.8375
1.5625 0.5625 3.8375
1.75 0.5625 3.9
1.75 0.625 3.8375
1.6875 0.625 3.9
1.75 0.5625 3.8375
1.6875 0.5625 3.9
1.6875 0.625 3.8375
1.6875 0.5625 3.8375
1.875 0.5625 3.9
1.875 0.625 3.8375
1.8125 0.625 3.9
1.875 0.5625 3.8375
1.8125 0.5625 3.9
1.8125 0.625 3.8375
1.8125 0.5625 3.8375
2 0.5625 3.9
2 0.625 3.8375
1.9375 0.625 3.9
2 0.5625 3.8375
1.9375 0.5625 3.9
1.9375 0.625 3.8375
1.9375 0.5625 3.8375
2.125 0.5625 3.9
2.125 0.625 3.8375
2.0625 0.625 3.9
2.125 0.5625 3.8375
2.0625 0.5625 3.9
2.0625 0.625 3.8375
2.0625 0.5625 3.8375
2.25 0.5625 3.9
2.25 0.625 3.8375
2.1875 0.625 3.9
2.25 0.5625 3.8375
2.1875 0.5625 3.9
2.1875 0.625 3.8375
2.1875 0.5625 3.8375
2.375 0.5625 3.9
2.375 0.625 3.8375
2.3125 0.625 3.9
2.375 0.5625 3.8375
2.3125 0.5625 3.9
2.3125 0.625 3.8375
2.3125 0.5625 3.8375
2.5 0.5625 3.9
2.5 0.625 3.8375
2.4375 0.625 3.9
2.5 0.5625 3.8375
2.4375 0.5625 3.9
2.4375 0.625 3.8375
2.4375 0.5625 3.8375
2.625 0.5625 3.9
2.625 0.625 3.8375
2.5625 0.625 3.9
2.625 0.5625 3.8375
2.5625 0.5625 3.9
2.5625 0.625 3.8375
2.5625 0.5625 3.8375
2.75 0.5625 3.9
2.75 0.625 3.8375
2.6875 0.625 3.9
2.75 0.5625 3.8375
2.6875 0.5625 3.9
2.6875 0.625 3.8375
2.6875 0.5625 3.8375
2.875 0.5625 3.9
2.875 0.625 3.8375
2.8125 0.625 3.9
2.875 0.5625 3.8375
2.8125 0.5625 3.9
2.8125 0.625 3.8375
2.8125 0.5625 3.8375
3 0.5625 3.9
3 0.625 3.8375
2.9375 0.625 3.9
3 0.5625 3.8375
2.9375 0.5625 3.9
2.9375 0.625 3.8375
2.9375 0.5625 3.8375
3.125 0.5625 3.9
3.125 0.625 3.8375
3.0625 0.625 3.9
3.125 0.5625 3.8375
3.0625 0.5625 3.9
3.0625 0.625 3.8375
3.0625 0.5625 3.8375
3.25 0.5625 3.9
3.25 0.625 3.8375
3.1875 0.625 3.9
3.25 0.5625 3.8375
3.1875 0.5625 3.9
3.1875 0.625 3.8375
3.1875 0.5625 3.8375
3.375 0.5625 3.9
3.375 0.625 3.8375
3.3125 0.625 3.9
3.375 0.5625 3.8375
3.3125 0.5625 3.9
3.3125 0.625 3.8375
3.3125 0.5625 3.8375
3.5 0.5625 3.9
3.5 0.625 3.8375
3.4375 0.625 3.9
3.5 0.5625 3.8375
3.4375 0.5625 3.9
3.4375 0.625 3.8375
3.4375 0.5625 3.8375
3.625 0.5625 3.9
3.625 0.625 3.8375
3.5625 0.625 3.9
3.625 0.5625 3.8375
3.5625 0.5625 3.9
3.5625 0.625 3.8375
3.5625 0.5625 3.8375
3.75 0.5625 3.9
3.75 0.625 3.8375
3.6875 0.625 3.9
3.75 0.5625 3.8375
3.6875 0.5625 3.9
3.6875 0.625 3.8375
3.6875 0.5625 3.8375
3.875 0.5625 3.9
3.875 0.625 3.8375
3.8125 0.625 3.9
3.875 0.5625 3.8375
3.8125 0.5625 3.9
3.8125 0.625 3.8375
3.8125 0.5625 3.8375
4 0.5625 3.9
4 0.625 3.8375
3.9375 0.625 3.9
4 0.5625 3.8375
3.9375 0.5625 3.9
3.9375 0.625 3.8375
3.9375 0.5625 3.8375
0.125 0.6875 3.9
0 0.6875 3.9
0.125 0.75 3.8375
0.0625 0.75 3.9
0 0.75 3.8375
0.125 0.6875 3.8375
0.0625 0.6875 3.9
0 0.6875 3.8375
0.0625 0.75 3.8375
0.0625 0.6875 3.8375
0.25 0.6875 3.9
0.25 0.75 3.8375
0.1875 0.75 3.9
0.25 0.6875 3.8375
0.1875 0.6875 3.9
0.1875 0.75 3.8375
0.1875 0.6875 3.8375
0.375 0.6875 3.9
0.375 0.75 3.8375
0.3125 0.75 3.9
0.375 0.6875 3.8375
0.3125 0.6875 3.9
0.3125 0.75 3.8375
0.3125 0.6875 3.8375
0.5 0.6875 3.9
0.5 0.75 3.8375
0.4375 0.75 3.9
0.5 0.6875 3.8375
0.4375 0.6875 3.9
0.4375 0.75 3.8375
0.4375 0.6875 3.8375
0.625 0.6875 3.9
0.625 0.75 3.8375
0.5625 0.75 3.9
0.625 0.6875 3.8375
0.5625 0.6875 3.9
0.5625 0.75 3.8375
0.5625 0.6875 3.8375
0.75 0.6875 3.9
0.75 0.75 3.8375
0.6875 0.75 3.9
0.75 0.6875 3.8375
0.6875 0.6875 3.9
0.6875 0.75 3.8375
0.6875 0.6875 3.8375
0.875 0.6875 3.9
0.875 0.75 3.8375
0.8125 0.75 3.9
0.875 0.6875 3.8375
0.8125 0.6875 3.9
0.8125 0.75 3.8375
0.8125 0.6875 3.8375
1 0.6875 3.9
1 0.75 3.8375
0.9375 0.75 3.9
1 0.6875 3.8375
0.9375 0.6875 3.9
0.9375 0.75 3.8375
0.9375 0.6875 3.8375
1.125 0.6875 3.9
1.125 0.75 3.8375
1.0625 0.75 3.9
1.125 0.6875 3.8375
1.0625 0.6875 3.9
1.0625 0.75 3.8375
1.0625 0.6875 3.8375
1.25 0.6875 3.9
1.25 0.75 3.8375
1.1875 0.75 3.9
1.25 0.6875 3.8375
1.1875 0.6875 3.9
1.1875 0.75 3.8375
1.1875 0.6875 3.8375
1.375 0.6875 3.9
1.375 0.75 3.8375
1.3125 0.75 3.9
1.375 0.6875 3.8375
1.3125 0.6875 3.9
1.3125 0.75 3.8375
1.3125 0.6875 3.8375
1.5 0.6875 3.9
1.5 0.75 3.8375
1.4375 0.75 3.9
1.5 0.6875 3.8375
1.4375 0.6875 3.9
1.4375 0.75 3.8375
1.4375 0.6875 3.8375
1.625 0.6875 3.9
1.625 0.75 3.8375
1.5625 0.75 3.9
1.625 0.6875 3.8375
1.5625 0.6875 3.9
1.5625 0.75 3.8375
1.5625 0.6875 3.8375
1.75 0.6875 3.9
1.75 0.75 3.8375
1.6875 0.75 3.9
1.75 0.6875 3.8375
1.6875 0.6875 3.9
1.6875 0.75 3.8375
1.6875 0.6875 3.8375
1.875 0.6875 3.9
1.875 0.75 3.8375
1.8125 0.75 3.9
1.875 0.6875 3.8375
1.8125 0.6875 3.9
1.8125 0.75 3.8375
1.8125 0.6875 3.8375
2 0.6875 3.9
2 0.75 3.8375
1.9375 0.75 3.9
2 0.6875 3.8375
1.9375 0.6875 3.9
1.9375 0.75 3.8375
1.9375 0.6875 3.8375
2.125 0.6875 3.9
2.125 0.75 3.8375
2.0625 0.75 3.9
2.125 0.6875 3.8375
2.0625 0.6875 3.9
2.0625 0.75 3.8375
2.0625 0.6875 3.8375
2.25 0.6875 3.9
2.25 0.75 3.8375
2.1875 0.75 3.9
2.25 0.6875 3.8375
2.1875 0.6875 3.9
2.1875 0.75 3.8375
2.1875 0.6875 3.8375
2.375 0.6875 3.9
2.375 0.75 3.8375
2.3125 0.75 3.9
2.375 0.6875 3.8375
2.3125 0.6875 3.9
2.3125 0.75 3.8375
2.3125 0.6875 3.8375
2.5 0.6875 3.9
2.5 0.75 3.8375
2.4375 0.75 3.9
2.5 0.6875 3.8375
2.4375 0.6875 3.9
2.4375 0.75 3.8375
2.4375 0.6875 3.8375
2.625 0.6875 3.9
2.625 0.75 3.8375
2.5625 0.75 3.9
2.625 0.6875 3.8375
2.5625 0.6875 3.9
2.5625 0.75 3.8375
2.5625 0.6875 3.8375
2.75 0.6875 3.9
2.75 0.75 3.8375
2.6875 0.75 3.9
2.75 0.6875 3.8375
2.6875 0.6875 3.9
2.6875 0.75 3.8375
2.6875 0.6875 3.8375
2.875 0.6875 3.9
2.875 0.75 3.8375
2.8125 0.75 3.9
2.875 0.6875 3.8375
2.8125 0.6875 3.9
2.8125 0.75 3.8375
2.8125 0.6875 3.8375
3 0.6875 3.9
3 0.75 3.8375
2.9375 0.75 3.9
3 0.6875 3.8375
2.9375 0.6875 3.9
2.9375 0.75 3.8375
2.9375 0.6875 3.8375
3.125 0.6875 3.9
3.125 0.75 3.8375
3.0625 0.75 3.9
3.125 0.6875 3.8375
3.0625 0.6875 3.9
3.0625 0.75 3.8375
3.0625 0.6875 3.8375
3.25 0.6875 3.9
3.25 0.75 3.8375
3.1875 0.75 3.9
3.25 0.6875 3.8375
3.1875 0.6875 3.9
3.1875 0.75 3.8375
3.1875 0.6875 3.8375
3.375 0.6875 3.9
3.375 0.75 3.8375
3.3125 0.75 3.9
3.375 0.6875 3.8375
3.3125 0.6875 3.9
3.3125 0.75 3.8375
3.3125 0.6875 3.8375
3.5 0.6875 3.9
3.5 0.75 3.8375
3.4375 0.75 3.9
3.5 0.6875 3.8375
3.4375 0.6875 3.9
3.4375 0.75 3.8375
3.4375 0.6875 3.8375
3.625 0.6875 3.9
3.625 0.75 3.8375
3.5625 0.75 3.9
3.625 0.6875 3.8375
3.5625 0.6875 3.9
3.5625 0.75 3.8375
3.5625 0.6875 3.8375
3.75 0.6875 3.9
3.75 0.75 3.8375
3.6875 0.75 3.9
3.75 0.6875 3.8375
3.6875 0.6875 3.9
3.6875 0.75 3.8375
3.6875 0.6875 3.8375
3.875 0.6875 3.9
3.875 0.75 3.8375
3.8125 0.75 3.9
3.875 0.6875 3.8375
3.8125 0.6875 3.9
3.8125 0.75 3.8375
3.8125 0.6875 3.8375
4 0.6875 3.9
4 0.75 3.8375
3.9375 0.75 3.9
4 0.6875 3.8375
3.9375 0.6875 3.9
3.9375 0.75 3.8375
3.9375 0.6875 3.8375
0.125 0.8125 3.9
0 0.8125 3.9
0.125 0.875 3.8375
0.0625 0.875 3.9
0 0.875 3.8375
0.125 0.8125 3.8375
0.0625 0.8125 3.9
0 0.8125 3.8375
0.0625 0.875 3.8375
0.0625 0.8125 3.8375
0.25 0.8125 3.9
0.25 0.875 3.8375
0.1875 0.875 3.9
0.25 0.8125 3.8375
0.1875 0.8125 3.9
0.1875 0.875 3.8375
0.1875 0.8125 3.8375
0.375 0.8125 3.9
0.375 0.875 3.8375
0.3125 0.875 3.9
0.375 0.8125 3.8375
0.3125 0.8125 3.9
0.3125 0.875 3.8375
0.3125 0.8125 3.8375
0.5 0.8125 3.9
0.5 0.875 3.8375
0.4375 0.875 3.9
0.5 0.8125 3.8375
0.4375 0.8125 3.9
0.4375 0.875 3.8375
0.4375 0.8125 3.8375
0.625 0.8125 3.9
0.625 0.875 3.8375
0.5625 0.875 3.9
0.625 0.8125 3.8375
0.5625 0.8125 3.9
0.5625 0.875 3.8375
0.5625 0.8125 3.8375
0.75 0.8125 3.9
0.75 0.875 3.8375
0.6875 0.875 3.9
0.75 0.8125 3.8375
0.6875 0.8125 3.9
0.6875 0.875 3.8375
0.6875 0.8125 3.8375
0.875 0.8125 3.9
0.875 0.875 3.8375
0.8125 0.875 3.9
0.875 0.8125 3.8375
0.8125 0.8125 3.9
0.8125 0.875 3.8375
0.8125 0.8125 3.8375
1 0.8125 3.9
1 0.875 3.8375
0.9375 0.875 3.9
1 0.8125 3.8375
0.9375 0.8125 3.9
0.9375 0.875 3.8375
0.9375 0.8125 3.8375
1.125 0.8125 3.9
1.125 0.875 3.8375
1.0625 0.875 3.9
1.125 0.8125 3.8375
1.0625 0.8125 3.9
1.0625 0.875 3.8375
1.0625 0.8125 3.8375
1.25 0.8125 3.9
1.25 0.875 3.8375
1.1875 0.875 3.9
1.25 0.8125 3.8375
1.1875 0.8125 3.9
1.1875 0.875 3.8375
1.1875 0.8125 3.8375
1.375 0.8125 3.9
1.375 0.875 3.8375
1.3125 0.875 3.9
1.375 0.8125 3.8375
1.3125 0.8125 3.9
1.3125 0.875 3.8375
1.3125 0.8125 3.8375
1.5 0.8125 3.9
1.5 0.875 3.8375
1.4375 0.875 3.9
1.5 0.8125 3.8375
1.4375 0.8125 3.9
1.4375 0.875 3.8375
1.4375 0.8125 3.8375
1.625 0.8125 3.9
1.625 0.875 3.8375
1.5625 0.875 3.9
1.625 0.8125 3.8375
1.5625 0.8125 3.9
1.5625 0.875 3.8375
1.5625 0.8125 3.8375
1.75 0.8125 3.9
1.75 0.875 3.8375
1.6875 0.875 3.9
1.75 0.8125 3.8375
1.6875 0.8125 3.9
1.6875 0.875 3.8375
1.6875 0.8125 3.8375
1.875 0.8125 3.9
1.875 0.875 3.8375
1.8125 0.875 3.9
1.875 0.8125 3.8375
1.8125 0.8125 3.9
1.8125 0.875 3.8375
1.8125 0.8125 3.8375
2 0.8125 3.9
2 0.875 3.8375
1.9375 0.875 3.9
2 0.8125 3.8375
1.9375 0.8125 3.9
1.9375 0.875 3.8375
1.9375 0.8125 3.8375
2.125 0.8125 3.9
2.125 0.875 3.8375
2.0625 0.875 3.9
2.125 0.8125 3.8375
2.0625 0.8125 3.9
2.0625 0.875 3.8375
2.0625 0.8125 3.8375
2.25 0.8125 3.9
2.25 0.875 3.8375
2.1875 0.875 3.9
2.25 0.8125 3.8375
2.1875 0.8125 3.9
2.1875 0.875 3.8375
2.1875 0.8125 3.8375
2.375 0.8125 3.9
2.375 0.875 3.8375
2.3125 0.875 3.9
2.375 0.8125 3.8375
2.3125 0.8125 3.9
2.3125 0.875 3.8375
2.3125 0.8125 3.8375
2.5 0.8125 3.9
2.5 0.875 3.8375
2.4375 0.875 3.9
2.5 0.8125 3.8375
2.4375 0.8125 3.9
2.4375 0.875 3.8375
2.4375 0.8125 3.8375
2.625 0.8125 3.9
2.625 0.875 3.8375
2.5625 0.875 3.9
2.625 0.8125 3.8375
2.5625 0.8125 3.9
2.5625 0.875 3.8375
2.5625 0.8125 3.8375
2.75 0.8125 3.9
2.75 0.875 3.8375
2.6875 0.875 3.9
2.75 0.8125 3.8375
2.6875 0.8125 3.9
2.6875 0.875 3.8375
2.6875 0.8125 3.8375
2.875 0.8125 3.9
2.875 0.875 3.8375
2.8125 0.875 3.9
2.875 0.8125 3.8375
2.8125 0.8125 3.9
2.8125 0.875 3.8375
2.8125 0.8125 3.8375
3 0.8125 3.9
3 0.875 3.8375
2.9375 0.875 3.9
3 0.8125 3.8375
2.9375 0.8125 3.9
2.9375 0.875 3.8375
2.9375 0.8125 3.8375
3.125 0.8125 3.9
3.125 0.875 3.8375
3.0625 0.875 3.9
3.125 0.8125 3.8375
3.0625 0.8125 3.9
3.0625 0.875 3.8375
3.0625 0.8125 3.8375
3.25 0.8125 3.9
3.25 0.875 3.8375
3.1875 0.875 3.9
3.25 0.8125 3.8375
3.1875 0.8125 3.9
3.1875 0.875 3.8375
3.1875 0.8125 3.8375
3.375 0.8125 3.9
3.375 0.875 3.8375
3.3125 0.875 3.9
3.375 0.8125 3.8375
3.3125 0.8125 3.9
3.3125 0.875 3.8375
3.3125 0.8125 3.8375
3.5 0.8125 3.9
3.5 0.875 3.8375
3.4375 0.875 3.9
3.5 0.8125 3.8375
3.4375 0.8125 3.9
3.4375 0.875 3.8375
3.4375 0.8125 3.8375
3.625 0.8125 3.9
3.625 0.875 3.8375
3.5625 0.875 3.9
3.625 0.8125 3.8375
3.5625 0.8125 3.9
3.5625 0.875 3.8375
3.5625 0.8125 3.8375
3.75 0.8125 3.9
3.75 0.875 3.8375
3.6875 0.875 3.9
3.75 0.8125 3.8375
3.6875 0.8125 3.9
3.6875 0.875 3.8375
3.6875 0.8125 3.8375
3.875 0.8125 3.9
3.875 0.875 3.8375
3.8125 0.875 3.9
3.875 0.8125 3.8375
3.8125 0.8125 3.9
3.8125 0.875 3.8375
3.8125 0.8125 3.8375
4 0.8125 3.9
4 0.875 3.8375
3.9375 0.875 3.9
4 0.8125 3.8375
3.9375 0.8125 3.9
3.9375 0.875 3.8375
3.9375 0.8125 3.8375
0.125 0.9375 3.9
0 0.9375 3.9
0.125 1 3.8375
0.0625 1 3.9
0 1 3.8375
0.125 0.9375 3.8375
0.0625 0.9375 3.9
0 0.9375 3.8375
0.0625 1 3.8375
0.0625 0.9375 3.8375
0.25 0.9375 3.9
0.25 1 3.8375
0.1875 1 3.9
0.25 0.9375 3.8375
0.1875 0.9375 3.9
0.1875 1 3.8375
0.1875 0.9375 3.8375
0.375 0.9375 3.9
0.375 1 3.8375
0.3125 1 3.9
0.375 0.9375 3.8375
0.3125 0.9375 3.9
0.3125 1 3.8375
0.3125 0.9375 3.8375
0.5 0.9375 3.9
0.5 1 3.8375
0.4375 1 3.9
0.5 0.9375 3.8375
0.4375 0.9375 3.9
0.4375 1 3.8375
0.4375 0.9375 3.8375
0.625 0.9375 3.9
0.625 1 3.8375
0.5625 1 3.9
0.625 0.9375 3.8375
0.5625 0.9375 3.9
0.5625 1 3.8375
0.5625 0.9375 3.8375
0.75 0.9375 3.9
0.75 1 3.8375
0.6875 1 3.9
0.75 0.9375 3.8375
0.6875 0.9375 3.9
0.6875 1 3.8375
0.6875 0.9375 3.8375
0.875 0.9375 3.9
0.875 1 3.8375
0.8125 1 3.9
0.875 0.9375 3.8375
0.8125 0.9375 3.9
0.8125 1 3.8375
0.8125 0.9375 3.8375
1 0.9375 3.9
1 1 3.8375
0.9375 1 3.9
1 0.9375 3.8375
0.9375 0.9375 3.9
0.9375 1 3.8375
0.9375 0.9375 3.8375
1.125 0.9375 3.9
1.125 1 3.8375
1.0625 1 3.9
1.125 0.9375 3.8375
1.0625 0.9375 3.9
1.0625 1 3.8375
1.0625 0.9375 3.8375
1.25 0.9375 3.9
1.25 1 3.8375
1.1875 1 3.9
1.25 0.9375 3.8375
1.1875 0.9375 3.9
1.1875 1 3.8375
1.1875 0.9375 3.8375
1.375 0.9375 3.9
1.375 1 3.8375
1.3125 1 3.9
1.375 0.9375 3.8375
1.3125 0.9375 3.9
1.3125 1 3.8375
1.3125 0.9375 3.8375
1.5 0.9375 3.9
1.5 1 3.8375
1.4375 1 3.9
1.5 0.9375 3.8375
1.4375 0.9375 3.9
1.4375 1 3.8375
1.4375 0.9375 3.8375
1.625 0.9375 3.9
1.625 1 3.8375
1.5625 1 3.9
1.625 0.9375 3.8375
1.5625 0.9375 3.9
1.5625 1 3.8375
1.5625 0.9375 3.8375
1.75 0.9375 3.9
1.75 1 3.8375
1.6875 1 3.9
1.75 0.9375 3.8375
1.6875 0.9375 3.9
1.6875 1 3.8375
1.6875 0.9375 3.8375
1.875 0.9375 3.9
1.875 1 3.8375
1.8125 1 3.9
1.875 0.9375 3.8375
1.8125 0.9375 3.9
1.8125 1 3.8375
1.8125 0.9375 3.8375
2 0.9375 3.9
2 1 3.8375
1.9375 1 3.9
2 0.9375 3.8375
1.9375 0.9375 3.9
1.9375 1 3.8375
1.9375 0.9375 3.8375
2.125 0.9375 3.9
2.125 1 3.8375
2.0625 1 3.9
2.125 0.9375 3.8375
2.0625 0.9375 3.9
2.0625 1 3.8375
2.0625 0.9375 3.8375
2.25 0.9375 3.9
2.25 1 3.8375
2.1875 1 3.9
2.25 0.9375 3.8375
2.1875 0.9375 3.9
2.1875 1 3.8375
2.1875 0.9375 3.8375
2.375 0.9375 3.9
2.375 1 3.8375
2.3125 1 3.9
2.375 0.9375 3.8375
2.3125 0.9375 3.9
2.3125 1 3.8375
2.3125 0.9375 3.8375
2.5 0.9375 3.9
2.5 1 3.8375
2.4375 1 3.9
2.5 0.9375 3.8375
2.4375 0.9375 3.9
2.4375 1 3.8375
2.4375 0.9375 3.8375
2.625 0.9375 3.9
2.625 1 3.8375
2.5625 1 3.9
2.625 0.9375 3.8375
2.5625 0.9375 3.9
2.5625 1 3.8375
2.5625 0.9375 3.8375
2.75 0.9375 3.9
2.75 1 3.8375
2.6875 1 3.9
2.75 0.9375 3.8375
2.6875 0.9375 3.9
2.6875 1 3.8375
2.6875 0.9375 3.8375
2.875 0.9375 3.9
2.875 1 3.8375
2.8125 1 3.9
2.875 0.9375 3.8375
2.8125 0.9375 3.9
2.8125 1 3.8375
2.8125 0.9375 3.8375
3 0.9375 3.9
3 1 3.8375
2.9375 1 3.9
3 0.9375 3.8375
2.9375 0.9375 3.9
2.9375 1 3.8375
2.9375 0.9375 3.8375
3.125 0.9375 3.9
3.125 1 3.8375
3.0625 1 3.9
3.125 0.9375 3.8375
3.0625 0.9375 3.9
3.0625 1 3.8375
3.0625 0.9375 3.8375
3.25 0.9375 3.9
3.25 1 3.8375
3.1875 1 3.9
3.25 0.9375 3.8375
3.1875 0.9375 3.9
3.1875 1 3.8375
3.1875 0.9375 3.8375
3.375 0.9375 3.9
3.375 1 3.8375
3.3125 1 3.9
3.375 0.9375 3.8375
3.3125 0.9375 3.9
3.3125 1 3.8375
3.3125 0.9375 3.8375
3.5 0.9375 3.9
3.5 1 3.8375
3.4375 1 3.9
3.5 0.9375 3.8375
3.4375 0.9375 3.9
3.4375 1 3.8375
3.4375 0.9375 3.8375
3.625 0.9375 3.9
3.625 1 3.8375
3.5625 1 3.9
3.625 0.9375 3.8375
3.5625 0.9375 3.9
3.5625 1 3.8375
3.5625 0.9375 3.8375
3.75 0.9375 3.9
3.75 1 3.8375
3.6875 1 3.9
3.75 0.9375 3.8375
3.6875 0.9375 3.9
3.6875 1 3.8375
3.6875 0.9375 3.8375
3.875 0.9375 3.9
3.875 1 3.8375
3.8125 1 3.9
3.875 0.9375 3.8375
3.8125 0.9375 3.9
3.8125 1 3.8375
3.8125 0.9375 3.8375
4 0.9375 3.9
4 1 3.8375
3.9375 1 3.9
4 0.9375 3.8375
3.9375 0.9375 3.9
3.9375 1 3.8375
3.9375 0.9375 3.8375
0.125 0 3.9625
0.0625 0 4.025
0 0 3.9625
0.125 0.0625 4.025
0 0.0625 4.025
0.125 0.125 3.9625
0.0625 0.125 4.025
0 0.125 3.9625
0.0625 0 3.9625
0.125 0.0625 3.9625
0.0625 0.0625 4.025
0 0.0625 3.9625
0.0625 0.125 3.9625
0.0625 0.0625 3.9625
0.25 0 3.9625
0.1875 0 4.025
0.25 0.0625 4.025
0.25 0.125 3.9625
0.1875 0.125 4.025
0.1875 0 3.9625
0.25 0.0625 3.9625
0.1875 0.0625 4.025
0.1875 0.125 3.9625
0.1875 0.0625 3.9625
0.375 0 3.9625
0.3125 0 4.025
0.375 0.0625 4.025
0.375 0.125 3.9625
0.3125 0.125 4.025
0.3125 0 3.9625
0.375 0.0625 3.9625
0.3125 0.0625 4.025
0.3125 0.125 3.9625
0.3125 0.0625 3.9625
0.5 0 3.9625
0.4375 0 4.025
0.5 0.0625 4.025
0.5 0.125 3.9625
0.4375 0.125 4.025
0.4375 0 3.9625
0.5 0.0625 3.9625
0.4375 0.0625 4.025
0.4375 0.125 3.9625
0.4375 0.0625 3.9625
0.625 0 3.9625
0.5625 0 4.025
0.625 0.0625 4.025
0.625 0.125 3.9625
0.5625 0.125 4.025
0.5625 0 3.9625
0.625 0.0625 3.9625
0.5625 0.0625 4.025
0.5625 0.125 3.9625
0.5625 0.0625 3.9625
0.75 0 3.9625
0.6875 0 4.025
0.75 0.0625 4.025
0.75 0.125 3.9625
0.6875 0.125 4.025
0.6875 0 3.9625
0.75 0.0625 3.9625
0.6875 0.0625 4.025
0.6875 0.125 3.9625
0.6875 0.0625 3.9625
0.875 0 3.9625
0.8125 0 4.025
0.875 0.0625 4.025
0.875 0.125 3.9625
0.8125 0.125 4.025
0.8125 0 3.9625
0.875 0.0625 3.9625
0.8125 0.0625 4.025
0.8125 0.125 3.9625
0.8125 0.0625 3.9625
1 0 3.9625
0.9375 0 4.025
1 0.0625 4.025
1 0.125 3.9625
0.9375 0.125 4.025
0.9375 0 3.9625
1 0.0625 3.9625
0.9375 0.0625 4.025
0.9375 0.125 3.9625
0.9375 0.0625 3.9625
1.125 0 3.9625
1.0625 0 4.025
1.125 0.0625 4.025
1.125 0.125 3.9625
1.0625 0.125 4.025
1.0625 0 3.9625
1.125 0.0625 3.9625
1.0625 0.0625 4.025
1.0625 0.125 3.9625
1.0625 0.0625 3.9625
1.25 0 3.9625
1.1875 0 4.025
1.25 0.0625 4.025
1.25 0.125 3.9625
1.1875 0.125 4.025
1.1875 0 3.9625
1.25 0.0625 3.9625
1.1875 0.0625 4.025
1.1875 0.125 3.9625
1.1875 0.0625 3.9625
1.375 0 3.9625
1.3125 0 4.025
1.375 0.0625 4.025
1.375 0.125 3.9625
1.3125 0.125 4.025
1.3125 0 3.9625
1.375 0.0625 3.9625
1.3125 0.0625 4.025
1.3125 0.125 3.9625
1.3125 0.0625 3.9625
1.5 0 3.9625
1.4375 0 4.025
1.5 0.0625 4.025
1.5 0.125 3.9625
1.4375 0.125 4.025
1.4375 0 3.9625
1.5 0.0625 3.9625
1.4375 0.0625 4.025
1.4375 0.125 3.9625
1.4375 0.0625 3.9625
1.625 0 3.9625
1.5625 0 4.025
1.625 0.0625 4.025
1.625 0.125 3.9625
1.5625 0.125 4.025
1.5625 0 3.9625
1.625 0.0625 3.9625
1.5625 0.0625 4.025
1.5625 0.125 3.9625
1.5625 0.0625 3.9625
1.75 0 3.9625
1.6875 0 4.025
1.75 0.0625 4.025
1.75 0.125 3.9625
1.6875 0.125 4.025
1.6875 0 3.9625
1.75 0.0625 3.9625
1.6875 0.0625 4.025
1.6875 0.125 3.9625
1.6875 0.0625 3.9625
1.875 0 3.9625
1.8125 0 4.025
1.875 0.0625 4.025
1.875 0.125 3.9625
1.8125 0.125 4.025
1.8125 0 3.9625
1.875 0.0625 3.9625
1.8125 0.0625 4.025
1.8125 0.125 3.9625
1.8125 0.0625 3.9625
2 0 3.9625
1.9375 0 4.025
2 0.0625 4.025
2 0.125 3.9625
1.9375 0.125 4.025
1.9375 0 3.9625
2 0.0625 3.9625
1.9375 0.0625 4.025
1.9375 0.125 3.9625
1.9375 0.0625 3.9625
2.125 0 3.9625
2.0625 0 4.025
2.125 0.0625 4.025
2.125 0.125 3.9625
2.0625 0.125 4.025
2.0625 0 3.9625
2.125 0.0625 3.9625
2.0625 0.0625 4.025
2.0625 0.125 3.9625
2.0625 0.0625 3.9625
2.25 0 3.9625
2.1875 0 4.025
2.25 0.0625 4.025
2.25 0.125 3.9625
2.1875 0.125 4.025
2.1875 0 3.9625
2.25 0.0625 3.9625
2.1875 0.0625 4.025
2.1875 0.125 3.9625
2.1875 0.0625 3.9625
2.375 0 3.9625
2.3125 0 4.025
2.375 0.0625 4.025
2.375 0.125 3.9625
2.3125 0.125 4.025
2.3125 0 3.9625
2.375 0.0625 3.9625
2.3125 0.0625 4.025
2.3125 0.125 3.9625
2.3125 0.0625 3.9625
2.5 0 3.9625
2.4375 0 4.025
2.5 0.0625 4.025
2.5 0.125 3.9625
2.4375 0.125 4.025
2.4375 0 3.9625
2.5 0.0625 3.9625
2.4375 0.0625 4.025
2.4375 0.125 3.9625
2.4375 0.0625 3.9625
2.625 0 3.9625
2.5625 0 4.025
2.625 0.0625 4.025
2.625 0.125 3.9625
2.5625 0.125 4.025
2.5625 0 3.9625
2.625 0.0625 3.9625
2.5625 0.0625 4.025
2.5625 0.125 3.9625
2.5625 0.0625 3.9625
2.75 0 3.9625
2.6875 0 4.025
2.75 0.0625 4.025
2.75 0.125 3.9625
2.6875 0.125 4.025
2.6875 0 3.9625
2.75 0.0625 3.9625
2.6875 0.0625 4.025
2.6875 0.125 3.9625
2.6875 0.0625 3.9625
2.875 0 3.9625
2.8125 0 4.025
2.875 0.0625 4.025
2.875 0.125 3.9625
2.8125 0.125 4.025
2.8125 0 3.9625
2.875 0.0625 3.9625
2.8125 0.0625 4.025
2.8125 0.125 3.9625
2.8125 0.0625 3.9625
3 0 3.9625
2.9375 0 4.025
3 0.0625 4.025
3 0.125 3.9625
2.9375 0.125 4.025
2.9375 0 3.9625
3 0.0625 3.9625
2.9375 0.0625 4.025
2.9375 0.125 3.9625
2.9375 0.0625 3.9625
3.125 0 3.9625
3.0625 0 4.025
3.125 0.0625 4.025
3.125 0.125 3.9625
3.0625 0.125 4.025
3.0625 0 3.9625
3.125 0.0625 3.9625
3.0625 0.0625 4.025
3.0625 0.125 3.9625
3.0625 0.0625 3.9625
3.25 0 3.9625
3.1875 0 4.025
3.25 0.0625 4.025
3.25 0.125 3.9625
3.1875 0.125 4.025
3.1875 0 3.9625
3.25 0.0625 3.9625
3.1875 0.0625 4.025
3.1875 0.125 3.9625
3.1875 0.0625 3.9625
3.375 0 3.9625
3.3125 0 4.025
3.375 0.0625 4.025
3.375 0.125 3.9625
3.3125 0.125 4.025
3.3125 0 3.9625
3.375 0.0625 3.9625
3.3125 0.0625 4.025
3.3125 0.125 3.9625
3.3125 0.0625 3.9625
3.5 0 3.9625
3.4375 0 4.025
3.5 0.0625 4.025
3.5 0.125 3.9625
3.4375 0.125 4.025
3.4375 0 3.9625
3.5 0.0625 3.9625
3.4375 0.0625 4.025
3.4375 0.125 3.9625
3.4375 0.0625 3.9625
3.625 0 3.9625
3.5625 0 4.025
3.625 0.0625 4.025
3.625 0.125 3.9625
3.5625 0.125 4.025
3.5625 0 3.9625
3.625 0.0625 3.9625
3.5625 0.0625 4.025
3.5625 0.125 3.9625
3.5625 0.0625 3.9625
3.75 0 3.9625
3.6875 0 4.025
3.75 0.0625 4.025
3.75 0.125 3.9625
3.6875 0.125 4.025
3.6875 0 3.9625
3.75 0.0625 3.9625
3.6875 0.0625 4.025
3.6875 0.125 3.9625
3.6875 0.0625 3.9625
3.875 0 3.9625
3.8125 0 4.025
3.875 0.0625 4.025
3.875 0.125 3.9625
3.8125 0.125 4.025
3.8125 0 3.9625
3.875 0.0625 3.9625
3.8125 0.0625 4.025
3.8125 0.125 3.9625
3.8125 0.0625 3.9625
4 0 3.9625
3.9375 0 4.025
4 0.0625 4.025
4 0.125 3.9625
3.9375 0.125 4.025
3.9375 0 3.9625
4 0.0625 3.9625
3.9375 0.0625 4.025
3.9375 0.125 3.9625
3.9375 0.0625 3.9625
0.125 0.1875 4.025
0 0.1875 4.025
0.125 0.25 3.9625
0.0625 0.25 4.025
0 0.25 3.9625
0.125 0.1875 3.9625
0.0625 0.1875 4.025
0 0.1875 3.9625
0.0625 0.25 3.9625
0.0625 0.1875 3.9625
0.25 0.1875 4.025
0.25 0.25 3.9625
0.1875 0.25 4.025
0.25 0.1875 3.9625
0.1875 0.1875 4.025
0.1875 0.25 3.9625
0.1875 0.1875 3.9625
0.375 0.1875 4.025
0.375 0.25 3.9625
0.3125 0.25 4.025
0.375 0.1875 3.9625
0.3125 0.1875 4.025
0.3125 0.25 3.9625
0.3125 0.1875 3.9625
0.5 0.1875 4.025
0.5 0.25 3.9625
0.4375 0.25 4.025
0.5 0.1875 3.9625
0.4375 0.1875 4.025
0.4375 0.25 3.9625
0.4375 0.1875 3.9625
0.625 0.1875 4.025
0.625 0.25 3.9625
0.5625 0.25 4.025
0.625 0.1875 3.9625
0.5625 0.1875 4.025
0.5625 0.25 3.9625
0.5625 0.1875 3.9625
0.75 0.1875 4.025
0.75 0.25 3.9625
0.6875 0.25 4.025
0.75 0.1875 3.9625
0.6875 0.1875 4.025
0.6875 0.25 3.9625
0.6875 0.1875 3.9625
0.875 0.1875 4.025
0.875 0.25 3.9625
0.8125 0.25 4.025
0.875 0.1875 3.9625
0.8125 0.1875 4.025
0.8125 0.25 3.9625
0.8125 0.1875 3.9625
1 0.1875 4.025
1 0.25 3.9625
0.9375 0.25 4.025
1 0.1875 3.9625
0.9375 0.1875 4.025
0.9375 0.25 3.9625
0.9375 0.1875 3.9625
1.125 0.1875 4.025
1.125 0.25 3.9625
1.0625 0.25 4.025
1.125 0.1875 3.9625
1.0625 0.1875 4.025
1.0625 0.25 3.9625
1.0625 0.1875 3.9625
1.25 0.1875 4.025
1.25 0.25 3.9625
1.1875 0.25 4.025
1.25 0.1875 3.9625
1.1875 0.1875 4.025
1.1875 0.25 3.9625
1.1875 0.1875 3.9625
1.375 0.1875 4.025
1.375 0.25 3.9625
1.3125 0.25 4.025
1.375 0.1875 3.9625
1.3125 0.1875 4.025
1.3125 0.25 3.9625
1.3125 0.1875 3.9625
1.5 0.1875 4.025
1.5 0.25 3.9625
1.4375 0.25 4.025
1.5 0.1875 3.9625
1.4375 0.1875 4.025
1.4375 0.25 3.9625
1.4375 0.1875 3.9625
1.625 0.1875 4.025
1.625 0.25 3.9625
1.5625 0.25 4.025
1.625 0.1875 3.9625
1.5625 0.1875 4.025
1.5625 0.25 3.9625
1.5625 0.1875 3.9625
1.75 0.1875 4.025
1.75 0.25 3.9625
1.6875 0.25 4.025
1.75 0.1875 3.9625
1.6875 0.1875 4.025
1.6875 0.25 3.9625
1.6875 0.1875 3.9625
1.875 0.1875 4.025
1.875 0.25 3.9625
1.8125 0.25 4.025
1.875 0.1875 3.9625
1.8125 0.1875 4.025
1.8125 0.25 3.9625
1.8125 0.1875 3.9625
2 0.1875 4.025
2 0.25 3.9625
1.9375 0.25 4.025
2 0.1875 3.9625
1.9375 0.1875 4.025
1.9375 0.25 3.9625
1.9375 0.1875 3.9625
2.125 0.1875 4.025
2.125 0.25 3.9625
2.0625 0.25 4.025
2.125 0.1875 3.9625
2.0625 0.1875 4.025
2.0625 0.25 3.9625
2.0625 0.1875 3.9625
2.25 0.1875 4.025
2.25 0.25 3.9625
2.1875 0.25 4.025
2.25 0.1875 3.9625
2.1875 0.1875 4.025
2.1875 0.25 3.9625
2.1875 0.1875 3.9625
2.375 0.1875 4.025
2.375 0.25 3.9625
2.3125 0.25 4.025
2.375 0.1875 3.9625
2.3125 0.1875 4.025
2.3125 0.25 3.9625
2.3125 0.1875 3.9625
2.5 0.1875 4.025
2.5 0.25 3.9625
2.4375 0.25 4.025
2.5 0.1875 3.9625
2.4375 0.1875 4.025
2.4375 0.25 3.9625
2.4375 0.1875 3.9625
2.625 0.1875 4.025
2.625 0.25 3.9625
2.5625 0.25 4.025
2.625 0.1875 3.9625
2.5625 0.1875 4.025
2.5625 0.25 3.9625
2.5625 0.1875 3.9625
2.75 0.1875 4.025
2.75 0.25 3.9625
2.6875 0.25 4.025
2.75 0.1875 3.9625
2.6875 0.1875 4.025
2.6875 0.25 3.9625
2.6875 0.1875 3.9625
2.875 0.1875 4.025
2.875 0.25 3.9625
2.8125 0.25 4.025
2.875 0.1875 3.9625
2.8125 0.1875 4.025
2.8125 0.25 3.9625
2.8125 0.1875 3.9625
3 0.1875 4.025
3 0.25 3.9625
2.9375 0.25 4.025
3 0.1875 3.9625
2.9375 0.1875 4.025
2.9375 0.25 3.9625
2.9375 0.1875 3.9625
3.125 0.1875 4.025
3.125 0.25 3.9625
3.0625 0.25 4.025
3.125 0.1875 3.9625
3.0625 0.1875 4.025
3.0625 0.25 3.9625
3.0625 0.1875 3.9625
3.25 0.1875 4.025
3.25 0.25 3.9625
3.1875 0.25 4.025
3.25 0.1875 3.9625
3.1875 0.1875 4.025
3.1875 0.25 3.9625
3.1875 0.1875 3.9625
3.375 0.1875 4.025
3.375 0.25 3.9625
3.3125 0.25 4.025
3.375 0.1875 3.9625
3.3125 0.1875 4.025
3.3125 0.25 3.9625
3.3125 0.1875 3.9625
3.5 0.1875 4.025
3.5 0.25 3.9625
3.4375 0.25 4.025
3.5 0.1875 3.9625
3.4375 0.1875 4.025
3.4375 0.25 3.9625
3.4375 0.1875 3.9625
3.625 0.1875 4.025
3.625 0.25 3.9625
3.5625 0.25 4.025
3.625 0.1875 3.9625
3.5625 0.1875 4.025
3.5625 0.25 3.9625
3.5625 0.1875 3.9625
3.75 0.1875 4.025
3.75 0.25 3.9625
3.6875 0.25 4.025
3.75 0.1875 3.9625
3.6875 0.1875 4.025
3.6875 0.25 3.9625
3.6875 0.1875 3.9625
3.875 0.1875 4.025
3.875 0.25 3.9625
3.8125 0.25 4.025
3.875 0.1875 3.9625
3.8125 0.1875 4.025
3.8125 0.25 3.9625
3.8125 0.1875 3.9625
4 0.1875 4.025
4 0.25 3.9625
3.9375 0.25 4.025
4 0.1875 3.9625
3.9375 0.1875 4.025
3.9375 0.25 3.9625
3.9375 0.1875 3.9625
0.125 0.3125 4.025
0 0.3125 4.025
0.125 0.375 3.9625
0.0625 0.375 4.025
0 0.375 3.9625
0.125 0.3125 3.9625
0.0625 0.3125 4.025
0 0.3125 3.9625
0.0625 0.375 3.9625
0.0625 0.3125 3.9625
0.25 0.3125 4.025
0.25 0.375 3.9625
0.1875 0.375 4.025
0.25 0.3125 3.9625
0.1875 0.3125 4.025
0.1875 0.375 3.9625
0.1875 0.3125 3.9625
0.375 0.3125 4.025
0.375 0.375 3.9625
0.3125 0.375 4.025
0.375 0.3125 3.9625
0.3125 0.3125 4.025
0.3125 0.375 3.9625
0.3125 0.3125 3.9625
0.5 0.3125 4.025
0.5 0.375 3.9625
0.4375 0.375 4.025
0.5 0.3125 3.9625
0.4375 0.3125 4.025
0.4375 0.375 3.9625
0.4375 0.3125 3.9625
0.625 0.3125 4.025
0.625 0.375 3.9625
0.5625 0.375 4.025
0.625 0.3125 3.9625
0.5625 0.3125 4.025
0.5625 0.375 3.9625
0.5625 0.3125 3.9625
0.75 0.3125 4.025
0.75 0.375 3.9625
0.6875 0.375 4.025
0.75 0.3125 3.9625
0.6875 0.3125 4.025
0.6875 0.375 3.9625
0.6875 0.3125 3.9625
0.875 0.3125 4.025
0.875 0.375 3.9625
0.8125 0.375 4.025
0.875 0.3125 3.9625
0.8125 0.3125 4.025
0.8125 0.375 3.9625
0.8125 0.3125 3.9625
1 0.3125 4.025
1 0.375 3.9625
0.9375 0.375 4.025
1 0.3125 3.9625
0.9375 0.3125 4.025
0.9375 0.375 3.9625
0.9375 0.3125 3.9625
1.125 0.3125 4.025
1.125 0.375 3.9625
1.0625 0.375 4.025
1.125 0.3125 3.9625
1.0625 0.3125 4.025
1.0625 0.375 3.9625
1.0625 0.3125 3.9625
1.25 0.3125 4.025
1.25 0.375 3.9625
1.1875 0.375 4.025
1.25 0.3125 3.9625
1.1875 0.3125 4.025
1.1875 0.375 3.9625
1.1875 0.3125 3.9625
1.375 0.3125 4.025
1.375 0.375 3.9625
1.3125 0.375 4.025
1.375 0.3125 3.9625
1.3125 0.3125 4.025
1.3125 0.375 3.9625
1.3125 0.3125 3.9625
1.5 0.3125 4.025
1.5 0.375 3.9625
1.4375 0.375 4.025
1.5 0.3125 3.9625
1.4375 0.3125 4.025
1.4375 0.375 3.9625
1.4375 0.3125 3.9625
1.625 0.3125 4.025
1.625 0.375 3.9625
1.5625 0.375 4.025
1.625 0.3125 3.9625
1.5625 0.3125 4.025
1.5625 0.375 3.9625
1.5625 0.3125 3.9625
1.75 0.3125 4.025
1.75 0.375 3.9625
1.6875 0.375 4.025
1.75 0.3125 3.9625
1.6875 0.3125 4.025
1.6875 0.375 3.9625
1.6875 0.3125 3.9625
1.875 0.3125 4.025
1.875 0.375 3.9625
1.8125 0.375 4.025
1.875 0.3125 3.9625
1.8125 0.3125 4.025
1.8125 0.375 3.9625
1.8125 0.3125 3.9625
2 0.3125 4.025
2 0.375 3.9625
1.9375 0.375 4.025
2 0.3125 3.9625
1.9375 0.3125 4.025
1.9375 0.375 3.9625
1.9375 0.3125 3.9625
2.125 0.3125 4.025
2.125 0.375 3.9625
2.0625 0.375 4.025
2.125 0.3125 3.9625
2.0625 0.3125 4.025
2.0625 0.375 3.9625
2.0625 0.3125 3.9625
2.25 0.3125 4.025
2.25 0.375 3.9625
2.1875 0.375 4.025
2.25 0.3125 3.9625
2.1875 0.3125 4.025
2.1875 0.375 3.9625
2.1875 0.3125 3.9625
2.375 0.3125 4.025
2.375 0.375 3.9625
2.3125 0.375 4.025
2.375 0.3125 3.9625
2.3125 0.3125 4.025
2.3125 0.375 3.9625
2.3125 0.3125 3.9625
2.5 0.3125 4.025
2.5 0.375 3.9625
2.4375 0.375 4.025
2.5 0.3125 3.9625
2.4375 0.3125 4.025
2.4375 0.375 3.9625
2.4375 0.3125 3.9625
2.625 0.3125 4.025
2.625 0.375 3.9625
2.5625 0.375 4.025
2.625 0.3125 3.9625
2.5625 0.3125 4.025
2.5625 0.375 3.9625
2.5625 0.3125 3.9625
2.75 0.3125 4.025
2.75 0.375 3.9625
2.6875 0.375 4.025
2.75 0.3125 3.9625
2.6875 0.3125 4.025
2.6875 0.375 3.9625
2.6875 0.3125 3.9625
2.875 0.3125 4.025
2.875 0.375 3.9625
2.8125 0.375 4.025
2.875 0.3125 3.9625
2.8125 0.3125 4.025
2.8125 0.375 3.9625
2.8125 0.3125 3.9625
3 0.3125 4.025
3 0.375 3.9625
2.9375 0.375 4.025
3 0.3125 3.9625
2.9375 0.3125 4.025
2.9375 0.375 3.9625
2.9375 0.3125 3.9625
3.125 0.3125 4.025
3.125 0.375 3.9625
3.0625 0.375 4.025
3.125 0.3125 3.9625
3.0625 0.3125 4.025
3.0625 0.375 3.9625
3.0625 0.3125 3.9625
3.25 0.3125 4.025
3.25 0.375 3.9625
3.1875 0.375 4.025
3.25 0.3125 3.9625
3.1875 0.3125 4.025
3.1875 0.375 3.9625
3.1875 0.3125 3.9625
3.375 0.3125 4.025
3.375 0.375 3.9625
3.3125 0.375 4.025
3.375 0.3125 3.9625
3.3125 0.3125 4.025
3.3125 0.375 3.9625
3.3125 0.3125 3.9625
3.5 0.3125 4.025
3.5 0.375 3.9625
3.4375 0.375 4.025
3.5 0.3125 3.9625
3.4375 0.3125 4.025
3.4375 0.375 3.9625
3.4375 0.3125 3.9625
3.625 0.3125 4.025
3.625 0.375 3.9625
3.5625 0.375 4.025
3.625 0.3125 3.9625
3.5625 0.3125 4.025
3.5625 0.375 3.9625
3.5625 0.3125 3.9625
3.75 0.3125 4.025
3.75 0.375 3.9625
3.6875 0.375 4.025
3.75 0.3125 3.9625
3.6875 0.3125 4.025
3.6875 0.375 3.9625
3.6875 0.3125 3.9625
3.875 0.3125 4.025
3.875 0.375 3.9625
3.8125 0.375 4.025
3.875 0.3125 3.9625
3.8125 0.3125 4.025
3.8125 0.375 3.9625
3.8125 0.3125 3.9625
4 0.3125 4.025
4 0.375 3.9625
3.9375 0.375 4.025
4 0.3125 3.9625
3.9375 0.3125 4.025
3.9375 0.375 3.9625
3.9375 0.3125 3.9625
0.125 0.4375 4.025
0 0.4375 4.025
0.125 0.5 3.9625
0.0625 0.5 4.025
0 0.5 3.9625
0.125 0.4375 3.9625
0.0625 0.4375 4.025
0 0.4375 3.9625
0.0625 0.5 3.9625
0.0625 0.4375 3.9625
0.25 0.4375 4.025
0.25 0.5 3.9625
0.1875 0.5 4.025
0.25 0.4375 3.9625
0.1875 0.4375 4.025
0.1875 0.5 3.9625
0.1875 0.4375 3.9625
0.375 0.4375 4.025
0.375 0.5 3.9625
0.3125 0.5 4.025
0.375 0.4375 3.9625
0.3125 0.4375 4.025
0.3125 0.5 3.9625
0.3125 0.4375 3.9625
0.5 0.4375 4.025
0.5 0.5 3.9625
0.4375 0.5 4.025
0.5 0.4375 3.9625
0.4375 0.4375 4.025
0.4375 0.5 3.9625
0.4375 0.4375 3.9625
0.625 0.4375 4.025
0.625 0.5 3.9625
0.5625 0.5 4.025
0.625 0.4375 3.9625
0.5625 0.4375 4.025
0.5625 0.5 3.9625
0.5625 0.4375 3.9625
0.75 0.4375 4.025
0.75 0.5 3.9625
0.6875 0.5 4.025
0.75 0.4375 3.9625
0.6875 0.4375 4.025
0.6875 0.5 3.9625
0.6875 0.4375 3.9625
0.875 0.4375 4.025
0.875 0.5 3.9625
0.8125 0.5 4.025
0.875 0.4375 3.9625
0.8125 0.4375 4.025
0.8125 0.5 3.9625
0.8125 0.4375 3.9625
1 0.4375 4.025
1 0.5 3.9625
0.9375 0.5 4.025
1 0.4375 3.9625
0.9375 0.4375 4.025
0.9375 0.5 3.9625
0.9375 0.4375 3.9625
1.125 0.4375 4.025
1.125 0.5 3.9625
1.0625 0.5 4.025
1.125 0.4375 3.9625
1.0625 0.4375 4.025
1.0625 0.5 3.9625
1.0625 0.4375 3.9625
1.25 0.4375 4.025
1.25 0.5 3.9625
1.1875 0.5 4.025
1.25 0.4375 3.9625
1.1875 0.4375 4.025
1.1875 0.5 3.9625
1.1875 0.4375 3.9625
1.375 0.4375 4.025
1.375 0.5 3.9625
1.3125 0.5 4.025
1.375 0.4375 3.9625
1.3125 0.4375 4.025
1.3125 0.5 3.9625
1.3125 0.4375 3.9625
1.5 0.4375 4.025
1.5 0.5 3.9625
1.4375 0.5 4.025
1.5 0.4375 3.9625
1.4375 0.4375 4.025
1.4375 0.5 3.9625
1.4375 0.4375 3.9625
1.625 0.4375 4.025
1.625 0.5 3.9625
1.5625 0.5 4.025
1.625 0.4375 3.9625
1.5625 0.4375 4.025
1.5625 0.5 3.9625
1.5625 0.4375 3.9625
1.75 0.4375 4.025
1.75 0.5 3.9625
1.6875 0.5 4.025
1.75 0.4375 3.9625
1.6875 0.4375 4.025
1.6875 0.5 3.9625
1.6875 0.4375 3.9625
1.875 0.4375 4.025
1.875 0.5 3.9625
1.8125 0.5 4.025
1.875 0.4375 3.9625
1.8125 0.4375 4.025
1.8125 0.5 3.9625
1.8125 0.4375 3.9625
2 0.4375 4.025
2 0.5 3.9625
1.9375 0.5 4.025
2 0.4375 3.9625
1.9375 0.4375 4.025
1.9375 0.5 3.9625
1.9375 0.4375 3.9625
2.125 0.4375 4.025
2.125 0.5 3.9625
2.0625 0.5 4.025
2.125 0.4375 3.9625
2.0625 0.4375 4.025
2.0625 0.5 3.9625
2.0625 0.4375 3.9625
2.25 0.4375 4.025
2.25 0.5 3.9625
2.1875 0.5 4.025
2.25 0.4375 3.9625
2.1875 0.4375 4.025
2.1875 0.5 3.9625
2.1875 0.4375 3.9625
2.375 0.4375 4.025
2.375 0.5 3.9625
2.3125 0.5 4.025
2.375 0.4375 3.9625
2.3125 0.4375 4.025
2.3125 0.5 3.9625
2.3125 0.4375 3.9625
2.5 0.4375 4.025
2.5 0.5 3.9625
2.4375 0.5 4.025
2.5 0.4375 3.9625
2.4375 0.4375 4.025
2.4375 0.5 3.9625
2.4375 0.4375 3.9625
2.625 0.4375 4.025
2.625 0.5 3.9625
2.5625 0.5 4.025
2.625 0.4375 3.9625
2.5625 0.4375 4.025
2.5625 0.5 3.9625
2.5625 0.4375 3.9625
2.75 0.4375 4.025
2.75 0.5 3.9625
2.6875 0.5 4.025
2.75 0.4375 3.9625
2.6875 0.4375 4.025
2.6875 0.5 3.9625
2.6875 0.4375 3.9625
2.875 0.4375 4.025
2.875 0.5 3.9625
2.8125 0.5 4.025
2.875 0.4375 3.9625
2.8125 0.4375 4.025
2.8125 0.5 3.9625
2.8125 0.4375 3.9625
3 0.4375 4.025
3 0.5 3.9625
2.9375 0.5 4.025
3 0.4375 3.9625
2.9375 0.4375 4.025
2.9375 0.5 3.9625
2.9375 0.4375 3.9625
3.125 0.4375 4.025
3.125 0.5 3.9625
3.0625 0.5 4.025
3.125 0.4375 3.9625
3.0625 0.4375 4.025
3.0625 0.5 3.9625
3.0625 0.4375 3.9625
3.25 0.4375 4.025
3.25 0.5 3.9625
3.1875 0.5 4.025
3.25 0.4375 3.9625
3.1875 0.4375 4.025
3.1875 0.5 3.9625
3.1875 0.4375 3.9625
3.375 0.4375 4.025
3.375 0.5 3.9625
3.3125 0.5 4.025
3.375 0.4375 3.9625
3.3125 0.4375 4.025
3.3125 0.5 3.9625
3.3125 0.4375 3.9625
3.5 0.4375 4.025
3.5 0.5 3.9625
3.4375 0.5 4.025
3.5 0.4375 3.9625
3.4375 0.4375 4.025
3.4375 0.5 3.9625
3.4375 0.4375 3.9625
3.625 0.4375 4.025
3.625 0.5 3.9625
3.5625 0.5 4.025
3.625 0.4375 3.9625
3.5625 0.4375 4.025
3.5625 0.5 3.9625
3.5625 0.4375 3.9625
3.75 0.4375 4.025
3.75 0.5 3.9625
3.6875 0.5 4.025
3.75 0.4375 3.9625
3.6875 0.4375 4.025
3.6875 0.5 3.9625
3.6875 0.4375 3.9625
3.875 0.4375 4.025
3.875 0.5 3.9625
3.8125 0.5 4.025
3.875 0.4375 3.9625
3.8125 0.4375 4.025
3.8125 0.5 3.9625
3.8125 0.4375 3.9625
4 0.4375 4.025
4 0.5 3.9625
3.9375 0.5 4.025
4 0.4375 3.9625
3.9375 0.4375 4.025
3.9375 0.5 3.9625
3.9375 0.4375 3.9625
0.125 0.5625 4.025
0 0.5625 4.025
0.125 0.625 3.9625
0.0625 0.625 4.025
0 0.625 3.9625
0.125 0.5625 3.9625
0.0625 0.5625 4.025
0 0.5625 3.9625
0.0625 0.625 3.9625
0.0625 0.5625 3.9625
0.25 0.5625 4.025
0.25 0.625 3.9625
0.1875 0.625 4.025
0.25 0.5625 3.9625
0.1875 0.5625 4.025
0.1875 0.625 3.9625
0.1875 0.5625 3.9625
0.375 0.5625 4.025
0.375 0.625 3.9625
0.3125 0.625 4.025
0.375 0.5625 3.9625
0.3125 0.5625 4.025
0.3125 0.625 3.9625
0.3125 0.5625 3.9625
0.5 0.5625 4.025
0.5 0.625 3.9625
0.4375 0.625 4.025
0.5 0.5625 3.9625
0.4375 0.5625 4.025
0.4375 0.625 3.9625
0.4375 0.5625 3.9625
0.625 0.5625 4.025
0.625 0.625 3.9625
0.5625 0.625 4.025
0.625 0.5625 3.9625
0.5625 0.5625 4.025
0.5625 0.625 3.9625
0.5625 0.5625 3.9625
0.75 0.5625 4.025
0.75 0.625 3.9625
0.6875 0.625 4.025
0.75 0.5625 3.9625
0.6875 0.5625 4.025
0.6875 0.625 3.9625
0.6875 0.5625 3.9625
0.875 0.5625 4.025
0.875 0.625 3.9625
0.8125 0.625 4.025
0.875 0.5625 3.9625
0.8125 0.5625 4.025
0.8125 0.625 3.9625
0.8125 0.5625 3.9625
1 0.5625 4.025
1 0.625 3.9625
0.9375 0.625 4.025
1 0.5625 3.9625
0.9375 0.5625 4.025
0.9375 0.625 3.9625
0.9375 0.5625 3.9625
1.125 0.5625 4.025
1.125 0.625 3.9625
1.0625 0.625 4.025
1.125 0.5625 3.9625
1.0625 0.5625 4.025
1.0625 0.625 3.9625
1.0625 0.5625 3.9625
1.25 0.5625 4.025
1.25 0.625 3.9625
1.1875 0.625 4.025
1.25 0.5625 3.9625
1.1875 0.5625 4.025
1.1875 0.625 3.9625
1.1875 0.5625 3.9625
1.375 0.5625 4.025
1.375 0.625 3.9625
1.3125 0.625 4.025
1.375 0.5625 3.9625
1.3125 0.5625 4.025
1.3125 0.625 3.9625
1.3125 0.5625 3.9625
1.5 0.5625 4.025
1.5 0.625 3.9625
1.4375 0.625 4.025
1.5 0.5625 3.9625
1.4375 0.5625 4.025
1.4375 0.625 3.9625
1.4375 0.5625 3.9625
1.625 0.5625 4.025
1.625 0.625 3.9625
1.5625 0.625 4.025
1.625 0.5625 3.9625
1.5625 0.5625 4.025
1.5625 0.625 3.9625
1.5625 0.5625 3.9625
1.75 0.5625 4.025
1.75 0.625 3.9625
1.6875 0.625 4.025
1.75 0.5625 3.9625
1.6875 0.5625 4.025
1.6875 0.625 3.9625
1.6875 0.5625 3.9625
1.875 0.5625 4.025
1.875 0.625 3.9625
1.8125 0.625 4.025
1.875 0.5625 3.9625
1.8125 0.5625 4.025
1.8125 0.625 3.9625
1.8125 0.5625 3.9625
2 0.5625 4.025
2 0.625 3.9625
1.9375 0.625 4.025
2 0.5625 3.9625
1.9375 0.5625 4.025
1.9375 0.625 3.9625
1.9375 0.5625 3.9625
2.125 0.5625 4.025
2.125 0.625 3.9625
2.0625 0.625 4.025
2.125 0.5625 3.9625
2.0625 0.5625 4.025
2.0625 0.625 3.9625
2.0625 0.5625 3.9625
2.25 0.5625 4.025
2.25 0.625 3.9625
2.1875 0.625 4.025
2.25 0.5625 3.9625
2.1875 0.5625 4.025
2.1875 0.625 3.9625
2.1875 0.5625 3.9625
2.375 0.5625 4.025
2.375 0.625 3.9625
2.3125 0.625 4.025
2.375 0.5625 3.9625
2.3125 0.5625 4.025
2.3125 0.625 3.9625
2.3125 0.5625 3.9625
2.5 0.5625 4.025
2.5 0.625 3.9625
2.4375 0.625 4.025
2.5 0.5625 3.9625
2.4375 0.5625 4.025
2.4375 0.625 3.9625
2.4375 0.5625 3.9625
2.625 0.5625 4.025
2.625 0.625 3.9625
2.5625 0.625 4.025
2.625 0.5625 3.9625
2.5625 0.5625 4.025
2.5625 0.625 3.9625
2.5625 0.5625 3.9625
2.75 0.5625 4.025
2.75 0.625 3.9625
2.6875 0.625 4.025
2.75 0.5625 3.9625
2.6875 0.5625 4.025
2.6875 0.625 3.9625
2.6875 0.5625 3.9625
2.875 0.5625 4.025
2.875 0.625 3.9625
2.8125 0.625 4.025
2.875 0.5625 3.9625
2.8125 0.5625 4.025
2.8125 0.625 3.9625
2.8125 0.5625 3.9625
3 0.5625 4.025
3 0.625 3.9625
2.9375 0.625 4.025
3 0.5625 3.9625
2.9375 0.5625 4.025
2.9375 0.625 3.9625
2.9375 0.5625 3.9625
3.125 0.5625 4.025
3.125 0.625 3.9625
3.0625 0.625 4.025
3.125 0.5625 3.9625
3.0625 0.5625 4.025
3.0625 0.625 3.9625
3.0625 0.5625 3.9625
3.25 0.5625 4.025
3.25 0.625 3.9625
3.1875 0.625 4.025
3.25 0.5625 3.9625
3.1875 0.5625 4.025
3.1875 0.625 3.9625
3.1875 0.5625 3.9625
3.375 0.5625 4.025
3.375 0.625 3.9625
3.3125 0.625 4.025
3.375 0.5625 3.9625
3.3125 0.5625 4.025
3.3125 0.625 3.9625
3.3125 0.5625 3.9625
3.5 0.5625 4.025
3.5 0.625 3.9625
3.4375 0.625 4.025
3.5 0.5625 3.9625
3.4375 0.5625 4.025
3.4375 0.625 3.9625
3.4375 0.5625 3.9625
3.625 0.5625 4.025
3.625 0.625 3.9625
3.5625 0.625 4.025
3.625 0.5625 3.9625
3.5625 0.5625 4.025
3.5625 0.625 3.9625
3.5625 0.5625 3.9625
3.75 0.5625 4.025
3.75 0.625 3.9625
3.6875 0.625 4.025
3.75 0.5625 3.9625
3.6875 0.5625 4.025
3.6875 0.625 3.9625
3.6875 0.5625 3.9625
3.875 0.5625 4.025
3.875 0.625 3.9625
3.8125 0.625 4.025
3.875 0.5625 3.9625
3.8125 0.5625 4.025
3.8125 0.625 3.9625
3.8125 0.5625 3.9625
4 0.5625 4.025
4 0.625 3.9625
3.9375 0.625 4.025
4 0.5625 3.9625
3.9375 0.5625 4.025
3.9375 0.625 3.9625
3.9375 0.5625 3.9625
0.125 0.6875 4.025
0 0.6875 4.025
0.125 0.75 3.9625
0.0625 0.75 4.025
0 0.75 3.9625
0.125 0.6875 3.9625
0.0625 0.6875 4.025
0 0.6875 3.9625
0.0625 0.75 3.9625
0.0625 0.6875 3.9625
0.25 0.6875 4.025
0.25 0.75 3.9625
0.1875 0.75 4.025
0.25 0.6875 3.9625
0.1875 0.6875 4.025
0.1875 0.75 3.9625
0.1875 0.6875 3.9625
0.375 0.6875 4.025
0.375 0.75 3.9625
0.3125 0.75 4.025
0.375 0.6875 3.9625
0.3125 0.6875 4.025
0.3125 0.75 3.9625
0.3125 0.6875 3.9625
0.5 0.6875 4.025
0.5 0.75 3.9625
0.4375 0.75 4.025
0.5 0.6875 3.9625
0.4375 0.6875 4.025
0.4375 0.75 3.9625
0.4375 0.6875 3.9625
0.625 0.6875 4.025
0.625 0.75 3.9625
0.5625 0.75 4.025
0.625 0.6875 3.9625
0.5625 0.6875 4.025
0.5625 0.75 3.9625
0.5625 0.6875 3.9625
0.75 0.6875 4.025
0.75 0.75 3.9625
0.6875 0.75 4.025
0.75 0.6875 3.9625
0.6875 0.6875 4.025
0.6875 0.75 3.9625
0.6875 0.6875 3.9625
0.875 0.6875 4.025
0.875 0.75 3.9625
0.8125 0.75 4.025
0.875 0.6875 3.9625
0.8125 0.6875 4.025
0.8125 0.75 3.9625
0.8125 0.6875 3.9625
1 0.6875 4.025
1 0.75 3.9625
0.9375 0.75 4.025
1 0.6875 3.9625
0.9375 0.6875 4.025
0.9375 0.75 3.9625
0.9375 0.6875 3.9625
1.125 0.6875 4.025
1.125 0.75 3.9625
1.0625 0.75 4.025
1.125 0.6875 3.9625
1.0625 0.6875 4.025
1.0625 0.75 3.9625
1.0625 0.6875 3.9625
1.25 0.6875 4.025
1.25 0.75 3.9625
1.1875 0.75 4.025
1.25 0.6875 3.9625
1.1875 0.6875 4.025
1.1875 0.75 3.9625
1.1875 0.6875 3.9625
1.375 0.6875 4.025
1.375 0.75 3.9625
1.3125 0.75 4.025
1.375 0.6875 3.9625
1.3125 0.6875 4.025
1.3125 0.75 3.9625
1.3125 0.6875 3.9625
1.5 0.6875 4.025
1.5 0.75 3.9625
1.4375 0.75 4.025
1.5 0.6875 3.9625
1.4375 0.6875 4.025
1.4375 0.75 3.9625
1.4375 0.6875 3.9625
1.625 0.6875 4.025
1.625 0.75 3.9625
1.5625 0.75 4.025
1.625 0.6875 3.9625
1.5625 0.6875 4.025
1.5625 0.75 3.9625
1.5625 0.6875 3.9625
1.75 0.6875 4.025
1.75 0.75 3.9625
1.6875 0.75 4.025
1.75 0.6875 3.9625
1.6875 0.6875 4.025
1.6875 0.75 3.9625
1.6875 0.6875 3.9625
1.875 0.6875 4.025
1.875 0.75 3.9625
1.8125 0.75 4.025
1.875 0.6875 3.9625
1.8125 0.6875 4.025
1.8125 0.75 3.9625
1.8125 0.6875 3.9625
2 0.6875 4.025
2 0.75 3.9625
1.9375 0.75 4.025
2 0.6875 3.9625
1.9375 0.6875 4.025
1.9375 0.75 3.9625
1.9375 0.6875 3.9625
2.125 0.6875 4.025
2.125 0.75 3.9625
2.0625 0.75 4.025
2.125 0.6875 3.9625
2.0625 0.6875 4.025
2.0625 0.75 3.9625
2.0625 0.6875 3.9625
2.25 0.6875 4.025
2.25 0.75 3.9625
2.1875 0.75 4.025
2.25 0.6875 3.9625
2.1875 0.6875 4.025
2.1875 0.75 3.9625
2.1875 0.6875 3.9625
2.375 0.6875 4.025
2.375 0.75 3.9625
2.3125 0.75 4.025
2.375 0.6875 3.9625
2.3125 0.6875 4.025
2.3125 0.75 3.9625
2.3125 0.6875 3.9625
2.5 0.6875 4.025
2.5 0.75 3.9625
2.4375 0.75 4.025
2.5 0.6875 3.9625
2.4375 0.6875 4.025
2.4375 0.75 3.9625
2.4375 0.6875 3.9625
2.625 0.6875 4.025
2.625 0.75 3.9625
2.5625 0.75 4.025
2.625 0.6875 3.9625
2.5625 0.6875 4.025
2.5625 0.75 3.9625
2.5625 0.6875 3.9625
2.75 0.6875 4.025
2.75 0.75 3.9625
2.6875 0.75 4.025
2.75 0.6875 3.9625
2.6875 0.6875 4.025
2.6875 0.75 3.9625
2.6875 0.6875 3.9625
2.875 0.6875 4.025
2.875 0.75 3.9625
2.8125 0.75 4.025
2.875 0.6875 3.9625
2.8125 0.6875 4.025
2.8125 0.75 3.9625
2.8125 0.6875 3.9625
3 0.6875 4.025
3 0.75 3.9625
2.9375 0.75 4.025
3 0.6875 3.9625
2.9375 0.6875 4.025
2.9375 0.75 3.9625
2.9375 0.6875 3.9625
3.125 0.6875 4.025
3.125 0.75 3.9625
3.0625 0.75 4.025
3.125 0.6875 3.9625
3.0625 0.6875 4.025
3.0625 0.75 3.9625
3.0625 0.6875 3.9625
3.25 0.6875 4.025
3.25 0.75 3.9625
3.1875 0.75 4.025
3.25 0.6875 3.9625
3.1875 0.6875 4.025
3.1875 0.75 3.9625
3.1875 0.6875 3.9625
3.375 0.6875 4.025
3.375 0.75 3.9625
3.3125 0.75 4.025
3.375 0.6875 3.9625
3.3125 0.6875 4.025
3.3125 0.75 3.9625
3.3125 0.6875 3.9625
3.5 0.6875 4.025
3.5 0.75 3.9625
3.4375 0.75 4.025
3.5 0.6875 3.9625
3.4375 0.6875 4.025
3.4375 0.75 3.9625
3.4375 0.6875 3.9625
3.625 0.6875 4.025
3.625 0.75 3.9625
3.5625 0.75 4.025
3.625 0.6875 3.9625
3.5625 0.6875 4.025
3.5625 0.75 3.9625
3.5625 0.6875 3.9625
3.75 0.6875 4.025
3.75 0.75 3.9625
3.6875 0.75 4.025
3.75 0.6875 3.9625
3.6875 0.6875 4.025
3.6875 0.75 3.9625
3.6875 0.6875 3.9625
3.875 0.6875 4.025
3.875 0.75 3.9625
3.8125 0.75 4.025
3.875 0.6875 3.9625
3.8125 0.6875 4.025
3.8125 0.75 3.9625
3.8125 0.6875 3.9625
4 0.6875 4.025
4 0.75 3.9625
3.9375 0.75 4.025
4 0.6875 3.9625
3.9375 0.6875 4.025
3.9375 0.75 3.9625
3.9375 0.6875 3.9625
0.125 0.8125 4.025
0 0.8125 4.025
0.125 0.875 3.9625
0.0625 0.875 4.025
0 0.875 3.9625
0.125 0.8125 3.9625
0.0625 0.8125 4.025
0 0.8125 3.9625
0.0625 0.875 3.9625
0.0625 0.8125 3.9625
0.25 0.8125 4.025
0.25 0.875 3.9625
0.1875 0.875 4.025
0.25 0.8125 3.9625
0.1875 0.8125 4.025
0.1875 0.875 3.9625
0.1875 0.8125 3.9625
0.375 0.8125 4.025
0.375 0.875 3.9625
0.3125 0.875 4.025
0.375 0.8125 3.9625
0.3125 0.8125 4.025
0.3125 0.875 3.9625
0.3125 0.8125 3.9625
0.5 0.8125 4.025
0.5 0.875 3.9625
0.4375 0.875 4.025
0.5 0.8125 3.9625
0.4375 0.8125 4.025
0.4375 0.875 3.9625
0.4375 0.8125 3.9625
0.625 0.8125 4.025
0.625 0.875 3.9625
0.5625 0.875 4.025
0.625 0.8125 3.9625
0.5625 0.8125 4.025
0.5625 0.875 3.9625
0.5625 0.8125 3.9625
0.75 0.8125 4.025
0.75 0.875 3.9625
0.6875 0.875 4.025
0.75 0.8125 3.9625
0.6875 0.8125 4.025
0.6875 0.875 3.9625
0.6875 0.8125 3.9625
0.875 0.8125 4.025
0.875 0.875 3.9625
0.8125 0.875 4.025
0.875 0.8125 3.9625
0.8125 0.8125 4.025
0.8125 0.875 3.9625
0.8125 0.8125 3.9625
1 0.8125 4.025
1 0.875 3.9625
0.9375 0.875 4.025
1 0.8125 3.9625
0.9375 0.8125 4.025
0.9375 0.875 3.9625
0.9375 0.8125 3.9625
1.125 0.8125 4.025
1.125 0.875 3.9625
1.0625 0.875 4.025
1.125 0.8125 3.9625
1.0625 0.8125 4.025
1.0625 0.875 3.9625
1.0625 0.8125 3.9625
1.25 0.8125 4.025
1.25 0.875 3.9625
1.1875 0.875 4.025
1.25 0.8125 3.9625
1.1875 0.8125 4.025
1.1875 0.875 3.9625
1.1875 0.8125 3.9625
1.375 0.8125 4.025
1.375 0.875 3.9625
1.3125 0.875 4.025
1.375 0.8125 3.9625
1.3125 0.8125 4.025
1.3125 0.875 3.9625
1.3125 0.8125 3.9625
1.5 0.8125 4.025
1.5 0.875 3.9625
1.4375 0.875 4.025
1.5 0.8125 3.9625
1.4375 0.8125 4.025
1.4375 0.875 3.9625
1.4375 0.8125 3.9625
1.625 0.8125 4.025
1.625 0.875 3.9625
1.5625 0.875 4.025
1.625 0.8125 3.9625
1.5625 0.8125 4.025
1.5625 0.875 3.9625
1.5625 0.8125 3.9625
1.75 0.8125 4.025
1.75 0.875 3.9625
1.6875 0.875 4.025
1.75 0.8125 3.9625
1.6875 0.8125 4.025
1.6875 0.875 3.9625
1.6875 0.8125 3.9625
1.875 0.8125 4.025
1.875 0.875 3.9625
1.8125 0.875 4.025
1.875 0.8125 3.9625
1.8125 0.8125 4.025
1.8125 0.875 3.9625
1.8125 0.8125 3.9625
2 0.8125 4.025
2 0.875 3.9625
1.9375 0.875 4.025
2 0.8125 3.9625
1.9375 0.8125 4.025
1.9375 0.875 3.9625
1.9375 0.8125 3.9625
2.125 0.8125 4.025
2.125 0.875 3.9625
2.0625 0.875 4.025
2.125 0.8125 3.9625
2.0625 0.8125 4.025
2.0625 0.875 3.9625
2.0625 0.8125 3.9625
2.25 0.8125 4.025
2.25 0.875 3.9625
2.1875 0.875 4.025
2.25 0.8125 3.9625
2.1875 0.8125 4.025
2.1875 0.875 3.9625
2.1875 0.8125 3.9625
2.375 0.8125 4.025
2.375 0.875 3.9625
2.3125 0.875 4.025
2.375 0.8125 3.9625
2.3125 0.8125 4.025
2.3125 0.875 3.9625
2.3125 0.8125 3.9625
2.5 0.8125 4.025
2.5 0.875 3.9625
2.4375 0.875 4.025
2.5 0.8125 3.9625
2.4375 0.8125 4.025
2.4375 0.875 3.9625
2.4375 0.8125 3.9625
2.625 0.8125 4.025
2.625 0.875 3.9625
2.5625 0.875 4.025
2.625 0.8125 3.9625
2.5625 0.8125 4.025
2.5625 0.875 3.9625
2.5625 0.8125 3.9625
2.75 0.8125 4.025
2.75 0.875 3.9625
2.6875 0.875 4.025
2.75 0.8125 3.9625
2.6875 0.8125 4.025
2.6875 0.875 3.9625
2.6875 0.8125 3.9625
2.875 0.8125 4.025
2.875 0.875 3.9625
2.8125 0.875 4.025
2.875 0.8125 3.9625
2.8125 0.8125 4.025
2.8125 0.875 3.9625
2.8125 0.8125 3.9625
3 0.8125 4.025
3 0.875 3.9625
2.9375 0.875 4.025
3 0.8125 3.9625
2.9375 0.8125 4.025
2.9375 0.875 3.9625
2.9375 0.8125 3.9625
3.125 0.8125 4.025
3.125 0.875 3.9625
3.0625 0.875 4.025
3.125 0.8125 3.9625
3.0625 0.8125 4.025
3.0625 0.875 3.9625
3.0625 0.8125 3.9625
3.25 0.8125 4.025
3.25 0.875 3.9625
3.1875 0.875 4.025
3.25 0.8125 3.9625
3.1875 0.8125 4.025
3.1875 0.875 3.9625
3.1875 0.8125 3.9625
3.375 0.8125 4.025
3.375 0.875 3.9625
3.3125 0.875 4.025
3.375 0.8125 3.9625
3.3125 0.8125 4.025
3.3125 0.875 3.9625
3.3125 0.8125 3.9625
3.5 0.8125 4.025
3.5 0.875 3.9625
3.4375 0.875 4.025
3.5 0.8125 3.9625
3.4375 0.8125 4.025
3.4375 0.875 3.9625
3.4375 0.8125 3.9625
3.625 0.8125 4.025
3.625 0.875 3.9625
3.5625 0.875 4.025
3.625 0.8125 3.9625
3.5625 0.8125 4.025
3.5625 0.875 3.9625
3.5625 0.8125 3.9625
3.75 0.8125 4.025
3.75 0.875 3.9625
3.6875 0.875 4.025
3.75 0.8125 3.9625
3.6875 0.8125 4.025
3.6875 0.875 3.9625
3.6875 0.8125 3.9625
3.875 0.8125 4.025
3.875 0.875 3.9625
3.8125 0.875 4.025
3.875 0.8125 3.9625
3.8125 0.8125 4.025
3.8125 0.875 3.9625
3.8125 0.8125 3.9625
4 0.8125 4.025
4 0.875 3.9625
3.9375 0.875 4.025
4 0.8125 3.9625
3.9375 0.8125 4.025
3.9375 0.875 3.9625
3.9375 0.8125 3.9625
0.125 0.9375 4.025
0 0.9375 4.025
0.125 1 3.9625
0.0625 1 4.025
0 1 3.9625
0.125 0.9375 3.9625
0.0625 0.9375 4.025
0 0.9375 3.9625
0.0625 1 3.9625
0.0625 0.9375 3.9625
0.25 0.9375 4.025
0.25 1 3.9625
0.1875 1 4.025
0.25 0.9375 3.9625
0.1875 0.9375 4.025
0.1875 1 3.9625
0.1875 0.9375 3.9625
0.375 0.9375 4.025
0.375 1 3.9625
0.3125 1 4.025
0.375 0.9375 3.9625
0.3125 0.9375 4.025
0.3125 1 3.9625
0.3125 0.9375 3.9625
0.5 0.9375 4.025
0.5 1 3.9625
0.4375 1 4.025
0.5 0.9375 3.9625
0.4375 0.9375 4.025
0.4375 1 3.9625
0.4375 0.9375 3.9625
0.625 0.9375 4.025
0.625 1 3.9625
0.5625 1 4.025
0.625 0.9375 3.9625
0.5625 0.9375 4.025
0.5625 1 3.9625
0.5625 0.9375 3.9625
0.75 0.9375 4.025
0.75 1 3.9625
0.6875 1 4.025
0.75 0.9375 3.9625
0.6875 0.9375 4.025
0.6875 1 3.9625
0.6875 0.9375 3.9625
0.875 0.9375 4.025
0.875 1 3.9625
0.8125 1 4.025
0.875 0.9375 3.9625
0.8125 0.9375 4.025
0.8125 1 3.9625
0.8125 0.9375 3.9625
1 0.9375 4.025
1 1 3.9625
0.9375 1 4.025
1 0.9375 3.9625
0.9375 0.9375 4.025
0.9375 1 3.9625
0.9375 0.9375 3.9625
1.125 0.9375 4.025
1.125 1 3.9625
1.0625 1 4.025
1.125 0.9375 3.9625
1.0625 0.9375 4.025
1.0625 1 3.9625
1.0625 0.9375 3.9625
1.25 0.9375 4.025
1.25 1 3.9625
1.1875 1 4.025
1.25 0.9375 3.9625
1.1875 0.9375 4.025
1.1875 1 3.9625
1.1875 0.9375 3.9625
1.375 0.9375 4.025
1.375 1 3.9625
1.3125 1 4.025
1.375 0.9375 3.9625
1.3125 0.9375 4.025
1.3125 1 3.9625
1.3125 0.9375 3.9625
1.5 0.9375 4.025
1.5 1 3.9625
1.4375 1 4.025
1.5 0.9375 3.9625
1.4375 0.9375 4.025
1.4375 1 3.9625
1.4375 0.9375 3.9625
1.625 0.9375 4.025
1.625 1 3.9625
1.5625 1 4.025
1.625 0.9375 3.9625
1.5625 0.9375 4.025
1.5625 1 3.9625
1.5625 0.9375 3.9625
1.75 0.9375 4.025
1.75 1 3.9625
1.6875 1 4.025
1.75 0.9375 3.9625
1.6875 0.9375 4.025
1.6875 1 3.9625
1.6875 0.9375 3.9625
1.875 0.9375 4.025
1.875 1 3.9625
1.8125 1 4.025
1.875 0.9375 3.9625
1.8125 0.9375 4.025
1.8125 1 3.9625
1.8125 0.9375 3.9625
2 0.9375 4.025
2 1 3.9625
1.9375 1 4.025
2 0.9375 3.9625
1.9375 0.9375 4.025
1.9375 1 3.9625
1.9375 0.9375 3.9625
2.125 0.9375 4.025
2.125 1 3.9625
2.0625 1 4.025
2.125 0.9375 3.9625
2.0625 0.9375 4.025
2.0625 1 3.9625
2.0625 0.9375 3.9625
2.25 0.9375 4.025
2.25 1 3.9625
2.1875 1 4.025
2.25 0.9375 3.9625
2.1875 0.9375 4.025
2.1875 1 3.9625
2.1875 0.9375 3.9625
2.375 0.9375 4.025
2.375 1 3.9625
2.3125 1 4.025
2.375 0.9375 3.9625
2.3125 0.9375 4.025
2.3125 1 3.9625
2.3125 0.9375 3.9625
2.5 0.9375 4.025
2.5 1 3.9625
2.4375 1 4.025
2.5 0.9375 3.9625
2.4375 0.9375 4.025
2.4375 1 3.9625
2.4375 0.9375 3.9625
2.625 0.9375 4.025
2.625 1 3.9625
2.5625 1 4.025
2.625 0.9375 3.9625
2.5625 0.9375 4.025
2.5625 1 3.9625
2.5625 0.9375 3.9625
2.75 0.9375 4.025
2.75 1 3.9625
2.6875 1 4.025
2.75 0.9375 3.9625
2.6875 0.9375 4.025
2.6875 1 3.9625
2.6875 0.9375 3.9625
2.875 0.9375 4.025
2.875 1 3.9625
2.8125 1 4.025
2.875 0.9375 3.9625
2.8125 0.9375 4.025
2.8125 1 3.9625
2.8125 0.9375 3.9625
3 0.9375 4.025
3 1 3.9625
2.9375 1 4.025
3 0.9375 3.9625
2.9375 0.9375 4.025
2.9375 1 3.9625
2.9375 0.9375 3.9625
3.125 0.9375 4.025
3.125 1 3.9625
3.0625 1 4.025
3.125 0.9375 3.9625
3.0625 0.9375 4.025
3.0625 1 3.9625
3.0625 0.9375 3.9625
3.25 0.9375 4.025
3.25 1 3.9625
3.1875 1 4.025
3.25 0.9375 3.9625
3.1875 0.9375 4.025
3.1875 1 3.9625
3.1875 0.9375 3.9625
3.375 0.9375 4.025
3.375 1 3.9625
3.3125 1 4.025
3.375 0.9375 3.9625
3.3125 0.9375 4.025
3.3125 1 3.9625
3.3125 0.9375 3.9625
3.5 0.9375 4.025
3.5 1 3.9625
3.4375 1 4.025
3.5 0.9375 3.9625
3.4375 0.9375 4.025
3.4375 1 3.9625
3.4375 0.9375 3.9625
3.625 0.9375 4.025
3.625 1 3.9625
3.5625 1 4.025
3.625 0.9375 3.9625
3.5625 0.9375 4.025
3.5625 1 3.9625
3.5625 0.9375 3.9625
3.75 0.9375 4.025
3.75 1 3.9625
3.6875 1 4.025
3.75 0.9375 3.9625
3.6875 0.9375 4.025
3.6875 1 3.9625
3.6875 0.9375 3.9625
3.875 0.9375 4.025
3.875 1 3.9625
3.8125 1 4.025
3.875 0.9375 3.9625
3.8125 0.9375 4.025
3.8125 1 3.9625
3.8125 0.9375 3.9625
4 0.9375 4.025
4 1 3.9625
3.9375 1 4.025
4 0.9375 3.9625
3.9375 0.9375 4.025
3.9375 1 3.9625
3.9375 0.9375 3.9625
0.125 0 4.0875
0.0625 0 4.15
0 0 4.0875
0.125 0.0625 4.15
0 0.0625 4.15
0.125 0.125 4.0875
0.0625 0.125 4.15
0 0.125 4.0875
0.0625 0 4.0875
0.125 0.0625 4.0875
0.0625 0.0625 4.15
0 0.0625 4.0875
0.0625 0.125 4.0875
0.0625 0.0625 4.0875
0.25 0 4.0875
0.1875 0 4.15
0.25 0.0625 4.15
0.25 0.125 4.0875
0.1875 0.125 4.15
0.1875 0 4.0875
0.25 0.0625 4.0875
0.1875 0.0625 4.15
0.1875 0.125 4.0875
0.1875 0.0625 4.0875
0.375 0 4.0875
0.3125 0 4.15
0.375 0.0625 4.15
0.375 0.125 4.0875
0.3125 0.125 4.15
0.3125 0 4.0875
0.375 0.0625 4.0875
0.3125 0.0625 4.15
0.3125 0.125 4.0875
0.3125 0.0625 4.0875
0.5 0 4.0875
0.4375 0 4.15
0.5 0.0625 4.15
0.5 0.125 4.0875
0.4375 0.125 4.15
0.4375 0 4.0875
0.5 0.0625 4.0875
0.4375 0.0625 4.15
0.4375 0.125 4.0875
0.4375 0.0625 4.0875
0.625 0 4.0875
0.5625 0 4.15
0.625 0.0625 4.15
0.625 0.125 4.0875
0.5625 0.125 4.15
0.5625 0 4.0875
0.625 0.0625 4.0875
0.5625 0.0625 4.15
0.5625 0.125 4.0875
0.5625 0.0625 4.0875
0.75 0 4.0875
0.6875 0 4.15
0.75 0.0625 4.15
0.75 0.125 4.0875
0.6875 0.125 4.15
0.6875 0 4.0875
0.75 0.0625 4.0875
0.6875 0.0625 4.15
0.6875 0.125 4.0875
0.6875 0.0625 4.0875
0.875 0 4.0875
0.8125 0 4.15
0.875 0.0625 4.15
0.875 0.125 4.0875
0.8125 0.125 4.15
0.8125 0 4.0875
0.875 0.0625 4.0875
0.8125 0.0625 4.15
0.8125 0.125 4.0875
0.8125 0.0625 4.0875
1 0 4.0875
0.9375 0 4.15
1 0.0625 4.15
1 0.125 4.0875
0.9375 0.125 4.15
0.9375 0 4.0875
1 0.0625 4.0875
0.9375 0.0625 4.15
0.9375 0.125 4.0875
0.9375 0.0625 4.0875
1.125 0 4.0875
1.0625 0 4.15
1.125 0.0625 4.15
1.125 0.125 4.0875
1.0625 0.125 4.15
1.0625 0 4.0875
1.125 0.0625 4.0875
1.0625 0.0625 4.15
1.0625 0.125 4.0875
1.0625 0.0625 4.0875
1.25 0 4.0875
1.1875 0 4.15
1.25 0.0625 4.15
1.25 0.125 4.0875
1.1875 0.125 4.15
1.1875 0 4.0875
1.25 0.0625 4.0875
1.1875 0.0625 4.15
1.1875 0.125 4.0875
1.1875 0.0625 4.0875
1.375 0 4.0875
1.3125 0 4.15
1.375 0.0625 4.15
1.375 0.125 4.0875
1.3125 0.125 4.15
1.3125 0 4.0875
1.375 0.0625 4.0875
1.3125 0.0625 4.15
1.3125 0.125 4.0875
1.3125 0.0625 4.0875
1.5 0 4.0875
1.4375 0 4.15
1.5 0.0625 4.15
1.5 0.125 4.0875
1.4375 0.125 4.15
1.4375 0 4.0875
1.5 0.0625 4.0875
1.4375 0.0625 4.15
1.4375 0.125 4.0875
1.4375 0.0625 4.0875
1.625 0 4.0875
1.5625 0 4.15
1.625 0.0625 4.15
1.625 0.125 4.0875
1.5625 0.125 4.15
1.5625 0 4.0875
1.625 0.0625 4.0875
1.5625 0.0625 4.15
1.5625 0.125 4.0875
1.5625 0.0625 4.0875
1.75 0 4.0875
1.6875 0 4.15
1.75 0.0625 4.15
1.75 0.125 4.0875
1.6875 0.125 4.15
1.6875 0 4.0875
1.75 0.0625 4.0875
1.6875 0.0625 4.15
1.6875 0.125 4.0875
1.6875 0.0625 4.0875
1.875 0 4.0875
1.8125 0 4.15
1.875 0.0625 4.15
1.875 0.125 4.0875
1.8125 0.125 4.15
1.8125 0 4.0875
1.875 0.0625 4.0875
1.8125 0.0625 4.15
1.8125 0.125 4.0875
1.8125 0.0625 4.0875
2 0 4.0875
1.9375 0 4.15
2 0.0625 4.15
2 0.125 4.0875
1.9375 0.125 4.15
1.9375 0 4.0875
2 0.0625 4.0875
1.9375 0.0625 4.15
1.9375 0.125 4.0875
1.9375 0.0625 4.0875
2.125 0 4.0875
2.0625 0 4.15
2.125 0.0625 4.15
2.125 0.125 4.0875
2.0625 0.125 4.15
2.0625 0 4.0875
2.125 0.0625 4.0875
2.0625 0.0625 4.15
2.0625 0.125 4.0875
2.0625 0.0625 4.0875
2.25 0 4.0875
2.1875 0 4.15
2.25 0.0625 4.15
2.25 0.125 4.0875
2.1875 0.125 4.15
2.1875 0 4.0875
2.25 0.0625 4.0875
2.1875 0.0625 4.15
2.1875 0.125 4.0875
2.1875 0.0625 4.0875
2.375 0 4.0875
2.3125 0 4.15
2.375 0.0625 4.15
2.375 0.125 4.0875
2.3125 0.125 4.15
2.3125 0 4.0875
2.375 0.0625 4.0875
2.3125 0.0625 4.15
2.3125 0.125 4.0875
2.3125 0.0625 4.0875
2.5 0 4.0875
2.4375 0 4.15
2.5 0.0625 4.15
2.5 0.125 4.0875
2.4375 0.125 4.15
2.4375 0 4.0875
2.5 0.0625 4.0875
2.4375 0.0625 4.15
2.4375 0.125 4.0875
2.4375 0.0625 4.0875
2.625 0 4.0875
2.5625 0 4.15
2.625 0.0625 4.15
2.625 0.125 4.0875
2.5625 0.125 4.15
2.5625 0 4.0875
2.625 0.0625 4.0875
2.5625 0.0625 4.15
2.5625 0.125 4.0875
2.5625 0.0625 4.0875
2.75 0 4.0875
2.6875 0 4.15
2.75 0.0625 4.15
2.75 0.125 4.0875
2.6875 0.125 4.15
2.6875 0 4.0875
2.75 0.0625 4.0875
2.6875 0.0625 4.15
2.6875 0.125 4.0875
2.6875 0.0625 4.0875
2.875 0 4.0875
2.8125 0 4.15
2.875 0.0625 4.15
2.875 0.125 4.0875
2.8125 0.125 4.15
2.8125 0 4.0875
2.875 0.0625 4.0875
2.8125 0.0625 4.15
2.8125 0.125 4.0875
2.8125 0.0625 4.0875
3 0 4.0875
2.9375 0 4.15
3 0.0625 4.15
3 0.125 4.0875
2.9375 0.125 4.15
2.9375 0 4.0875
3 0.0625 4.0875
2.9375 0.0625 4.15
2.9375 0.125 4.0875
2.9375 0.0625 4.0875
3.125 0 4.0875
3.0625 0 4.15
3.125 0.0625 4.15
3.125 0.125 4.0875
3.0625 0.125 4.15
3.0625 0 4.0875
3.125 0.0625 4.0875
3.0625 0.0625 4.15
3.0625 0.125 4.0875
3.0625 0.0625 4.0875
3.25 0 4.0875
3.1875 0 4.15
3.25 0.0625 4.15
3.25 0.125 4.0875
3.1875 0.125 4.15
3.1875 0 4.0875
3.25 0.0625 4.0875
3.1875 0.0625 4.15
3.1875 0.125 4.0875
3.1875 0.0625 4.0875
3.375 0 4.0875
3.3125 0 4.15
3.375 0.0625 4.15
3.375 0.125 4.0875
3.3125 0.125 4.15
3.3125 0 4.0875
3.375 0.0625 4.0875
3.3125 0.0625 4.15
3.3125 0.125 4.0875
3.3125 0.0625 4.0875
3.5 0 4.0875
3.4375 0 4.15
3.5 0.0625 4.15
3.5 0.125 4.0875
3.4375 0.125 4.15
3.4375 0 4.0875
3.5 0.0625 4.0875
3.4375 0.0625 4.15
3.4375 0.125 4.0875
3.4375 0.0625 4.0875
3.625 0 4.0875
3.5625 0 4.15
3.625 0.0625 4.15
3.625 0.125 4.0875
3.5625 0.125 4.15
3.5625 0 4.0875
3.625 0.0625 4.0875
3.5625 0.0625 4.15
3.5625 0.125 4.0875
3.5625 0.0625 4.0875
3.75 0 4.0875
3.6875 0 4.15
3.75 0.0625 4.15
3.75 0.125 4.0875
3.6875 0.125 4.15
3.6875 0 4.0875
3.75 0.0625 4.0875
3.6875 0.0625 4.15
3.6875 0.125 4.0875
3.6875 0.0625 4.0875
3.875 0 4.0875
3.8125 0 4.15
3.875 0.0625 4.15
3.875 0.125 4.0875
3.8125 0.125 4.15
3.8125 0 4.0875
3.875 0.0625 4.0875
3.8125 0.0625 4.15
3.8125 0.125 4.0875
3.8125 0.0625 4.0875
4 0 4.0875
3.9375 0 4.15
4 0.0625 4.15
4 0.125 4.0875
3.9375 0.125 4.15
3.9375 0 4.0875
4 0.0625 4.0875
3.9375 0.0625 4.15
3.9375 0.125 4.0875
3.9375 0.0625 4.0875
0.125 0.1875 4.15
0 0.1875 4.15
0.125 0.25 4.0875
0.0625 0.25 4.15
0 0.25 4.0875
0.125 0.1875 4.0875
0.0625 0.1875 4.15
0 0.1875 4.0875
0.0625 0.25 4.0875
0.0625 0.1875 4.0875
0.25 0.1875 4.15
0.25 0.25 4.0875
0.1875 0.25 4.15
0.25 0.1875 4.0875
0.1875 0.1875 4.15
0.1875 0.25 4.0875
0.1875 0.1875 4.0875
0.375 0.1875 4.15
0.375 0.25 4.0875
0.3125 0.25 4.15
0.375 0.1875 4.0875
0.3125 0.1875 4.15
0.3125 0.25 4.0875
0.3125 0.1875 4.0875
0.5 0.1875 4.15
0.5 0.25 4.0875
0.4375 0.25 4.15
0.5 0.1875 4.0875
0.4375 0.1875 4.15
0.4375 0.25 4.0875
0.4375 0.1875 4.0875
0.625 0.1875 4.15
0.625 0.25 4.0875
0.5625 0.25 4.15
0.625 0.1875 4.0875
0.5625 0.1875 4.15
0.5625 0.25 4.0875
0.5625 0.1875 4.0875
0.75 0.1875 4.15
0.75 0.25 4.0875
0.6875 0.25 4.15
0.75 0.1875 4.0875
0.6875 0.1875 4.15
0.6875 0.25 4.0875
0.6875 0.1875 4.0875
0.875 0.1875 4.15
0.875 0.25 4.0875
0.8125 0.25 4.15
0.875 0.1875 4.0875
0.8125 0.1875 4.15
0.8125 0.25 4.0875
0.8125 0.1875 4.0875
1 0.1875 4.15
1 0.25 4.0875
0.9375 0.25 4.15
1 0.1875 4.0875
0.9375 0.1875 4.15
0.9375 0.25 4.0875
0.9375 0.1875 4.0875
1.125 0.1875 4.15
1.125 0.25 4.0875
1.0625 0.25 4.15
1.125 0.1875 4.0875
1.0625 0.1875 4.15
1.0625 0.25 4.0875
1.0625 0.1875 4.0875
1.25 0.1875 4.15
1.25 0.25 4.0875
1.1875 0.25 4.15
1.25 0.1875 4.0875
1.1875 0.1875 4.15
1.1875 0.25 4.0875
1.1875 0.1875 4.0875
1.375 0.1875 4.15
1.375 0.25 4.0875
1.3125 0.25 4.15
1.375 0.1875 4.0875
1.3125 0.1875 4.15
1.3125 0.25 4.0875
1.3125 0.1875 4.0875
1.5 0.1875 4.15
1.5 0.25 4.0875
1.4375 0.25 4.15
1.5 0.1875 4.0875
1.4375 0.1875 4.15
1.4375 0.25 4.0875
1.4375 0.1875 4.0875
1.625 0.1875 4.15
1.625 0.25 4.0875
1.5625 0.25 4.15
1.625 0.1875 4.0875
1.5625 0.1875 4.15
1.5625 0.25 4.0875
1.5625 0.1875 4.0875
1.75 0.1875 4.15
1.75 0.25 4.0875
1.6875 0.25 4.15
1.75 0.1875 4.0875
1.6875 0.1875 4.15
1.6875 0.25 4.0875
1.6875 0.1875 4.0875
1.875 0.1875 4.15
1.875 0.25 4.0875
1.8125 0.25 4.15
1.875 0.1875 4.0875
1.8125 0.1875 4.15
1.8125 0.25 4.0875
1.8125 0.1875 4.0875
2 0.1875 4.15
2 0.25 4.0875
1.9375 0.25 4.15
2 0.1875 4.0875
1.9375 0.1875 4.15
1.9375 0.25 4.0875
1.9375 0.1875 4.0875
2.125 0.1875 4.15
2.125 0.25 4.0875
2.0625 0.25 4.15
2.125 0.1875 4.0875
2.0625 0.1875 4.15
2.0625 0.25 4.0875
2.0625 0.1875 4.0875
2.25 0.1875 4.15
2.25 0.25 4.0875
2.1875 0.25 4.15
2.25 0.1875 4.0875
2.1875 0.1875 4.15
2.1875 0.25 4.0875
2.1875 0.1875 4.0875
2.375 0.1875 4.15
2.375 0.25 4.0875
2.3125 0.25 4.15
2.375 0.1875 4.0875
2.3125 0.1875 4.15
2.3125 0.25 4.0875
2.3125 0.1875 4.0875
2.5 0.1875 4.15
2.5 0.25 4.0875
2.4375 0.25 4.15
2.5 0.1875 4.0875
2.4375 0.1875 4.15
2.4375 0.25 4.0875
2.4375 0.1875 4.0875
2.625 0.1875 4.15
2.625 0.25 4.0875
2.5625 0.25 4.15
2.625 0.1875 4.0875
2.5625 0.1875 4.15
2.5625 0.25 4.0875
2.5625 0.1875 4.0875
2.75 0.1875 4.15
2.75 0.25 4.0875
2.6875 0.25 4.15
2.75 0.1875 4.0875
2.6875 0.1875 4.15
2.6875 0.25 4.0875
2.6875 0.1875 4.0875
2.875 0.1875 4.15
2.875 0.25 4.0875
2.8125 0.25 4.15
2.875 0.1875 4.0875
2.8125 0.1875 4.15
2.8125 0.25 4.0875
2.8125 0.1875 4.0875
3 0.1875 4.15
3 0.25 4.0875
2.9375 0.25 4.15
3 0.1875 4.0875
2.9375 0.1875 4.15
2.9375 0.25 4.0875
2.9375 0.1875 4.0875
3.125 0.1875 4.15
3.125 0.25 4.0875
3.0625 0.25 4.15
3.125 0.1875 4.0875
3.0625 0.1875 4.15
3.0625 0.25 4.0875
3.0625 0.1875 4.0875
3.25 0.1875 4.15
3.25 0.25 4.0875
3.1875 0.25 4.15
3.25 0.1875 4.0875
3.1875 0.1875 4.15
3.1875 0.25 4.0875
3.1875 0.1875 4.0875
3.375 0.1875 4.15
3.375 0.25 4.0875
3.3125 0.25 4.15
3.375 0.1875 4.0875
3.3125 0.1875 4.15
3.3125 0.25 4.0875
3.3125 0.1875 4.0875
3.5 0.1875 4.15
3.5 0.25 4.0875
3.4375 0.25 4.15
3.5 0.1875 4.0875
3.4375 0.1875 4.15
3.4375 0.25 4.0875
3.4375 0.1875 4.0875
3.625 0.1875 4.15
3.625 0.25 4.0875
3.5625 0.25 4.15
3.625 0.1875 4.0875
3.5625 0.1875 4.15
3.5625 0.25 4.0875
3.5625 0.1875 4.0875
3.75 0.1875 4.15
3.75 0.25 4.0875
3.6875 0.25 4.15
3.75 0.1875 4.0875
3.6875 0.1875 4.15
3.6875 0.25 4.0875
3.6875 0.1875 4.0875
3.875 0.1875 4.15
3.875 0.25 4.0875
3.8125 0.25 4.15
3.875 0.1875 4.0875
3.8125 0.1875 4.15
3.8125 0.25 4.0875
3.8125 0.1875 4.0875
4 0.1875 4.15
4 0.25 4.0875
3.9375 0.25 4.15
4 0.1875 4.0875
3.9375 0.1875 4.15
3.9375 0.25 4.0875
3.9375 0.1875 4.0875
0.125 0.3125 4.15
0 0.3125 4.15
0.125 0.375 4.0875
0.0625 0.375 4.15
0 0.375 4.0875
0.125 0.3125 4.0875
0.0625 0.3125 4.15
0 0.3125 4.0875
0.0625 0.375 4.0875
0.0625 0.3125 4.0875
0.25 0.3125 4.15
0.25 0.375 4.0875
0.1875 0.375 4.15
0.25 0.3125 4.0875
0.1875 0.3125 4.15
0.1875 0.375 4.0875
0.1875 0.3125 4.0875
0.375 0.3125 4.15
0.375 0.375 4.0875
0.3125 0.375 4.15
0.375 0.3125 4.0875
0.3125 0.3125 4.15
0.3125 0.375 4.0875
0.3125 0.3125 4.0875
0.5 0.3125 4.15
0.5 0.375 4.0875
0.4375 0.375 4.15
0.5 0.3125 4.0875
0.4375 0.3125 4.15
0.4375 0.375 4.0875
0.4375 0.3125 4.0875
0.625 0.3125 4.15
0.625 0.375 4.0875
0.5625 0.375 4.15
0.625 0.3125 4.0875
0.5625 0.3125 4.15
0.5625 0.375 4.0875
0.5625 0.3125 4.0875
0.75 0.3125 4.15
0.75 0.375 4.0875
0.6875 0.375 4.15
0.75 0.3125 4.0875
0.6875 0.3125 4.15
0.6875 0.375 4.0875
0.6875 0.3125 4.0875
0.875 0.3125 4.15
0.875 0.375 4.0875
0.8125 0.375 4.15
0.875 0.3125 4.0875
0.8125 0.3125 4.15
0.8125 0.375 4.0875
0.8125 0.3125 4.0875
1 0.3125 4.15
1 0.375 4.0875
0.9375 0.375 4.15
1 0.3125 4.0875
0.9375 0.3125 4.15
0.9375 0.375 4.0875
0.9375 0.3125 4.0875
1.125 0.3125 4.15
1.125 0.375 4.0875
1.0625 0.375 4.15
1.125 0.3125 4.0875
1.0625 0.3125 4.15
1.0625 0.375 4.0875
1.0625 0.3125 4.0875
1.25 0.3125 4.15
1.25 0.375 4.0875
1.1875 0.375 4.15
1.25 0.3125 4.0875
1.1875 0.3125 4.15
1.1875 0.375 4.0875
1.1875 0.3125 4.0875
1.375 0.3125 4.15
1.375 0.375 4.0875
1.3125 0.375 4.15
1.375 0.3125 4.0875
1.3125 0.3125 4.15
1.3125 0.375 4.0875
1.3125 0.3125 4.0875
1.5 0.3125 4.15
1.5 0.375 4.0875
1.4375 0.375 4.15
1.5 0.3125 4.0875
1.4375 0.3125 4.15
1.4375 0.375 4.0875
1.4375 0.3125 4.0875
1.625 0.3125 4.15
1.625 0.375 4.0875
1.5625 0.375 4.15
1.625 0.3125 4.0875
1.5625 0.3125 4.15
1.5625 0.375 4.0875
1.5625 0.3125 4.0875
1.75 0.3125 4.15
1.75 0.375 4.0875
1.6875 0.375 4.15
1.75 0.3125 4.0875
1.6875 0.3125 4.15
1.6875 0.375 4.0875
1.6875 0.3125 4.0875
1.875 0.3125 4.15
1.875 0.375 4.0875
1.8125 0.375 4.15
1.875 0.3125 4.0875
1.8125 0.3125 4.15
1.8125 0.375 4.0875
1.8125 0.3125 4.0875
2 0.3125 4.15
2 0.375 4.0875
1.9375 0.375 4.15
2 0.3125 4.0875
1.9375 0.3125 4.15
1.9375 0.375 4.0875
1.9375 0.3125 4.0875
2.125 0.3125 4.15
2.125 0.375 4.0875
2.0625 0.375 4.15
2.125 0.3125 4.0875
2.0625 0.3125 4.15
2.0625 0.375 4.0875
2.0625 0.3125 4.0875
2.25 0.3125 4.15
2.25 0.375 4.0875
2.1875 0.375 4.15
2.25 0.3125 4.0875
2.1875 0.3125 4.15
2.1875 0.375 4.0875
2.1875 0.3125 4.0875
2.375 0.3125 4.15
2.375 0.375 4.0875
2.3125 0.375 4.15
2.375 0.3125 4.0875
2.3125 0.3125 4.15
2.3125 0.375 4.0875
2.3125 0.3125 4.0875
2.5 0.3125 4.15
2.5 0.375 4.0875
2.4375 0.375 4.15
2.5 0.3125 4.0875
2.4375 0.3125 4.15
2.4375 0.375 4.0875
2.4375 0.3125 4.0875
2.625 0.3125 4.15
2.625 0.375 4.0875
2.5625 0.375 4.15
2.625 0.3125 4.0875
2.5625 0.3125 4.15
2.5625 0.375 4.0875
2.5625 0.3125 4.0875
2.75 0.3125 4.15
2.75 0.375 4.0875
2.6875 0.375 4.15
2.75 0.3125 4.0875
2.6875 0.3125 4.15
2.6875 0.375 4.0875
2.6875 0.3125 4.0875
2.875 0.3125 4.15
2.875 0.375 4.0875
2.8125 0.375 4.15
2.875 0.3125 4.0875
2.8125 0.3125 4.15
2.8125 0.375 4.0875
2.8125 0.3125 4.0875
3 0.3125 4.15
3 0.375 4.0875
2.9375 0.375 4.15
3 0.3125 4.0875
2.9375 0.3125 4.15
2.9375 0.375 4.0875
2.9375 0.3125 4.0875
3.125 0.3125 4.15
3.125 0.375 4.0875
3.0625 0.375 4.15
3.125 0.3125 4.0875
3.0625 0.3125 4.15
3.0625 0.375 4.0875
3.0625 0.3125 4.0875
3.25 0.3125 4.15
3.25 0.375 4.0875
3.1875 0.375 4.15
3.25 0.3125 4.0875
3.1875 0.3125 4.15
3.1875 0.375 4.0875
3.1875 0.3125 4.0875
3.375 0.3125 4.15
3.375 0.375 4.0875
3.3125 0.375 4.15
3.375 0.3125 4.0875
3.3125 0.3125 4.15
3.3125 0.375 4.0875
3.3125 0.3125 4.0875
3.5 0.3125 4.15
3.5 0.375 4.0875
3.4375 0.375 4.15
3.5 0.3125 4.0875
3.4375 0.3125 4.15
3.4375 0.375 4.0875
3.4375 0.3125 4.0875
3.625 0.3125 4.15
3.625 0.375 4.0875
3.5625 0.375 4.15
3.625 0.3125 4.0875
3.5625 0.3125 4.15
3.5625 0.375 4.0875
3.5625 0.3125 4.0875
3.75 0.3125 4.15
3.75 0.375 4.0875
3.6875 0.375 4.15
3.75 0.3125 4.0875
3.6875 0.3125 4.15
3.6875 0.375 4.0875
3.6875 0.3125 4.0875
3.875 0.3125 4.15
3.875 0.375 4.0875
3.8125 0.375 4.15
3.875 0.3125 4.0875
3.8125 0.3125 4.15
3.8125 0.375 4.0875
3.8125 0.3125 4.0875
4 0.3125 4.15
4 0.375 4.0875
3.9375 0.375 4.15
4 0.3125 4.0875
3.9375 0.3125 4.15
3.9375 0.375 4.0875
3.9375 0.3125 4.0875
0.125 0.4375 4.15
0 0.4375 4.15
0.125 0.5 4.0875
0.0625 0.5 4.15
0 0.5 4.0875
0.125 0.4375 4.0875
0.0625 0.4375 4.15
0 0.4375 4.0875
0.0625 0.5 4.0875
0.0625 0.4375 4.0875
0.25 0.4375 4.15
0.25 0.5 4.0875
0.1875 0.5 4.15
0.25 0.4375 4.0875
0.1875 0.4375 4.15
0.1875 0.5 4.0875
0.1875 0.4375 4.0875
0.375 0.4375 4.15
0.375 0.5 4.0875
0.3125 0.5 4.15
0.375 0.4375 4.0875
0.3125 0.4375 4.15
0.3125 0.5 4.0875
0.3125 0.4375 4.0875
0.5 0.4375 4.15
0.5 0.5 4.0875
0.4375 0.5 4.15
0.5 0.4375 4.0875
0.4375 0.4375 4.15
0.4375 0.5 4.0875
0.4375 0.4375 4.0875
0.625 0.4375 4.15
0.625 0.5 4.0875
0.5625 0.5 4.15
0.625 0.4375 4.0875
0.5625 0.4375 4.15
0.5625 0.5 4.0875
0.5625 0.4375 4.0875
0.75 0.4375 4.15
0.75 0.5 4.0875
0.6875 0.5 4.15
0.75 0.4375 4.0875
0.6875 0.4375 4.15
0.6875 0.5 4.0875
0.6875 0.4375 4.0875
0.875 0.4375 4.15
0.875 0.5 4.0875
0.8125 0.5 4.15
0.875 0.4375 4.0875
0.8125 0.4375 4.15
0.8125 0.5 4.0875
0.8125 0.4375 4.0875
1 0.4375 4.15
1 0.5 4.0875
0.9375 0.5 4.15
1 0.4375 4.0875
0.9375 0.4375 4.15
0.9375 0.5 4.0875
0.9375 0.4375 4.0875
1.125 0.4375 4.15
1.125 0.5 4.0875
1.0625 0.5 4.15
1.125 0.4375 4.0875
1.0625 0.4375 4.15
1.0625 0.5 4.0875
1.0625 0.4375 4.0875
1.25 0.4375 4.15
1.25 0.5 4.0875
1.1875 0.5 4.15
1.25 0.4375 4.0875
1.1875 0.4375 4.15
1.1875 0.5 4.0875
1.1875 0.4375 4.0875
1.375 0.4375 4.15
1.375 0.5 4.0875
1.3125 0.5 4.15
1.375 0.4375 4.0875
1.3125 0.4375 4.15
1.3125 0.5 4.0875
1.3125 0.4375 4.0875
1.5 0.4375 4.15
1.5 0.5 4.0875
1.4375 0.5 4.15
1.5 0.4375 4.0875
1.4375 0.4375 4.15
1.4375 0.5 4.0875
1.4375 0.4375 4.0875
1.625 0.4375 4.15
1.625 0.5 4.0875
1.5625 0.5 4.15
1.625 0.4375 4.0875
1.5625 0.4375 4.15
1.5625 0.5 4.0875
1.5625 0.4375 4.0875
1.75 0.4375 4.15
1.75 0.5 4.0875
1.6875 0.5 4.15
1.75 0.4375 4.0875
1.6875 0.4375 4.15
1.6875 0.5 4.0875
1.6875 0.4375 4.0875
1.875 0.4375 4.15
1.875 0.5 4.0875
1.8125 0.5 4.15
1.875 0.4375 4.0875
1.8125 0.4375 4.15
1.8125 0.5 4.0875
1.8125 0.4375 4.0875
2 0.4375 4.15
2 0.5 4.0875
1.9375 0.5 4.15
2 0.4375 4.0875
1.9375 0.4375 4.15
1.9375 0.5 4.0875
1.9375 0.4375 4.0875
2.125 0.4375 4.15
2.125 0.5 4.0875
2.0625 0.5 4.15
2.125 0.4375 4.0875
2.0625 0.4375 4.15
2.0625 0.5 4.0875
2.0625 0.4375 4.0875
2.25 0.4375 4.15
2.25 0.5 4.0875
2.1875 0.5 4.15
2.25 0.4375 4.0875
2.1875 0.4375 4.15
2.1875 0.5 4.0875
2.1875 0.4375 4.0875
2.375 0.4375 4.15
2.375 0.5 4.0875
2.3125 0.5 4.15
2.375 0.4375 4.0875
2.3125 0.4375 4.15
2.3125 0.5 4.0875
2.3125 0.4375 4.0875
2.5 0.4375 4.15
2.5 0.5 4.0875
2.4375 0.5 4.15
2.5 0.4375 4.0875
2.4375 0.4375 4.15
2.4375 0.5 4.0875
2.4375 0.4375 4.0875
2.625 0.4375 4.15
2.625 0.5 4.0875
2.5625 0.5 4.15
2.625 0.4375 4.0875
2.5625 0.4375 4.15
2.5625 0.5 4.0875
2.5625 0.4375 4.0875
2.75 0.4375 4.15
2.75 0.5 4.0875
2.6875 0.5 4.15
2.75 0.4375 4.0875
2.6875 0.4375 4.15
2.6875 0.5 4.0875
2.6875 0.4375 4.0875
2.875 0.4375 4.15
2.875 0.5 4.0875
2.8125 0.5 4.15
2.875 0.4375 4.0875
2.8125 0.4375 4.15
2.8125 0.5 4.0875
2.8125 0.4375 4.0875
3 0.4375 4.15
3 0.5 4.0875
2.9375 0.5 4.15
3 0.4375 4.0875
2.9375 0.4375 4.15
2.9375 0.5 4.0875
2.9375 0.4375 4.0875
3.125 0.4375 4.15
3.125 0.5 4.0875
3.0625 0.5 4.15
3.125 0.4375 4.0875
3.0625 0.4375 4.15
3.0625 0.5 4.0875
3.0625 0.4375 4.0875
3.25 0.4375 4.15
3.25 0.5 4.0875
3.1875 0.5 4.15
3.25 0.4375 4.0875
3.1875 0.4375 4.15
3.1875 0.5 4.0875
3.1875 0.4375 4.0875
3.375 0.4375 4.15
3.375 0.5 4.0875
3.3125 0.5 4.15
3.375 0.4375 4.0875
3.3125 0.4375 4.15
3.3125 0.5 4.0875
3.3125 0.4375 4.0875
3.5 0.4375 4.15
3.5 0.5 4.0875
3.4375 0.5 4.15
3.5 0.4375 4.0875
3.4375 0.4375 4.15
3.4375 0.5 4.0875
3.4375 0.4375 4.0875
3.625 0.4375 4.15
3.625 0.5 4.0875
3.5625 0.5 4.15
3.625 0.4375 4.0875
3.5625 0.4375 4.15
3.5625 0.5 4.0875
3.5625 0.4375 4.0875
3.75 0.4375 4.15
3.75 0.5 4.0875
3.6875 0.5 4.15
3.75 0.4375 4.0875
3.6875 0.4375 4.15
3.6875 0.5 4.0875
3.6875 0.4375 4.0875
3.875 0.4375 4.15
3.875 0.5 4.0875
3.8125 0.5 4.15
3.875 0.4375 4.0875
3.8125 0.4375 4.15
3.8125 0.5 4.0875
3.8125 0.4375 4.0875
4 0.4375 4.15
4 0.5 4.0875
3.9375 0.5 4.15
4 0.4375 4.0875
3.9375 0.4375 4.15
3.9375 0.5 4.0875
3.9375 0.4375 4.0875
0.125 0.5625 4.15
0 0.5625 4.15
0.125 0.625 4.0875
0.0625 0.625 4.15
0 0.625 4.0875
0.125 0.5625 4.0875
0.0625 0.5625 4.15
0 0.5625 4.0875
0.0625 0.625 4.0875
0.0625 0.5625 4.0875
0.25 0.5625 4.15
0.25 0.625 4.0875
0.1875 0.625 4.15
0.25 0.5625 4.0875
0.1875 0.5625 4.15
0.1875 0.625 4.0875
0.1875 0.5625 4.0875
0.375 0.5625 4.15
0.375 0.625 4.0875
0.3125 0.625 4.15
0.375 0.5625 4.0875
0.3125 0.5625 4.15
0.3125 0.625 4.0875
0.3125 0.5625 4.0875
0.5 0.5625 4.15
0.5 0.625 4.0875
0.4375 0.625 4.15
0.5 0.5625 4.0875
0.4375 0.5625 4.15
0.4375 0.625 4.0875
0.4375 0.5625 4.0875
0.625 0.5625 4.15
0.625 0.625 4.0875
0.5625 0.625 4.15
0.625 0.5625 4.0875
0.5625 0.5625 4.15
0.5625 0.625 4.0875
0.5625 0.5625 4.0875
0.75 0.5625 4.15
0.75 0.625 4.0875
0.6875 0.625 4.15
0.75 0.5625 4.0875
0.6875 0.5625 4.15
0.6875 0.625 4.0875
0.6875 0.5625 4.0875
0.875 0.5625 4.15
0.875 0.625 4.0875
0.8125 0.625 4.15
0.875 0.5625 4.0875
0.8125 0.5625 4.15
0.8125 0.625 4.0875
0.8125 0.5625 4.0875
1 0.5625 4.15
1 0.625 4.0875
0.9375 0.625 4.15
1 0.5625 4.0875
0.9375 0.5625 4.15
0.9375 0.625 4.0875
0.9375 0.5625 4.0875
1.125 0.5625 4.15
1.125 0.625 4.0875
1.0625 0.625 4.15
1.125 0.5625 4.0875
1.0625 0.5625 4.15
1.0625 0.625 4.0875
1.0625 0.5625 4.0875
1.25 0.5625 4.15
1.25 0.625 4.0875
1.1875 0.625 4.15
1.25 0.5625 4.0875
1.1875 0.5625 4.15
1.1875 0.625 4.0875
1.1875 0.5625 4.0875
1.375 0.5625 4.15
1.375 0.625 4.0875
1.3125 0.625 4.15
1.375 0.5625 4.0875
1.3125 0.5625 4.15
1.3125 0.625 4.0875
1.3125 0.5625 4.0875
1.5 0.5625 4.15
1.5 0.625 4.0875
1.4375 0.625 4.15
1.5 0.5625 4.0875
1.4375 0.5625 4.15
1.4375 0.625 4.0875
1.4375 0.5625 4.0875
1.625 0.5625 4.15
1.625 0.625 4.0875
1.5625 0.625 4.15
1.625 0.5625 4.0875
1.5625 0.5625 4.15
1.5625 0.625 4.0875
1.5625 0.5625 4.0875
1.75 0.5625 4.15
1.75 0.625 4.0875
1.6875 0.625 4.15
1.75 0.5625 4.0875
1.6875 0.5625 4.15
1.6875 0.625 4.0875
1.6875 0.5625 4.0875
1.875 0.5625 4.15
1.875 0.625 4.0875
1.8125 0.625 4.15
1.875 0.5625 4.0875
1.8125 0.5625 4.15
1.8125 0.625 4.0875
1.8125 0.5625 4.0875
2 0.5625 4.15
2 0.625 4.0875
1.9375 0.625 4.15
2 0.5625 4.0875
1.9375 0.5625 4.15
1.9375 0.625 4.0875
1.9375 0.5625 4.0875
2.125 0.5625 4.15
2.125 0.625 4.0875
2.0625 0.625 4.15
2.125 0.5625 4.0875
2.0625 0.5625 4.15
2.0625 0.625 4.0875
2.0625 0.5625 4.0875
2.25 0.5625 4.15
2.25 0.625 4.0875
2.1875 0.625 4.15
2.25 0.5625 4.0875
2.1875 0.5625 4.15
2.1875 0.625 4.0875
2.1875 0.5625 4.0875
2.375 0.5625 4.15
2.375 0.625 4.0875
2.3125 0.625 4.15
2.375 0.5625 4.0875
2.3125 0.5625 4.15
2.3125 0.625 4.0875
2.3125 0.5625 4.0875
2.5 0.5625 4.15
2.5 0.625 4.0875
2.4375 0.625 4.15
2.5 0.5625 4.0875
2.4375 0.5625 4.15
2.4375 0.625 4.0875
2.4375 0.5625 4.0875
2.625 0.5625 4.15
2.625 0.625 4.0875
2.5625 0.625 4.15
2.625 0.5625 4.0875
2.5625 0.5625 4.15
2.5625 0.625 4.0875
2.5625 0.5625 4.0875
2.75 0.5625 4.15
2.75 0.625 4.0875
2.6875 0.625 4.15
2.75 0.5625 4.0875
2.6875 0.5625 4.15
2.6875 0.625 4.0875
2.6875 0.5625 4.0875
2.875 0.5625 4.15
2.875 0.625 4.0875
2.8125 0.625 4.15
2.875 0.5625 4.0875
2.8125 0.5625 4.15
2.8125 0.625 4.0875
2.8125 0.5625 4.0875
3 0.5625 4.15
3 0.625 4.0875
2.9375 0.625 4.15
3 0.5625 4.0875
2.9375 0.5625 4.15
2.9375 0.625 4.0875
2.9375 0.5625 4.0875
3.125 0.5625 4.15
3.125 0.625 4.0875
3.0625 0.625 4.15
3.125 0.5625 4.0875
3.0625 0.5625 4.15
3.0625 0.625 4.0875
3.0625 0.5625 4.0875
3.25 0.5625 4.15
3.25 0.625 4.0875
3.1875 0.625 4.15
3.25 0.5625 4.0875
3.1875 0.5625 4.15
3.1875 0.625 4.0875
3.1875 0.5625 4.0875
3.375 0.5625 4.15
3.375 0.625 4.0875
3.3125 0.625 4.15
3.375 0.5625 4.0875
3.3125 0.5625 4.15
3.3125 0.625 4.0875
3.3125 0.5625 4.0875
3.5 0.5625 4.15
3.5 0.625 4.0875
3.4375 0.625 4.15
3.5 0.5625 4.0875
3.4375 0.5625 4.15
3.4375 0.625 4.0875
3.4375 0.5625 4.0875
3.625 0.5625 4.15
3.625 0.625 4.0875
3.5625 0.625 4.15
3.625 0.5625 4.0875
3.5625 0.5625 4.15
3.5625 0.625 4.0875
3.5625 0.5625 4.0875
3.75 0.5625 4.15
3.75 0.625 4.0875
3.6875 0.625 4.15
3.75 0.5625 4.0875
3.6875 0.5625 4.15
3.6875 0.625 4.0875
3.6875 0.5625 4.0875
3.875 0.5625 4.15
3.875 0.625 4.0875
3.8125 0.625 4.15
3.875 0.5625 4.0875
3.8125 0.5625 4.15
3.8125 0.625 4.0875
3.8125 0.5625 4.0875
4 0.5625 4.15
4 0.625 4.0875
3.9375 0.625 4.15
4 0.5625 4.0875
3.9375 0.5625 4.15
3.9375 0.625 4.0875
3.9375 0.5625 4.0875
0.125 0.6875 4.15
0 0.6875 4.15
0.125 0.75 4.0875
0.0625 0.75 4.15
0 0.75 4.0875
0.125 0.6875 4.0875
0.0625 0.6875 4.15
0 0.6875 4.0875
0.0625 0.75 4.0875
0.0625 0.6875 4.0875
0.25 0.6875 4.15
0.25 0.75 4.0875
0.1875 0.75 4.15
0.25 0.6875 4.0875
0.1875 0.6875 4.15
0.1875 0.75 4.0875
0.1875 0.6875 4.0875
0.375 0.6875 4.15
0.375 0.75 4.0875
0.3125 0.75 4.15
0.375 0.6875 4.0875
0.3125 0.6875 4.15
0.3125 0.75 4.0875
0.3125 0.6875 4.0875
0.5 0.6875 4.15
0.5 0.75 4.0875
0.4375 0.75 4.15
0.5 0.6875 4.0875
0.4375 0.6875 4.15
0.4375 0.75 4.0875
0.4375 0.6875 4.0875
0.625 0.6875 4.15
0.625 0.75 4.0875
0.5625 0.75 4.15
0.625 0.6875 4.0875
0.5625 0.6875 4.15
0.5625 0.75 4.0875
0.5625 0.6875 4.0875
0.75 0.6875 4.15
0.75 0.75 4.0875
0.6875 0.75 4.15
0.75 0.6875 4.0875
0.6875 0.6875 4.15
0.6875 0.75 4.0875
0.6875 0.6875 4.0875
0.875 0.6875 4.15
0.875 0.75 4.0875
0.8125 0.75 4.15
0.875 0.6875 4.0875
0.8125 0.6875 4.15
0.8125 0.75 4.0875
0.8125 0.6875 4.0875
1 0.6875 4.15
1 0.75 4.0875
0.9375 0.75 4.15
1 0.6875 4.0875
0.9375 0.6875 4.15
0.9375 0.75 4.0875
0.9375 0.6875 4.0875
1.125 0.6875 4.15
1.125 0.75 4.0875
1.0625 0.75 4.15
1.125 0.6875 4.0875
1.0625 0.6875 4.15
1.0625 0.75 4.0875
1.0625 0.6875 4.0875
1.25 0.6875 4.15
1.25 0.75 4.0875
1.1875 0.75 4.15
1.25 0.6875 4.0875
1.1875 0.6875 4.15
1.1875 0.75 4.0875
1.1875 0.6875 4.0875
1.375 0.6875 4.15
1.375 0.75 4.0875
1.3125 0.75 4.15
1.375 0.6875 4.0875
1.3125 0.6875 4.15
1.3125 0.75 4.0875
1.3125 0.6875 4.0875
1.5 0.6875 4.15
1.5 0.75 4.0875
1.4375 0.75 4.15
1.5 0.6875 4.0875
1.4375 0.6875 4.15
1.4375 0.75 4.0875
1.4375 0.6875 4.0875
1.625 0.6875 4.15
1.625 0.75 4.0875
1.5625 0.75 4.15
1.625 0.6875 4.0875
1.5625 0.6875 4.15
1.5625 0.75 4.0875
1.5625 0.6875 4.0875
1.75 0.6875 4.15
1.75 0.75 4.0875
1.6875 0.75 4.15
1.75 0.6875 4.0875
1.6875 0.6875 4.15
1.6875 0.75 4.0875
1.6875 0.6875 4.0875
1.875 0.6875 4.15
1.875 0.75 4.0875
1.8125 0.75 4.15
1.875 0.6875 4.0875
1.8125 0.6875 4.15
1.8125 0.75 4.0875
1.8125 0.6875 4.0875
2 0.6875 4.15
2 0.75 4.0875
1.9375 0.75 4.15
2 0.6875 4.0875
1.9375 0.6875 4.15
1.9375 0.75 4.0875
1.9375 0.6875 4.0875
2.125 0.6875 4.15
2.125 0.75 4.0875
2.0625 0.75 4.15
2.125 0.6875 4.0875
2.0625 0.6875 4.15
2.0625 0.75 4.0875
2.0625 0.6875 4.0875
2.25 0.6875 4.15
2.25 0.75 4.0875
2.1875 0.75 4.15
2.25 0.6875 4.0875
2.1875 0.6875 4.15
2.1875 0.75 4.0875
2.1875 0.6875 4.0875
2.375 0.6875 4.15
2.375 0.75 4.0875
2.3125 0.75 4.15
2.375 0.6875 4.0875
2.3125 0.6875 4.15
2.3125 0.75 4.0875
2.3125 0.6875 4.0875
2.5 0.6875 4.15
2.5 0.75 4.0875
2.4375 0.75 4.15
2.5 0.6875 4.0875
2.4375 0.6875 4.15
2.4375 0.75 4.0875
2.4375 0.6875 4.0875
2.625 0.6875 4.15
2.625 0.75 4.0875
2.5625 0.75 4.15
2.625 0.6875 4.0875
2.5625 0.6875 4.15
2.5625 0.75 4.0875
2.5625 0.6875 4.0875
2.75 0.6875 4.15
2.75 0.75 4.0875
2.6875 0.75 4.15
2.75 0.6875 4.0875
2.6875 0.6875 4.15
2.6875 0.75 4.0875
2.6875 0.6875 4.0875
2.875 0.6875 4.15
2.875 0.75 4.0875
2.8125 0.75 4.15
2.875 0.6875 4.0875
2.8125 0.6875 4.15
2.8125 0.75 4.0875
2.8125 0.6875 4.0875
3 0.6875 4.15
3 0.75 4.0875
2.9375 0.75 4.15
3 0.6875 4.0875
2.9375 0.6875 4.15
2.9375 0.75 4.0875
2.9375 0.6875 4.0875
3.125 0.6875 4.15
3.125 0.75 4.0875
3.0625 0.75 4.15
3.125 0.6875 4.0875
3.0625 0.6875 4.15
3.0625 0.75 4.0875
3.0625 0.6875 4.0875
3.25 0.6875 4.15
3.25 0.75 4.0875
3.1875 0.75 4.15
3.25 0.6875 4.0875
3.1875 0.6875 4.15
3.1875 0.75 4.0875
3.1875 0.6875 4.0875
3.375 0.6875 4.15
3.375 0.75 4.0875
3.3125 0.75 4.15
3.375 0.6875 4.0875
3.3125 0.6875 4.15
3.3125 0.75 4.0875
3.3125 0.6875 4.0875
3.5 0.6875 4.15
3.5 0.75 4.0875
3.4375 0.75 4.15
3.5 0.6875 4.0875
3.4375 0.6875 4.15
3.4375 0.75 4.0875
3.4375 0.6875 4.0875
3.625 0.6875 4.15
3.625 0.75 4.0875
3.5625 0.75 4.15
3.625 0.6875 4.0875
3.5625 0.6875 4.15
3.5625 0.75 4.0875
3.5625 0.6875 4.0875
3.75 0.6875 4.15
3.75 0.75 4.0875
3.6875 0.75 4.15
3.75 0.6875 4.0875
3.6875 0.6875 4.15
3.6875 0.75 4.0875
3.6875 0.6875 4.0875
3.875 0.6875 4.15
3.875 0.75 4.0875
3.8125 0.75 4.15
3.875 0.6875 4.0875
3.8125 0.6875 4.15
3.8125 0.75 4.0875
3.8125 0.6875 4.0875
4 0.6875 4.15
4 0.75 4.0875
3.9375 0.75 4.15
4 0.6875 4.0875
3.9375 0.6875 4.15
3.9375 0.75 4.0875
3.9375 0.6875 4.0875
0.125 0.8125 4.15
0 0.8125 4.15
0.125 0.875 4.0875
0.0625 0.875 4.15
0 0.875 4.0875
0.125 0.8125 4.0875
0.0625 0.8125 4.15
0 0.8125 4.0875
0.0625 0.875 4.0875
0.0625 0.8125 4.0875
0.25 0.8125 4.15
0.25 0.875 4.0875
0.1875 0.875 4.15
0.25 0.8125 4.0875
0.1875 0.8125 4.15
0.1875 0.875 4.0875
0.1875 0.8125 4.0875
0.375 0.8125 4.15
0.375 0.875 4.0875
0.3125 0.875 4.15
0.375 0.8125 4.0875
0.3125 0.8125 4.15
0.3125 0.875 4.0875
0.3125 0.8125 4.0875
0.5 0.8125 4.15
0.5 0.875 4.0875
0.4375 0.875 4.15
0.5 0.8125 4.0875
0.4375 0.8125 4.15
0.4375 0.875 4.0875
0.4375 0.8125 4.0875
0.625 0.8125 4.15
0.625 0.875 4.0875
0.5625 0.875 4.15
0.625 0.8125 4.0875
0.5625 0.8125 4.15
0.5625 0.875 4.0875
0.5625 0.8125 4.0875
0.75 0.8125 4.15
0.75 0.875 4.0875
0.6875 0.875 4.15
0.75 0.8125 4.0875
0.6875 0.8125 4.15
0.6875 0.875 4.0875
0.6875 0.8125 4.0875
0.875 0.8125 4.15
0.875 0.875 4.0875
0.8125 0.875 4.15
0.875 0.8125 4.0875
0.8125 0.8125 4.15
0.8125 0.875 4.0875
0.8125 0.8125 4.0875
1 0.8125 4.15
1 0.875 4.0875
0.9375 0.875 4.15
1 0.8125 4.0875
0.9375 0.8125 4.15
0.9375 0.875 4.0875
0.9375 0.8125 4.0875
1.125 0.8125 4.15
1.125 0.875 4.0875
1.0625 0.875 4.15
1.125 0.8125 4.0875
1.0625 0.8125 4.15
1.0625 0.875 4.0875
1.0625 0.8125 4.0875
1.25 0.8125 4.15
1.25 0.875 4.0875
1.1875 0.875 4.15
1.25 0.8125 4.0875
1.1875 0.8125 4.15
1.1875 0.875 4.0875
1.1875 0.8125 4.0875
1.375 0.8125 4.15
1.375 0.875 4.0875
1.3125 0.875 4.15
1.375 0.8125 4.0875
1.3125 0.8125 4.15
1.3125 0.875 4.0875
1.3125 0.8125 4.0875
1.5 0.8125 4.15
1.5 0.875 4.0875
1.4375 0.875 4.15
1.5 0.8125 4.0875
1.4375 0.8125 4.15
1.4375 0.875 4.0875
1.4375 0.8125 4.0875
1.625 0.8125 4.15
1.625 0.875 4.0875
1.5625 0.875 4.15
1.625 0.8125 4.0875
1.5625 0.8125 4.15
1.5625 0.875 4.0875
1.5625 0.8125 4.0875
1.75 0.8125 4.15
1.75 0.875 4.0875
1.6875 0.875 4.15
1.75 0.8125 4.0875
1.6875 0.8125 4.15
1.6875 0.875 4.0875
1.6875 0.8125 4.0875
1.875 0.8125 4.15
1.875 0.875 4.0875
1.8125 0.875 4.15
1.875 0.8125 4.0875
1.8125 0.8125 4.15
1.8125 0.875 4.0875
1.8125 0.8125 4.0875
2 0.8125 4.15
2 0.875 4.0875
1.9375 0.875 4.15
2 0.8125 4.0875
1.9375 0.8125 4.15
1.9375 0.875 4.0875
1.9375 0.8125 4.0875
2.125 0.8125 4.15
2.125 0.875 4.0875
2.0625 0.875 4.15
2.125 0.8125 4.0875
2.0625 0.8125 4.15
2.0625 0.875 4.0875
2.0625 0.8125 4.0875
2.25 0.8125 4.15
2.25 0.875 4.0875
2.1875 0.875 4.15
2.25 0.8125 4.0875
2.1875 0.8125 4.15
2.1875 0.875 4.0875
2.1875 0.8125 4.0875
2.375 0.8125 4.15
2.375 0.875 4.0875
2.3125 0.875 4.15
2.375 0.8125 4.0875
2.3125 0.8125 4.15
2.3125 0.875 4.0875
2.3125 0.8125 4.0875
2.5 0.8125 4.15
2.5 0.875 4.0875
2.4375 0.875 4.15
2.5 0.8125 4.0875
2.4375 0.8125 4.15
2.4375 0.875 4.0875
2.4375 0.8125 4.0875
2.625 0.8125 4.15
2.625 0.875 4.0875
2.5625 0.875 4.15
2.625 0.8125 4.0875
2.5625 0.8125 4.15
2.5625 0.875 4.0875
2.5625 0.8125 4.0875
2.75 0.8125 4.15
2.75 0.875 4.0875
2.6875 0.875 4.15
2.75 0.8125 4.0875
2.6875 0.8125 4.15
2.6875 0.875 4.0875
2.6875 0.8125 4.0875
2.875 0.8125 4.15
2.875 0.875 4.0875
2.8125 0.875 4.15
2.875 0.8125 4.0875
2.8125 0.8125 4.15
2.8125 0.875 4.0875
2.8125 0.8125 4.0875
3 0.8125 4.15
3 0.875 4.0875
2.9375 0.875 4.15
3 0.8125 4.0875
2.9375 0.8125 4.15
2.9375 0.875 4.0875
2.9375 0.8125 4.0875
3.125 0.8125 4.15
3.125 0.875 4.0875
3.0625 0.875 4.15
3.125 0.8125 4.0875
3.0625 0.8125 4.15
3.0625 0.875 4.0875
3.0625 0.8125 4.0875
3.25 0.8125 4.15
3.25 0.875 4.0875
3.1875 0.875 4.15
3.25 0.8125 4.0875
3.1875 0.8125 4.15
3.1875 0.875 4.0875
3.1875 0.8125 4.0875
3.375 0.8125 4.15
3.375 0.875 4.0875
3.3125 0.875 4.15
3.375 0.8125 4.0875
3.3125 0.8125 4.15
3.3125 0.875 4.0875
3.3125 0.8125 4.0875
3.5 0.8125 4.15
3.5 0.875 4.0875
3.4375 0.875 4.15
3.5 0.8125 4.0875
3.4375 0.8125 4.15
3.4375 0.875 4.0875
3.4375 0.8125 4.0875
3.625 0.8125 4.15
3.625 0.875 4.0875
3.5625 0.875 4.15
3.625 0.8125 4.0875
3.5625 0.8125 4.15
3.5625 0.875 4.0875
3.5625 0.8125 4.0875
3.75 0.8125 4.15
3.75 0.875 4.0875
3.6875 0.875 4.15
3.75 0.8125 4.0875
3.6875 0.8125 4.15
3.6875 0.875 4.0875
3.6875 0.8125 4.0875
3.875 0.8125 4.15
3.875 0.875 4.0875
3.8125 0.875 4.15
3.875 0.8125 4.0875
3.8125 0.8125 4.15
3.8125 0.875 4.0875
3.8125 0.8125 4.0875
4 0.8125 4.15
4 0.875 4.0875
3.9375 0.875 4.15
4 0.8125 4.0875
3.9375 0.8125 4.15
3.9375 0.875 4.0875
3.9375 0.8125 4.0875
0.125 0.9375 4.15
0 0.9375 4.15
0.125 1 4.0875
0.0625 1 4.15
0 1 4.0875
0.125 0.9375 4.0875
0.0625 0.9375 4.15
0 0.9375 4.0875
0.0625 1 4.0875
0.0625 0.9375 4.0875
0.25 0.9375 4.15
0.25 1 4.0875
0.1875 1 4.15
0.25 0.9375 4.0875
0.1875 0.9375 4.15
0.1875 1 4.0875
0.1875 0.9375 4.0875
0.375 0.9375 4.15
0.375 1 4.0875
0.3125 1 4.15
0.375 0.9375 4.0875
0.3125 0.9375 4.15
0.3125 1 4.0875
0.3125 0.9375 4.0875
0.5 0.9375 4.15
0.5 1 4.0875
0.4375 1 4.15
0.5 0.9375 4.0875
0.4375 0.9375 4.15
0.4375 1 4.0875
0.4375 0.9375 4.0875
0.625 0.9375 4.15
0.625 1 4.0875
0.5625 1 4.15
0.625 0.9375 4.0875
0.5625 0.9375 4.15
0.5625 1 4.0875
0.5625 0.9375 4.0875
0.75 0.9375 4.15
0.75 1 4.0875
0.6875 1 4.15
0.75 0.9375 4.0875
0.6875 0.9375 4.15
0.6875 1 4.0875
0.6875 0.9375 4.0875
0.875 0.9375 4.15
0.875 1 4.0875
0.8125 1 4.15
0.875 0.9375 4.0875
0.8125 0.9375 4.15
0.8125 1 4.0875
0.8125 0.9375 4.0875
1 0.9375 4.15
1 1 4.0875
0.9375 1 4.15
1 0.9375 4.0875
0.9375 0.9375 4.15
0.9375 1 4.0875
0.9375 0.9375 4.0875
1.125 0.9375 4.15
1.125 1 4.0875
1.0625 1 4.15
1.125 0.9375 4.0875
1.0625 0.9375 4.15
1.0625 1 4.0875
1.0625 0.9375 4.0875
1.25 0.9375 4.15
1.25 1 4.0875
1.1875 1 4.15
1.25 0.9375 4.0875
1.1875 0.9375 4.15
1.1875 1 4.0875
1.1875 0.9375 4.0875
1.375 0.9375 4.15
1.375 1 4.0875
1.3125 1 4.15
1.375 0.9375 4.0875
1.3125 0.9375 4.15
1.3125 1 4.0875
1.3125 0.9375 4.0875
1.5 0.9375 4.15
1.5 1 4.0875
1.4375 1 4.15
1.5 0.9375 4.0875
1.4375 0.9375 4.15
1.4375 1 4.0875
1.4375 0.9375 4.0875
1.625 0.9375 4.15
1.625 1 4.0875
1.5625 1 4.15
1.625 0.9375 4.0875
1.5625 0.9375 4.15
1.5625 1 4.0875
1.5625 0.9375 4.0875
1.75 0.9375 4.15
1.75 1 4.0875
1.6875 1 4.15
1.75 0.9375 4.0875
1.6875 0.9375 4.15
1.6875 1 4.0875
1.6875 0.9375 4.0875
1.875 0.9375 4.15
1.875 1 4.0875
1.8125 1 4.15
1.875 0.9375 4.0875
1.8125 0.9375 4.15
1.8125 1 4.0875
1.8125 0.9375 4.0875
2 0.9375 4.15
2 1 4.0875
1.9375 1 4.15
2 0.9375 4.0875
1.9375 0.9375 4.15
1.9375 1 4.0875
1.9375 0.9375 4.0875
2.125 0.9375 4.15
2.125 1 4.0875
2.0625 1 4.15
2.125 0.9375 4.0875
2.0625 0.9375 4.15
2.0625 1 4.0875
2.0625 0.9375 4.0875
2.25 0.9375 4.15
2.25 1 4.0875
2.1875 1 4.15
2.25 0.9375 4.0875
2.1875 0.9375 4.15
2.1875 1 4.0875
2.1875 0.9375 4.0875
2.375 0.9375 4.15
2.375 1 4.0875
2.3125 1 4.15
2.375 0.9375 4.0875
2.3125 0.9375 4.15
2.3125 1 4.0875
2.3125 0.9375 4.0875
2.5 0.9375 4.15
2.5 1 4.0875
2.4375 1 4.15
2.5 0.9375 4.0875
2.4375 0.9375 4.15
2.4375 1 4.0875
2.4375 0.9375 4.0875
2.625 0.9375 4.15
2.625 1 4.0875
2.5625 1 4.15
2.625 0.9375 4.0875
2.5625 0.9375 4.15
2.5625 1 4.0875
2.5625 0.9375 4.0875
2.75 0.9375 4.15
2.75 1 4.0875
2.6875 1 4.15
2.75 0.9375 4.0875
2.6875 0.9375 4.15
2.6875 1 4.0875
2.6875 0.9375 4.0875
2.875 0.9375 4.15
2.875 1 4.0875
2.8125 1 4.15
2.875 0.9375 4.0875
2.8125 0.9375 4.15
2.8125 1 4.0875
2.8125 0.9375 4.0875
3 0.9375 4.15
3 1 4.0875
2.9375 1 4.15
3 0.9375 4.0875
2.9375 0.9375 4.15
2.9375 1 4.0875
2.9375 0.9375 4.0875
3.125 0.9375 4.15
3.125 1 4.0875
3.0625 1 4.15
3.125 0.9375 4.0875
3.0625 0.9375 4.15
3.0625 1 4.0875
3.0625 0.9375 4.0875
3.25 0.9375 4.15
3.25 1 4.0875
3.1875 1 4.15
3.25 0.9375 4.0875
3.1875 0.9375 4.15
3.1875 1 4.0875
3.1875 0.9375 4.0875
3.375 0.9375 4.15
3.375 1 4.0875
3.3125 1 4.15
3.375 0.9375 4.0875
3.3125 0.9375 4.15
3.3125 1 4.0875
3.3125 0.9375 4.0875
3.5 0.9375 4.15
3.5 1 4.0875
3.4375 1 4.15
3.5 0.9375 4.0875
3.4375 0.9375 4.15
3.4375 1 4.0875
3.4375 0.9375 4.0875
3.625 0.9375 4.15
3.625 1 4.0875
3.5625 1 4.15
3.625 0.9375 4.0875
3.5625 0.9375 4.15
3.5625 1 4.0875
3.5625 0.9375 4.0875
3.75 0.9375 4.15
3.75 1 4.0875
3.6875 1 4.15
3.75 0.9375 4.0875
3.6875 0.9375 4.15
3.6875 1 4.0875
3.6875 0.9375 4.0875
3.875 0.9375 4.15
3.875 1 4.0875
3.8125 1 4.15
3.875 0.9375 4.0875
3.8125 0.9375 4.15
3.8125 1 4.0875
3.8125 0.9375 4.0875
4 0.9375 4.15
4 1 4.0875
3.9375 1 4.15
4 0.9375 4.0875
3.9375 0.9375 4.15
3.9375 1 4.0875
3.9375 0.9375 4.0875
0.125 0 4.2125
0.0625 0 4.275
0 0 4.2125
0.125 0.0625 4.275
0 0.0625 4.275
0.125 0.125 4.2125
0.0625 0.125 4.275
0 0.125 4.2125
0.0625 0 4.2125
0.125 0.0625 4.2125
0.0625 0.0625 4.275
0 0.0625 4.2125
0.0625 0.125 4.2125
0.0625 0.0625 4.2125
0.25 0 4.2125
0.1875 0 4.275
0.25 0.0625 4.275
0.25 0.125 4.2125
0.1875 0.125 4.275
0.1875 0 4.2125
0.25 0.0625 4.2125
0.1875 0.0625 4.275
0.1875 0.125 4.2125
0.1875 0.0625 4.2125
0.375 0 4.2125
0.3125 0 4.275
0.375 0.0625 4.275
0.375 0.125 4.2125
0.3125 0.125 4.275
0.3125 0 4.2125
0.375 0.0625 4.2125
0.3125 0.0625 4.275
0.3125 0.125 4.2125
0.3125 0.0625 4.2125
0.5 0 4.2125
0.4375 0 4.275
0.5 0.0625 4.275
0.5 0.125 4.2125
0.4375 0.125 4.275
0.4375 0 4.2125
0.5 0.0625 4.2125
0.4375 0.0625 4.275
0.4375 0.125 4.2125
0.4375 0.0625 4.2125
0.625 0 4.2125
0.5625 0 4.275
0.625 0.0625 4.275
0.625 0.125 4.2125
0.5625 0.125 4.275
0.5625 0 4.2125
0.625 0.0625 4.2125
0.5625 0.0625 4.275
0.5625 0.125 4.2125
0.5625 0.0625 4.2125
0.75 0 4.2125
0.6875 0 4.275
0.75 0.0625 4.275
0.75 0.125 4.2125
0.6875 0.125 4.275
0.6875 0 4.2125
0.75 0.0625 4.2125
0.6875 0.0625 4.275
0.6875 0.125 4.2125
0.6875 0.0625 4.2125
0.875 0 4.2125
0.8125 0 4.275
0.875 0.0625 4.275
0.875 0.125 4.2125
0.8125 0.125 4.275
0.8125 0 4.2125
0.875 0.0625 4.2125
0.8125 0.0625 4.275
0.8125 0.125 4.2125
0.8125 0.0625 4.2125
1 0 4.2125
0.9375 0 4.275
1 0.0625 4.275
1 0.125 4.2125
0.9375 0.125 4.275
0.9375 0 4.2125
1 0.0625 4.2125
0.9375 0.0625 4.275
0.9375 0.125 4.2125
0.9375 0.0625 4.2125
1.125 0 4.2125
1.0625 0 4.275
1.125 0.0625 4.275
1.125 0.125 4.2125
1.0625 0.125 4.275
1.0625 0 4.2125
1.125 0.0625 4.2125
1.0625 0.0625 4.275
1.0625 0.125 4.2125
1.0625 0.0625 4.2125
1.25 0 4.2125
1.1875 0 4.275
1.25 0.0625 4.275
1.25 0.125 4.2125
1.1875 0.125 4.275
1.1875 0 4.2125
1.25 0.0625 4.2125
1.1875 0.0625 4.275
1.1875 0.125 4.2125
1.1875 0.0625 4.2125
1.375 0 4.2125
1.3125 0 4.275
1.375 0.0625 4.275
1.375 0.125 4.2125
1.3125 0.125 4.275
1.3125 0 4.2125
1.375 0.0625 4.2125
1.3125 0.0625 4.275
1.3125 0.125 4.2125
1.3125 0.0625 4.2125
1.5 0 4.2125
1.4375 0 4.275
1.5 0.0625 4.275
1.5 0.125 4.2125
1.4375 0.125 4.275
1.4375 0 4.2125
1.5 0.0625 4.2125
1.4375 0.0625 4.275
1.4375 0.125 4.2125
1.4375 0.0625 4.2125
1.625 0 4.2125
1.5625 0 4.275
1.625 0.0625 4.275
1.625 0.125 4.2125
1.5625 0.125 4.275
1.5625 0 4.2125
1.625 0.0625 4.2125
1.5625 0.0625 4.275
1.5625 0.125 4.2125
1.5625 0.0625 4.2125
1.75 0 4.2125
1.6875 0 4.275
1.75 0.0625 4.275
1.75 0.125 4.2125
1.6875 0.125 4.275
1.6875 0 4.2125
1.75 0.0625 4.2125
1.6875 0.0625 4.275
1.6875 0.125 4.2125
1.6875 0.0625 4.2125
1.875 0 4.2125
1.8125 0 4.275
1.875 0.0625 4.275
1.875 0.125 4.2125
1.8125 0.125 4.275
1.8125 0 4.2125
1.875 0.0625 4.2125
1.8125 0.0625 4.275
1.8125 0.125 4.2125
1.8125 0.0625 4.2125
2 0 4.2125
1.9375 0 4.275
2 0.0625 4.275
2 0.125 4.2125
1.9375 0.125 4.275
1.9375 0 4.2125
2 0.0625 4.2125
1.9375 0.0625 4.275
1.9375 0.125 4.2125
1.9375 0.0625 4.2125
2.125 0 4.2125
2.0625 0 4.275
2.125 0.0625 4.275
2.125 0.125 4.2125
2.0625 0.125 4.275
2.0625 0 4.2125
2.125 0.0625 4.2125
2.0625 0.0625 4.275
2.0625 0.125 4.2125
2.0625 0.0625 4.2125
2.25 0 4.2125
2.1875 0 4.275
2.25 0.0625 4.275
2.25 0.125 4.2125
2.1875 0.125 4.275
2.1875 0 4.2125
2.25 0.0625 4.2125
2.1875 0.0625 4.275
2.1875 0.125 4.2125
2.1875 0.0625 4.2125
2.375 0 4.2125
2.3125 0 4.275
2.375 0.0625 4.275
2.375 0.125 4.2125
2.3125 0.125 4.275
2.3125 0 4.2125
2.375 0.0625 4.2125
2.3125 0.0625 4.275
2.3125 0.125 4.2125
2.3125 0.0625 4.2125
2.5 0 4.2125
2.4375 0 4.275
2.5 0.0625 4.275
2.5 0.125 4.2125
2.4375 0.125 4.275
2.4375 0 4.2125
2.5 0.0625 4.2125
2.4375 0.0625 4.275
2.4375 0.125 4.2125
2.4375 0.0625 4.2125
2.625 0 4.2125
2.5625 0 4.275
2.625 0.0625 4.275
2.625 0.125 4.2125
2.5625 0.125 4.275
2.5625 0 4.2125
2.625 0.0625 4.2125
2.5625 0.0625 4.275
2.5625 0.125 4.2125
2.5625 0.0625 4.2125
2.75 0 4.2125
2.6875 0 4.275
2.75 0.0625 4.275
2.75 0.125 4.2125
2.6875 0.125 4.275
2.6875 0 4.2125
2.75 0.0625 4.2125
2.6875 0.0625 4.275
2.6875 0.125 4.2125
2.6875 0.0625 4.2125
2.875 0 4.2125
2.8125 0 4.275
2.875 0.0625 4.275
2.875 0.125 4.2125
2.8125 0.125 4.275
2.8125 0 4.2125
2.875 0.0625 4.2125
2.8125 0.0625 4.275
2.8125 0.125 4.2125
2.8125 0.0625 4.2125
3 0 4.2125
2.9375 0 4.275
3 0.0625 4.275
3 0.125 4.2125
2.9375 0.125 4.275
2.9375 0 4.2125
3 0.0625 4.2125
2.9375 0.0625 4.275
2.9375 0.125 4.2125
2.9375 0.0625 4.2125
3.125 0 4.2125
3.0625 0 4.275
3.125 0.0625 4.275
3.125 0.125 4.2125
3.0625 0.125 4.275
3.0625 0 4.2125
3.125 0.0625 4.2125
3.0625 0.0625 4.275
3.0625 0.125 4.2125
3.0625 0.0625 4.2125
3.25 0 4.2125
3.1875 0 4.275
3.25 0.0625 4.275
3.25 0.125 4.2125
3.1875 0.125 4.275
3.1875 0 4.2125
3.25 0.0625 4.2125
3.1875 0.0625 4.275
3.1875 0.125 4.2125
3.1875 0.0625 4.2125
3.375 0 4.2125
3.3125 0 4.275
3.375 0.0625 4.275
3.375 0.125 4.2125
3.3125 0.125 4.275
3.3125 0 4.2125
3.375 0.0625 4.2125
3.3125 0.0625 4.275
3.3125 0.125 4.2125
3.3125 0.0625 4.2125
3.5 0 4.2125
3.4375 0 4.275
3.5 0.0625 4.275
3.5 0.125 4.2125
3.4375 0.125 4.275
3.4375 0 4.2125
3.5 0.0625 4.2125
3.4375 0.0625 4.275
3.4375 0.125 4.2125
3.4375 0.0625 4.2125
3.625 0 4.2125
3.5625 0 4.275
3.625 0.0625 4.275
3.625 0.125 4.2125
3.5625 0.125 4.275
3.5625 0 4.2125
3.625 0.0625 4.2125
3.5625 0.0625 4.275
3.5625 0.125 4.2125
3.5625 0.0625 4.2125
3.75 0 4.2125
3.6875 0 4.275
3.75 0.0625 4.275
3.75 0.125 4.2125
3.6875 0.125 4.275
3.6875 0 4.2125
3.75 0.0625 4.2125
3.6875 0.0625 4.275
3.6875 0.125 4.2125
3.6875 0.0625 4.2125
3.875 0 4.2125
3.8125 0 4.275
3.875 0.0625 4.275
3.875 0.125 4.2125
3.8125 0.125 4.275
3.8125 0 4.2125
3.875 0.0625 4.2125
3.8125 0.0625 4.275
3.8125 0.125 4.2125
3.8125 0.0625 4.2125
4 0 4.2125
3.9375 0 4.275
4 0.0625 4.275
4 0.125 4.2125
3.9375 0.125 4.275
3.9375 0 4.2125
4 0.0625 4.2125
3.9375 0.0625 4.275
3.9375 0.125 4.2125
3.9375 0.0625 4.2125
0.125 0.1875 4.275
0 0.1875 4.275
0.125 0.25 4.2125
0.0625 0.25 4.275
0 0.25 4.2125
0.125 0.1875 4.2125
0.0625 0.1875 4.275
0 0.1875 4.2125
0.0625 0.25 4.2125
0.0625 0.1875 4.2125
0.25 0.1875 4.275
0.25 0.25 4.2125
0.1875 0.25 4.275
0.25 0.1875 4.2125
0.1875 0.1875 4.275
0.1875 0.25 4.2125
0.1875 0.1875 4.2125
0.375 0.1875 4.275
0.375 0.25 4.2125
0.3125 0.25 4.275
0.375 0.1875 4.2125
0.3125 0.1875 4.275
0.3125 0.25 4.2125
0.3125 0.1875 4.2125
0.5 0.1875 4.275
0.5 0.25 4.2125
0.4375 0.25 4.275
0.5 0.1875 4.2125
0.4375 0.1875 4.275
0.4375 0.25 4.2125
0.4375 0.1875 4.2125
0.625 0.1875 4.275
0.625 0.25 4.2125
0.5625 0.25 4.275
0.625 0.1875 4.2125
0.5625 0.1875 4.275
0.5625 0.25 4.2125
0.5625 0.1875 4.2125
0.75 0.1875 4.275
0.75 0.25 4.2125
0.6875 0.25 4.275
0.75 0.1875 4.2125
0.6875 0.1875 4.275
0.6875 0.25 4.2125
0.6875 0.1875 4.2125
0.875 0.1875 4.275
0.875 0.25 4.2125
0.8125 0.25 4.275
0.875 0.1875 4.2125
0.8125 0.1875 4.275
0.8125 0.25 4.2125
0.8125 0.1875 4.2125
1 0.1875 4.275
1 0.25 4.2125
0.9375 0.25 4.275
1 0.1875 4.2125
0.9375 0.1875 4.275
0.9375 0.25 4.2125
0.9375 0.1875 4.2125
1.125 0.1875 4.275
1.125 0.25 4.2125
1.0625 0.25 4.275
1.125 0.1875 4.2125
1.0625 0.1875 4.275
1.0625 0.25 4.2125
1.0625 0.1875 4.2125
1.25 0.1875 4.275
1.25 0.25 4.2125
1.1875 0.25 4.275
1.25 0.1875 4.2125
1.1875 0.1875 4.275
1.1875 0.25 4.2125
1.1875 0.1875 4.2125
1.375 0.1875 4.275
1.375 0.25 4.2125
1.3125 0.25 4.275
1.375 0.1875 4.2125
1.3125 0.1875 4.275
1.3125 0.25 4.2125
1.3125 0.1875 4.2125
1.5 0.1875 4.275
1.5 0.25 4.2125
1.4375 0.25 4.275
1.5 0.1875 4.2125
1.4375 0.1875 4.275
1.4375 0.25 4.2125
1.4375 0.1875 4.2125
1.625 0.1875 4.275
1.625 0.25 4.2125
1.5625 0.25 4.275
1.625 0.1875 4.2125
1.5625 0.1875 4.275
1.5625 0.25 4.2125
1.5625 0.1875 4.2125
1.75 0.1875 4.275
1.75 0.25 4.2125
1.6875 0.25 4.275
1.75 0.1875 4.2125
1.6875 0.1875 4.275
1.6875 0.25 4.2125
1.6875 0.1875 4.2125
1.875 0.1875 4.275
1.875 0.25 4.2125
1.8125 0.25 4.275
1.875 0.1875 4.2125
1.8125 0.1875 4.275
1.8125 0.25 4.2125
1.8125 0.1875 4.2125
2 0.1875 4.275
2 0.25 4.2125
1.9375 0.25 4.275
2 0.1875 4.2125
1.9375 0.1875 4.275
1.9375 0.25 4.2125
1.9375 0.1875 4.2125
2.125 0.1875 4.275
2.125 0.25 4.2125
2.0625 0.25 4.275
2.125 0.1875 4.2125
2.0625 0.1875 4.275
2.0625 0.25 4.2125
2.0625 0.1875 4.2125
2.25 0.1875 4.275
2.25 0.25 4.2125
2.1875 0.25 4.275
2.25 0.1875 4.2125
2.1875 0.1875 4.275
2.1875 0.25 4.2125
2.1875 0.1875 4.2125
2.375 0.1875 4.275
2.375 0.25 4.2125
2.3125 0.25 4.275
2.375 0.1875 4.2125
2.3125 0.1875 4.275
2.3125 0.25 4.2125
2.3125 0.1875 4.2125
2.5 0.1875 4.275
2.5 0.25 4.2125
2.4375 0.25 4.275
2.5 0.1875 4.2125
2.4375 0.1875 4.275
2.4375 0.25 4.2125
2.4375 0.1875 4.2125
2.625 0.1875 4.275
2.625 0.25 4.2125
2.5625 0.25 4.275
2.625 0.1875 4.2125
2.5625 0.1875 4.275
2.5625 0.25 4.2125
2.5625 0.1875 4.2125
2.75 0.1875 4.275
2.75 0.25 4.2125
2.6875 0.25 4.275
2.75 0.1875 4.2125
2.6875 0.1875 4.275
2.6875 0.25 4.2125
2.6875 0.1875 4.2125
2.875 0.1875 4.275
2.875 0.25 4.2125
2.8125 0.25 4.275
2.875 0.1875 4.2125
2.8125 0.1875 4.275
2.8125 0.25 4.2125
2.8125 0.1875 4.2125
3 0.1875 4.275
3 0.25 4.2125
2.9375 0.25 4.275
3 0.1875 4.2125
2.9375 0.1875 4.275
2.9375 0.25 4.2125
2.9375 0.1875 4.2125
3.125 0.1875 4.275
3.125 0.25 4.2125
3.0625 0.25 4.275
3.125 0.1875 4.2125
3.0625 0.1875 4.275
3.0625 0.25 4.2125
3.0625 0.1875 4.2125
3.25 0.1875 4.275
3.25 0.25 4.2125
3.1875 0.25 4.275
3.25 0.1875 4.2125
3.1875 0.1875 4.275
3.1875 0.25 4.2125
3.1875 0.1875 4.2125
3.375 0.1875 4.275
3.375 0.25 4.2125
3.3125 0.25 4.275
3.375 0.1875 4.2125
3.3125 0.1875 4.275
3.3125 0.25 4.2125
3.3125 0.1875 4.2125
3.5 0.1875 4.275
3.5 0.25 4.2125
3.4375 0.25 4.275
3.5 0.1875 4.2125
3.4375 0.1875 4.275
3.4375 0.25 4.2125
3.4375 0.1875 4.2125
3.625 0.1875 4.275
3.625 0.25 4.2125
3.5625 0.25 4.275
3.625 0.1875 4.2125
3.5625 0.1875 4.275
3.5625 0.25 4.2125
3.5625 0.1875 4.2125
3.75 0.1875 4.275
3.75 0.25 4.2125
3.6875 0.25 4.275
3.75 0.1875 4.2125
3.6875 0.1875 4.275
3.6875 0.25 4.2125
3.6875 0.1875 4.2125
3.875 0.1875 4.275
3.875 0.25 4.2125
3.8125 0.25 4.275
3.875 0.1875 4.2125
3.8125 0.1875 4.275
3.8125 0.25 4.2125
3.8125 0.1875 4.2125
4 0.1875 4.275
4 0.25 4.2125
3.9375 0.25 4.275
4 0.1875 4.2125
3.9375 0.1875 4.275
3.9375 0.25 4.2125
3.9375 0.1875 4.2125
0.125 0.3125 4.275
0 0.3125 4.275
0.125 0.375 4.2125
0.0625 0.375 4.275
0 0.375 4.2125
0.125 0.3125 4.2125
0.0625 0.3125 4.275
0 0.3125 4.2125
0.0625 0.375 4.2125
0.0625 0.3125 4.2125
0.25 0.3125 4.275
0.25 0.375 4.2125
0.1875 0.375 4.275
0.25 0.3125 4.2125
0.1875 0.3125 4.275
0.1875 0.375 4.2125
0.1875 0.3125 4.2125
0.375 0.3125 4.275
0.375 0.375 4.2125
0.3125 0.375 4.275
0.375 0.3125 4.2125
0.3125 0.3125 4.275
0.3125 0.375 4.2125
0.3125 0.3125 4.2125
0.5 0.3125 4.275
0.5 0.375 4.2125
0.4375 0.375 4.275
0.5 0.3125 4.2125
0.4375 0.3125 4.275
0.4375 0.375 4.2125
0.4375 0.3125 4.2125
0.625 0.3125 4.275
0.625 0.375 4.2125
0.5625 0.375 4.275
0.625 0.3125 4.2125
0.5625 0.3125 4.275
0.5625 0.375 4.2125
0.5625 0.3125 4.2125
0.75 0.3125 4.275
0.75 0.375 4.2125
0.6875 0.375 4.275
0.75 0.3125 4.2125
0.6875 0.3125 4.275
0.6875 0.375 4.2125
0.6875 0.3125 4.2125
0.875 0.3125 4.275
0.875 0.375 4.2125
0.8125 0.375 4.275
0.875 0.3125 4.2125
0.8125 0.3125 4.275
0.8125 0.375 4.2125
0.8125 0.3125 4.2125
1 0.3125 4.275
1 0.375 4.2125
0.9375 0.375 4.275
1 0.3125 4.2125
0.9375 0.3125 4.275
0.9375 0.375 4.2125
0.9375 0.3125 4.2125
1.125 0.3125 4.275
1.125 0.375 4.2125
1.0625 0.375 4.275
1.125 0.3125 4.2125
1.0625 0.3125 4.275
1.0625 0.375 4.2125
1.0625 0.3125 4.2125
1.25 0.3125 4.275
1.25 0.375 4.2125
1.1875 0.375 4.275
1.25 0.3125 4.2125
1.1875 0.3125 4.275
1.1875 0.375 4.2125
1.1875 0.3125 4.2125
1.375 0.3125 4.275
1.375 0.375 4.2125
1.3125 0.375 4.275
1.375 0.3125 4.2125
1.3125 0.3125 4.275
1.3125 0.375 4.2125
1.3125 0.3125 4.2125
1.5 0.3125 4.275
1.5 0.375 4.2125
1.4375 0.375 4.275
1.5 0.3125 4.2125
1.4375 0.3125 4.275
1.4375 0.375 4.2125
1.4375 0.3125 4.2125
1.625 0.3125 4.275
1.625 0.375 4.2125
1.5625 0.375 4.275
1.625 0.3125 4.2125
1.5625 0.3125 4.275
1.5625 0.375 4.2125
1.5625 0.3125 4.2125
1.75 0.3125 4.275
1.75 0.375 4.2125
1.6875 0.375 4.275
1.75 0.3125 4.2125
1.6875 0.3125 4.275
1.6875 0.375 4.2125
1.6875 0.3125 4.2125
1.875 0.3125 4.275
1.875 0.375 4.2125
1.8125 0.375 4.275
1.875 0.3125 4.2125
1.8125 0.3125 4.275
1.8125 0.375 4.2125
1.8125 0.3125 4.2125
2 0.3125 4.275
2 0.375 4.2125
1.9375 0.375 4.275
2 0.3125 4.2125
1.9375 0.3125 4.275
1.9375 0.375 4.2125
1.9375 0.3125 4.2125
2.125 0.3125 4.275
2.125 0.375 4.2125
2.0625 0.375 4.275
2.125 0.3125 4.2125
2.0625 0.3125 4.275
2.0625 0.375 4.2125
2.0625 0.3125 4.2125
2.25 0.3125 4.275
2.25 0.375 4.2125
2.1875 0.375 4.275
2.25 0.3125 4.2125
2.1875 0.3125 4.275
2.1875 0.375 4.2125
2.1875 0.3125 4.2125
2.375 0.3125 4.275
2.375 0.375 4.2125
2.3125 0.375 4.275
2.375 0.3125 4.2125
2.3125 0.3125 4.275
2.3125 0.375 4.2125
2.3125 0.3125 4.2125
2.5 0.3125 4.275
2.5 0.375 4.2125
2.4375 0.375 4.275
2.5 0.3125 4.2125
2.4375 0.3125 4.275
2.4375 0.375 4.2125
2.4375 0.3125 4.2125
2.625 0.3125 4.275
2.625 0.375 4.2125
2.5625 0.375 4.275
2.625 0.3125 4.2125
2.5625 0.3125 4.275
2.5625 0.375 4.2125
2.5625 0.3125 4.2125
2.75 0.3125 4.275
2.75 0.375 4.2125
2.6875 0.375 4.275
2.75 0.3125 4.2125
2.6875 0.3125 4.275
2.6875 0.375 4.2125
2.6875 0.3125 4.2125
2.875 0.3125 4.275
2.875 0.375 4.2125
2.8125 0.375 4.275
2.875 0.3125 4.2125
2.8125 0.3125 4.275
2.8125 0.375 4.2125
2.8125 0.3125 4.2125
3 0.3125 4.275
3 0.375 4.2125
2.9375 0.375 4.275
3 0.3125 4.2125
2.9375 0.3125 4.275
2.9375 0.375 4.2125
2.9375 0.3125 4.2125
3.125 0.3125 4.275
3.125 0.375 4.2125
3.0625 0.375 4.275
3.125 0.3125 4.2125
3.0625 0.3125 4.275
3.0625 0.375 4.2125
3.0625 0.3125 4.2125
3.25 0.3125 4.275
3.25 0.375 4.2125
3.1875 0.375 4.275
3.25 0.3125 4.2125
3.1875 0.3125 4.275
3.1875 0.375 4.2125
3.1875 0.3125 4.2125
3.375 0.3125 4.275
3.375 0.375 4.2125
3.3125 0.375 4.275
3.375 0.3125 4.2125
3.3125 0.3125 4.275
3.3125 0.375 4.2125
3.3125 0.3125 4.2125
3.5 0.3125 4.275
3.5 0.375 4.2125
3.4375 0.375 4.275
3.5 0.3125 4.2125
3.4375 0.3125 4.275
3.4375 0.375 4.2125
3.4375 0.3125 4.2125
3.625 0.3125 4.275
3.625 0.375 4.2125
3.5625 0.375 4.275
3.625 0.3125 4.2125
3.5625 0.3125 4.275
3.5625 0.375 4.2125
3.5625 0.3125 4.2125
3.75 0.3125 4.275
3.75 0.375 4.2125
3.6875 0.375 4.275
3.75 0.3125 4.2125
3.6875 0.3125 4.275
3.6875 0.375 4.2125
3.6875 0.3125 4.2125
3.875 0.3125 4.275
3.875 0.375 4.2125
3.8125 0.375 4.275
3.875 0.3125 4.2125
3.8125 0.3125 4.275
3.8125 0.375 4.2125
3.8125 0.3125 4.2125
4 0.3125 4.275
4 0.375 4.2125
3.9375 0.375 4.275
4 0.3125 4.2125
3.9375 0.3125 4.275
3.9375 0.375 4.2125
3.9375 0.3125 4.2125
0.125 0.4375 4.275
0 0.4375 4.275
0.125 0.5 4.2125
0.0625 0.5 4.275
0 0.5 4.2125
0.125 0.4375 4.2125
0.0625 0.4375 4.275
0 0.4375 4.2125
0.0625 0.5 4.2125
0.0625 0.4375 4.2125
0.25 0.4375 4.275
0.25 0.5 4.2125
0.1875 0.5 4.275
0.25 0.4375 4.2125
0.1875 0.4375 4.275
0.1875 0.5 4.2125
0.1875 0.4375 4.2125
0.375 0.4375 4.275
0.375 0.5 4.2125
0.3125 0.5 4.275
0.375 0.4375 4.2125
0.3125 0.4375 4.275
0.3125 0.5 4.2125
0.3125 0.4375 4.2125
0.5 0.4375 4.275
0.5 0.5 4.2125
0.4375 0.5 4.275
0.5 0.4375 4.2125
0.4375 0.4375 4.275
0.4375 0.5 4.2125
0.4375 0.4375 4.2125
0.625 0.4375 4.275
0.625 0.5 4.2125
0.5625 0.5 4.275
0.625 0.4375 4.2125
0.5625 0.4375 4.275
0.5625 0.5 4.2125
0.5625 0.4375 4.2125
0.75 0.4375 4.275
0.75 0.5 4.2125
0.6875 0.5 4.275
0.75 0.4375 4.2125
0.6875 0.4375 4.275
0.6875 0.5 4.2125
0.6875 0.4375 4.2125
0.875 0.4375 4.275
0.875 0.5 4.2125
0.8125 0.5 4.275
0.875 0.4375 4.2125
0.8125 0.4375 4.275
0.8125 0.5 4.2125
0.8125 0.4375 4.2125
1 0.4375 4.275
1 0.5 4.2125
0.9375 0.5 4.275
1 0.4375 4.2125
0.9375 0.4375 4.275
0.9375 0.5 4.2125
0.9375 0.4375 4.2125
1.125 0.4375 4.275
1.125 0.5 4.2125
1.0625 0.5 4.275
1.125 0.4375 4.2125
1.0625 0.4375 4.275
1.0625 0.5 4.2125
1.0625 0.4375 4.2125
1.25 0.4375 4.275
1.25 0.5 4.2125
1.1875 0.5 4.275
1.25 0.4375 4.2125
1.1875 0.4375 4.275
1.1875 0.5 4.2125
1.1875 0.4375 4.2125
1.375 0.4375 4.275
1.375 0.5 4.2125
1.3125 0.5 4.275
1.375 0.4375 4.2125
1.3125 0.4375 4.275
1.3125 0.5 4.2125
1.3125 0.4375 4.2125
1.5 0.4375 4.275
1.5 0.5 4.2125
1.4375 0.5 4.275
1.5 0.4375 4.2125
1.4375 0.4375 4.275
1.4375 0.5 4.2125
1.4375 0.4375 4.2125
1.625 0.4375 4.275
1.625 0.5 4.2125
1.5625 0.5 4.275
1.625 0.4375 4.2125
1.5625 0.4375 4.275
1.5625 0.5 4.2125
1.5625 0.4375 4.2125
1.75 0.4375 4.275
1.75 0.5 4.2125
1.6875 0.5 4.275
1.75 0.4375 4.2125
1.6875 0.4375 4.275
1.6875 0.5 4.2125
1.6875 0.4375 4.2125
1.875 0.4375 4.275
1.875 0.5 4.2125
1.8125 0.5 4.275
1.875 0.4375 4.2125
1.8125 0.4375 4.275
1.8125 0.5 4.2125
1.8125 0.4375 4.2125
2 0.4375 4.275
2 0.5 4.2125
1.9375 0.5 4.275
2 0.4375 4.2125
1.9375 0.4375 4.275
1.9375 0.5 4.2125
1.9375 0.4375 4.2125
2.125 0.4375 4.275
2.125 0.5 4.2125
2.0625 0.5 4.275
2.125 0.4375 4.2125
2.0625 0.4375 4.275
2.0625 0.5 4.2125
2.0625 0.4375 4.2125
2.25 0.4375 4.275
2.25 0.5 4.2125
2.1875 0.5 4.275
2.25 0.4375 4.2125
2.1875 0.4375 4.275
2.1875 0.5 4.2125
2.1875 0.4375 4.2125
2.375 0.4375 4.275
2.375 0.5 4.2125
2.3125 0.5 4.275
2.375 0.4375 4.2125
2.3125 0.4375 4.275
2.3125 0.5 4.2125
2.3125 0.4375 4.2125
2.5 0.4375 4.275
2.5 0.5 4.2125
2.4375 0.5 4.275
2.5 0.4375 4.2125
2.4375 0.4375 4.275
2.4375 0.5 4.2125
2.4375 0.4375 4.2125
2.625 0.4375 4.275
2.625 0.5 4.2125
2.5625 0.5 4.275
2.625 0.4375 4.2125
2.5625 0.4375 4.275
2.5625 0.5 4.2125
2.5625 0.4375 4.2125
2.75 0.4375 4.275
2.75 0.5 4.2125
2.6875 0.5 4.275
2.75 0.4375 4.2125
2.6875 0.4375 4.275
2.6875 0.5 4.2125
2.6875 0.4375 4.2125
2.875 0.4375 4.275
2.875 0.5 4.2125
2.8125 0.5 4.275
2.875 0.4375 4.2125
2.8125 0.4375 4.275
2.8125 0.5 4.2125
2.8125 0.4375 4.2125
3 0.4375 4.275
3 0.5 4.2125
2.9375 0.5 4.275
3 0.4375 4.2125
2.9375 0.4375 4.275
2.9375 0.5 4.2125
2.9375 0.4375 4.2125
3.125 0.4375 4.275
3.125 0.5 4.2125
3.0625 0.5 4.275
3.125 0.4375 4.2125
3.0625 0.4375 4.275
3.0625 0.5 4.2125
3.0625 0.4375 4.2125
3.25 0.4375 4.275
3.25 0.5 4.2125
3.1875 0.5 4.275
3.25 0.4375 4.2125
3.1875 0.4375 4.275
3.1875 0.5 4.2125
3.1875 0.4375 4.2125
3.375 0.4375 4.275
3.375 0.5 4.2125
3.3125 0.5 4.275
3.375 0.4375 4.2125
3.3125 0.4375 4.275
3.3125 0.5 4.2125
3.3125 0.4375 4.2125
3.5 0.4375 4.275
3.5 0.5 4.2125
3.4375 0.5 4.275
3.5 0.4375 4.2125
3.4375 0.4375 4.275
3.4375 0.5 4.2125
3.4375 0.4375 4.2125
3.625 0.4375 4.275
3.625 0.5 4.2125
3.5625 0.5 4.275
3.625 0.4375 4.2125
3.5625 0.4375 4.275
3.5625 0.5 4.2125
3.5625 0.4375 4.2125
3.75 0.4375 4.275
3.75 0.5 4.2125
3.6875 0.5 4.275
3.75 0.4375 4.2125
3.6875 0.4375 4.275
3.6875 0.5 4.2125
3.6875 0.4375 4.2125
3.875 0.4375 4.275
3.875 0.5 4.2125
3.8125 0.5 4.275
3.875 0.4375 4.2125
3.8125 0.4375 4.275
3.8125 0.5 4.2125
3.8125 0.4375 4.2125
4 0.4375 4.275
4 0.5 4.2125
3.9375 0.5 4.275
4 0.4375 4.2125
3.9375 0.4375 4.275
3.9375 0.5 4.2125
3.9375 0.4375 4.2125
0.125 0.5625 4.275
0 0.5625 4.275
0.125 0.625 4.2125
0.0625 0.625 4.275
0 0.625 4.2125
0.125 0.5625 4.2125
0.0625 0.5625 4.275
0 0.5625 4.2125
0.0625 0.625 4.2125
0.0625 0.5625 4.2125
0.25 0.5625 4.275
0.25 0.625 4.2125
0.1875 0.625 4.275
0.25 0.5625 4.2125
0.1875 0.5625 4.275
0.1875 0.625 4.2125
0.1875 0.5625 4.2125
0.375 0.5625 4.275
0.375 0.625 4.2125
0.3125 0.625 4.275
0.375 0.5625 4.2125
0.3125 0.5625 4.275
0.3125 0.625 4.2125
0.3125 0.5625 4.2125
0.5 0.5625 4.275
0.5 0.625 4.2125
0.4375 0.625 4.275
0.5 0.5625 4.2125
0.4375 0.5625 4.275
0.4375 0.625 4.2125
0.4375 0.5625 4.2125
0.625 0.5625 4.275
0.625 0.625 4.2125
0.5625 0.625 4.275
0.625 0.5625 4.2125
0.5625 0.5625 4.275
0.5625 0.625 4.2125
0.5625 0.5625 4.2125
0.75 0.5625 4.275
0.75 0.625 4.2125
0.6875 0.625 4.275
0.75 0.5625 4.2125
0.6875 0.5625 4.275
0.6875 0.625 4.2125
0.6875 0.5625 4.2125
0.875 0.5625 4.275
0.875 0.625 4.2125
0.8125 0.625 4.275
0.875 0.5625 4.2125
0.8125 0.5625 4.275
0.8125 0.625 4.2125
0.8125 0.5625 4.2125
1 0.5625 4.275
1 0.625 4.2125
0.9375 0.625 4.275
1 0.5625 4.2125
0.9375 0.5625 4.275
0.9375 0.625 4.2125
0.9375 0.5625 4.2125
1.125 0.5625 4.275
1.125 0.625 4.2125
1.0625 0.625 4.275
1.125 0.5625 4.2125
1.0625 0.5625 4.275
1.0625 0.625 4.2125
1.0625 0.5625 4.2125
1.25 0.5625 4.275
1.25 0.625 4.2125
1.1875 0.625 4.275
1.25 0.5625 4.2125
1.1875 0.5625 4.275
1.1875 0.625 4.2125
1.1875 0.5625 4.2125
1.375 0.5625 4.275
1.375 0.625 4.2125
1.3125 0.625 4.275
1.375 0.5625 4.2125
1.3125 0.5625 4.275
1.3125 0.625 4.2125
1.3125 0.5625 4.2125
1.5 0.5625 4.275
1.5 0.625 4.2125
1.4375 0.625 4.275
1.5 0.5625 4.2125
1.4375 0.5625 4.275
1.4375 0.625 4.2125
1.4375 0.5625 4.2125
1.625 0.5625 4.275
1.625 0.625 4.2125
1.5625 0.625 4.275
1.625 0.5625 4.2125
1.5625 0.5625 4.275
1.5625 0.625 4.2125
1.5625 0.5625 4.2125
1.75 0.5625 4.275
1.75 0.625 4.2125
1.6875 0.625 4.275
1.75 0.5625 4.2125
1.6875 0.5625 4.275
1.6875 0.625 4.2125
1.6875 0.5625 4.2125
1.875 0.5625 4.275
1.875 0.625 4.2125
1.8125 0.625 4.275
1.875 0.5625 4.2125
1.8125 0.5625 4.275
1.8125 0.625 4.2125
1.8125 0.5625 4.2125
2 0.5625 4.275
2 0.625 4.2125
1.9375 0.625 4.275
2 0.5625 4.2125
1.9375 0.5625 4.275
1.9375 0.625 4.2125
1.9375 0.5625 4.2125
2.125 0.5625 4.275
2.125 0.625 4.2125
2.0625 0.625 4.275
2.125 0.5625 4.2125
2.0625 0.5625 4.275
2.0625 0.625 4.2125
2.0625 0.5625 4.2125
2.25 0.5625 4.275
2.25 0.625 4.2125
2.1875 0.625 4.275
2.25 0.5625 4.2125
2.1875 0.5625 4.275
2.1875 0.625 4.2125
2.1875 0.5625 4.2125
2.375 0.5625 4.275
2.375 0.625 4.2125
2.3125 0.625 4.275
2.375 0.5625 4.2125
2.3125 0.5625 4.275
2.3125 0.625 4.2125
2.3125 0.5625 4.2125
2.5 0.5625 4.275
2.5 0.625 4.2125
2.4375 0.625 4.275
2.5 0.5625 4.2125
2.4375 0.5625 4.275
2.4375 0.625 4.2125
2.4375 0.5625 4.2125
2.625 0.5625 4.275
2.625 0.625 4.2125
2.5625 0.625 4.275
2.625 0.5625 4.2125
2.5625 0.5625 4.275
2.5625 0.625 4.2125
2.5625 0.5625 4.2125
2.75 0.5625 4.275
2.75 0.625 4.2125
2.6875 0.625 4.275
2.75 0.5625 4.2125
2.6875 0.5625 4.275
2.6875 0.625 4.2125
2.6875 0.5625 4.2125
2.875 0.5625 4.275
2.875 0.625 4.2125
2.8125 0.625 4.275
2.875 0.5625 4.2125
2.8125 0.5625 4.275
2.8125 0.625 4.2125
2.8125 0.5625 4.2125
3 0.5625 4.275
3 0.625 4.2125
2.9375 0.625 4.275
3 0.5625 4.2125
2.9375 0.5625 4.275
2.9375 0.625 4.2125
2.9375 0.5625 4.2125
3.125 0.5625 4.275
3.125 0.625 4.2125
3.0625 0.625 4.275
3.125 0.5625 4.2125
3.0625 0.5625 4.275
3.0625 0.625 4.2125
3.0625 0.5625 4.2125
3.25 0.5625 4.275
3.25 0.625 4.2125
3.1875 0.625 4.275
3.25 0.5625 4.2125
3.1875 0.5625 4.275
3.1875 0.625 4.2125
3.1875 0.5625 4.2125
3.375 0.5625 4.275
3.375 0.625 4.2125
3.3125 0.625 4.275
3.375 0.5625 4.2125
3.3125 0.5625 4.275
3.3125 0.625 4.2125
3.3125 0.5625 4.2125
3.5 0.5625 4.275
3.5 0.625 4.2125
3.4375 0.625 4.275
3.5 0.5625 4.2125
3.4375 0.5625 4.275
3.4375 0.625 4.2125
3.4375 0.5625 4.2125
3.625 0.5625 4.275
3.625 0.625 4.2125
3.5625 0.625 4.275
3.625 0.5625 4.2125
3.5625 0.5625 4.275
3.5625 0.625 4.2125
3.5625 0.5625 4.2125
3.75 0.5625 4.275
3.75 0.625 4.2125
3.6875 0.625 4.275
3.75 0.5625 4.2125
3.6875 0.5625 4.275
3.6875 0.625 4.2125
3.6875 0.5625 4.2125
3.875 0.5625 4.275
3.875 0.625 4.2125
3.8125 0.625 4.275
3.875 0.5625 4.2125
3.8125 0.5625 4.275
3.8125 0.625 4.2125
3.8125 0.5625 4.2125
4 0.5625 4.275
4 0.625 4.2125
3.9375 0.625 4.275
4 0.5625 4.2125
3.9375 0.5625 4.275
3.9375 0.625 4.2125
3.9375 0.5625 4.2125
0.125 0.6875 4.275
0 0.6875 4.275
0.125 0.75 4.2125
0.0625 0.75 4.275
0 0.75 4.2125
0.125 0.6875 4.2125
0.0625 0.6875 4.275
0 0.6875 4.2125
0.0625 0.75 4.2125
0.0625 0.6875 4.2125
0.25 0.6875 4.275
0.25 0.75 4.2125
0.1875 0.75 4.275
0.25 0.6875 4.2125
0.1875 0.6875 4.275
0.1875 0.75 4.2125
0.1875 0.6875 4.2125
0.375 0.6875 4.275
0.375 0.75 4.2125
0.3125 0.75 4.275
0.375 0.6875 4.2125
0.3125 0.6875 4.275
0.3125 0.75 4.2125
0.3125 0.6875 4.2125
0.5 0.6875 4.275
0.5 0.75 4.2125
0.4375 0.75 4.275
0.5 0.6875 4.2125
0.4375 0.6875 4.275
0.4375 0.75 4.2125
0.4375 0.6875 4.2125
0.625 0.6875 4.275
0.625 0.75 4.2125
0.5625 0.75 4.275
0.625 0.6875 4.2125
0.5625 0.6875 4.275
0.5625 0.75 4.2125
0.5625 0.6875 4.2125
0.75 0.6875 4.275
0.75 0.75 4.2125
0.6875 0.75 4.275
0.75 0.6875 4.2125
0.6875 0.6875 4.275
0.6875 0.75 4.2125
0.6875 0.6875 4.2125
0.875 0.6875 4.275
0.875 0.75 4.2125
0.8125 0.75 4.275
0.875 0.6875 4.2125
0.8125 0.6875 4.275
0.8125 0.75 4.2125
0.8125 0.6875 4.2125
1 0.6875 4.275
1 0.75 4.2125
0.9375 0.75 4.275
1 0.6875 4.2125
0.9375 0.6875 4.275
0.9375 0.75 4.2125
0.9375 0.6875 4.2125
1.125 0.6875 4.275
1.125 0.75 4.2125
1.0625 0.75 4.275
1.125 0.6875 4.2125
1.0625 0.6875 4.275
1.0625 0.75 4.2125
1.0625 0.6875 4.2125
1.25 0.6875 4.275
1.25 0.75 4.2125
1.1875 0.75 4.275
1.25 0.6875 4.2125
1.1875 0.6875 4.275
1.1875 0.75 4.2125
1.1875 0.6875 4.2125
1.375 0.6875 4.275
1.375 0.75 4.2125
1.3125 0.75 4.275
1.375 0.6875 4.2125
1.3125 0.6875 4.275
1.3125 0.75 4.2125
1.3125 0.6875 4.2125
1.5 0.6875 4.275
1.5 0.75 4.2125
1.4375 0.75 4.275
1.5 0.6875 4.2125
1.4375 0.6875 4.275
1.4375 0.75 4.2125
1.4375 0.6875 4.2125
1.625 0.6875 4.275
1.625 0.75 4.2125
1.5625 0.75 4.275
1.625 0.6875 4.2125
1.5625 0.6875 4.275
1.5625 0.75 4.2125
1.5625 0.6875 4.2125
1.75 0.6875 4.275
1.75 0.75 4.2125
1.6875 0.75 4.275
1.75 0.6875 4.2125
1.6875 0.6875 4.275
1.6875 0.75 4.2125
1.6875 0.6875 4.2125
1.875 0.6875 4.275
1.875 0.75 4.2125
1.8125 0.75 4.275
1.875 0.6875 4.2125
1.8125 0.6875 4.275
1.8125 0.75 4.2125
1.8125 0.6875 4.2125
2 0.6875 4.275
2 0.75 4.2125
1.9375 0.75 4.275
2 0.6875 4.2125
1.9375 0.6875 4.275
1.9375 0.75 4.2125
1.9375 0.6875 4.2125
2.125 0.6875 4.275
2.125 0.75 4.2125
2.0625 0.75 4.275
2.125 0.6875 4.2125
2.0625 0.6875 4.275
2.0625 0.75 4.2125
2.0625 0.6875 4.2125
2.25 0.6875 4.275
2.25 0.75 4.2125
2.1875 0.75 4.275
2.25 0.6875 4.2125
2.1875 0.6875 4.275
2.1875 0.75 4.2125
2.1875 0.6875 4.2125
2.375 0.6875 4.275
2.375 0.75 4.2125
2.3125 0.75 4.275
2.375 0.6875 4.2125
2.3125 0.6875 4.275
2.3125 0.75 4.2125
2.3125 0.6875 4.2125
2.5 0.6875 4.275
2.5 0.75 4.2125
2.4375 0.75 4.275
2.5 0.6875 4.2125
2.4375 0.6875 4.275
2.4375 0.75 4.2125
2.4375 0.6875 4.2125
2.625 0.6875 4.275
2.625 0.75 4.2125
2.5625 0.75 4.275
2.625 0.6875 4.2125
2.5625 0.6875 4.275
2.5625 0.75 4.2125
2.5625 0.6875 4.2125
2.75 0.6875 4.275
2.75 0.75 4.2125
2.6875 0.75 4.275
2.75 0.6875 4.2125
2.6875 0.6875 4.275
2.6875 0.75 4.2125
2.6875 0.6875 4.2125
2.875 0.6875 4.275
2.875 0.75 4.2125
2.8125 0.75 4.275
2.875 0.6875 4.2125
2.8125 0.6875 4.275
2.8125 0.75 4.2125
2.8125 0.6875 4.2125
3 0.6875 4.275
3 0.75 4.2125
2.9375 0.75 4.275
3 0.6875 4.2125
2.9375 0.6875 4.275
2.9375 0.75 4.2125
2.9375 0.6875 4.2125
3.125 0.6875 4.275
3.125 0.75 4.2125
3.0625 0.75 4.275
3.125 0.6875 4.2125
3.0625 0.6875 4.275
3.0625 0.75 4.2125
3.0625 0.6875 4.2125
3.25 0.6875 4.275
3.25 0.75 4.2125
3.1875 0.75 4.275
3.25 0.6875 4.2125
3.1875 0.6875 4.275
3.1875 0.75 4.2125
3.1875 0.6875 4.2125
3.375 0.6875 4.275
3.375 0.75 4.2125
3.3125 0.75 4.275
3.375 0.6875 4.2125
3.3125 0.6875 4.275
3.3125 0.75 4.2125
3.3125 0.6875 4.2125
3.5 0.6875 4.275
3.5 0.75 4.2125
3.4375 0.75 4.275
3.5 0.6875 4.2125
3.4375 0.6875 4.275
3.4375 0.75 4.2125
3.4375 0.6875 4.2125
3.625 0.6875 4.275
3.625 0.75 4.2125
3.5625 0.75 4.275
3.625 0.6875 4.2125
3.5625 0.6875 4.275
3.5625 0.75 4.2125
3.5625 0.6875 4.2125
3.75 0.6875 4.275
3.75 0.75 4.2125
3.6875 0.75 4.275
3.75 0.6875 4.2125
3.6875 0.6875 4.275
3.6875 0.75 4.2125
3.6875 0.6875 4.2125
3.875 0.6875 4.275
3.875 0.75 4.2125
3.8125 0.75 4.275
3.875 0.6875 4.2125
3.8125 0.6875 4.275
3.8125 0.75 4.2125
3.8125 0.6875 4.2125
4 0.6875 4.275
4 0.75 4.2125
3.9375 0.75 4.275
4 0.6875 4.2125
3.9375 0.6875 4.275
3.9375 0.75 4.2125
3.9375 0.6875 4.2125
0.125 0.8125 4.275
0 0.8125 4.275
0.125 0.875 4.2125
0.0625 0.875 4.275
0 0.875 4.2125
0.125 0.8125 4.2125
0.0625 0.8125 4.275
0 0.8125 4.2125
0.0625 0.875 4.2125
0.0625 0.8125 4.2125
0.25 0.8125 4.275
0.25 0.875 4.2125
0.1875 0.875 4.275
0.25 0.8125 4.2125
0.1875 0.8125 4.275
0.1875 0.875 4.2125
0.1875 0.8125 4.2125
0.375 0.8125 4.275
0.375 0.875 4.2125
0.3125 0.875 4.275
0.375 0.8125 4.2125
0.3125 0.8125 4.275
0.3125 0.875 4.2125
0.3125 0.8125 4.2125
0.5 0.8125 4.275
0.5 0.875 4.2125
0.4375 0.875 4.275
0.5 0.8125 4.2125
0.4375 0.8125 4.275
0.4375 0.875 4.2125
0.4375 0.8125 4.2125
0.625 0.8125 4.275
0.625 0.875 4.2125
0.5625 0.875 4.275
0.625 0.8125 4.2125
0.5625 0.8125 4.275
0.5625 0.875 4.2125
0.5625 0.8125 4.2125
0.75 0.8125 4.275
0.75 0.875 4.2125
0.6875 0.875 4.275
0.75 0.8125 4.2125
0.6875 0.8125 4.275
0.6875 0.875 4.2125
0.6875 0.8125 4.2125
0.875 0.8125 4.275
0.875 0.875 4.2125
0.8125 0.875 4.275
0.875 0.8125 4.2125
0.8125 0.8125 4.275
0.8125 0.875 4.2125
0.8125 0.8125 4.2125
1 0.8125 4.275
1 0.875 4.2125
0.9375 0.875 4.275
1 0.8125 4.2125
0.9375 0.8125 4.275
0.9375 0.875 4.2125
0.9375 0.8125 4.2125
1.125 0.8125 4.275
1.125 0.875 4.2125
1.0625 0.875 4.275
1.125 0.8125 4.2125
1.0625 0.8125 4.275
1.0625 0.875 4.2125
1.0625 0.8125 4.2125
1.25 0.8125 4.275
1.25 0.875 4.2125
1.1875 0.875 4.275
1.25 0.8125 4.2125
1.1875 0.8125 4.275
1.1875 0.875 4.2125
1.1875 0.8125 4.2125
1.375 0.8125 4.275
1.375 0.875 4.2125
1.3125 0.875 4.275
1.375 0.8125 4.2125
1.3125 0.8125 4.275
1.3125 0.875 4.2125
1.3125 0.8125 4.2125
1.5 0.8125 4.275
1.5 0.875 4.2125
1.4375 0.875 4.275
1.5 0.8125 4.2125
1.4375 0.8125 4.275
1.4375 0.875 4.2125
1.4375 0.8125 4.2125
1.625 0.8125 4.275
1.625 0.875 4.2125
1.5625 0.875 4.275
1.625 0.8125 4.2125
1.5625 0.8125 4.275
1.5625 0.875 4.2125
1.5625 0.8125 4.2125
1.75 0.8125 4.275
1.75 0.875 4.2125
1.6875 0.875 4.275
1.75 0.8125 4.2125
1.6875 0.8125 4.275
1.6875 0.875 4.2125
1.6875 0.8125 4.2125
1.875 0.8125 4.275
1.875 0.875 4.2125
1.8125 0.875 4.275
1.875 0.8125 4.2125
1.8125 0.8125 4.275
1.8125 0.875 4.2125
1.8125 0.8125 4.2125
2 0.8125 4.275
2 0.875 4.2125
1.9375 0.875 4.275
2 0.8125 4.2125
1.9375 0.8125 4.275
1.9375 0.875 4.2125
1.9375 0.8125 4.2125
2.125 0.8125 4.275
2.125 0.875 4.2125
2.0625 0.875 4.275
2.125 0.8125 4.2125
2.0625 0.8125 4.275
2.0625 0.875 4.2125
2.0625 0.8125 4.2125
2.25 0.8125 4.275
2.25 0.875 4.2125
2.1875 0.875 4.275
2.25 0.8125 4.2125
2.1875 0.8125 4.275
2.1875 0.875 4.2125
2.1875 0.8125 4.2125
2.375 0.8125 4.275
2.375 0.875 4.2125
2.3125 0.875 4.275
2.375 0.8125 4.2125
2.3125 0.8125 4.275
2.3125 0.875 4.2125
2.3125 0.8125 4.2125
2.5 0.8125 4.275
2.5 0.875 4.2125
2.4375 0.875 4.275
2.5 0.8125 4.2125
2.4375 0.8125 4.275
2.4375 0.875 4.2125
2.4375 0.8125 4.2125
2.625 0.8125 4.275
2.625 0.875 4.2125
2.5625 0.875 4.275
2.625 0.8125 4.2125
2.5625 0.8125 4.275
2.5625 0.875 4.2125
2.5625 0.8125 4.2125
2.75 0.8125 4.275
2.75 0.875 4.2125
2.6875 0.875 4.275
2.75 0.8125 4.2125
2.6875 0.8125 4.275
2.6875 0.875 4.2125
2.6875 0.8125 4.2125
2.875 0.8125 4.275
2.875 0.875 4.2125
2.8125 0.875 4.275
2.875 0.8125 4.2125
2.8125 0.8125 4.275
2.8125 0.875 4.2125
2.8125 0.8125 4.2125
3 0.8125 4.275
3 0.875 4.2125
2.9375 0.875 4.275
3 0.8125 4.2125
2.9375 0.8125 4.275
2.9375 0.875 4.2125
2.9375 0.8125 4.2125
3.125 0.8125 4.275
3.125 0.875 4.2125
3.0625 0.875 4.275
3.125 0.8125 4.2125
3.0625 0.8125 4.275
3.0625 0.875 4.2125
3.0625 0.8125 4.2125
3.25 0.8125 4.275
3.25 0.875 4.2125
3.1875 0.875 4.275
3.25 0.8125 4.2125
3.1875 0.8125 4.275
3.1875 0.875 4.2125
3.1875 0.8125 4.2125
3.375 0.8125 4.275
3.375 0.875 4.2125
3.3125 0.875 4.275
3.375 0.8125 4.2125
3.3125 0.8125 4.275
3.3125 0.875 4.2125
3.3125 0.8125 4.2125
3.5 0.8125 4.275
3.5 0.875 4.2125
3.4375 0.875 4.275
3.5 0.8125 4.2125
3.4375 0.8125 4.275
3.4375 0.875 4.2125
3.4375 0.8125 4.2125
3.625 0.8125 4.275
3.625 0.875 4.2125
3.5625 0.875 4.275
3.625 0.8125 4.2125
3.5625 0.8125 4.275
3.5625 0.875 4.2125
3.5625 0.8125 4.2125
3.75 0.8125 4.275
3.75 0.875 4.2125
3.6875 0.875 4.275
3.75 0.8125 4.2125
3.6875 0.8125 4.275
3.6875 0.875 4.2125
3.6875 0.8125 4.2125
3.875 0.8125 4.275
3.875 0.875 4.2125
3.8125 0.875 4.275
3.875 0.8125 4.2125
3.8125 0.8125 4.275
3.8125 0.875 4.2125
3.8125 0.8125 4.2125
4 0.8125 4.275
4 0.875 4.2125
3.9375 0.875 4.275
4 0.8125 4.2125
3.9375 0.8125 4.275
3.9375 0.875 4.2125
3.9375 0.8125 4.2125
0.125 0.9375 4.275
0 0.9375 4.275
0.125 1 4.2125
0.0625 1 4.275
0 1 4.2125
0.125 0.9375 4.2125
0.0625 0.9375 4.275
0 0.9375 4.2125
0.0625 1 4.2125
0.0625 0.9375 4.2125
0.25 0.9375 4.275
0.25 1 4.2125
0.1875 1 4.275
0.25 0.9375 4.2125
0.1875 0.9375 4.275
0.1875 1 4.2125
0.1875 0.9375 4.2125
0.375 0.9375 4.275
0.375 1 4.2125
0.3125 1 4.275
0.375 0.9375 4.2125
0.3125 0.9375 4.275
0.3125 1 4.2125
0.3125 0.9375 4.2125
0.5 0.9375 4.275
0.5 1 4.2125
0.4375 1 4.275
0.5 0.9375 4.2125
0.4375 0.9375 4.275
0.4375 1 4.2125
0.4375 0.9375 4.2125
0.625 0.9375 4.275
0.625 1 4.2125
0.5625 1 4.275
0.625 0.9375 4.2125
0.5625 0.9375 4.275
0.5625 1 4.2125
0.5625 0.9375 4.2125
0.75 0.9375 4.275
0.75 1 4.2125
0.6875 1 4.275
0.75 0.9375 4.2125
0.6875 0.9375 4.275
0.6875 1 4.2125
0.6875 0.9375 4.2125
0.875 0.9375 4.275
0.875 1 4.2125
0.8125 1 4.275
0.875 0.9375 4.2125
0.8125 0.9375 4.275
0.8125 1 4.2125
0.8125 0.9375 4.2125
1 0.9375 4.275
1 1 4.2125
0.9375 1 4.275
1 0.9375 4.2125
0.9375 0.9375 4.275
0.9375 1 4.2125
0.9375 0.9375 4.2125
1.125 0.9375 4.275
1.125 1 4.2125
1.0625 1 4.275
1.125 0.9375 4.2125
1.0625 0.9375 4.275
1.0625 1 4.2125
1.0625 0.9375 4.2125
1.25 0.9375 4.275
1.25 1 4.2125
1.1875 1 4.275
1.25 0.9375 4.2125
1.1875 0.9375 4.275
1.1875 1 4.2125
1.1875 0.9375 4.2125
1.375 0.9375 4.275
1.375 1 4.2125
1.3125 1 4.275
1.375 0.9375 4.2125
1.3125 0.9375 4.275
1.3125 1 4.2125
1.3125 0.9375 4.2125
1.5 0.9375 4.275
1.5 1 4.2125
1.4375 1 4.275
1.5 0.9375 4.2125
1.4375 0.9375 4.275
1.4375 1 4.2125
1.4375 0.9375 4.2125
1.625 0.9375 4.275
1.625 1 4.2125
1.5625 1 4.275
1.625 0.9375 4.2125
1.5625 0.9375 4.275
1.5625 1 4.2125
1.5625 0.9375 4.2125
1.75 0.9375 4.275
1.75 1 4.2125
1.6875 1 4.275
1.75 0.9375 4.2125
1.6875 0.9375 4.275
1.6875 1 4.2125
1.6875 0.9375 4.2125
1.875 0.9375 4.275
1.875 1 4.2125
1.8125 1 4.275
1.875 0.9375 4.2125
1.8125 0.9375 4.275
1.8125 1 4.2125
1.8125 0.9375 4.2125
2 0.9375 4.275
2 1 4.2125
1.9375 1 4.275
2 0.9375 4.2125
1.9375 0.9375 4.275
1.9375 1 4.2125
1.9375 0.9375 4.2125
2.125 0.9375 4.275
2.125 1 4.2125
2.0625 1 4.275
2.125 0.9375 4.2125
2.0625 0.9375 4.275
2.0625 1 4.2125
2.0625 0.9375 4.2125
2.25 0.9375 4.275
2.25 1 4.2125
2.1875 1 4.275
2.25 0.9375 4.2125
2.1875 0.9375 4.275
2.1875 1 4.2125
2.1875 0.9375 4.2125
2.375 0.9375 4.275
2.375 1 4.2125
2.3125 1 4.275
2.375 0.9375 4.2125
2.3125 0.9375 4.275
2.3125 1 4.2125
2.3125 0.9375 4.2125
2.5 0.9375 4.275
2.5 1 4.2125
2.4375 1 4.275
2.5 0.9375 4.2125
2.4375 0.9375 4.275
2.4375 1 4.2125
2.4375 0.9375 4.2125
2.625 0.9375 4.275
2.625 1 4.2125
2.5625 1 4.275
2.625 0.9375 4.2125
2.5625 0.9375 4.275
2.5625 1 4.2125
2.5625 0.9375 4.2125
2.75 0.9375 4.275
2.75 1 4.2125
2.6875 1 4.275
2.75 0.9375 4.2125
2.6875 0.9375 4.275
2.6875 1 4.2125
2.6875 0.9375 4.2125
2.875 0.9375 4.275
2.875 1 4.2125
2.8125 1 4.275
2.875 0.9375 4.2125
2.8125 0.9375 4.275
2.8125 1 4.2125
2.8125 0.9375 4.2125
3 0.9375 4.275
3 1 4.2125
2.9375 1 4.275
3 0.9375 4.2125
2.9375 0.9375 4.275
2.9375 1 4.2125
2.9375 0.9375 4.2125
3.125 0.9375 4.275
3.125 1 4.2125
3.0625 1 4.275
3.125 0.9375 4.2125
3.0625 0.9375 4.275
3.0625 1 4.2125
3.0625 0.9375 4.2125
3.25 0.9375 4.275
3.25 1 4.2125
3.1875 1 4.275
3.25 0.9375 4.2125
3.1875 0.9375 4.275
3.1875 1 4.2125
3.1875 0.9375 4.2125
3.375 0.9375 4.275
3.375 1 4.2125
3.3125 1 4.275
3.375 0.9375 4.2125
3.3125 0.9375 4.275
3.3125 1 4.2125
3.3125 0.9375 4.2125
3.5 0.9375 4.275
3.5 1 4.2125
3.4375 1 4.275
3.5 0.9375 4.2125
3.4375 0.9375 4.275
3.4375 1 4.2125
3.4375 0.9375 4.2125
3.625 0.9375 4.275
3.625 1 4.2125
3.5625 1 4.275
3.625 0.9375 4.2125
3.5625 0.9375 4.275
3.5625 1 4.2125
3.5625 0.9375 4.2125
3.75 0.9375 4.275
3.75 1 4.2125
3.6875 1 4.275
3.75 0.9375 4.2125
3.6875 0.9375 4.275
3.6875 1 4.2125
3.6875 0.9375 4.2125
3.875 0.9375 4.275
3.875 1 4.2125
3.8125 1 4.275
3.875 0.9375 4.2125
3.8125 0.9375 4.275
3.8125 1 4.2125
3.8125 0.9375 4.2125
4 0.9375 4.275
4 1 4.2125
3.9375 1 4.275
4 0.9375 4.2125
3.9375 0.9375 4.275
3.9375 1 4.2125
3.9375 0.9375 4.2125
0.125 0 4.3375
0.0625 0 4.4
0 0 4.3375
0.125 0.0625 4.4
0 0.0625 4.4
0.125 0.125 4.3375
0.0625 0.125 4.4
0 0.125 4.3375
0.0625 0 4.3375
0.125 0.0625 4.3375
0.0625 0.0625 4.4
0 0.0625 4.3375
0.0625 0.125 4.3375
0.0625 0.0625 4.3375
0.25 0 4.3375
0.1875 0 4.4
0.25 0.0625 4.4
0.25 0.125 4.3375
0.1875 0.125 4.4
0.1875 0 4.3375
0.25 0.0625 4.3375
0.1875 0.0625 4.4
0.1875 0.125 4.3375
0.1875 0.0625 4.3375
0.375 0 4.3375
0.3125 0 4.4
0.375 0.0625 4.4
0.375 0.125 4.3375
0.3125 0.125 4.4
0.3125 0 4.3375
0.375 0.0625 4.3375
0.3125 0.0625 4.4
0.3125 0.125 4.3375
0.3125 0.0625 4.3375
0.5 0 4.3375
0.4375 0 4.4
0.5 0.0625 4.4
0.5 0.125 4.3375
0.4375 0.125 4.4
0.4375 0 4.3375
0.5 0.0625 4.3375
0.4375 0.0625 4.4
0.4375 0.125 4.3375
0.4375 0.0625 4.3375
0.625 0 4.3375
0.5625 0 4.4
0.625 0.0625 4.4
0.625 0.125 4.3375
0.5625 0.125 4.4
0.5625 0 4.3375
0.625 0.0625 4.3375
0.5625 0.0625 4.4
0.5625 0.125 4.3375
0.5625 0.0625 4.3375
0.75 0 4.3375
0.6875 0 4.4
0.75 0.0625 4.4
0.75 0.125 4.3375
0.6875 0.125 4.4
0.6875 0 4.3375
0.75 0.0625 4.3375
0.6875 0.0625 4.4
0.6875 0.125 4.3375
0.6875 0.0625 4.3375
0.875 0 4.3375
0.8125 0 4.4
0.875 0.0625 4.4
0.875 0.125 4.3375
0.8125 0.125 4.4
0.8125 0 4.3375
0.875 0.0625 4.3375
0.8125 0.0625 4.4
0.8125 0.125 4.3375
0.8125 0.0625 4.3375
1 0 4.3375
0.9375 0 4.4
1 0.0625 4.4
1 0.125 4.3375
0.9375 0.125 4.4
0.9375 0 4.3375
1 0.0625 4.3375
0.9375 0.0625 4.4
0.9375 0.125 4.3375
0.9375 0.0625 4.3375
1.125 0 4.3375
1.0625 0 4.4
1.125 0.0625 4.4
1.125 0.125 4.3375
1.0625 0.125 4.4
1.0625 0 4.3375
1.125 0.0625 4.3375
1.0625 0.0625 4.4
1.0625 0.125 4.3375
1.0625 0.0625 4.3375
1.25 0 4.3375
1.1875 0 4.4
1.25 0.0625 4.4
1.25 0.125 4.3375
1.1875 0.125 4.4
1.1875 0 4.3375
1.25 0.0625 4.3375
1.1875 0.0625 4.4
1.1875 0.125 4.3375
1.1875 0.0625 4.3375
1.375 0 4.3375
1.3125 0 4.4
1.375 0.0625 4.4
1.375 0.125 4.3375
1.3125 0.125 4.4
1.3125 0 4.3375
1.375 0.0625 4.3375
1.3125 0.0625 4.4
1.3125 0.125 4.3375
1.3125 0.0625 4.3375
1.5 0 4.3375
1.4375 0 4.4
1.5 0.0625 4.4
1.5 0.125 4.3375
1.4375 0.125 4.4
1.4375 0 4.3375
1.5 0.0625 4.3375
1.4375 0.0625 4.4
1.4375 0.125 4.3375
1.4375 0.0625 4.3375
1.625 0 4.3375
1.5625 0 4.4
1.625 0.0625 4.4
1.625 0.125 4.3375
1.5625 0.125 4.4
1.5625 0 4.3375
1.625 0.0625 4.3375
1.5625 0.0625 4.4
1.5625 0.125 4.3375
1.5625 0.0625 4.3375
1.75 0 4.3375
1.6875 0 4.4
1.75 0.0625 4.4
1.75 0.125 4.3375
1.6875 0.125 4.4
1.6875 0 4.3375
1.75 0.0625 4.3375
1.6875 0.0625 4.4
1.6875 0.125 4.3375
1.6875 0.0625 4.3375
1.875 0 4.3375
1.8125 0 4.4
1.875 0.0625 4.4
1.875 0.125 4.3375
1.8125 0.125 4.4
1.8125 0 4.3375
1.875 0.0625 4.3375
1.8125 0.0625 4.4
1.8125 0.125 4.3375
1.8125 0.0625 4.3375
2 0 4.3375
1.9375 0 4.4
2 0.0625 4.4
2 0.125 4.3375
1.9375 0.125 4.4
1.9375 0 4.3375
2 0.0625 4.3375
1.9375 0.0625 4.4
1.9375 0.125 4.3375
1.9375 0.0625 4.3375
2.125 0 4.3375
2.0625 0 4.4
2.125 0.0625 4.4
2.125 0.125 4.3375
2.0625 0.125 4.4
2.0625 0 4.3375
2.125 0.0625 4.3375
2.0625 0.0625 4.4
2.0625 0.125 4.3375
2.0625 0.0625 4.3375
2.25 0 4.3375
2.1875 0 4.4
2.25 0.0625 4.4
2.25 0.125 4.3375
2.1875 0.125 4.4
2.1875 0 4.3375
2.25 0.0625 4.3375
2.1875 0.0625 4.4
2.1875 0.125 4.3375
2.1875 0.0625 4.3375
2.375 0 4.3375
2.3125 0 4.4
2.375 0.0625 4.4
2.375 0.125 4.3375
2.3125 0.125 4.4
2.3125 0 4.3375
2.375 0.0625 4.3375
2.3125 0.0625 4.4
2.3125 0.125 4.3375
2.3125 0.0625 4.3375
2.5 0 4.3375
2.4375 0 4.4
2.5 0.0625 4.4
2.5 0.125 4.3375
2.4375 0.125 4.4
2.4375 0 4.3375
2.5 0.0625 4.3375
2.4375 0.0625 4.4
2.4375 0.125 4.3375
2.4375 0.0625 4.3375
2.625 0 4.3375
2.5625 0 4.4
2.625 0.0625 4.4
2.625 0.125 4.3375
2.5625 0.125 4.4
2.5625 0 4.3375
2.625 0.0625 4.3375
2.5625 0.0625 4.4
2.5625 0.125 4.3375
2.5625 0.0625 4.3375
2.75 0 4.3375
2.6875 0 4.4
2.75 0.0625 4.4
2.75 0.125 4.3375
2.6875 0.125 4.4
2.6875 0 4.3375
2.75 0.0625 4.3375
2.6875 0.0625 4.4
2.6875 0.125 4.3375
2.6875 0.0625 4.3375
2.875 0 4.3375
2.8125 0 4.4
2.875 0.0625 4.4
2.875 0.125 4.3375
2.8125 0.125 4.4
2.8125 0 4.3375
2.875 0.0625 4.3375
2.8125 0.0625 4.4
2.8125 0.125 4.3375
2.8125 0.0625 4.3375
3 0 4.3375
2.9375 0 4.4
3 0.0625 4.4
3 0.125 4.3375
2.9375 0.125 4.4
2.9375 0 4.3375
3 0.0625 4.3375
2.9375 0.0625 4.4
2.9375 0.125 4.3375
2.9375 0.0625 4.3375
3.125 0 4.3375
3.0625 0 4.4
3.125 0.0625 4.4
3.125 0.125 4.3375
3.0625 0.125 4.4
3.0625 0 4.3375
3.125 0.0625 4.3375
3.0625 0.0625 4.4
3.0625 0.125 4.3375
3.0625 0.0625 4.3375
3.25 0 4.3375
3.1875 0 4.4
3.25 0.0625 4.4
3.25 0.125 4.3375
3.1875 0.125 4.4
3.1875 0 4.3375
3.25 0.0625 4.3375
3.1875 0.0625 4.4
3.1875 0.125 4.3375
3.1875 0.0625 4.3375
3.375 0 4.3375
3.3125 0 4.4
3.375 0.0625 4.4
3.375 0.125 4.3375
3.3125 0.125 4.4
3.3125 0 4.3375
3.375 0.0625 4.3375
3.3125 0.0625 4.4
3.3125 0.125 4.3375
3.3125 0.0625 4.3375
3.5 0 4.3375
3.4375 0 4.4
3.5 0.0625 4.4
3.5 0.125 4.3375
3.4375 0.125 4.4
3.4375 0 4.3375
3.5 0.0625 4.3375
3.4375 0.0625 4.4
3.4375 0.125 4.3375
3.4375 0.0625 4.3375
3.625 0 4.3375
3.5625 0 4.4
3.625 0.0625 4.4
3.625 0.125 4.3375
3.5625 0.125 4.4
3.5625 0 4.3375
3.625 0.0625 4.3375
3.5625 0.0625 4.4
3.5625 0.125 4.3375
3.5625 0.0625 4.3375
3.75 0 4.3375
3.6875 0 4.4
3.75 0.0625 4.4
3.75 0.125 4.3375
3.6875 0.125 4.4
3.6875 0 4.3375
3.75 0.0625 4.3375
3.6875 0.0625 4.4
3.6875 0.125 4.3375
3.6875 0.0625 4.3375
3.875 0 4.3375
3.8125 0 4.4
3.875 0.0625 4.4
3.875 0.125 4.3375
3.8125 0.125 4.4
3.8125 0 4.3375
3.875 0.0625 4.3375
3.8125 0.0625 4.4
3.8125 0.125 4.3375
3.8125 0.0625 4.3375
4 0 4.3375
3.9375 0 4.4
4 0.0625 4.4
4 0.125 4.3375
3.9375 0.125 4.4
3.9375 0 4.3375
4 0.0625 4.3375
3.9375 0.0625 4.4
3.9375 0.125 4.3375
3.9375 0.0625 4.3375
0.125 0.1875 4.4
0 0.1875 4.4
0.125 0.25 4.3375
0.0625 0.25 4.4
0 0.25 4.3375
0.125 0.1875 4.3375
0.0625 0.1875 4.4
0 0.1875 4.3375
0.0625 0.25 4.3375
0.0625 0.1875 4.3375
0.25 0.1875 4.4
0.25 0.25 4.3375
0.1875 0.25 4.4
0.25 0.1875 4.3375
0.1875 0.1875 4.4
0.1875 0.25 4.3375
0.1875 0.1875 4.3375
0.375 0.1875 4.4
0.375 0.25 4.3375
0.3125 0.25 4.4
0.375 0.1875 4.3375
0.3125 0.1875 4.4
0.3125 0.25 4.3375
0.3125 0.1875 4.3375
0.5 0.1875 4.4
0.5 0.25 4.3375
0.4375 0.25 4.4
0.5 0.1875 4.3375
0.4375 0.1875 4.4
0.4375 0.25 4.3375
0.4375 0.1875 4.3375
0.625 0.1875 4.4
0.625 0.25 4.3375
0.5625 0.25 4.4
0.625 0.1875 4.3375
0.5625 0.1875 4.4
0.5625 0.25 4.3375
0.5625 0.1875 4.3375
0.75 0.1875 4.4
0.75 0.25 4.3375
0.6875 0.25 4.4
0.75 0.1875 4.3375
0.6875 0.1875 4.4
0.6875 0.25 4.3375
0.6875 0.1875 4.3375
0.875 0.1875 4.4
0.875 0.25 4.3375
0.8125 0.25 4.4
0.875 0.1875 4.3375
0.8125 0.1875 4.4
0.8125 0.25 4.3375
0.8125 0.1875 4.3375
1 0.1875 4.4
1 0.25 4.3375
0.9375 0.25 4.4
1 0.1875 4.3375
0.9375 0.1875 4.4
0.9375 0.25 4.3375
0.9375 0.1875 4.3375
1.125 0.1875 4.4
1.125 0.25 4.3375
1.0625 0.25 4.4
1.125 0.1875 4.3375
1.0625 0.1875 4.4
1.0625 0.25 4.3375
1.0625 0.1875 4.3375
1.25 0.1875 4.4
1.25 0.25 4.3375
1.1875 0.25 4.4
1.25 0.1875 4.3375
1.1875 0.1875 4.4
1.1875 0.25 4.3375
1.1875 0.1875 4.3375
1.375 0.1875 4.4
1.375 0.25 4.3375
1.3125 0.25 4.4
1.375 0.1875 4.3375
1.3125 0.1875 4.4
1.3125 0.25 4.3375
1.3125 0.1875 4.3375
1.5 0.1875 4.4
1.5 0.25 4.3375
1.4375 0.25 4.4
1.5 0.1875 4.3375
1.4375 0.1875 4.4
1.4375 0.25 4.3375
1.4375 0.1875 4.3375
1.625 0.1875 4.4
1.625 0.25 4.3375
1.5625 0.25 4.4
1.625 0.1875 4.3375
1.5625 0.1875 4.4
1.5625 0.25 4.3375
1.5625 0.1875 4.3375
1.75 0.1875 4.4
1.75 0.25 4.3375
1.6875 0.25 4.4
1.75 0.1875 4.3375
1.6875 0.1875 4.4
1.6875 0.25 4.3375
1.6875 0.1875 4.3375
1.875 0.1875 4.4
1.875 0.25 4.3375
1.8125 0.25 4.4
1.875 0.1875 4.3375
1.8125 0.1875 4.4
1.8125 0.25 4.3375
1.8125 0.1875 4.3375
2 0.1875 4.4
2 0.25 4.3375
1.9375 0.25 4.4
2 0.1875 4.3375
1.9375 0.1875 4.4
1.9375 0.25 4.3375
1.9375 0.1875 4.3375
2.125 0.1875 4.4
2.125 0.25 4.3375
2.0625 0.25 4.4
2.125 0.1875 4.3375
2.0625 0.1875 4.4
2.0625 0.25 4.3375
2.0625 0.1875 4.3375
2.25 0.1875 4.4
2.25 0.25 4.3375
2.1875 0.25 4.4
2.25 0.1875 4.3375
2.1875 0.1875 4.4
2.1875 0.25 4.3375
2.1875 0.1875 4.3375
2.375 0.1875 4.4
2.375 0.25 4.3375
2.3125 0.25 4.4
2.375 0.1875 4.3375
2.3125 0.1875 4.4
2.3125 0.25 4.3375
2.3125 0.1875 4.3375
2.5 0.1875 4.4
2.5 0.25 4.3375
2.4375 0.25 4.4
2.5 0.1875 4.3375
2.4375 0.1875 4.4
2.4375 0.25 4.3375
2.4375 0.1875 4.3375
2.625 0.1875 4.4
2.625 0.25 4.3375
2.5625 0.25 4.4
2.625 0.1875 4.3375
2.5625 0.1875 4.4
2.5625 0.25 4.3375
2.5625 0.1875 4.3375
2.75 0.1875 4.4
2.75 0.25 4.3375
2.6875 0.25 4.4
2.75 0.1875 4.3375
2.6875 0.1875 4.4
2.6875 0.25 4.3375
2.6875 0.1875 4.3375
2.875 0.1875 4.4
2.875 0.25 4.3375
2.8125 0.25 4.4
2.875 0.1875 4.3375
2.8125 0.1875 4.4
2.8125 0.25 4.3375
2.8125 0.1875 4.3375
3 0.1875 4.4
3 0.25 4.3375
2.9375 0.25 4.4
3 0.1875 4.3375
2.9375 0.1875 4.4
2.9375 0.25 4.3375
2.9375 0.1875 4.3375
3.125 0.1875 4.4
3.125 0.25 4.3375
3.0625 0.25 4.4
3.125 0.1875 4.3375
3.0625 0.1875 4.4
3.0625 0.25 4.3375
3.0625 0.1875 4.3375
3.25 0.1875 4.4
3.25 0.25 4.3375
3.1875 0.25 4.4
3.25 0.1875 4.3375
3.1875 0.1875 4.4
3.1875 0.25 4.3375
3.1875 0.1875 4.3375
3.375 0.1875 4.4
3.375 0.25 4.3375
3.3125 0.25 4.4
3.375 0.1875 4.3375
3.3125 0.1875 4.4
3.3125 0.25 4.3375
3.3125 0.1875 4.3375
3.5 0.1875 4.4
3.5 0.25 4.3375
3.4375 0.25 4.4
3.5 0.1875 4.3375
3.4375 0.1875 4.4
3.4375 0.25 4.3375
3.4375 0.1875 4.3375
3.625 0.1875 4.4
3.625 0.25 4.3375
3.5625 0.25 4.4
3.625 0.1875 4.3375
3.5625 0.1875 4.4
3.5625 0.25 4.3375
3.5625 0.1875 4.3375
3.75 0.1875 4.4
3.75 0.25 4.3375
3.6875 0.25 4.4
3.75 0.1875 4.3375
3.6875 0.1875 4.4
3.6875 0.25 4.3375
3.6875 0.1875 4.3375
3.875 0.1875 4.4
3.875 0.25 4.3375
3.8125 0.25 4.4
3.875 0.1875 4.3375
3.8125 0.1875 4.4
3.8125 0.25 4.3375
3.8125 0.1875 4.3375
4 0.1875 4.4
4 0.25 4.3375
3.9375 0.25 4.4
4 0.1875 4.3375
3.9375 0.1875 4.4
3.9375 0.25 4.3375
3.9375 0.1875 4.3375
0.125 0.3125 4.4
0 0.3125 4.4
0.125 0.375 4.3375
0.0625 0.375 4.4
0 0.375 4.3375
0.125 0.3125 4.3375
0.0625 0.3125 4.4
0 0.3125 4.3375
0.0625 0.375 4.3375
0.0625 0.3125 4.3375
0.25 0.3125 4.4
0.25 0.375 4.3375
0.1875 0.375 4.4
0.25 0.3125 4.3375
0.1875 0.3125 4.4
0.1875 0.375 4.3375
0.1875 0.3125 4.3375
0.375 0.3125 4.4
0.375 0.375 4.3375
0.3125 0.375 4.4
0.375 0.3125 4.3375
0.3125 0.3125 4.4
0.3125 0.375 4.3375
0.3125 0.3125 4.3375
0.5 0.3125 4.4
0.5 0.375 4.3375
0.4375 0.375 4.4
0.5 0.3125 4.3375
0.4375 0.3125 4.4
0.4375 0.375 4.3375
0.4375 0.3125 4.3375
0.625 0.3125 4.4
0.625 0.375 4.3375
0.5625 0.375 4.4
0.625 0.3125 4.3375
0.5625 0.3125 4.4
0.5625 0.375 4.3375
0.5625 0.3125 4.3375
0.75 0.3125 4.4
0.75 0.375 4.3375
0.6875 0.375 4.4
0.75 0.3125 4.3375
0.6875 0.3125 4.4
0.6875 0.375 4.3375
0.6875 0.3125 4.3375
0.875 0.3125 4.4
0.875 0.375 4.3375
0.8125 0.375 4.4
0.875 0.3125 4.3375
0.8125 0.3125 4.4
0.8125 0.375 4.3375
0.8125 0.3125 4.3375
1 0.3125 4.4
1 0.375 4.3375
0.9375 0.375 4.4
1 0.3125 4.3375
0.9375 0.3125 4.4
0.9375 0.375 4.3375
0.9375 0.3125 4.3375
1.125 0.3125 4.4
1.125 0.375 4.3375
1.0625 0.375 4.4
1.125 0.3125 4.3375
1.0625 0.3125 4.4
1.0625 0.375 4.3375
1.0625 0.3125 4.3375
1.25 0.3125 4.4
1.25 0.375 4.3375
1.1875 0.375 4.4
1.25 0.3125 4.3375
1.1875 0.3125 4.4
1.1875 0.375 4.3375
1.1875 0.3125 4.3375
1.375 0.3125 4.4
1.375 0.375 4.3375
1.3125 0.375 4.4
1.375 0.3125 4.3375
1.3125 0.3125 4.4
1.3125 0.375 4.3375
1.3125 0.3125 4.3375
1.5 0.3125 4.4
1.5 0.375 4.3375
1.4375 0.375 4.4
1.5 0.3125 4.3375
1.4375 0.3125 4.4
1.4375 0.375 4.3375
1.4375 0.3125 4.3375
1.625 0.3125 4.4
1.625 0.375 4.3375
1.5625 0.375 4.4
1.625 0.3125 4.3375
1.5625 0.3125 4.4
1.5625 0.375 4.3375
1.5625 0.3125 4.3375
1.75 0.3125 4.4
1.75 0.375 4.3375
1.6875 0.375 4.4
1.75 0.3125 4.3375
1.6875 0.3125 4.4
1.6875 0.375 4.3375
1.6875 0.3125 4.3375
1.875 0.3125 4.4
1.875 0.375 4.3375
1.8125 0.375 4.4
1.875 0.3125 4.3375
1.8125 0.3125 4.4
1.8125 0.375 4.3375
1.8125 0.3125 4.3375
2 0.3125 4.4
2 0.375 4.3375
1.9375 0.375 4.4
2 0.3125 4.3375
1.9375 0.3125 4.4
1.9375 0.375 4.3375
1.9375 0.3125 4.3375
2.125 0.3125 4.4
2.125 0.375 4.3375
2.0625 0.375 4.4
2.125 0.3125 4.3375
2.0625 0.3125 4.4
2.0625 0.375 4.3375
2.0625 0.3125 4.3375
2.25 0.3125 4.4
2.25 0.375 4.3375
2.1875 0.375 4.4
2.25 0.3125 4.3375
2.1875 0.3125 4.4
2.1875 0.375 4.3375
2.1875 0.3125 4.3375
2.375 0.3125 4.4
2.375 0.375 4.3375
2.3125 0.375 4.4
2.375 0.3125 4.3375
2.3125 0.3125 4.4
2.3125 0.375 4.3375
2.3125 0.3125 4.3375
2.5 0.3125 4.4
2.5 0.375 4.3375
2.4375 0.375 4.4
2.5 0.3125 4.3375
2.4375 0.3125 4.4
2.4375 0.375 4.3375
2.4375 0.3125 4.3375
2.625 0.3125 4.4
2.625 0.375 4.3375
2.5625 0.375 4.4
2.625 0.3125 4.3375
2.5625 0.3125 4.4
2.5625 0.375 4.3375
2.5625 0.3125 4.3375
2.75 0.3125 4.4
2.75 0.375 4.3375
2.6875 0.375 4.4
2.75 0.3125 4.3375
2.6875 0.3125 4.4
2.6875 0.375 4.3375
2.6875 0.3125 4.3375
2.875 0.3125 4.4
2.875 0.375 4.3375
2.8125 0.375 4.4
2.875 0.3125 4.3375
2.8125 0.3125 4.4
2.8125 0.375 4.3375
2.8125 0.3125 4.3375
3 0.3125 4.4
3 0.375 4.3375
2.9375 0.375 4.4
3 0.3125 4.3375
2.9375 0.3125 4.4
2.9375 0.375 4.3375
2.9375 0.3125 4.3375
3.125 0.3125 4.4
3.125 0.375 4.3375
3.0625 0.375 4.4
3.125 0.3125 4.3375
3.0625 0.3125 4.4
3.0625 0.375 4.3375
3.0625 0.3125 4.3375
3.25 0.3125 4.4
3.25 0.375 4.3375
3.1875 0.375 4.4
3.25 0.3125 4.3375
3.1875 0.3125 4.4
3.1875 0.375 4.3375
3.1875 0.3125 4.3375
3.375 0.3125 4.4
3.375 0.375 4.3375
3.3125 0.375 4.4
3.375 0.3125 4.3375
3.3125 0.3125 4.4
3.3125 0.375 4.3375
3.3125 0.3125 4.3375
3.5 0.3125 4.4
3.5 0.375 4.3375
3.4375 0.375 4.4
3.5 0.3125 4.3375
3.4375 0.3125 4.4
3.4375 0.375 4.3375
3.4375 0.3125 4.3375
3.625 0.3125 4.4
3.625 0.375 4.3375
3.5625 0.375 4.4
3.625 0.3125 4.3375
3.5625 0.3125 4.4
3.5625 0.375 4.3375
3.5625 0.3125 4.3375
3.75 0.3125 4.4
3.75 0.375 4.3375
3.6875 0.375 4.4
3.75 0.3125 4.3375
3.6875 0.3125 4.4
3.6875 0.375 4.3375
3.6875 0.3125 4.3375
3.875 0.3125 4.4
3.875 0.375 4.3375
3.8125 0.375 4.4
3.875 0.3125 4.3375
3.8125 0.3125 4.4
3.8125 0.375 4.3375
3.8125 0.3125 4.3375
4 0.3125 4.4
4 0.375 4.3375
3.9375 0.375 4.4
4 0.3125 4.3375
3.9375 0.3125 4.4
3.9375 0.375 4.3375
3.9375 0.3125 4.3375
0.125 0.4375 4.4
0 0.4375 4.4
0.125 0.5 4.3375
0.0625 0.5 4.4
0 0.5 4.3375
0.125 0.4375 4.3375
0.0625 0.4375 4.4
0 0.4375 4.3375
0.0625 0.5 4.3375
0.0625 0.4375 4.3375
0.25 0.4375 4.4
0.25 0.5 4.3375
0.1875 0.5 4.4
0.25 0.4375 4.3375
0.1875 0.4375 4.4
0.1875 0.5 4.3375
0.1875 0.4375 4.3375
0.375 0.4375 4.4
0.375 0.5 4.3375
0.3125 0.5 4.4
0.375 0.4375 4.3375
0.3125 0.4375 4.4
0.3125 0.5 4.3375
0.3125 0.4375 4.3375
0.5 0.4375 4.4
0.5 0.5 4.3375
0.4375 0.5 4.4
0.5 0.4375 4.3375
0.4375 0.4375 4.4
0.4375 0.5 4.3375
0.4375 0.4375 4.3375
0.625 0.4375 4.4
0.625 0.5 4.3375
0.5625 0.5 4.4
0.625 0.4375 4.3375
0.5625 0.4375 4.4
0.5625 0.5 4.3375
0.5625 0.4375 4.3375
0.75 0.4375 4.4
0.75 0.5 4.3375
0.6875 0.5 4.4
0.75 0.4375 4.3375
0.6875 0.4375 4.4
0.6875 0.5 4.3375
0.6875 0.4375 4.3375
0.875 0.4375 4.4
0.875 0.5 4.3375
0.8125 0.5 4.4
0.875 0.4375 4.3375
0.8125 0.4375 4.4
0.8125 0.5 4.3375
0.8125 0.4375 4.3375
1 0.4375 4.4
1 0.5 4.3375
0.9375 0.5 4.4
1 0.4375 4.3375
0.9375 0.4375 4.4
0.9375 0.5 4.3375
0.9375 0.4375 4.3375
1.125 0.4375 4.4
1.125 0.5 4.3375
1.0625 0.5 4.4
1.125 0.4375 4.3375
1.0625 0.4375 4.4
1.0625 0.5 4.3375
1.0625 0.4375 4.3375
1.25 0.4375 4.4
1.25 0.5 4.3375
1.1875 0.5 4.4
1.25 0.4375 4.3375
1.1875 0.4375 4.4
1.1875 0.5 4.3375
1.1875 0.4375 4.3375
1.375 0.4375 4.4
1.375 0.5 4.3375
1.3125 0.5 4.4
1.375 0.4375 4.3375
1.3125 0.4375 4.4
1.3125 0.5 4.3375
1.3125 0.4375 4.3375
1.5 0.4375 4.4
1.5 0.5 4.3375
1.4375 0.5 4.4
1.5 0.4375 4.3375
1.4375 0.4375 4.4
1.4375 0.5 4.3375
1.4375 0.4375 4.3375
1.625 0.4375 4.4
1.625 0.5 4.3375
1.5625 0.5 4.4
1.625 0.4375 4.3375
1.5625 0.4375 4.4
1.5625 0.5 4.3375
1.5625 0.4375 4.3375
1.75 0.4375 4.4
1.75 0.5 4.3375
1.6875 0.5 4.4
1.75 0.4375 4.3375
1.6875 0.4375 4.4
1.6875 0.5 4.3375
1.6875 0.4375 4.3375
1.875 0.4375 4.4
1.875 0.5 4.3375
1.8125 0.5 4.4
1.875 0.4375 4.3375
1.8125 0.4375 4.4
1.8125 0.5 4.3375
1.8125 0.4375 4.3375
2 0.4375 4.4
2 0.5 4.3375
1.9375 0.5 4.4
2 0.4375 4.3375
1.9375 0.4375 4.4
1.9375 0.5 4.3375
1.9375 0.4375 4.3375
2.125 0.4375 4.4
2.125 0.5 4.3375
2.0625 0.5 4.4
2.125 0.4375 4.3375
2.0625 0.4375 4.4
2.0625 0.5 4.3375
2.0625 0.4375 4.3375
2.25 0.4375 4.4
2.25 0.5 4.3375
2.1875 0.5 4.4
2.25 0.4375 4.3375
2.1875 0.4375 4.4
2.1875 0.5 4.3375
2.1875 0.4375 4.3375
2.375 0.4375 4.4
2.375 0.5 4.3375
2.3125 0.5 4.4
2.375 0.4375 4.3375
2.3125 0.4375 4.4
2.3125 0.5 4.3375
2.3125 0.4375 4.3375
2.5 0.4375 4.4
2.5 0.5 4.3375
2.4375 0.5 4.4
2.5 0.4375 4.3375
2.4375 0.4375 4.4
2.4375 0.5 4.3375
2.4375 0.4375 4.3375
2.625 0.4375 4.4
2.625 0.5 4.3375
2.5625 0.5 4.4
2.625 0.4375 4.3375
2.5625 0.4375 4.4
2.5625 0.5 4.3375
2.5625 0.4375 4.3375
2.75 0.4375 4.4
2.75 0.5 4.3375
2.6875 0.5 4.4
2.75 0.4375 4.3375
2.6875 0.4375 4.4
2.6875 0.5 4.3375
2.6875 0.4375 4.3375
2.875 0.4375 4.4
2.875 0.5 4.3375
2.8125 0.5 4.4
2.875 0.4375 4.3375
2.8125 0.4375 4.4
2.8125 0.5 4.3375
2.8125 0.4375 4.3375
3 0.4375 4.4
3 0.5 4.3375
2.9375 0.5 4.4
3 0.4375 4.3375
2.9375 0.4375 4.4
2.9375 0.5 4.3375
2.9375 0.4375 4.3375
3.125 0.4375 4.4
3.125 0.5 4.3375
3.0625 0.5 4.4
3.125 0.4375 4.3375
3.0625 0.4375 4.4
3.0625 0.5 4.3375
3.0625 0.4375 4.3375
3.25 0.4375 4.4
3.25 0.5 4.3375
3.1875 0.5 4.4
3.25 0.4375 4.3375
3.1875 0.4375 4.4
3.1875 0.5 4.3375
3.1875 0.4375 4.3375
3.375 0.4375 4.4
3.375 0.5 4.3375
3.3125 0.5 4.4
3.375 0.4375 4.3375
3.3125 0.4375 4.4
3.3125 0.5 4.3375
3.3125 0.4375 4.3375
3.5 0.4375 4.4
3.5 0.5 4.3375
3.4375 0.5 4.4
3.5 0.4375 4.3375
3.4375 0.4375 4.4
3.4375 0.5 4.3375
3.4375 0.4375 4.3375
3.625 0.4375 4.4
3.625 0.5 4.3375
3.5625 0.5 4.4
3.625 0.4375 4.3375
3.5625 0.4375 4.4
3.5625 0.5 4.3375
3.5625 0.4375 4.3375
3.75 0.4375 4.4
3.75 0.5 4.3375
3.6875 0.5 4.4
3.75 0.4375 4.3375
3.6875 0.4375 4.4
3.6875 0.5 4.3375
3.6875 0.4375 4.3375
3.875 0.4375 4.4
3.875 0.5 4.3375
3.8125 0.5 4.4
3.875 0.4375 4.3375
3.8125 0.4375 4.4
3.8125 0.5 4.3375
3.8125 0.4375 4.3375
4 0.4375 4.4
4 0.5 4.3375
3.9375 0.5 4.4
4 0.4375 4.3375
3.9375 0.4375 4.4
3.9375 0.5 4.3375
3.9375 0.4375 4.3375
0.125 0.5625 4.4
0 0.5625 4.4
0.125 0.625 4.3375
0.0625 0.625 4.4
0 0.625 4.3375
0.125 0.5625 4.3375
0.0625 0.5625 4.4
0 0.5625 4.3375
0.0625 0.625 4.3375
0.0625 0.5625 4.3375
0.25 0.5625 4.4
0.25 0.625 4.3375
0.1875 0.625 4.4
0.25 0.5625 4.3375
0.1875 0.5625 4.4
0.1875 0.625 4.3375
0.1875 0.5625 4.3375
0.375 0.5625 4.4
0.375 0.625 4.3375
0.3125 0.625 4.4
0.375 0.5625 4.3375
0.3125 0.5625 4.4
0.3125 0.625 4.3375
0.3125 0.5625 4.3375
0.5 0.5625 4.4
0.5 0.625 4.3375
0.4375 0.625 4.4
0.5 0.5625 4.3375
0.4375 0.5625 4.4
0.4375 0.625 4.3375
0.4375 0.5625 4.3375
0.625 0.5625 4.4
0.625 0.625 4.3375
0.5625 0.625 4.4
0.625 0.5625 4.3375
0.5625 0.5625 4.4
0.5625 0.625 4.3375
0.5625 0.5625 4.3375
0.75 0.5625 4.4
0.75 0.625 4.3375
0.6875 0.625 4.4
0.75 0.5625 4.3375
0.6875 0.5625 4.4
0.6875 0.625 4.3375
0.6875 0.5625 4.3375
0.875 0.5625 4.4
0.875 0.625 4.3375
0.8125 0.625 4.4
0.875 0.5625 4.3375
0.8125 0.5625 4.4
0.8125 0.625 4.3375
0.8125 0.5625 4.3375
1 0.5625 4.4
1 0.625 4.3375
0.9375 0.625 4.4
1 0.5625 4.3375
0.9375 0.5625 4.4
0.9375 0.625 4.3375
0.9375 0.5625 4.3375
1.125 0.5625 4.4
1.125 0.625 4.3375
1.0625 0.625 4.4
1.125 0.5625 4.3375
1.0625 0.5625 4.4
1.0625 0.625 4.3375
1.0625 0.5625 4.3375
1.25 0.5625 4.4
1.25 0.625 4.3375
1.1875 0.625 4.4
1.25 0.5625 4.3375
1.1875 0.5625 4.4
1.1875 0.625 4.3375
1.1875 0.5625 4.3375
1.375 0.5625 4.4
1.375 0.625 4.3375
1.3125 0.625 4.4
1.375 0.5625 4.3375
1.3125 0.5625 4.4
1.3125 0.625 4.3375
1.3125 0.5625 4.3375
1.5 0.5625 4.4
1.5 0.625 4.3375
1.4375 0.625 4.4
1.5 0.5625 4.3375
1.4375 0.5625 4.4
1.4375 0.625 4.3375
1.4375 0.5625 4.3375
1.625 0.5625 4.4
1.625 0.625 4.3375
1.5625 0.625 4.4
1.625 0.5625 4.3375
1.5625 0.5625 4.4
1.5625 0.625 4.3375
1.5625 0.5625 4.3375
1.75 0.5625 4.4
1.75 0.625 4.3375
1.6875 0.625 4.4
1.75 0.5625 4.3375
1.6875 0.5625 4.4
1.6875 0.625 4.3375
1.6875 0.5625 4.3375
1.875 0.5625 4.4
1.875 0.625 4.3375
1.8125 0.625 4.4
1.875 0.5625 4.3375
1.8125 0.5625 4.4
1.8125 0.625 4.3375
1.8125 0.5625 4.3375
2 0.5625 4.4
2 0.625 4.3375
1.9375 0.625 4.4
2 0.5625 4.3375
1.9375 0.5625 4.4
1.9375 0.625 4.3375
1.9375 0.5625 4.3375
2.125 0.5625 4.4
2.125 0.625 4.3375
2.0625 0.625 4.4
2.125 0.5625 4.3375
2.0625 0.5625 4.4
2.0625 0.625 4.3375
2.0625 0.5625 4.3375
2.25 0.5625 4.4
2.25 0.625 4.3375
2.1875 0.625 4.4
2.25 0.5625 4.3375
2.1875 0.5625 4.4
2.1875 0.625 4.3375
2.1875 0.5625 4.3375
2.375 0.5625 4.4
2.375 0.625 4.3375
2.3125 0.625 4.4
2.375 0.5625 4.3375
2.3125 0.5625 4.4
2.3125 0.625 4.3375
2.3125 0.5625 4.3375
2.5 0.5625 4.4
2.5 0.625 4.3375
2.4375 0.625 4.4
2.5 0.5625 4.3375
2.4375 0.5625 4.4
2.4375 0.625 4.3375
2.4375 0.5625 4.3375
2.625 0.5625 4.4
2.625 0.625 4.3375
2.5625 0.625 4.4
2.625 0.5625 4.3375
2.5625 0.5625 4.4
2.5625 0.625 4.3375
2.5625 0.5625 4.3375
2.75 0.5625 4.4
2.75 0.625 4.3375
2.6875 0.625 4.4
2.75 0.5625 4.3375
2.6875 0.5625 4.4
2.6875 0.625 4.3375
2.6875 0.5625 4.3375
2.875 0.5625 4.4
2.875 0.625 4.3375
2.8125 0.625 4.4
2.875 0.5625 4.3375
2.8125 0.5625 4.4
2.8125 0.625 4.3375
2.8125 0.5625 4.3375
3 0.5625 4.4
3 0.625 4.3375
2.9375 0.625 4.4
3 0.5625 4.3375
2.9375 0.5625 4.4
2.9375 0.625 4.3375
2.9375 0.5625 4.3375
3.125 0.5625 4.4
3.125 0.625 4.3375
3.0625 0.625 4.4
3.125 0.5625 4.3375
3.0625 0.5625 4.4
3.0625 0.625 4.3375
3.0625 0.5625 4.3375
3.25 0.5625 4.4
3.25 0.625 4.3375
3.1875 0.625 4.4
3.25 0.5625 4.3375
3.1875 0.5625 4.4
3.1875 0.625 4.3375
3.1875 0.5625 4.3375
3.375 0.5625 4.4
3.375 0.625 4.3375
3.3125 0.625 4.4
3.375 0.5625 4.3375
3.3125 0.5625 4.4
3.3125 0.625 4.3375
3.3125 0.5625 4.3375
3.5 0.5625 4.4
3.5 0.625 4.3375
3.4375 0.625 4.4
3.5 0.5625 4.3375
3.4375 0.5625 4.4
3.4375 0.625 4.3375
3.4375 0.5625 4.3375
3.625 0.5625 4.4
3.625 0.625 4.3375
3.5625 0.625 4.4
3.625 0.5625 4.3375
3.5625 0.5625 4.4
3.5625 0.625 4.3375
3.5625 0.5625 4.3375
3.75 0.5625 4.4
3.75 0.625 4.3375
3.6875 0.625 4.4
3.75 0.5625 4.3375
3.6875 0.5625 4.4
3.6875 0.625 4.3375
3.6875 0.5625 4.3375
3.875 0.5625 4.4
3.875 0.625 4.3375
3.8125 0.625 4.4
3.875 0.5625 4.3375
3.8125 0.5625 4.4
3.8125 0.625 4.3375
3.8125 0.5625 4.3375
4 0.5625 4.4
4 0.625 4.3375
3.9375 0.625 4.4
4 0.5625 4.3375
3.9375 0.5625 4.4
3.9375 0.625 4.3375
3.9375 0.5625 4.3375
0.125 0.6875 4.4
0 0.6875 4.4
0.125 0.75 4.3375
0.0625 0.75 4.4
0 0.75 4.3375
0.125 0.6875 4.3375
0.0625 0.6875 4.4
0 0.6875 4.3375
0.0625 0.75 4.3375
0.0625 0.6875 4.3375
0.25 0.6875 4.4
0.25 0.75 4.3375
0.1875 0.75 4.4
0.25 0.6875 4.3375
0.1875 0.6875 4.4
0.1875 0.75 4.3375
0.1875 0.6875 4.3375
0.375 0.6875 4.4
0.375 0.75 4.3375
0.3125 0.75 4.4
0.375 0.6875 4.3375
0.3125 0.6875 4.4
0.3125 0.75 4.3375
0.3125 0.6875 4.3375
0.5 0.6875 4.4
0.5 0.75 4.3375
0.4375 0.75 4.4
0.5 0.6875 4.3375
0.4375 0.6875 4.4
0.4375 0.75 4.3375
0.4375 0.6875 4.3375
0.625 0.6875 4.4
0.625 0.75 4.3375
0.5625 0.75 4.4
0.625 0.6875 4.3375
0.5625 0.6875 4.4
0.5625 0.75 4.3375
0.5625 0.6875 4.3375
0.75 0.6875 4.4
0.75 0.75 4.3375
0.6875 0.75 4.4
0.75 0.6875 4.3375
0.6875 0.6875 4.4
0.6875 0.75 4.3375
0.6875 0.6875 4.3375
0.875 0.6875 4.4
0.875 0.75 4.3375
0.8125 0.75 4.4
0.875 0.6875 4.3375
0.8125 0.6875 4.4
0.8125 0.75 4.3375
0.8125 0.6875 4.3375
1 0.6875 4.4
1 0.75 4.3375
0.9375 0.75 4.4
1 0.6875 4.3375
0.9375 0.6875 4.4
0.9375 0.75 4.3375
0.9375 0.6875 4.3375
1.125 0.6875 4.4
1.125 0.75 4.3375
1.0625 0.75 4.4
1.125 0.6875 4.3375
1.0625 0.6875 4.4
1.0625 0.75 4.3375
1.0625 0.6875 4.3375
1.25 0.6875 4.4
1.25 0.75 4.3375
1.1875 0.75 4.4
1.25 0.6875 4.3375
1.1875 0.6875 4.4
1.1875 0.75 4.3375
1.1875 0.6875 4.3375
1.375 0.6875 4.4
1.375 0.75 4.3375
1.3125 0.75 4.4
1.375 0.6875 4.3375
1.3125 0.6875 4.4
1.3125 0.75 4.3375
1.3125 0.6875 4.3375
1.5 0.6875 4.4
1.5 0.75 4.3375
1.4375 0.75 4.4
1.5 0.6875 4.3375
1.4375 0.6875 4.4
1.4375 0.75 4.3375
1.4375 0.6875 4.3375
1.625 0.6875 4.4
1.625 0.75 4.3375
1.5625 0.75 4.4
1.625 0.6875 4.3375
1.5625 0.6875 4.4
1.5625 0.75 4.3375
1.5625 0.6875 4.3375
1.75 0.6875 4.4
1.75 0.75 4.3375
1.6875 0.75 4.4
1.75 0.6875 4.3375
1.6875 0.6875 4.4
1.6875 0.75 4.3375
1.6875 0.6875 4.3375
1.875 0.6875 4.4
1.875 0.75 4.3375
1.8125 0.75 4.4
1.875 0.6875 4.3375
1.8125 0.6875 4.4
1.8125 0.75 4.3375
1.8125 0.6875 4.3375
2 0.6875 4.4
2 0.75 4.3375
1.9375 0.75 4.4
2 0.6875 4.3375
1.9375 0.6875 4.4
1.9375 0.75 4.3375
1.9375 0.6875 4.3375
2.125 0.6875 4.4
2.125 0.75 4.3375
2.0625 0.75 4.4
2.125 0.6875 4.3375
2.0625 0.6875 4.4
2.0625 0.75 4.3375
2.0625 0.6875 4.3375
2.25 0.6875 4.4
2.25 0.75 4.3375
2.1875 0.75 4.4
2.25 0.6875 4.3375
2.1875 0.6875 4.4
2.1875 0.75 4.3375
2.1875 0.6875 4.3375
2.375 0.6875 4.4
2.375 0.75 4.3375
2.3125 0.75 4.4
2.375 0.6875 4.3375
2.3125 0.6875 4.4
2.3125 0.75 4.3375
2.3125 0.6875 4.3375
2.5 0.6875 4.4
2.5 0.75 4.3375
2.4375 0.75 4.4
2.5 0.6875 4.3375
2.4375 0.6875 4.4
2.4375 0.75 4.3375
2.4375 0.6875 4.3375
2.625 0.6875 4.4
2.625 0.75 4.3375
2.5625 0.75 4.4
2.625 0.6875 4.3375
2.5625 0.6875 4.4
2.5625 0.75 4.3375
2.5625 0.6875 4.3375
2.75 0.6875 4.4
2.75 0.75 4.3375
2.6875 0.75 4.4
2.75 0.6875 4.3375
2.6875 0.6875 4.4
2.6875 0.75 4.3375
2.6875 0.6875 4.3375
2.875 0.6875 4.4
2.875 0.75 4.3375
2.8125 0.75 4.4
2.875 0.6875 4.3375
2.8125 0.6875 4.4
2.8125 0.75 4.3375
2.8125 0.6875 4.3375
3 0.6875 4.4
3 0.75 4.3375
2.9375 0.75 4.4
3 0.6875 4.3375
2.9375 0.6875 4.4
2.9375 0.75 4.3375
2.9375 0.6875 4.3375
3.125 0.6875 4.4
3.125 0.75 4.3375
3.0625 0.75 4.4
3.125 0.6875 4.3375
3.0625 0.6875 4.4
3.0625 0.75 4.3375
3.0625 0.6875 4.3375
3.25 0.6875 4.4
3.25 0.75 4.3375
3.1875 0.75 4.4
3.25 0.6875 4.3375
3.1875 0.6875 4.4
3.1875 0.75 4.3375
3.1875 0.6875 4.3375
3.375 0.6875 4.4
3.375 0.75 4.3375
3.3125 0.75 4.4
3.375 0.6875 4.3375
3.3125 0.6875 4.4
3.3125 0.75 4.3375
3.3125 0.6875 4.3375
3.5 0.6875 4.4
3.5 0.75 4.3375
3.4375 0.75 4.4
3.5 0.6875 4.3375
3.4375 0.6875 4.4
3.4375 0.75 4.3375
3.4375 0.6875 4.3375
3.625 0.6875 4.4
3.625 0.75 4.3375
3.5625 0.75 4.4
3.625 0.6875 4.3375
3.5625 0.6875 4.4
3.5625 0.75 4.3375
3.5625 0.6875 4.3375
3.75 0.6875 4.4
3.75 0.75 4.3375
3.6875 0.75 4.4
3.75 0.6875 4.3375
3.6875 0.6875 4.4
3.6875 0.75 4.3375
3.6875 0.6875 4.3375
3.875 0.6875 4.4
3.875 0.75 4.3375
3.8125 0.75 4.4
3.875 0.6875 4.3375
3.8125 0.6875 4.4
3.8125 0.75 4.3375
3.8125 0.6875 4.3375
4 0.6875 4.4
4 0.75 4.3375
3.9375 0.75 4.4
4 0.6875 4.3375
3.9375 0.6875 4.4
3.9375 0.75 4.3375
3.9375 0.6875 4.3375
0.125 0.8125 4.4
0 0.8125 4.4
0.125 0.875 4.3375
0.0625 0.875 4.4
0 0.875 4.3375
0.125 0.8125 4.3375
0.0625 0.8125 4.4
0 0.8125 4.3375
0.0625 0.875 4.3375
0.0625 0.8125 4.3375
0.25 0.8125 4.4
0.25 0.875 4.3375
0.1875 0.875 4.4
0.25 0.8125 4.3375
0.1875 0.8125 4.4
0.1875 0.875 4.3375
0.1875 0.8125 4.3375
0.375 0.8125 4.4
0.375 0.875 4.3375
0.3125 0.875 4.4
0.375 0.8125 4.3375
0.3125 0.8125 4.4
0.3125 0.875 4.3375
0.3125 0.8125 4.3375
0.5 0.8125 4.4
0.5 0.875 4.3375
0.4375 0.875 4.4
0.5 0.8125 4.3375
0.4375 0.8125 4.4
0.4375 0.875 4.3375
0.4375 0.8125 4.3375
0.625 0.8125 4.4
0.625 0.875 4.3375
0.5625 0.875 4.4
0.625 0.8125 4.3375
0.5625 0.8125 4.4
0.5625 0.875 4.3375
0.5625 0.8125 4.3375
0.75 0.8125 4.4
0.75 0.875 4.3375
0.6875 0.875 4.4
0.75 0.8125 4.3375
0.6875 0.8125 4.4
0.6875 0.875 4.3375
0.6875 0.8125 4.3375
0.875 0.8125 4.4
0.875 0.875 4.3375
0.8125 0.875 4.4
0.875 0.8125 4.3375
0.8125 0.8125 4.4
0.8125 0.875 4.3375
0.8125 0.8125 4.3375
1 0.8125 4.4
1 0.875 4.3375
0.9375 0.875 4.4
1 0.8125 4.3375
0.9375 0.8125 4.4
0.9375 0.875 4.3375
0.9375 0.8125 4.3375
1.125 0.8125 4.4
1.125 0.875 4.3375
1.0625 0.875 4.4
1.125 0.8125 4.3375
1.0625 0.8125 4.4
1.0625 0.875 4.3375
1.0625 0.8125 4.3375
1.25 0.8125 4.4
1.25 0.875 4.3375
1.1875 0.875 4.4
1.25 0.8125 4.3375
1.1875 0.8125 4.4
1.1875 0.875 4.3375
1.1875 0.8125 4.3375
1.375 0.8125 4.4
1.375 0.875 4.3375
1.3125 0.875 4.4
1.375 0.8125 4.3375
1.3125 0.8125 4.4
1.3125 0.875 4.3375
1.3125 0.8125 4.3375
1.5 0.8125 4.4
1.5 0.875 4.3375
1.4375 0.875 4.4
1.5 0.8125 4.3375
1.4375 0.8125 4.4
1.4375 0.875 4.3375
1.4375 0.8125 4.3375
1.625 0.8125 4.4
1.625 0.875 4.3375
1.5625 0.875 4.4
1.625 0.8125 4.3375
1.5625 0.8125 4.4
1.5625 0.875 4.3375
1.5625 0.8125 4.3375
1.75 0.8125 4.4
1.75 0.875 4.3375
1.6875 0.875 4.4
1.75 0.8125 4.3375
1.6875 0.8125 4.4
1.6875 0.875 4.3375
1.6875 0.8125 4.3375
1.875 0.8125 4.4
1.875 0.875 4.3375
1.8125 0.875 4.4
1.875 0.8125 4.3375
1.8125 0.8125 4.4
1.8125 0.875 4.3375
1.8125 0.8125 4.3375
2 0.8125 4.4
2 0.875 4.3375
1.9375 0.875 4.4
2 0.8125 4.3375
1.9375 0.8125 4.4
1.9375 0.875 4.3375
1.9375 0.8125 4.3375
2.125 0.8125 4.4
2.125 0.875 4.3375
2.0625 0.875 4.4
2.125 0.8125 4.3375
2.0625 0.8125 4.4
2.0625 0.875 4.3375
2.0625 0.8125 4.3375
2.25 0.8125 4.4
2.25 0.875 4.3375
2.1875 0.875 4.4
2.25 0.8125 4.3375
2.1875 0.8125 4.4
2.1875 0.875 4.3375
2.1875 0.8125 4.3375
2.375 0.8125 4.4
2.375 0.875 4.3375
2.3125 0.875 4.4
2.375 0.8125 4.3375
2.3125 0.8125 4.4
2.3125 0.875 4.3375
2.3125 0.8125 4.3375
2.5 0.8125 4.4
2.5 0.875 4.3375
2.4375 0.875 4.4
2.5 0.8125 4.3375
2.4375 0.8125 4.4
2.4375 0.875 4.3375
2.4375 0.8125 4.3375
2.625 0.8125 4.4
2.625 0.875 4.3375
2.5625 0.875 4.4
2.625 0.8125 4.3375
2.5625 0.8125 4.4
2.5625 0.875 4.3375
2.5625 0.8125 4.3375
2.75 0.8125 4.4
2.75 0.875 4.3375
2.6875 0.875 4.4
2.75 0.8125 4.3375
2.6875 0.8125 4.4
2.6875 0.875 4.3375
2.6875 0.8125 4.3375
2.875 0.8125 4.4
2.875 0.875 4.3375
2.8125 0.875 4.4
2.875 0.8125 4.3375
2.8125 0.8125 4.4
2.8125 0.875 4.3375
2.8125 0.8125 4.3375
3 0.8125 4.4
3 0.875 4.3375
2.9375 0.875 4.4
3 0.8125 4.3375
2.9375 0.8125 4.4
2.9375 0.875 4.3375
2.9375 0.8125 4.3375
3.125 0.8125 4.4
3.125 0.875 4.3375
3.0625 0.875 4.4
3.125 0.8125 4.3375
3.0625 0.8125 4.4
3.0625 0.875 4.3375
3.0625 0.8125 4.3375
3.25 0.8125 4.4
3.25 0.875 4.3375
3.1875 0.875 4.4
3.25 0.8125 4.3375
3.1875 0.8125 4.4
3.1875 0.875 4.3375
3.1875 0.8125 4.3375
3.375 0.8125 4.4
3.375 0.875 4.3375
3.3125 0.875 4.4
3.375 0.8125 4.3375
3.3125 0.8125 4.4
3.3125 0.875 4.3375
3.3125 0.8125 4.3375
3.5 0.8125 4.4
3.5 0.875 4.3375
3.4375 0.875 4.4
3.5 0.8125 4.3375
3.4375 0.8125 4.4
3.4375 0.875 4.3375
3.4375 0.8125 4.3375
3.625 0.8125 4.4
3.625 0.875 4.3375
3.5625 0.875 4.4
3.625 0.8125 4.3375
3.5625 0.8125 4.4
3.5625 0.875 4.3375
3.5625 0.8125 4.3375
3.75 0.8125 4.4
3.75 0.875 4.3375
3.6875 0.875 4.4
3.75 0.8125 4.3375
3.6875 0.8125 4.4
3.6875 0.875 4.3375
3.6875 0.8125 4.3375
3.875 0.8125 4.4
3.875 0.875 4.3375
3.8125 0.875 4.4
3.875 0.8125 4.3375
3.8125 0.8125 4.4
3.8125 0.875 4.3375
3.8125 0.8125 4.3375
4 0.8125 4.4
4 0.875 4.3375
3.9375 0.875 4.4
4 0.8125 4.3375
3.9375 0.8125 4.4
3.9375 0.875 4.3375
3.9375 0.8125 4.3375
0.125 0.9375 4.4
0 0.9375 4.4
0.125 1 4.3375
0.0625 1 4.4
0 1 4.3375
0.125 0.9375 4.3375
0.0625 0.9375 4.4
0 0.9375 4.3375
0.0625 1 4.3375
0.0625 0.9375 4.3375
0.25 0.9375 4.4
0.25 1 4.3375
0.1875 1 4.4
0.25 0.9375 4.3375
0.1875 0.9375 4.4
0.1875 1 4.3375
0.1875 0.9375 4.3375
0.375 0.9375 4.4
0.375 1 4.3375
0.3125 1 4.4
0.375 0.9375 4.3375
0.3125 0.9375 4.4
0.3125 1 4.3375
0.3125 0.9375 4.3375
0.5 0.9375 4.4
0.5 1 4.3375
0.4375 1 4.4
0.5 0.9375 4.3375
0.4375 0.9375 4.4
0.4375 1 4.3375
0.4375 0.9375 4.3375
0.625 0.9375 4.4
0.625 1 4.3375
0.5625 1 4.4
0.625 0.9375 4.3375
0.5625 0.9375 4.4
0.5625 1 4.3375
0.5625 0.9375 4.3375
0.75 0.9375 4.4
0.75 1 4.3375
0.6875 1 4.4
0.75 0.9375 4.3375
0.6875 0.9375 4.4
0.6875 1 4.3375
0.6875 0.9375 4.3375
0.875 0.9375 4.4
0.875 1 4.3375
0.8125 1 4.4
0.875 0.9375 4.3375
0.8125 0.9375 4.4
0.8125 1 4.3375
0.8125 0.9375 4.3375
1 0.9375 4.4
1 1 4.3375
0.9375 1 4.4
1 0.9375 4.3375
0.9375 0.9375 4.4
0.9375 1 4.3375
0.9375 0.9375 4.3375
1.125 0.9375 4.4
1.125 1 4.3375
1.0625 1 4.4
1.125 0.9375 4.3375
1.0625 0.9375 4.4
1.0625 1 4.3375
1.0625 0.9375 4.3375
1.25 0.9375 4.4
1.25 1 4.3375
1.1875 1 4.4
1.25 0.9375 4.3375
1.1875 0.9375 4.4
1.1875 1 4.3375
1.1875 0.9375 4.3375
1.375 0.9375 4.4
1.375 1 4.3375
1.3125 1 4.4
1.375 0.9375 4.3375
1.3125 0.9375 4.4
1.3125 1 4.3375
1.3125 0.9375 4.3375
1.5 0.9375 4.4
1.5 1 4.3375
1.4375 1 4.4
1.5 0.9375 4.3375
1.4375 0.9375 4.4
1.4375 1 4.3375
1.4375 0.9375 4.3375
1.625 0.9375 4.4
1.625 1 4.3375
1.5625 1 4.4
1.625 0.9375 4.3375
1.5625 0.9375 4.4
1.5625 1 4.3375
1.5625 0.9375 4.3375
1.75 0.9375 4.4
1.75 1 4.3375
1.6875 1 4.4
1.75 0.9375 4.3375
1.6875 0.9375 4.4
1.6875 1 4.3375
1.6875 0.9375 4.3375
1.875 0.9375 4.4
1.875 1 4.3375
1.8125 1 4.4
1.875 0.9375 4.3375
1.8125 0.9375 4.4
1.8125 1 4.3375
1.8125 0.9375 4.3375
2 0.9375 4.4
2 1 4.3375
1.9375 1 4.4
2 0.9375 4.3375
1.9375 0.9375 4.4
1.9375 1 4.3375
1.9375 0.9375 4.3375
2.125 0.9375 4.4
2.125 1 4.3375
2.0625 1 4.4
2.125 0.9375 4.3375
2.0625 0.9375 4.4
2.0625 1 4.3375
2.0625 0.9375 4.3375
2.25 0.9375 4.4
2.25 1 4.3375
2.1875 1 4.4
2.25 0.9375 4.3375
2.1875 0.9375 4.4
2.1875 1 4.3375
2.1875 0.9375 4.3375
2.375 0.9375 4.4
2.375 1 4.3375
2.3125 1 4.4
2.375 0.9375 4.3375
2.3125 0.9375 4.4
2.3125 1 4.3375
2.3125 0.9375 4.3375
2.5 0.9375 4.4
2.5 1 4.3375
2.4375 1 4.4
2.5 0.9375 4.3375
2.4375 0.9375 4.4
2.4375 1 4.3375
2.4375 0.9375 4.3375
2.625 0.9375 4.4
2.625 1 4.3375
2.5625 1 4.4
2.625 0.9375 4.3375
2.5625 0.9375 4.4
2.5625 1 4.3375
2.5625 0.9375 4.3375
2.75 0.9375 4.4
2.75 1 4.3375
2.6875 1 4.4
2.75 0.9375 4.3375
2.6875 0.9375 4.4
2.6875 1 4.3375
2.6875 0.9375 4.3375
2.875 0.9375 4.4
2.875 1 4.3375
2.8125 1 4.4
2.875 0.9375 4.3375
2.8125 0.9375 4.4
2.8125 1 4.3375
2.8125 0.9375 4.3375
3 0.9375 4.4
3 1 4.3375
2.9375 1 4.4
3 0.9375 4.3375
2.9375 0.9375 4.4
2.9375 1 4.3375
2.9375 0.9375 4.3375
3.125 0.9375 4.4
3.125 1 4.3375
3.0625 1 4.4
3.125 0.9375 4.3375
3.0625 0.9375 4.4
3.0625 1 4.3375
3.0625 0.9375 4.3375
3.25 0.9375 4.4
3.25 1 4.3375
3.1875 1 4.4
3.25 0.9375 4.3375
3.1875 0.9375 4.4
3.1875 1 4.3375
3.1875 0.9375 4.3375
3.375 0.9375 4.4
3.375 1 4.3375
3.3125 1 4.4
3.375 0.9375 4.3375
3.3125 0.9375 4.4
3.3125 1 4.3375
3.3125 0.9375 4.3375
3.5 0.9375 4.4
3.5 1 4.3375
3.4375 1 4.4
3.5 0.9375 4.3375
3.4375 0.9375 4.4
3.4375 1 4.3375
3.4375 0.9375 4.3375
3.625 0.9375 4.4
3.625 1 4.3375
3.5625 1 4.4
3.625 0.9375 4.3375
3.5625 0.9375 4.4
3.5625 1 4.3375
3.5625 0.9375 4.3375
3.75 0.9375 4.4
3.75 1 4.3375
3.6875 1 4.4
3.75 0.9375 4.3375
3.6875 0.9375 4.4
3.6875 1 4.3375
3.6875 0.9375 4.3375
3.875 0.9375 4.4
3.875 1 4.3375
3.8125 1 4.4
3.875 0.9375 4.3375
3.8125 0.9375 4.4
3.8125 1 4.3375
3.8125 0.9375 4.3375
4 0.9375 4.4
4 1 4.3375
3.9375 1 4.4
4 0.9375 4.3375
3.9375 0.9375 4.4
3.9375 1 4.3375
3.9375 0.9375 4.3375

CELLS 2049 55296
OFFSETS vtktypeint64
0 27 54 81 108 135 162 189 216 243 270 297 324 351 378 405 432 459 486 513 540 567 594 621 648 675 702 729 756 783 810 837 864 891 918 945 972 999 1026 1053 1080 1107 1134 1161 1188 1215 1242 1269 1296 1323 1350 1377 1404 1431 1458 1485 1512 1539 1566 1593 1620 1647 1674 1701 1728 1755 1782 1809 1836 1863 1890 1917 1944 1971 1998 2025 2052 2079 2106 2133 2160 2187 2214 2241 2268 2295 2322 2349 2376 2403 2430 2457 2484 2511 2538 2565 2592 2619 2646 2673 2700 2727 2754 2781 2808 2835 2862 2889 2916 2943 2970 2997 3024 3051 3078 3105 3132 3159 3186 3213 3240 3267 3294 3321 3348 3375 3402 3429 3456 3483 3510 3537 3564 3591 3618 3645 3672 3699 3726 3753 3780 3807 3834 3861 3888 3915 3942 3969 3996 4023 4050 4077 4104 4131 4158 4185 4212 4239 4266 4293 4320 4347 4374 4401 4428 4455 4482 4509 4536 4563 4590 4617 4644 4671 4698 4725 4752 4779 4806 4833 4860 4887 4914 4941 4968 4995 5022 5049 5076 5103 5130 5157 5184 5211 5238 5265 5292 5319 5346 5373 5400 5427 5454 5481 5508 5535 5562 5589 5616 5643 5670 5697 5724 5751 5778 5805 5832 5859 5886 5913 5940 5967 5994 6021 6048 6075 6102 6129 6156 6183 6210 6237 6264 6291 6318 6345 6372 6399 6426 6453 6480 6507 6534 6561 6588 6615 6642 6669 6696 6723 6750 6777 6804 6831 6858 6885 6912 6939 6966 6993 7020 7047 7074 7101 7128 7155 7182 7209 7236 7263 7290 7317 7344 7371 7398 7425 7452 7479 7506 7533 7560 7587 7614 7641 7668 7695 7722 7749 7776 7803 7830 7857 7884 7911 7938 7965 7992 8019 8046 8073 8100 8127 8154 8181 8208 8235 8262 8289 8316 8343 8370 8397 8424 8451 8478 8505 8532 8559 8586 8613 8640 8667 8694 8721 8748 8775 8802 8829 8856 8883 8910 8937 8964 8991 9018 9045 9072 9099 9126 9153 9180 9207 9234 9261 9288 9315 9342 9369 9396 9423 9450 9477 9504 9531 9558 9585 9612 9639 9666 9693 9720 9747 9774 9801 9828 9855 9882 9909 9936 9963 9990 10017 10044 10071 10098 10125 10152 10179 10206 10233 10260 10287 10314 10341 10368 10395 10422 10449 10476 10503 10530 10557 10584 10611 10638 10665 10692 10719 10746 10773 10800 10827 10854 10881 10908 10935 10962 10989 11016 11043 11070 11097 11124 11151 11178 11205 11232 11259 11286 11313 11340 11367 11394 11421 11448 11475 11502 11529 11556 11583 11610 11637 11664 11691 11718 11745 11772 11799 11826 11853 11880 11907 11934 11961 11988 12015 12042 12069 12096 12123 12150 12177 12204 12231 12258 12285 12312 12339 12366 12393 12420 12447 12474 12501 12528 12555 12582 12609 12636 12663 12690 12717 12744 12771 12798 12825 12852 12879 12906 12933 12960 12987 13014 13041 13068 13095 13122 13149 13176 13203 13230 13257 13284 13311 13338 13365 13392 13419 13446 13473 13500 13527 13554 13581 13608 13635 13662 13689 13716 13743 13770 13797 13824 13851 13878 13905 13932 13959 13986 14013 14040 14067 14094 14121 14148 14175 14202 14229 14256 14283 14310 14337 14364 14391 14418 14445 14472 14499 14526 14553 14580 14607 14634 14661 14688 14715 14742 14769 14796 14823 14850 14877 14904 14931 14958 14985 15012 15039 15066 15093 15120 15147 15174 15201 15228 15255 15282 15309 15336 15363 15390 15417 15444 15471 15498 15525 15552 15579 15606 15633 15660 15687 15714 15741 15768 15795 15822 15849 15876 15903 15930 15957 15984 16011 16038 16065 16092 16119 16146 16173 16200 16227 16254 16281 16308 16335 16362 16389 16416 16443 16470 16497 16524 16551 16578 16605 16632 16659 16686 16713 16740 16767 16794 16821 16848 16875 16902 16929 16956 16983 17010 17037 17064 17091 17118 17145 17172 17199 17226 17253 17280 17307 17334 17361 17388 17415 17442 17469 17496 17523 17550 17577 17604 17631 17658 17685 17712 17739 17766 17793 17820 17847 17874 17901 17928 17955 17982 18009 18036 18063 18090 18117 18144 18171 18198 18225 18252 18279 18306 18333 18360 18387 18414 18441 18468 18495 18522 18549 18576 18603 18630 18657 18684 18711 18738 18765 18792 18819 18846 18873 18900 18927 18954 18981 19008 19035 19062 19089 19116 19143 19170 19197 19224 19251 19278 19305 19332 19359 19386 19413 19440 19467 19494 19521 19548 19575 19602 19629 19656 19683 19710 19737 19764 19791 19818 19845 19872 19899 19926 19953 19980 20007 20034 20061 20088 20115 20142 20169 20196 20223 20250 20277 20304 20331 20358 20385 20412 20439 20466 20493 20520 20547 20574 20601 20628 20655 20682 20709 20736 20763 20790 20817 20844 20871 20898 20925 20952 20979 21006 21033 21060 21087 21114 21141 21168 21195 21222 21249 21276 21303 21330 21357 21384 21411 21438 21465 21492 21519 21546 21573 21600 21627 21654 21681 21708 21735 21762 21789 21816 21843 21870 21897 21924 21951 21978 22005 22032 22059 22086 22113 22140 22167 22194 22221 22248 22275 22302 22329 22356 22383 22410 22437 22464 22491 22518 22545 22572 22599 22626 22653 22680 22707 22734 22761 22788 22815 22842 22869 22896 22923 22950 22977 23004 23031 23058 23085 23112 23139 23166 23193 23220 23247 23274 23301 23328 23355 23382 23409 23436 23463 23490 23517 23544 23571 23598 23625 23652 23679 23706 23733 23760 23787 23814 23841 23868 23895 23922 23949 23976 24003 24030 24057 24084 24111 24138 24165 24192 24219 24246 24273 24300 24327 24354 24381 24408 24435 24462 24489 24516 24543 24570 24597 24624 24651 24678 24705 24732 24759 24786 24813 24840 24867 24894 24921 24948 24975 25002 25029 25056 25083 25110 25137 25164 25191 25218 25245 25272 25299 25326 25353 25380 25407 25434 25461 25488 25515 25542 25569 25596 25623 25650 25677 25704 25731 25758 25785 25812 25839 25866 25893 25920 25947 25974 26001 26028 26055 26082 26109 26136 26163 26190 26217 26244 26271 26298 26325 26352 26379 26406 26433 26460 26487 26514 26541 26568 26595 26622 26649 26676 26703 26730 26757 26784 26811 26838 26865 26892 26919 26946 26973 27000 27027 27054 27081 27108 27135 27162 27189 27216 27243 27270 27297 27324 27351 27378 27405 27432 27459 27486 27513 27540 27567 27594 27621 27648 27675 27702 27729 27756 27783 27810 27837 27864 27891 27918 27945 27972 27999 28026 28053 28080 28107 28134 28161 28188 28215 28242 28269 28296 28323 28350 28377 28404 28431 28458 28485 28512 28539 28566 28593 28620 28647 28674 28701 28728 28755 28782 28809 28836 28863 28890 28917 28944 28971 28998 29025 29052 29079 29106 29133 29160 29187 29214 29241 29268 29295 29322 29349 29376 29403 29430 29457 29484 29511 29538 29565 29592 29619 29646 29673 29700 29727 29754 29781 29808 29835 29862 29889 29916 29943 29970 29997 30024 30051 30078 30105 30132 30159 30186 30213 30240 30267 30294 30321 30348 30375 30402 30429 30456 30483 30510 30537 30564 30591 30618 30645 30672 30699 30726 30753 30780 30807 30834 30861 30888 30915 30942 30969 30996 31023 31050 31077 31104 31131 31158 31185 31212 31239 31266 31293 31320 31347 31374 31401 31428 31455 31482 31509 31536 31563 31590 31617 31644 31671 31698 31725 31752 31779 31806 31833 31860 31887 31914 31941 31968 31995 32022 32049 32076 32103 32130 32157 32184 32211 32238 32265 32292 32319 32346 32373 32400 32427 32454 32481 32508 32535 32562 32589 32616 32643 32670 32697 32724 32751 32778 32805 32832 32859 32886 32913 32940 32967 32994 33021 33048 33075 33102 33129 33156 33183 33210 33237 33264 33291 33318 33345 33372 33399 33426 33453 33480 33507 33534 33561 33588 33615 33642 33669 33696 33723 33750 33777 33804 33831 33858 33885 33912 33939 33966 33993 34020 34047 34074 34101 34128 34155 34182 34209 34236 34263 34290 34317 34344 34371 34398 34425 34452 34479 34506 34533 34560 34587 34614 34641 34668 34695 34722 34749 34776 34803 34830 34857 34884 34911 34938 34965 34992 35019 35046 35073 35100 35127 35154 35181 35208 35235 35262 35289 35316 35343 35370 35397 35424 35451 35478 35505 35532 35559 35586 35613 35640 35667 35694 35721 35748 35775 35802 35829 35856 35883 35910 35937 35964 35991 36018 36045 36072 36099 36126 36153 36180 36207 36234 36261 36288 36315 36342 36369 36396 36423 36450 36477 36504 36531 36558 36585 36612 36639 36666 36693 36720 36747 36774 36801 36828 36855 36882 36909 36936 36963 36990 37017 37044 37071 37098 37125 37152 37179 37206 37233 37260 37287 37314 37341 37368 37395 37422 37449 37476 37503 37530 37557 37584 37611 37638 37665 37692 37719 37746 37773 37800 37827 37854 37881 37908 37935 37962 37989 38016 38043 38070 38097 38124 38151 38178 38205 38232 38259 38286 38313 38340 38367 38394 38421 38448 38475 38502 38529 38556 38583 38610 38637 38664 38691 38718 38745 38772 38799 38826 38853 38880 38907 38934 38961 38988 39015 39042 39069 39096 39123 39150 39177 39204 39231 39258 39285 39312 39339 39366 39393 39420 39447 39474 39501 39528 39555 39582 39609 39636 39663 39690 39717 39744 39771 39798 39825 39852 39879 39906 39933 39960 39987 40014 40041 40068 40095 40122 40149 40176 40203 40230 40257 40284 40311 40338 40365 40392 40419 40446 40473 40500 40527 40554 40581 40608 40635 40662 40689 40716 40743 40770 40797 40824 40851 40878 40905 40932 40959 40986 41013 41040 41067 41094 41121 41148 41175 41202 41229 41256 41283 41310 41337 41364 41391 41418 41445 41472 41499 41526 41553 41580 41607 41634 41661 41688 41715 41742 41769 41796 41823 41850 41877 41904 41931 41958 41985 42012 42039 42066 42093 42120 42147 42174 42201 42228 42255 42282 42309 42336 42363 42390 42417 42444 42471 42498 42525 42552 42579 42606 42633 42660 42687 42714 42741 42768 42795 42822 42849 42876 42903 42930 42957 42984 43011 43038 43065 43092 43119 43146 43173 43200 43227 43254 43281 43308 43335 43362 43389 43416 43443 43470 43497 43524 43551 43578 43605 43632 43659 43686 43713 43740 43767 43794 43821 43848 43875 43902 43929 43956 43983 44010 44037 44064 44091 44118 44145 44172 44199 44226 44253 44280 44307 44334 44361 44388 44415 44442 44469 44496 44523 44550 44577 44604 44631 44658 44685 44712 44739 44766 44793 44820 44847 44874 44901 44928 44955 44982 45009 45036 45063 45090 45117 45144 45171 45198 45225 45252 45279 45306 45333 45360 45387 45414 45441 45468 45495 45522 45549 45576 45603 45630 45657 45684 45711 45738 45765 45792 45819 45846 45873 45900 45927 45954 45981 46008 46035 46062 46089 46116 46143 46170 46197 46224 46251 46278 46305 46332 46359 46386 46413 46440 46467 46494 46521 46548 46575 46602 46629 46656 46683 46710 46737 46764 46791 46818 46845 46872 46899 46926 46953 46980 47007 47034 47061 47088 47115 47142 47169 47196 47223 47250 47277 47304 47331 47358 47385 47412 47439 47466 47493 47520 47547 47574 47601 47628 47655 47682 47709 47736 47763 47790 47817 47844 47871 47898 47925 47952 47979 48006 48033 48060 48087 48114 48141 48168 48195 48222 48249 48276 48303 48330 48357 48384 48411 48438 48465 48492 48519 48546 48573 48600 48627 48654 48681 48708 48735 48762 48789 48816 48843 48870 48897 48924 48951 48978 49005 49032 49059 49086 49113 49140 49167 49194 49221 49248 49275 49302 49329 49356 49383 49410 49437 49464 49491 49518 49545 49572 49599 49626 49653 49680 49707 49734 49761 49788 49815 49842 49869 49896 49923 49950 49977 50004 50031 50058 50085 50112 50139 50166 50193 50220 50247 50274 50301 50328 50355 50382 50409 50436 50463 50490 50517 50544 50571 50598 50625 50652 50679 50706 50733 50760 50787 50814 50841 50868 50895 50922 50949 50976 51003 51030 51057 51084 51111 51138 51165 51192 51219 51246 51273 51300 51327 51354 51381 51408 51435 51462 51489 51516 51543 51570 51597 51624 51651 51678 51705 51732 51759 51786 51813 51840 51867 51894 51921 51948 51975 52002 52029 52056 52083 52110 52137 52164 52191 52218 52245 52272 52299 52326 52353 52380 52407 52434 52461 52488 52515 52542 52569 52596 52623 52650 52677 52704 52731 52758 52785 52812 52839 52866 52893 52920 52947 52974 53001 53028 53055 53082 53109 53136 53163 53190 53217 53244 53271 53298 53325 53352 53379 53406 53433 53460 53487 53514 53541 53568 53595 53622 53649 53676 53703 53730 53757 53784 53811 53838 53865 53892 53919 53946 53973 54000 54027 54054 54081 54108 54135 54162 54189 54216 54243 54270 54297 54324 54351 54378 54405 54432 54459 54486 54513 54540 54567 54594 54621 54648 54675 54702 54729 54756 54783 54810 54837 54864 54891 54918 54945 54972 54999 55026 55053 55080 55107 55134 55161 55188 55215 55242 55269 55296 
CONNECTIVITY vtktypeint64
0 1 298 297 33 34 331 330 2673 2674 2675 2676 2681 2682 2683 2684 2677 2678 2679 2680 2689 2687 2686 2688 2685 2690 2691 
1 2 299 298 34 35 332 331 2692 2693 2694 2674 2697 2698 2699 2682 2678 2695 2696 2679 2687 2702 2701 2703 2700 2704 2705 
2 3 300 299 35 36 333 332 2706 2707 2708 2693 2711 2712 2713 2698 2695 2709 2710 2696 2702 2716 2715 2717 2714 2718 2719 
3 4 301 300 36 37 334 333 2720 2721 2722 2707 2725 2726 2727 2712 2709 2723 2724 2710 2716 2730 2729 2731 2728 2732 2733 
4 5 302 301 37 38 335 334 2734 2735 2736 2721 2739 2740 2741 2726 2723 2737 2738 2724 2730 2744 2743 2745 2742 2746 2747 
5 6 303 302 38 39 336 335 2748 2749 2750 2735 2753 2754 2755 2740 2737 2751 2752 2738 2744 2758 2757 2759 2756 2760 2761 
6 7 304 303 39 40 337 336 2762 2763 2764 2749 2767 2768 2769 2754 2751 2765 2766 2752 2758 2772 2771 2773 2770 2774 2775 
7 8 305 304 40 41 338 337 2776 2777 2778 2763 2781 2782 2783 2768 2765 2779 2780 2766 2772 2786 2785 2787 2784 2788 2789 
8 9 306 305 41 42 339 338 2790 2791 2792 2777 2795 2796 2797 2782 2779 2793 2794 2780 2786 2800 2799 2801 2798 2802 2803 
9 10 307 306 42 43 340 339 2804 2805 2806 2791 2809 2810 2811 2796 2793 2807 2808 2794 2800 2814 2813 2815 2812 2816 2817 
10 11 308 307 43 44 341 340 2818 2819 2820 2805 2823 2824 2825 2810 2807 2821 2822 2808 2814 2828 2827 2829 2826 2830 2831 
11 12 309 308 44 45 342 341 2832 2833 2834 2819 2837 2838 2839 2824 2821 2835 2836 2822 2828 2842 2841 2843 2840 2844 2845 
12 13 310 309 45 46 343 342 2846 2847 2848 2833 2851 2852 2853 2838 2835 2849 2850 2836 2842 2856 2855 2857 2854 2858 2859 
13 14 311 310 46 47 344 343 2860 2861 2862 2847 2865 2866 2867 2852 2849 2863 2864 2850 2856 2870 2869 2871 2868 2872 2873 
14 15 312 311 47 48 345 344 2874 2875 2876 2861 2879 2880 2881 2866 2863 2877 2878 2864 2870 2884 2883 2885 2882 2886 2887 
15 16 313 312 48 49 346 345 2888 2889 2890 2875 2893 2894 2895 2880 2877 2891 2892 2878 2884 2898 2897 2899 2896 2900 2901 
16 17 314 313 49 50 347 346 2902 2903 2904 2889 2907 2908 2909 2894 2891 2905 2906 2892 2898 2912 2911 2913 2910 2914 2915 
17 18 315 314 50 51 348 347 2916 2917 2918 2903 2921 2922 2923 2908 2905 2919 2920 2906 2912 2926 2925 2927 2924 2928 2929 
18 19 316 315 51 52 349 348 2930 2931 2932 2917 2935 2936 2937 2922 2919 2933 2934 2920 2926 2940 2939 2941 2938 2942 2943 
19 20 317 316 52 53 350 349 2944 2945 2946 2931 2949 2950 2951 2936 2933 2947 2948 2934 2940 2954 2953 2955 2952 2956 2957 
20 21 318 317 53 54 351 350 2958 2959 2960 2945 2963 2964 2965 2950 2947 2961 2962 2948 2954 2968 2967 2969 2966 2970 2971 
21 22 319 318 54 55 352 351 2972 2973 2974 2959 2977 2978 2979 2964 2961 2975 2976 2962 2968 2982 2981 2983 2980 2984 2985 
22 23 320 319 55 56 353 352 2986 2987 2988 2973 2991 2992 2993 2978 2975 2989 2990 2976 2982 2996 2995 2997 2994 2998 2999 
23 24 321 320 56 57 354 353 3000 3001 3002 2987 3005 3006 3007 2992 2989 3003 3004 2990 2996 3010 3009 3011 3008 3012 3013 
24 25 322 321 57 58 355 354 3014 3015 3016 3001 3019 3020 3021 3006 3003 3017 3018 3004 3010 3024 3023 3025 3022 3026 3027 
25 26 323 322 58 59 356 355 3028 3029 3030 3015 3033 3034 3035 3020 3017 3031 3032 3018 3024 3038 3037 3039 3036 3040 3041 
26 27 324 323 59 60 357 356 3042 3043 3044 3029 3047 3048 3049 3034 3031 3045 3046 3032 3038 3052 3051 3053 3050 3054 3055 
27 28 325 324 60 61 358 357 3056 3057 3058 3043 3061 3062 3063 3048 3045 3059 3060 3046 3052 3066 3065 3067 3064 3068 3069 
28 29 326 325 61 62 359 358 3070 3071 3072 3057 3075 3076 3077 3062 3059 3073 3074 3060 3066 3080 3079 3081 3078 3082 3083 
29 30 327 326 62 63 360 359 3084 3085 3086 3071 3089 3090 3091 3076 3073 3087 3088 3074 3080 3094 3093 3095 3092 3096 3097 
30 31 328 327 63 64 361 360 3098 3099 3100 3085 3103 3104 3105 3090 3087 3101 3102 3088 3094 3108 3107 3109 3106 3110 3111 
31 32 329 328 64 65 362 361 3112 3113 3114 3099 3117 3118 3119 3104 3101 3115 3116 3102 3108 3122 3121 3123 3120 3124 3125 
33 34 331 330 66 67 364 363 2681 2682 2683 2684 3130 3131 3132 3133 3126 3127 3128 3129 3137 3135 3134 3136 2690 3138 3139 
34 35 332 331 67 68 365 364 2697 2698 2699 2682 3142 3143 3144 3131 3127 3140 3141 3128 3135 3146 3145 3147 2704 3148 3149 
35 36 333 332 68 69 366 365 2711 2712 2713 2698 3152 3153 3154 3143 3140 3150 3151 3141 3146 3156 3155 3157 2718 3158 3159 
36 37 334 333 69 70 367 366 2725 2726 2727 2712 3162 3163 3164 3153 3150 3160 3161 3151 3156 3166 3165 3167 2732 3168 3169 
37 38 335 334 70 71 368 367 2739 2740 2741 2726 3172 3173 3174 3163 3160 3170 3171 3161 3166 3176 3175 3177 2746 3178 3179 
38 39 336 335 71 72 369 368 2753 2754 2755 2740 3182 3183 3184 3173 3170 3180 3181 3171 3176 3186 3185 3187 2760 3188 3189 
39 40 337 336 72 73 370 369 2767 2768 2769 2754 3192 3193 3194 3183 3180 3190 3191 3181 3186 3196 3195 3197 2774 3198 3199 
40 41 338 337 73 74 371 370 2781 2782 2783 2768 3202 3203 3204 3193 3190 3200 3201 3191 3196 3206 3205 3207 2788 3208 3209 
41 42 339 338 74 75 372 371 2795 2796 2797 2782 3212 3213 3214 3203 3200 3210 3211 3201 3206 3216 3215 3217 2802 3218 3219 
42 43 340 339 75 76 373 372 2809 2810 2811 2796 3222 3223 3224 3213 3210 3220 3221 3211 3216 3226 3225 3227 2816 3228 3229 
43 44 341 340 76 77 374 373 2823 2824 2825 2810 3232 3233 3234 3223 3220 3230 3231 3221 3226 3236 3235 3237 2830 3238 3239 
44 45 342 341 77 78 375 374 2837 2838 2839 2824 3242 3243 3244 3233 3230 3240 3241 3231 3236 3246 3245 3247 2844 3248 3249 
45 46 343 342 78 79 376 375 2851 2852 2853 2838 3252 3253 3254 3243 3240 3250 3251 3241 3246 3256 3255 3257 2858 3258 3259 
46 47 344 343 79 80 377 376 2865 2866 2867 2852 3262 3263 3264 3253 3250 3260 3261 3251 3256 3266 3265 3267 2872 3268 3269 
47 48 345 344 80 81 378 377 2879 2880 2881 2866 3272 3273 3274 3263 3260 3270 3271 3261 3266 3276 3275 3277 2886 3278 3279 
48 49 346 345 81 82 379 378 2893 2894 2895 2880 3282 3283 3284 3273 3270 3280 3281 3271 3276 3286 3285 3287 2900 3288 3289 
49 50 347 346 82 83 380 379 2907 2908 2909 2894 3292 3293 3294 3283 3280 3290 3291 3281 3286 3296 3295 3297 2914 3298 3299 
50 51 348 347 83 84 381 380 2921 2922 2923 2908 3302 3303 3304 3293 3290 3300 3301 3291 3296 3306 3305 3307 2928 3308 3309 
51 52 349 348 84 85 382 381 2935 2936 2937 2922 3312 3313 3314 3303 3300 3310 3311 3301 3306 3316 3315 3317 2942 3318 3319 
52 53 350 349 85 86 383 382 2949 2950 2951 2936 3322 3323 3324 3313 3310 3320 3321 3311 3316 3326 3325 3327 2956 3328 3329 
53 54 351 350 86 87 384 383 2963 2964 2965 2950 3332 3333 3334 3323 3320 3330 3331 3321 3326 3336 3335 3337 2970 3338 3339 
54 55 352 351 87 88 385 384 2977 2978 2979 2964 3342 3343 3344 3333 3330 3340 3341 3331 3336 3346 3345 3347 2984 3348 3349 
55 56 353 352 88 89 386 385 2991 2992 2993 2978 3352 3353 3354 3343 3340 3350 3351 3341 3346 3356 3355 3357 2998 3358 3359 
56 57 354 353 89 90 387 386 3005 3006 3007 2992 3362 3363 3364 3353 3350 3360 3361 3351 3356 3366 3365 3367 3012 3368 3369 
57 58 355 354 90 91 388 387 3019 3020 3021 3006 3372 3373 3374 3363 3360 3370 3371 3361 3366 3376 3375 3377 3026 3378 3379 
58 59 356 355 91 92 389 388 3033 3034 3035 3020 3382 3383 3384 3373 3370 3380 3381 3371 3376 3386 3385 3387 3040 3388 3389 
59 60 357 356 92 93 390 389 3047 3048 3049 3034 3392 3393 3394 3383 3380 3390 3391 3381 3386 3396 3395 3397 3054 3398 3399 
60 61 358 357 93 94 391 390 3061 3062 3063 3048 3402 3403 3404 3393 3390 3400 3401 3391 3396 3406 3405 3407 3068 3408 3409 
61 62 359 358 94 95 392 391 3075 3076 3077 3062 3412 3413 3414 3403 3400 3410 3411 3401 3406 3416 3415 3417 3082 3418 3419 
62 63 360 359 95 96 393 392 3089 3090 3091 3076 3422 3423 3424 3413 3410 3420 3421 3411 3416 3426 3425 3427 3096 3428 3429 
63 64 361 360 96 97 394 393 3103 3104 3105 3090 3432 3433 3434 3423 3420 3430 3431 3421 3426 3436 3435 3437 3110 3438 3439 
64 65 362 361 97 98 395 394 3117 3118 3119 3104 3442 3443 3444 3433 3430 3440 3441 3431 3436 3446 3445 3447 3124 3448 3449 
66 67 364 363 99 100 397 396 3130 3131 3132 3133 3454 3455 3456 3457 3450 3451 3452 3453 3461 3459 3458 3460 3138 3462 3463 
67 68 365 364 100 101 398 397 3142 3143 3144 3131 3466 3467 3468 3455 3451 3464 3465 3452 3459 3470 3469 3471 3148 3472 3473 
68 69 366 365 101 102 399 398 3152 3153 3154 3143 3476 3477 3478 3467 3464 3474 3475 3465 3470 3480 3479 3481 3158 3482 3483 
69 70 367 366 102 103 400 399 3162 3163 3164 3153 3486 3487 3488 3477 3474 3484 3485 3475 3480 3490 3489 3491 3168 3492 3493 
70 71 368 367 103 104 401 400 3172 3173 3174 3163 3496 3497 3498 3487 3484 3494 3495 3485 3490 3500 3499 3501 3178 3502 3503 
71 72 369 368 104 105 402 401 3182 3183 3184 3173 3506 3507 3508 3497 3494 3504 3505 3495 3500 3510 3509 3511 3188 3512 3513 
72 73 370 369 105 106 403 402 3192 3193 3194 3183 3516 3517 3518 3507 3504 3514 3515 3505 3510 3520 3519 3521 3198 3522 3523 
73 74 371 370 106 107 404 403 3202 3203 3204 3193 3526 3527 3528 3517 3514 3524 3525 3515 3520 3530 3529 3531 3208 3532 3533 
74 75 372 371 107 108 405 404 3212 3213 3214 3203 3536 3537 3538 3527 3524 3534 3535 3525 3530 3540 3539 3541 3218 3542 3543 
75 76 373 372 108 109 406 405 3222 3223 3224 3213 3546 3547 3548 3537 3534 3544 3545 3535 3540 3550 3549 3551 3228 3552 3553 
76 77 374 373 109 110 407 406 3232 3233 3234 3223 3556 3557 3558 3547 3544 3554 3555 3545 3550 3560 3559 3561 3238 3562 3563 
77 78 375 374 110 111 408 407 3242 3243 3244 3233 3566 3567 3568 3557 3554 3564 3565 3555 3560 3570 3569 3571 3248 3572 3573 
78 79 376 375 111 112 409 408 3252 3253 3254 3243 3576 3577 3578 3567 3564 3574 3575 3565 3570 3580 3579 3581 3258 3582 3583 
79 80 377 376 112 113 410 409 3262 3263 3264 3253 3586 3587 3588 3577 3574 3584 3585 3575 3580 3590 3589 3591 3268 3592 3593 
80 81 378 377 113 114 411 410 3272 3273 3274 3263 3596 3597 3598 3587 3584 3594 3595 3585 3590 3600 3599 3601 3278 3602 3603 
81 82 379 378 114 115 412 411 3282 3283 3284 3273 3606 3607 3608 3597 3594 3604 3605 3595 3600 3610 3609 3611 3288 3612 3613 
82 83 380 379 115 116 413 412 3292 3293 3294 3283 3616 3617 3618 3607 3604 3614 3615 3605 3610 3620 3619 3621 3298 3622 3623 
83 84 381 380 116 117 414 413 3302 3303 3304 3293 3626 3627 3628 3617 3614 3624 3625 3615 3620 3630 3629 3631 3308 3632 3633 
84 85 382 381 117 118 415 414 3312 3313 3314 3303 3636 3637 3638 3627 3624 3634 3635 3625 3630 3640 3639 3641 3318 3642 3643 
85 86 383 382 118 119 416 415 3322 3323 3324 3313 3646 3647 3648 3637 3634 3644 3645 3635 3640 3650 3649 3651 3328 3652 3653 
86 87 384 383 119 120 417 416 3332 3333 3334 3323 3656 3657 3658 3647 3644 3654 3655 3645 3650 3660 3659 3661 3338 3662 3663 
87 88 385 384 120 121 418 417 3342 3343 3344 3333 3666 3667 3668 3657 3654 3664 3665 3655 3660 3670 3669 3671 3348 3672 3673 
88 89 386 385 121 122 419 418 3352 3353 3354 3343 3676 3677 3678 3667 3664 3674 3675 3665 3670 3680 3679 3681 3358 3682 3683 
89 90 387 386 122 123 420 419 3362 3363 3364 3353 3686 3687 3688 3677 3674 3684 3685 3675 3680 3690 3689 3691 3368 3692 3693 
90 91 388 387 123 124 421 420 3372 3373 3374 3363 3696 3697 3698 3687 3684 3694 3695 3685 3690 3700 3699 3701 3378 3702 3703 
91 92 389 388 124 125 422 421 3382 3383 3384 3373 3706 3707 3708 3697 3694 3704 3705 3695 3700 3710 3709 3711 3388 3712 3713 
92 93 390 389 125 126 423 422 3392 3393 3394 3383 3716 3717 3718 3707 3704 3714 3715 3705 3710 3720 3719 3721 3398 3722 3723 
93 94 391 390 126 127 424 423 3402 3403 3404 3393 3726 3727 3728 3717 3714 3724 3725 3715 3720 3730 3729 3731 3408 3732 3733 
94 95 392 391 127 128 425 424 3412 3413 3414 3403 3736 3737 3738 3727 3724 3734 3735 3725 3730 3740 3739 3741 3418 3742 3743 
95 96 393 392 128 129 426 425 3422 3423 3424 3413 3746 3747 3748 3737 3734 3744 3745 3735 3740 3750 3749 3751 3428 3752 3753 
96 97 394 393 129 130 427 426 3432 3433 3434 3423 3756 3757 3758 3747 3744 3754 3755 3745 3750 3760 3759 3761 3438 3762 3763 
97 98 395 394 130 131 428 427 3442 3443 3444 3433 3766 3767 3768 3757 3754 3764 3765 3755 3760 3770 3769 3771 3448 3772 3773 
99 100 397 396 132 133 430 429 3454 3455 3456 3457 3778 3779 3780 3781 3774 3775 3776 3777 3785 3783 3782 3784 3462 3786 3787 
100 101 398 397 133 134 431 430 3466 3467 3468 3455 3790 3791 3792 3779 3775 3788 3789 3776 3783 3794 3793 3795 3472 3796 3797 
101 102 399 398 134 135 432 431 3476 3477 3478 3467 3800 3801 3802 3791 3788 3798 3799 3789 3794 3804 3803 3805 3482 3806 3807 
102 103 400 399 135 136 433 432 3486 3487 3488 3477 3810 3811 3812 3801 3798 3808 3809 3799 3804 3814 3813 3815 3492 3816 3817 
103 104 401 400 136 137 434 433 3496 3497 3498 3487 3820 3821 3822 3811 3808 3818 3819 3809 3814 3824 3823 3825 3502 3826 3827 
104 105 402 401 137 138 435 434 3506 3507 3508 3497 3830 3831 3832 3821 3818 3828 3829 3819 3824 3834 3833 3835 3512 3836 3837 
105 106 403 402 138 139 436 435 3516 3517 3518 3507 3840 3841 3842 3831 3828 3838 3839 3829 3834 3844 3843 3845 3522 3846 3847 
106 107 404 403 139 140 437 436 3526 3527 3528 3517 3850 3851 3852 3841 3838 3848 3849 3839 3844 3854 3853 3855 3532 3856 3857 
107 108 405 404 140 141 438 437 3536 3537 3538 3527 3860 3861 3862 3851 3848 3858 3859 3849 3854 3864 3863 3865 3542 3866 3867 
108 109 406 405 141 142 439 438 3546 3547 3548 3537 3870 3871 3872 3861 3858 3868 3869 3859 3864 3874 3873 3875 3552 3876 3877 
109 110 407 406 142 143 440 439 3556 3557 3558 3547 3880 3881 3882 3871 3868 3878 3879 3869 3874 3884 3883 3885 3562 3886 3887 
110 111 408 407 143 144 441 440 3566 3567 3568 3557 3890 3891 3892 3881 3878 3888 3889 3879 3884 3894 3893 3895 3572 3896 3897 
111 112 409 408 144 145 442 441 3576 3577 3578 3567 3900 3901 3902 3891 3888 3898 3899 3889 3894 3904 3903 3905 3582 3906 3907 
112 113 410 409 145 146 443 442 3586 3587 3588 3577 3910 3911 3912 3901 3898 3908 3909 3899 3904 3914 3913 3915 3592 3916 3917 
113 114 411 410 146 147 444 443 3596 3597 3598 3587 3920 3921 3922 3911 3908 3918 3919 3909 3914 3924 3923 3925 3602 3926 3927 
114 115 412 411 147 148 445 444 3606 3607 3608 3597 3930 3931 3932 3921 3918 3928 3929 3919 3924 3934 3933 3935 3612 3936 3937 
115 116 413 412 148 149 446 445 3616 3617 3618 3607 3940 3941 3942 3931 3928 3938 3939 3929 3934 3944 3943 3945 3622 3946 3947 
116 117 414 413 149 150 447 446 3626 3627 3628 3617 3950 3951 3952 3941 3938 3948 3949 3939 3944 3954 3953 3955 3632 3956 3957 
117 118 415 414 150 151 448 447 3636 3637 3638 3627 3960 3961 3962 3951 3948 3958 3959 3949 3954 3964 3963 3965 3642 3966 3967 
118 119 416 415 151 152 449 448 3646 3647 3648 3637 3970 3971 3972 3961 3958 3968 3969 3959 3964 3974 3973 3975 3652 3976 3977 
119 120 417 416 152 153 450 449 3656 3657 3658 3647 3980 3981 3982 3971 3968 3978 3979 3969 3974 3984 3983 3985 3662 3986 3987 
120 121 418 417 153 154 451 450 3666 3667 3668 3657 3990 3991 3992 3981 3978 3988 3989 3979 3984 3994 3993 3995 3672 3996 3997 
121 122 419 418 154 155 452 451 3676 3677 3678 3667 4000 4001 4002 3991 3988 3998 3999 3989 3994 4004 4003 4005 3682 4006 4007 
122 123 420 419 155 156 453 452 3686 3687 3688 3677 4010 4011 4012 4001 3998 4008 4009 3999 4004 4014 4013 4015 3692 4016 4017 
123 124 421 420 156 157 454 453 3696 3697 3698 3687 4020 4021 4022 4011 4008 4018 4019 4009 4014 4024 4023 4025 3702 4026 4027 
124 125 422 421 157 158 455 454 3706 3707 3708 3697 4030 4031 4032 4021 4018 4028 4029 4019 4024 4034 4033 4035 3712 4036 4037 
125 126 423 422 158 159 456 455 3716 3717 3718 3707 4040 4041 4042 4031 4028 4038 4039 4029 4034 4044 4043 4045 3722 4046 4047 
126 127 424 423 159 160 457 456 3726 3727 3728 3717 4050 4051 4052 4041 4038 4048 4049 4039 4044 4054 4053 4055 3732 4056 4057 
127 128 425 424 160 161 458 457 3736 3737 3738 3727 4060 4061 4062 4051 4048 4058 4059 4049 4054 4064 4063 4065 3742 4066 4067 
128 129 426 425 161 162 459 458 3746 3747 3748 3737 4070 4071 4072 4061 4058 4068 4069 4059 4064 4074 4073 4075 3752 4076 4077 
129 130 427 426 162 163 460 459 3756 3757 3758 3747 4080 4081 4082 4071 4068 4078 4079 4069 4074 4084 4083 4085 3762 4086 4087 
130 131 428 427 163 164 461 460 3766 3767 3768 3757 4090 4091 4092 4081 4078 4088 4089 4079 4084 4094 4093 4095 3772 4096 4097 
132 133 430 429 165 166 463 462 3778 3779 3780 3781 4102 4103 4104 4105 4098 4099 4100 4101 4109 4107 4106 4108 3786 4110 4111 
133 134 431 430 166 167 464 463 3790 3791 3792 3779 4114 4115 4116 4103 4099 4112 4113 4100 4107 4118 4117 4119 3796 4120 4121 
134 135 432 431 167 168 465 464 3800 3801 3802 3791 4124 4125 4126 4115 4112 4122 4123 4113 4118 4128 4127 4129 3806 4130 4131 
135 136 433 432 168 169 466 465 3810 3811 3812 3801 4134 4135 4136 4125 4122 4132 4133 4123 4128 4138 4137 4139 3816 4140 4141 
136 137 434 433 169 170 467 466 3820 3821 3822 3811 4144 4145 4146 4135 4132 4142 4143 4133 4138 4148 4147 4149 3826 4150 4151 
137 138 435 434 170 171 468 467 3830 3831 3832 3821 4154 4155 4156 4145 4142 4152 4153 4143 4148 4158 4157 4159 3836 4160 4161 
138 139 436 435 171 172 469 468 3840 3841 3842 3831 4164 4165 4166 4155 4152 4162 4163 4153 4158 4168 4167 4169 3846 4170 4171 
139 140 437 436 172 173 470 469 3850 3851 3852 3841 4174 4175 4176 4165 4162 4172 4173 4163 4168 4178 4177 4179 3856 4180 4181 
140 141 438 437 173 174 471 470 3860 3861 3862 3851 4184 4185 4186 4175 4172 4182 4183 4173 4178 4188 4187 4189 3866 4190 4191 
141 142 439 438 174 175 472 471 3870 3871 3872 3861 4194 4195 4196 4185 4182 4192 4193 4183 4188 4198 4197 4199 3876 4200 4201 
142 143 440 439 175 176 473 472 3880 3881 3882 3871 4204 4205 4206 4195 4192 4202 4203 4193 4198 4208 4207 4209 3886 4210 4211 
143 144 441 440 176 177 474 473 3890 3891 3892 3881 4214 4215 4216 4205 4202 4212 4213 4203 4208 4218 4217 4219 3896 4220 4221 
144 145 442 441 177 178 475 474 3900 3901 3902 3891 4224 4225 4226 4215 4212 4222 4223 4213 4218 4228 4227 4229 3906 4230 4231 
145 146 443 442 178 179 476 475 3910 3911 3912 3901 4234 4235 4236 4225 4222 4232 4233 4223 4228 4238 4237 4239 3916 4240 4241 
146 147 444 443 179 180 477 476 3920 3921 3922 3911 4244 4245 4246 4235 4232 4242 4243 4233 4238 4248 4247 4249 3926 4250 4251 
147 148 445 444 180 181 478 477 3930 3931 3932 3921 4254 4255 4256 4245 4242 4252 4253 4243 4248 4258 4257 4259 3936 4260 4261 
148 149 446 445 181 182 479 478 3940 3941 3942 3931 4264 4265 4266 4255 4252 4262 4263 4253 4258 4268 4267 4269 3946 4270 4271 
149 150 447 446 182 183 480 479 3950 3951 3952 3941 4274 4275 4276 4265 4262 4272 4273 4263 4268 4278 4277 4279 3956 4280 4281 
150 151 448 447 183 184 481 480 3960 3961 3962 3951 4284 4285 4286 4275 4272 4282 4283 4273 4278 4288 4287 4289 3966 4290 4291 
151 152 449 448 184 185 482 481 3970 3971 3972 3961 4294 4295 4296 4285 4282 4292 4293 4283 4288 4298 4297 4299 3976 4300 4301 
152 153 450 449 185 186 483 482 3980 3981 3982 3971 4304 4305 4306 4295 4292 4302 4303 4293 4298 4308 4307 4309 3986 4310 4311 
153 154 451 450 186 187 484 483 3990 3991 3992 3981 4314 4315 4316 4305 4302 4312 4313 4303 4308 4318 4317 4319 3996 4320 4321 
154 155 452 451 187 188 485 484 4000 4001 4002 3991 4324 4325 4326 4315 4312 4322 4323 4313 4318 4328 4327 4329 4006 4330 4331 
155 156 453 452 188 189 486 485 4010 4011 4012 4001 4334 4335 4336 4325 4322 4332 4333 4323 4328 4338 4337 4339 4016 4340 4341 
156 157 454 453 189 190 487 486 4020 4021 4022 4011 4344 4345 4346 4335 4332 4342 4343 4333 4338 4348 4347 4349 4026 4350 4351 
157 158 455 454 190 191 488 487 4030 4031 4032 4021 4354 4355 4356 4345 4342 4352 4353 4343 4348 4358 4357 4359 4036 4360 4361 
158 159 456 455 191 192 489 488 4040 4041 4042 4031 4364 4365 4366 4355 4352 4362 4363 4353 4358 4368 4367 4369 4046 4370 4371 
159 160 457 456 192 193 490 489 4050 4051 4052 4041 4374 4375 4376 4365 4362 4372 4373 4363 4368 4378 4377 4379 4056 4380 4381 
160 161 458 457 193 194 491 490 4060 4061 4062 4051 4384 4385 4386 4375 4372 4382 4383 4373 4378 4388 4387 4389 4066 4390 4391 
161 162 459 458 194 195 492 491 4070 4071 4072 4061 4394 4395 4396 4385 4382 4392 4393 4383 4388 4398 4397 4399 4076 4400 4401 
162 163 460 459 195 196 493 492 4080 4081 4082 4071 4404 4405 4406 4395 4392 4402 4403 4393 4398 4408 4407 4409 4086 4410 4411 
163 164 461 460 196 197 494 493 4090 4091 4092 4081 4414 4415 4416 4405 4402 4412 4413 4403 4408 4418 4417 4419 4096 4420 4421 
165 166 463 462 198 199 496 495 4102 4103 4104 4105 4426 4427 4428 4429 4422 4423 4424 4425 4433 4431 4430 4432 4110 4434 4435 
166 167 464 463 199 200 497 496 4114 4115 4116 4103 4438 4439 4440 4427 4423 4436 4437 4424 4431 4442 4441 4443 4120 4444 4445 
167 168 465 464 200 201 498 497 4124 4125 4126 4115 4448 4449 4450 4439 4436 4446 4447 4437 4442 4452 4451 4453 4130 4454 4455 
168 169 466 465 201 202 499 498 4134 4135 4136 4125 4458 4459 4460 4449 4446 4456 4457 4447 4452 4462 4461 4463 4140 4464 4465 
169 170 467 466 202 203 500 499 4144 4145 4146 4135 4468 4469 4470 4459 4456 4466 4467 4457 4462 4472 4471 4473 4150 4474 4475 
170 171 468 467 203 204 501 500 4154 4155 4156 4145 4478 4479 4480 4469 4466 4476 4477 4467 4472 4482 4481 4483 4160 4484 4485 
171 172 469 468 204 205 502 501 4164 4165 4166 4155 4488 4489 4490 4479 4476 4486 4487 4477 4482 4492 4491 4493 4170 4494 4495 
172 173 470 469 205 206 503 502 4174 4175 4176 4165 4498 4499 4500 4489 4486 4496 4497 4487 4492 4502 4501 4503 4180 4504 4505 
173 174 471 470 206 207 504 503 4184 4185 4186 4175 4508 4509 4510 4499 4496 4506 4507 4497 4502 4512 4511 4513 4190 4514 4515 
174 175 472 471 207 208 505 504 4194 4195 4196 4185 4518 4519 4520 4509 4506 4516 4517 4507 4512 4522 4521 4523 4200 4524 4525 
175 176 473 472 208 209 506 505 4204 4205 4206 4195 4528 4529 4530 4519 4516 4526 4527 4517 4522 4532 4531 4533 4210 4534 4535 
176 177 474 473 209 210 507 506 4214 4215 4216 4205 4538 4539 4540 4529 4526 4536 4537 4527 4532 4542 4541 4543 4220 4544 4545 
177 178 475 474 210 211 508 507 4224 4225 4226 4215 4548 4549 4550 4539 4536 4546 4547 4537 4542 4552 4551 4553 4230 4554 4555 
178 179 476 475 211 212 509 508 4234 4235 4236 4225 4558 4559 4560 4549 4546 4556 4557 4547 4552 4562 4561 4563 4240 4564 4565 
179 180 477 476 212 213 510 509 4244 4245 4246 4235 4568 4569 4570 4559 4556 4566 4567 4557 4562 4572 4571 4573 4250 4574 4575 
180 181 478 477 213 214 511 510 4254 4255 4256 4245 4578 4579 4580 4569 4566 4576 4577 4567 4572 4582 4581 4583 4260 4584 4585 
181 182 479 478 214 215 512 511 4264 4265 4266 4255 4588 4589 4590 4579 4576 4586 4587 4577 4582 4592 4591 4593 4270 4594 4595 
182 183 480 479 215 216 513 512 4274 4275 4276 4265 4598 4599 4600 4589 4586 4596 4597 4587 4592 4602 4601 4603 4280 4604 4605 
183 184 481 480 216 217 514 513 4284 4285 4286 4275 4608 4609 4610 4599 4596 4606 4607 4597 4602 4612 4611 4613 4290 4614 4615 
184 185 482 481 217 218 515 514 4294 4295 4296 4285 4618 4619 4620 4609 4606 4616 4617 4607 4612 4622 4621 4623 4300 4624 4625 
185 186 483 482 218 219 516 515 4304 4305 4306 4295 4628 4629 4630 4619 4616 4626 4627 4617 4622 4632 4631 4633 4310 4634 4635 
186 187 484 483 219 220 517 516 4314 4315 4316 4305 4638 4639 4640 4629 4626 4636 4637 4627 4632 4642 4641 4643 4320 4644 4645 
187 188 485 484 220 221 518 517 4324 4325 4326 4315 4648 4649 4650 4639 4636 4646 4647 4637 4642 4652 4651 4653 4330 4654 4655 
188 189 486 485 221 222 519 518 4334 4335 4336 4325 4658 4659 4660 4649 4646 4656 4657 4647 4652 4662 4661 4663 4340 4664 4665 
189 190 487 486 222 223 520 519 4344 4345 4346 4335 4668 4669 4670 4659 4656 4666 4667 4657 4662 4672 4671 4673 4350 4674 4675 
190 191 488 487 223 224 521 520 4354 4355 4356 4345 4678 4679 4680 4669 4666 4676 4677 4667 4672 4682 4681 4683 4360 4684 4685 
191 192 489 488 224 225 522 521 4364 4365 4366 4355 4688 4689 4690 4679 4676 4686 4687 4677 4682 4692 4691 4693 4370 4694 4695 
192 193 490 489 225 226 523 522 4374 4375 4376 4365 4698 4699 4700 4689 4686 4696 4697 4687 4692 4702 4701 4703 4380 4704 4705 
193 194 491 490 226 227 524 523 4384 4385 4386 4375 4708 4709 4710 4699 4696 4706 4707 4697 4702 4712 4711 4713 4390 4714 4715 
194 195 492 491 227 228 525 524 4394 4395 4396 4385 4718 4719 4720 4709 4706 4716 4717 4707 4712 4722 4721 4723 4400 4724 4725 
195 196 493 492 228 229 526 525 4404 4405 4406 4395 4728 4729 4730 4719 4716 4726 4727 4717 4722 4732 4731 4733 4410 4734 4735 
196 197 494 493 229 230 527 526 4414 4415 4416 4405 4738 4739 4740 4729 4726 4736 4737 4727 4732 4742 4741 4743 4420 4744 4745 
198 199 496 495 231 232 529 528 4426 4427 4428 4429 4750 4751 4752 4753 4746 4747 4748 4749 4757 4755 4754 4756 4434 4758 4759 
199 200 497 496 232 233 530 529 4438 4439 4440 4427 4762 4763 4764 4751 4747 4760 4761 4748 4755 4766 4765 4767 4444 4768 4769 
200 201 498 497 233 234 531 530 4448 4449 4450 4439 4772 4773 4774 4763 4760 4770 4771 4761 4766 4776 4775 4777 4454 4778 4779 
201 202 499 498 234 235 532 531 4458 4459 4460 4449 4782 4783 4784 4773 4770 4780 4781 4771 4776 4786 4785 4787 4464 4788 4789 
202 203 500 499 235 236 533 532 4468 4469 4470 4459 4792 4793 4794 4783 4780 4790 4791 4781 4786 4796 4795 4797 4474 4798 4799 
203 204 501 500 236 237 534 533 4478 4479 4480 4469 4802 4803 4804 4793 4790 4800 4801 4791 4796 4806 4805 4807 4484 4808 4809 
204 205 502 501 237 238 535 534 4488 4489 4490 4479 4812 4813 4814 4803 4800 4810 4811 4801 4806 4816 4815 4817 4494 4818 4819 
205 206 503 502 238 239 536 535 4498 4499 4500 4489 4822 4823 4824 4813 4810 4820 4821 4811 4816 4826 4825 4827 4504 4828 4829 
206 207 504 503 239 240 537 536 4508 4509 4510 4499 4832 4833 4834 4823 4820 4830 4831 4821 4826 4836 4835 4837 4514 4838 4839 
207 208 505 504 240 241 538 537 4518 4519 4520 4509 4842 4843 4844 4833 4830 4840 4841 4831 4836 4846 4845 4847 4524 4848 4849 
208 209 506 505 241 242 539 538 4528 4529 4530 4519 4852 4853 4854 4843 4840 4850 4851 4841 4846 4856 4855 4857 4534 4858 4859 
209 210 507 506 242 243 540 539 4538 4539 4540 4529 4862 4863 4864 4853 4850 4860 4861 4851 4856 4866 4865 4867 4544 4868 4869 
210 211 508 507 243 244 541 540 4548 4549 4550 4539 4872 4873 4874 4863 4860 4870 4871 4861 4866 4876 4875 4877 4554 4878 4879 
211 212 509 508 244 245 542 541 4558 4559 4560 4549 4882 4883 4884 4873 4870 4880 4881 4871 4876 4886 4885 4887 4564 4888 4889 
212 213 510 509 245 246 543 542 4568 4569 4570 4559 4892 4893 4894 4883 4880 4890 4891 4881 4886 4896 4895 4897 4574 4898 4899 
213 214 511 510 246 247 544 543 4578 4579 4580 4569 4902 4903 4904 4893 4890 4900 4901 4891 4896 4906 4905 4907 4584 4908 4909 
214 215 512 511 247 248 545 544 4588 4589 4590 4579 4912 4913 4914 4903 4900 4910 4911 4901 4906 4916 4915 4917 4594 4918 4919 
215 216 513 512 248 249 546 545 4598 4599 4600 4589 4922 4923 4924 4913 4910 4920 4921 4911 4916 4926 4925 4927 4604 4928 4929 
216 217 514 513 249 250 547 546 4608 4609 4610 4599 4932 4933 4934 4923 4920 4930 4931 4921 4926 4936 4935 4937 4614 4938 4939 
217 218 515 514 250 251 548 547 4618 4619 4620 4609 4942 4943 4944 4933 4930 4940 4941 4931 4936 4946 4945 4947 4624 4948 4949 
218 219 516 515 251 252 549 548 4628 4629 4630 4619 4952 4953 4954 4943 4940 4950 4951 4941 4946 4956 4955 4957 4634 4958 4959 
219 220 517 516 252 253 550 549 4638 4639 4640 4629 4962 4963 4964 4953 4950 4960 4961 4951 4956 4966 4965 4967 4644 4968 4969 
220 221 518 517 253 254 551 550 4648 4649 4650 4639 4972 4973 4974 4963 4960 4970 4971 4961 4966 4976 4975 4977 4654 4978 4979 
221 222 519 518 254 255 552 551 4658 4659 4660 4649 4982 4983 4984 4973 4970 4980 4981 4971 4976 4986 4985 4987 4664 4988 4989 
222 223 520 519 255 256 553 552 4668 4669 4670 4659 4992 4993 4994 4983 4980 4990 4991 4981 4986 4996 4995 4997 4674 4998 4999 
223 224 521 520 256 257 554 553 4678 4679 4680 4669 5002 5003 5004 4993 4990 5000 5001 4991 4996 5006 5005 5007 4684 5008 5009 
224 225 522 521 257 258 555 554 4688 4689 4690 4679 5012 5013 5014 5003 5000 5010 5011 5001 5006 5016 5015 5017 4694 5018 5019 
225 226 523 522 258 259 556 555 4698 4699 4700 4689 5022 5023 5024 5013 5010 5020 5021 5011 5016 5026 5025 5027 4704 5028 5029 
226 227 524 523 259 260 557 556 4708 4709 4710 4699 5032 5033 5034 5023 5020 5030 5031 5021 5026 5036 5035 5037 4714 5038 5039 
227 228 525 524 260 261 558 557 4718 4719 4720 4709 5042 5043 5044 5033 5030 5040 5041 5031 5036 5046 5045 5047 4724 5048 5049 
228 229 526 525 261 262 559 558 4728 4729 4730 4719 5052 5053 5054 5043 5040 5050 5051 5041 5046 5056 5055 5057 4734 5058 5059 
229 230 527 526 262 263 560 559 4738 4739 4740 4729 5062 5063 5064 5053 5050 5060 5061 5051 5056 5066 5065 5067 4744 5068 5069 
231 232 529 528 264 265 562 561 4750 4751 4752 4753 5074 5075 5076 5077 5070 5071 5072 5073 5081 5079 5078 5080 4758 5082 5083 
232 233 530 529 265 266 563 562 4762 4763 4764 4751 5086 5087 5088 5075 5071 5084 5085 5072 5079 5090 5089 5091 4768 5092 5093 
233 234 531 530 266 267 564 563 4772 4773 4774 4763 5096 5097 5098 5087 5084 5094 5095 5085 5090 5100 5099 5101 4778 5102 5103 
234 235 532 531 267 268 565 564 4782 4783 4784 4773 5106 5107 5108 5097 5094 5104 5105 5095 5100 5110 5109 5111 4788 5112 5113 
235 236 533 532 268 269 566 565 4792 4793 4794 4783 5116 5117 5118 5107 5104 5114 5115 5105 5110 5120 5119 5121 4798 5122 5123 
236 237 534 533 269 270 567 566 4802 4803 4804 4793 5126 5127 5128 5117 5114 5124 5125 5115 5120 5130 5129 5131 4808 5132 5133 
237 238 535 534 270 271 568 567 4812 4813 4814 4803 5136 5137 5138 5127 5124 5134 5135 5125 5130 5140 5139 5141 4818 5142 5143 
238 239 536 535 271 272 569 568 4822 4823 4824 4813 5146 5147 5148 5137 5134 5144 5145 5135 5140 5150 5149 5151 4828 5152 5153 
239 240 537 536 272 273 570 569 4832 4833 4834 4823 5156 5157 5158 5147 5144 5154 5155 5145 5150 5160 5159 5161 4838 5162 5163 
240 241 538 537 273 274 571 570 4842 4843 4844 4833 5166 5167 5168 5157 5154 5164 5165 5155 5160 5170 5169 5171 4848 5172 5173 
241 242 539 538 274 275 572 571 4852 4853 4854 4843 5176 5177 5178 5167 5164 5174 5175 5165 5170 5180 5179 5181 4858 5182 5183 
242 243 540 539 275 276 573 572 4862 4863 4864 4853 5186 5187 5188 5177 5174 5184 5185 5175 5180 5190 5189 5191 4868 5192 5193 
243 244 541 540 276 277 574 573 4872 4873 4874 4863 5196 5197 5198 5187 5184 5194 5195 5185 5190 5200 5199 5201 4878 5202 5203 
244 245 542 541 277 278 575 574 4882 4883 4884 4873 5206 5207 5208 5197 5194 5204 5205 5195 5200 5210 5209 5211 4888 5212 5213 
245 246 543 542 278 279 576 575 4892 4893 4894 4883 5216 5217 5218 5207 5204 5214 5215 5205 5210 5220 5219 5221 4898 5222 5223 
246 247 544 543 279 280 577 576 4902 4903 4904 4893 5226 5227 5228 5217 5214 5224 5225 5215 5220 5230 5229 5231 4908 5232 5233 
247 248 545 544 280 281 578 577 4912 4913 4914 4903 5236 5237 5238 5227 5224 5234 5235 5225 5230 5240 5239 5241 4918 5242 5243 
248 249 546 545 281 282 579 578 4922 4923 4924 4913 5246 5247 5248 5237 5234 5244 5245 5235 5240 5250 5249 5251 4928 5252 5253 
249 250 547 546 282 283 580 579 4932 4933 4934 4923 5256 5257 5258 5247 5244 5254 5255 5245 5250 5260 5259 5261 4938 5262 5263 
250 251 548 547 283 284 581 580 4942 4943 4944 4933 5266 5267 5268 5257 5254 5264 5265 5255 5260 5270 5269 5271 4948 5272 5273 
251 252 549 548 284 285 582 581 4952 4953 4954 4943 5276 5277 5278 5267 5264 5274 5275 5265 5270 5280 5279 5281 4958 5282 5283 
252 253 550 549 285 286 583 582 4962 4963 4964 4953 5286 5287 5288 5277 5274 5284 5285 5275 5280 5290 5289 5291 4968 5292 5293 
253 254 551 550 286 287 584 583 4972 4973 4974 4963 5296 5297 5298 5287 5284 5294 5295 5285 5290 5300 5299 5301 4978 5302 5303 
254 255 552 551 287 288 585 584 4982 4983 4984 4973 5306 5307 5308 5297 5294 5304 5305 5295 5300 5310 5309 5311 4988 5312 5313 
255 256 553 552 288 289 586 585 4992 4993 4994 4983 5316 5317 5318 5307 5304 5314 5315 5305 5310 5320 5319 5321 4998 5322 5323 
256 257 554 553 289 290 587 586 5002 5003 5004 4993 5326 5327 5328 5317 5314 5324 5325 5315 5320 5330 5329 5331 5008 5332 5333 
257 258 555 554 290 291 588 587 5012 5013 5014 5003 5336 5337 5338 5327 5324 5334 5335 5325 5330 5340 5339 5341 5018 5342 5343 
258 259 556 555 291 292 589 588 5022 5023 5024 5013 5346 5347 5348 5337 5334 5344 5345 5335 5340 5350 5349 5351 5028 5352 5353 
259 260 557 556 292 293 590 589 5032 5033 5034 5023 5356 5357 5358 5347 5344 5354 5355 5345 5350 5360 5359 5361 5038 5362 5363 
260 261 558 557 293 294 591 590 5042 5043 5044 5033 5366 5367 5368 5357 5354 5364 5365 5355 5360 5370 5369 5371 5048 5372 5373 
261 262 559 558 294 295 592 591 5052 5053 5054 5043 5376 5377 5378 5367 5364 5374 5375 5365 5370 5380 5379 5381 5058 5382 5383 
262 263 560 559 295 296 593 592 5062 5063 5064 5053 5386 5387 5388 5377 5374 5384 5385 5375 5380 5390 5389 5391 5068 5392 5393 
297 298 595 594 330 331 628 627 2675 5394 5395 5396 2683 5399 5400 5401 2680 2679 5397 5398 5405 5403 2688 5404 5402 5406 5407 
298 299 596 595 331 332 629 628 2694 5408 5409 5394 2699 5411 5412 5399 2679 2696 5410 5397 5403 5414 2703 5415 5413 5416 5417 
299 300 597 596 332 333 630 629 2708 5418 5419 5408 2713 5421 5422 5411 2696 2710 5420 5410 5414 5424 2717 5425 5423 5426 5427 
300 301 598 597 333 334 631 630 2722 5428 5429 5418 2727 5431 5432 5421 2710 2724 5430 5420 5424 5434 2731 5435 5433 5436 5437 
301 302 599 598 334 335 632 631 2736 5438 5439 5428 2741 5441 5442 5431 2724 2738 5440 5430 5434 5444 2745 5445 5443 5446 5447 
302 303 600 599 335 336 633 632 2750 5448 5449 5438 2755 5451 5452 5441 2738 2752 5450 5440 5444 5454 2759 5455 5453 5456 5457 
303 304 601 600 336 337 634 633 2764 5458 5459 5448 2769 5461 5462 5451 2752 2766 5460 5450 5454 5464 2773 5465 5463 5466 5467 
304 305 602 601 337 338 635 634 2778 5468 5469 5458 2783 5471 5472 5461 2766 2780 5470 5460 5464 5474 2787 5475 5473 5476 5477 
305 306 603 602 338 339 636 635 2792 5478 5479 5468 2797 5481 5482 5471 2780 2794 5480 5470 5474 5484 2801 5485 5483 5486 5487 
306 307 604 603 339 340 637 636 2806 5488 5489 5478 2811 5491 5492 5481 2794 2808 5490 5480 5484 5494 2815 5495 5493 5496 5497 
307 308 605 604 340 341 638 637 2820 5498 5499 5488 2825 5501 5502 5491 2808 2822 5500 5490 5494 5504 2829 5505 5503 5506 5507 
308 309 606 605 341 342 639 638 2834 5508 5509 5498 2839 5511 5512 5501 2822 2836 5510 5500 5504 5514 2843 5515 5513 5516 5517 
309 310 607 606 342 343 640 639 2848 5518 5519 5508 2853 5521 5522 5511 2836 2850 5520 5510 5514 5524 2857 5525 5523 5526 5527 
310 311 608 607 343 344 641 640 2862 5528 5529 5518 2867 5531 5532 5521 2850 2864 5530 5520 5524 5534 2871 5535 5533 5536 5537 
311 312 609 608 344 345 642 641 2876 5538 5539 5528 2881 5541 5542 5531 2864 2878 5540 5530 5534 5544 2885 5545 5543 5546 5547 
312 313 610 609 345 346 643 642 2890 5548 5549 5538 2895 5551 5552 5541 2878 2892 5550 5540 5544 5554 2899 5555 5553 5556 5557 
313 314 611 610 346 347 644 643 2904 5558 5559 5548 2909 5561 5562 5551 2892 2906 5560 5550 5554 5564 2913 5565 5563 5566 5567 
314 315 612 611 347 348 645 644 2918 5568 5569 5558 2923 5571 5572 5561 2906 2920 5570 5560 5564 5574 2927 5575 5573 5576 5577 
315 316 613 612 348 349 646 645 2932 5578 5579 5568 2937 5581 5582 5571 2920 2934 5580 5570 5574 5584 2941 5585 5583 5586 5587 
316 317 614 613 349 350 647 646 2946 5588 5589 5578 2951 5591 5592 5581 2934 2948 5590 5580 5584 5594 2955 5595 5593 5596 5597 
317 318 615 614 350 351 648 647 2960 5598 5599 5588 2965 5601 5602 5591 2948 2962 5600 5590 5594 5604 2969 5605 5603 5606 5607 
318 319 616 615 351 352 649 648 2974 5608 5609 5598 2979 5611 5612 5601 2962 2976 5610 5600 5604 5614 2983 5615 5613 5616 5617 
319 320 617 616 352 353 650 649 2988 5618 5619 5608 2993 5621 5622 5611 2976 2990 5620 5610 5614 5624 2997 5625 5623 5626 5627 
320 321 618 617 353 354 651 650 3002 5628 5629 5618 3007 5631 5632 5621 2990 3004 5630 5620 5624 5634 3011 5635 5633 5636 5637 
321 322 619 618 354 355 652 651 3016 5638 5639 5628 3021 5641 5642 5631 3004 3018 5640 5630 5634 5644 3025 5645 5643 5646 5647 
322 323 620 619 355 356 653 652 3030 5648 5649 5638 3035 5651 5652 5641 3018 3032 5650 5640 5644 5654 3039 5655 5653 5656 5657 
323 324 621 620 356 357 654 653 3044 5658 5659 5648 3049 5661 5662 5651 3032 3046 5660 5650 5654 5664 3053 5665 5663 5666 5667 
324 325 622 621 357 358 655 654 3058 5668 5669 5658 3063 5671 5672 5661 3046 3060 5670 5660 5664 5674 3067 5675 5673 5676 5677 
325 326 623 622 358 359 656 655 3072 5678 5679 5668 3077 5681 5682 5671 3060 3074 5680 5670 5674 5684 3081 5685 5683 5686 5687 
326 327 624 623 359 360 657 656 3086 5688 5689 5678 3091 5691 5692 5681 3074 3088 5690 5680 5684 5694 3095 5695 5693 5696 5697 
327 328 625 624 360 361 658 657 3100 5698 5699 5688 3105 5701 5702 5691 3088 3102 5700 5690 5694 5704 3109 5705 5703 5706 5707 
328 329 626 625 361 362 659 658 3114 5708 5709 5698 3119 5711 5712 5701 3102 3116 5710 5700 5704 5714 3123 5715 5713 5716 5717 
330 331 628 627 363 364 661 660 2683 5399 5400 5401 3132 5720 5721 5722 3129 3128 5718 5719 5725 5723 3136 5724 5406 5726 5727 
331 332 629 628 364 365 662 661 2699 5411 5412 5399 3144 5729 5730 5720 3128 3141 5728 5718 5723 5731 3147 5732 5416 5733 5734 
332 333 630 629 365 366 663 662 2713 5421 5422 5411 3154 5736 5737 5729 3141 3151 5735 5728 5731 5738 3157 5739 5426 5740 5741 
333 334 631 630 366 367 664 663 2727 5431 5432 5421 3164 5743 5744 5736 3151 3161 5742 5735 5738 5745 3167 5746 5436 5747 5748 
334 335 632 631 367 368 665 664 2741 5441 5442 5431 3174 5750 5751 5743 3161 3171 5749 5742 5745 5752 3177 5753 5446 5754 5755 
335 336 633 632 368 369 666 665 2755 5451 5452 5441 3184 5757 5758 5750 3171 3181 5756 5749 5752 5759 3187 5760 5456 5761 5762 
336 337 634 633 369 370 667 666 2769 5461 5462 5451 3194 5764 5765 5757 3181 3191 5763 5756 5759 5766 3197 5767 5466 5768 5769 
337 338 635 634 370 371 668 667 2783 5471 5472 5461 3204 5771 5772 5764 3191 3201 5770 5763 5766 5773 3207 5774 5476 5775 5776 
338 339 636 635 371 372 669 668 2797 5481 5482 5471 3214 5778 5779 5771 3201 3211 5777 5770 5773 5780 3217 5781 5486 5782 5783 
339 340 637 636 372 373 670 669 2811 5491 5492 5481 3224 5785 5786 5778 3211 3221 5784 5777 5780 5787 3227 5788 5496 5789 5790 
340 341 638 637 373 374 671 670 2825 5501 5502 5491 3234 5792 5793 5785 3221 3231 5791 5784 5787 5794 3237 5795 5506 5796 5797 
341 342 639 638 374 375 672 671 2839 5511 5512 5501 3244 5799 5800 5792 3231 3241 5798 5791 5794 5801 3247 5802 5516 5803 5804 
342 343 640 639 375 376 673 672 2853 5521 5522 5511 3254 5806 5807 5799 3241 3251 5805 5798 5801 5808 3257 5809 5526 5810 5811 
343 344 641 640 376 377 674 673 2867 5531 5532 5521 3264 5813 5814 5806 3251 3261 5812 5805 5808 5815 3267 5816 5536 5817 5818 
344 345 642 641 377 378 675 674 2881 5541 5542 5531 3274 5820 5821 5813 3261 3271 5819 5812 5815 5822 3277 5823 5546 5824 5825 
345 346 643 642 378 379 676 675 2895 5551 5552 5541 3284 5827 5828 5820 3271 3281 5826 5819 5822 5829 3287 5830 5556 5831 5832 
346 347 644 643 379 380 677 676 2909 5561 5562 5551 3294 5834 5835 5827 3281 3291 5833 5826 5829 5836 3297 5837 5566 5838 5839 
347 348 645 644 380 381 678 677 2923 5571 5572 5561 3304 5841 5842 5834 3291 3301 5840 5833 5836 5843 3307 5844 5576 5845 5846 
348 349 646 645 381 382 679 678 2937 5581 5582 5571 3314 5848 5849 5841 3301 3311 5847 5840 5843 5850 3317 5851 5586 5852 5853 
349 350 647 646 382 383 680 679 2951 5591 5592 5581 3324 5855 5856 5848 3311 3321 5854 5847 5850 5857 3327 5858 5596 5859 5860 
350 351 648 647 383 384 681 680 2965 5601 5602 5591 3334 5862 5863 5855 3321 3331 5861 5854 5857 5864 3337 5865 5606 5866 5867 
351 352 649 648 384 385 682 681 2979 5611 5612 5601 3344 5869 5870 5862 3331 3341 5868 5861 5864 5871 3347 5872 5616 5873 5874 
352 353 650 649 385 386 683 682 2993 5621 5622 5611 3354 5876 5877 5869 3341 3351 5875 5868 5871 5878 3357 5879 5626 5880 5881 
353 354 651 650 386 387 684 683 3007 5631 5632 5621 3364 5883 5884 5876 3351 3361 5882 5875 5878 5885 3367 5886 5636 5887 5888 
354 355 652 651 387 388 685 684 3021 5641 5642 5631 3374 5890 5891 5883 3361 3371 5889 5882 5885 5892 3377 5893 5646 5894 5895 
355 356 653 652 388 389 686 685 3035 5651 5652 5641 3384 5897 5898 5890 3371 3381 5896 5889 5892 5899 3387 5900 5656 5901 5902 
356 357 654 653 389 390 687 686 3049 5661 5662 5651 3394 5904 5905 5897 3381 3391 5903 5896 5899 5906 3397 5907 5666 5908 5909 
357 358 655 654 390 391 688 687 3063 5671 5672 5661 3404 5911 5912 5904 3391 3401 5910 5903 5906 5913 3407 5914 5676 5915 5916 
358 359 656 655 391 392 689 688 3077 5681 5682 5671 3414 5918 5919 5911 3401 3411 5917 5910 5913 5920 3417 5921 5686 5922 5923 
359 360 657 656 392 393 690 689 3091 5691 5692 5681 3424 5925 5926 5918 3411 3421 5924 5917 5920 5927 3427 5928 5696 5929 5930 
360 361 658 657 393 394 691 690 3105 5701 5702 5691 3434 5932 5933 5925 3421 3431 5931 5924 5927 5934 3437 5935 5706 5936 5937 
361 362 659 658 394 395 692 691 3119 5711 5712 5701 3444 5939 5940 5932 3431 3441 5938 5931 5934 5941 3447 5942 5716 5943 5944 
363 364 661 660 396 397 694 693 3132 5720 5721 5722 3456 5947 5948 5949 3453 3452 5945 5946 5952 5950 3460 5951 5726 5953 5954 
364 365 662 661 397 398 695 694 3144 5729 5730 5720 3468 5956 5957 5947 3452 3465 5955 5945 5950 5958 3471 5959 5733 5960 5961 
365 366 663 662 398 399 696 695 3154 5736 5737 5729 3478 5963 5964 5956 3465 3475 5962 5955 5958 5965 3481 5966 5740 5967 5968 
366 367 664 663 399 400 697 696 3164 5743 5744 5736 3488 5970 5971 5963 3475 3485 5969 5962 5965 5972 3491 5973 5747 5974 5975 
367 368 665 664 400 401 698 697 3174 5750 5751 5743 3498 5977 5978 5970 3485 3495 5976 5969 5972 5979 3501 5980 5754 5981 5982 
368 369 666 665 401 402 699 698 3184 5757 5758 5750 3508 5984 5985 5977 3495 3505 5983 5976 5979 5986 3511 5987 5761 5988 5989 
369 370 667 666 402 403 700 699 3194 5764 5765 5757 3518 5991 5992 5984 3505 3515 5990 5983 5986 5993 3521 5994 5768 5995 5996 
370 371 668 667 403 404 701 700 3204 5771 5772 5764 3528 5998 5999 5991 3515 3525 5997 5990 5993 6000 3531 6001 5775 6002 6003 
371 372 669 668 404 405 702 701 3214 5778 5779 5771 3538 6005 6006 5998 3525 3535 6004 5997 6000 6007 3541 6008 5782 6009 6010 
372 373 670 669 405 406 703 702 3224 5785 5786 5778 3548 6012 6013 6005 3535 3545 6011 6004 6007 6014 3551 6015 5789 6016 6017 
373 374 671 670 406 407 704 703 3234 5792 5793 5785 3558 6019 6020 6012 3545 3555 6018 6011 6014 6021 3561 6022 5796 6023 6024 
374 375 672 671 407 408 705 704 3244 5799 5800 5792 3568 6026 6027 6019 3555 3565 6025 6018 6021 6028 3571 6029 5803 6030 6031 
375 376 673 672 408 409 706 705 3254 5806 5807 5799 3578 6033 6034 6026 3565 3575 6032 6025 6028 6035 3581 6036 5810 6037 6038 
376 377 674 673 409 410 707 706 3264 5813 5814 5806 3588 6040 6041 6033 3575 3585 6039 6032 6035 6042 3591 6043 5817 6044 6045 
377 378 675 674 410 411 708 707 3274 5820 5821 5813 3598 6047 6048 6040 3585 3595 6046 6039 6042 6049 3601 6050 5824 6051 6052 
378 379 676 675 411 412 709 708 3284 5827 5828 5820 3608 6054 6055 6047 3595 3605 6053 6046 6049 6056 3611 6057 5831 6058 6059 
379 380 677 676 412 413 710 709 3294 5834 5835 5827 3618 6061 6062 6054 3605 3615 6060 6053 6056 6063 3621 6064 5838 6065 6066 
380 381 678 677 413 414 711 710 3304 5841 5842 5834 3628 6068 6069 6061 3615 3625 6067 6060 6063 6070 3631 6071 5845 6072 6073 
381 382 679 678 414 415 712 711 3314 5848 5849 5841 3638 6075 6076 6068 3625 3635 6074 6067 6070 6077 3641 6078 5852 6079 6080 
382 383 680 679 415 416 713 712 3324 5855 5856 5848 3648 6082 6083 6075 3635 3645 6081 6074 6077 6084 3651 6085 5859 6086 6087 
383 384 681 680 416 417 714 713 3334 5862 5863 5855 3658 6089 6090 6082 3645 3655 6088 6081 6084 6091 3661 6092 5866 6093 6094 
384 385 682 681 417 418 715 714 3344 5869 5870 5862 3668 6096 6097 6089 3655 3665 6095 6088 6091 6098 3671 6099 5873 6100 6101 
385 386 683 682 418 419 716 715 3354 5876 5877 5869 3678 6103 6104 6096 3665 3675 6102 6095 6098 6105 3681 6106 5880 6107 6108 
386 387 684 683 419 420 717 716 3364 5883 5884 5876 3688 6110 6111 6103 3675 3685 6109 6102 6105 6112 3691 6113 5887 6114 6115 
387 388 685 684 420 421 718 717 3374 5890 5891 5883 3698 6117 6118 6110 3685 3695 6116 6109 6112 6119 3701 6120 5894 6121 6122 
388 389 686 685 421 422 719 718 3384 5897 5898 5890 3708 6124 6125 6117 3695 3705 6123 6116 6119 6126 3711 6127 5901 6128 6129 
389 390 687 686 422 423 720 719 3394 5904 5905 5897 3718 6131 6132 6124 3705 3715 6130 6123 6126 6133 3721 6134 5908 6135 6136 
390 391 688 687 423 424 721 720 3404 5911 5912 5904 3728 6138 6139 6131 3715 3725 6137 6130 6133 6140 3731 6141 5915 6142 6143 
391 392 689 688 424 425 722 721 3414 5918 5919 5911 3738 6145 6146 6138 3725 3735 6144 6137 6140 6147 3741 6148 5922 6149 6150 
392 393 690 689 425 426 723 722 3424 5925 5926 5918 3748 6152 6153 6145 3735 3745 6151 6144 6147 6154 3751 6155 5929 6156 6157 
393 394 691 690 426 427 724 723 3434 5932 5933 5925 3758 6159 6160 6152 3745 3755 6158 6151 6154 6161 3761 6162 5936 6163 6164 
394 395 692 691 427 428 725 724 3444 5939 5940 5932 3768 6166 6167 6159 3755 3765 6165 6158 6161 6168 3771 6169 5943 6170 6171 
396 397 694 693 429 430 727 726 3456 5947 5948 5949 3780 6174 6175 6176 3777 3776 6172 6173 6179 6177 3784 6178 5953 6180 6181 
397 398 695 694 430 431 728 727 3468 5956 5957 5947 3792 6183 6184 6174 3776 3789 6182 6172 6177 6185 3795 6186 5960 6187 6188 
398 399 696 695 431 432 729 728 3478 5963 5964 5956 3802 6190 6191 6183 3789 3799 6189 6182 6185 6192 3805 6193 5967 6194 6195 
399 400 697 696 432 433 730 729 3488 5970 5971 5963 3812 6197 6198 6190 3799 3809 6196 6189 6192 6199 3815 6200 5974 6201 6202 
400 401 698 697 433 434 731 730 3498 5977 5978 5970 3822 6204 6205 6197 3809 3819 6203 6196 6199 6206 3825 6207 5981 6208 6209 
401 402 699 698 434 435 732 731 3508 5984 5985 5977 3832 6211 6212 6204 3819 3829 6210 6203 6206 6213 3835 6214 5988 6215 6216 
402 403 700 699 435 436 733 732 3518 5991 5992 5984 3842 6218 6219 6211 3829 3839 6217 6210 6213 6220 3845 6221 5995 6222 6223 
403 404 701 700 436 437 734 733 3528 5998 5999 5991 3852 6225 6226 6218 3839 3849 6224 6217 6220 6227 3855 6228 6002 6229 6230 
404 405 702 701 437 438 735 734 3538 6005 6006 5998 3862 6232 6233 6225 3849 3859 6231 6224 6227 6234 3865 6235 6009 6236 6237 
405 406 703 702 438 439 736 735 3548 6012 6013 6005 3872 6239 6240 6232 3859 3869 6238 6231 6234 6241 3875 6242 6016 6243 6244 
406 407 704 703 439 440 737 736 3558 6019 6020 6012 3882 6246 6247 6239 3869 3879 6245 6238 6241 6248 3885 6249 6023 6250 6251 
407 408 705 704 440 441 738 737 3568 6026 6027 6019 3892 6253 6254 6246 3879 3889 6252 6245 6248 6255 3895 6256 6030 6257 6258 
408 409 706 705 441 442 739 738 3578 6033 6034 6026 3902 6260 6261 6253 3889 3899 6259 6252 6255 6262 3905 6263 6037 6264 6265 
409 410 707 706 442 443 740 739 3588 6040 6041 6033 3912 6267 6268 6260 3899 3909 6266 6259 6262 6269 3915 6270 6044 6271 6272 
410 411 708 707 443 444 741 740 3598 6047 6048 6040 3922 6274 6275 6267 3909 3919 6273 6266 6269 6276 3925 6277 6051 6278 6279 
411 412 709 708 444 445 742 741 3608 6054 6055 6047 3932 6281 6282 6274 3919 3929 6280 6273 6276 6283 3935 6284 6058 6285 6286 
412 413 710 709 445 446 743 742 3618 6061 6062 6054 3942 6288 6289 6281 3929 3939 6287 6280 6283 6290 3945 6291 6065 6292 6293 
413 414 711 710 446 447 744 743 3628 6068 6069 6061 3952 6295 6296 6288 3939 3949 6294 6287 6290 6297 3955 6298 6072 6299 6300 
414 415 712 711 447 448 745 744 3638 6075 6076 6068 3962 6302 6303 6295 3949 3959 6301 6294 6297 6304 3965 6305 6079 6306 6307 
415 416 713 712 448 449 746 745 3648 6082 6083 6075 3972 6309 6310 6302 3959 3969 6308 6301 6304 6311 3975 6312 6086 6313 6314 
416 417 714 713 449 450 747 746 3658 6089 6090 6082 3982 6316 6317 6309 3969 3979 6315 6308 6311 6318 3985 6319 6093 6320 6321 
417 418 715 714 450 451 748 747 3668 6096 6097 6089 3992 6323 6324 6316 3979 3989 6322 6315 6318 6325 3995 6326 6100 6327 6328 
418 419 716 715 451 452 749 748 3678 6103 6104 6096 4002 6330 6331 6323 3989 3999 6329 6322 6325 6332 4005 6333 6107 6334 6335 
419 420 717 716 452 453 750 749 3688 6110 6111 6103 4012 6337 6338 6330 3999 4009 6336 6329 6332 6339 4015 6340 6114 6341 6342 
420 421 718 717 453 454 751 750 3698 6117 6118 6110 4022 6344 6345 6337 4009 4019 6343 6336 6339 6346 4025 6347 6121 6348 6349 
421 422 719 718 454 455 752 751 3708 6124 6125 6117 4032 6351 6352 6344 4019 4029 6350 6343 6346 6353 4035 6354 6128 6355 6356 
422 423 720 719 455 456 753 752 3718 6131 6132 6124 4042 6358 6359 6351 4029 4039 6357 6350 6353 6360 4045 6361 6135 6362 6363 
423 424 721 720 456 457 754 753 3728 6138 6139 6131 4052 6365 6366 6358 4039 4049 6364 6357 6360 6367 4055 6368 6142 6369 6370 
424 425 722 721 457 458 755 754 3738 6145 6146 6138 4062 6372 6373 6365 4049 4059 6371 6364 6367 6374 4065 6375 6149 6376 6377 
425 426 723 722 458 459 756 755 3748 6152 6153 6145 4072 6379 6380 6372 4059 4069 6378 6371 6374 6381 4075 6382 6156 6383 6384 
426 427 724 723 459 460 757 756 3758 6159 6160 6152 4082 6386 6387 6379 4069 4079 6385 6378 6381 6388 4085 6389 6163 6390 6391 
427 428 725 724 460 461 758 757 3768 6166 6167 6159 4092 6393 6394 6386 4079 4089 6392 6385 6388 6395 4095 6396 6170 6397 6398 
429 430 727 726 462 463 760 759 3780 6174 6175 6176 4104 6401 6402 6403 4101 4100 6399 6400 6406 6404 4108 6405 6180 6407 6408 
430 431 728 727 463 464 761 760 3792 6183 6184 6174 4116 6410 6411 6401 4100 4113 6409 6399 6404 6412 4119 6413 6187 6414 6415 
431 432 729 728 464 465 762 761 3802 6190 6191 6183 4126 6417 6418 6410 4113 4123 6416 6409 6412 6419 4129 6420 6194 6421 6422 
432 433 730 729 465 466 763 762 3812 6197 6198 6190 4136 6424 6425 6417 4123 4133 6423 6416 6419 6426 4139 6427 6201 6428 6429 
433 434 731 730 466 467 764 763 3822 6204 6205 6197 4146 6431 6432 6424 4133 4143 6430 6423 6426 6433 4149 6434 6208 6435 6436 
434 435 732 731 467 468 765 764 3832 6211 6212 6204 4156 6438 6439 6431 4143 4153 6437 6430 6433 6440 4159 6441 6215 6442 6443 
435 436 733 732 468 469 766 765 3842 6218 6219 6211 4166 6445 6446 6438 4153 4163 6444 6437 6440 6447 4169 6448 6222 6449 6450 
436 437 734 733 469 470 767 766 3852 6225 6226 6218 4176 6452 6453 6445 4163 4173 6451 6444 6447 6454 4179 6455 6229 6456 6457 
437 438 735 734 470 471 768 767 3862 6232 6233 6225 4186 6459 6460 6452 4173 4183 6458 6451 6454 6461 4189 6462 6236 6463 6464 
438 439 736 735 471 472 769 768 3872 6239 6240 6232 4196 6466 6467 6459 4183 4193 6465 6458 6461 6468 4199 6469 6243 6470 6471 
439 440 737 736 472 473 770 769 3882 6246 6247 6239 4206 6473 6474 6466 4193 4203 6472 6465 6468 6475 4209 6476 6250 6477 6478 
440 441 738 737 473 474 771 770 3892 6253 6254 6246 4216 6480 6481 6473 4203 4213 6479 6472 6475 6482 4219 6483 6257 6484 6485 
441 442 739 738 474 475 772 771 3902 6260 6261 6253 4226 6487 6488 6480 4213 4223 6486 6479 6482 6489 4229 6490 6264 6491 6492 
442 443 740 739 475 476 773 772 3912 6267 6268 6260 4236 6494 6495 6487 4223 4233 6493 6486 6489 6496 4239 6497 6271 6498 6499 
443 444 741 740 476 477 774 773 3922 6274 6275 6267 4246 6501 6502 6494 4233 4243 6500 6493 6496 6503 4249 6504 6278 6505 6506 
444 445 742 741 477 478 775 774 3932 6281 6282 6274 4256 6508 6509 6501 4243 4253 6507 6500 6503 6510 4259 6511 6285 6512 6513 
445 446 743 742 478 479 776 775 3942 6288 6289 6281 4266 6515 6516 6508 4253 4263 6514 6507 6510 6517 4269 6518 6292 6519 6520 
446 447 744 743 479 480 777 776 3952 6295 6296 6288 4276 6522 6523 6515 4263 4273 6521 6514 6517 6524 4279 6525 6299 6526 6527 
447 448 745 744 480 481 778 777 3962 6302 6303 6295 4286 6529 6530 6522 4273 4283 6528 6521 6524 6531 4289 6532 6306 6533 6534 
448 449 746 745 481 482 779 778 3972 6309 6310 6302 4296 6536 6537 6529 4283 4293 6535 6528 6531 6538 4299 6539 6313 6540 6541 
449 450 747 746 482 483 780 779 3982 6316 6317 6309 4306 6543 6544 6536 4293 4303 6542 6535 6538 6545 4309 6546 6320 6547 6548 
450 451 748 747 483 484 781 780 3992 6323 6324 6316 4316 6550 6551 6543 4303 4313 6549 6542 6545 6552 4319 6553 6327 6554 6555 
451 452 749 748 484 485 782 781 4002 6330 6331 6323 4326 6557 6558 6550 4313 4323 6556 6549 6552 6559 4329 6560 6334 6561 6562 
452 453 750 749 485 486 783 782 4012 6337 6338 6330 4336 6564 6565 6557 4323 4333 6563 6556 6559 6566 4339 6567 6341 6568 6569 
453 454 751 750 486 487 784 783 4022 6344 6345 6337 4346 6571 6572 6564 4333 4343 6570 6563 6566 6573 4349 6574 6348 6575 6576 
454 455 752 751 487 488 785 784 4032 6351 6352 6344 4356 6578 6579 6571 4343 4353 6577 6570 6573 6580 4359 6581 6355 6582 6583 
455 456 753 752 488 489 786 785 4042 6358 6359 6351 4366 6585 6586 6578 4353 4363 6584 6577 6580 6587 4369 6588 6362 6589 6590 
456 457 754 753 489 490 787 786 4052 6365 6366 6358 4376 6592 6593 6585 4363 4373 6591 6584 6587 6594 4379 6595 6369 6596 6597 
457 458 755 754 490 491 788 787 4062 6372 6373 6365 4386 6599 6600 6592 4373 4383 6598 6591 6594 6601 4389 6602 6376 6603 6604 
458 459 756 755 491 492 789 788 4072 6379 6380 6372 4396 6606 6607 6599 4383 4393 6605 6598 6601 6608 4399 6609 6383 6610 6611 
459 460 757 756 492 493 790 789 4082 6386 6387 6379 4406 6613 6614 6606 4393 4403 6612 6605 6608 6615 4409 6616 6390 6617 6618 
460 461 758 757 493 494 791 790 4092 6393 6394 6386 4416 6620 6621 6613 4403 4413 6619 6612 6615 6622 4419 6623 6397 6624 6625 
462 463 760 759 495 496 793 792 4104 6401 6402 6403 4428 6628 6629 6630 4425 4424 6626 6627 6633 6631 4432 6632 6407 6634 6635 
463 464 761 760 496 497 794 793 4116 6410 6411 6401 4440 6637 6638 6628 4424 4437 6636 6626 6631 6639 4443 6640 6414 6641 6642 
464 465 762 761 497 498 795 794 4126 6417 6418 6410 4450 6644 6645 6637 4437 4447 6643 6636 6639 6646 4453 6647 6421 6648 6649 
465 466 763 762 498 499 796 795 4136 6424 6425 6417 4460 6651 6652 6644 4447 4457 6650 6643 6646 6653 4463 6654 6428 6655 6656 
466 467 764 763 499 500 797 796 4146 6431 6432 6424 4470 6658 6659 6651 4457 4467 6657 6650 6653 6660 4473 6661 6435 6662 6663 
467 468 765 764 500 501 798 797 4156 6438 6439 6431 4480 6665 6666 6658 4467 4477 6664 6657 6660 6667 4483 6668 6442 6669 6670 
468 469 766 765 501 502 799 798 4166 6445 6446 6438 4490 6672 6673 6665 4477 4487 6671 6664 6667 6674 4493 6675 6449 6676 6677 
469 470 767 766 502 503 800 799 4176 6452 6453 6445 4500 6679 6680 6672 4487 4497 6678 6671 6674 6681 4503 6682 6456 6683 6684 
470 471 768 767 503 504 801 800 4186 6459 6460 6452 4510 6686 6687 6679 4497 4507 6685 6678 6681 6688 4513 6689 6463 6690 6691 
471 472 769 768 504 505 802 801 4196 6466 6467 6459 4520 6693 6694 6686 4507 4517 6692 6685 6688 6695 4523 6696 6470 6697 6698 
472 473 770 769 505 506 803 802 4206 6473 6474 6466 4530 6700 6701 6693 4517 4527 6699 6692 6695 6702 4533 6703 6477 6704 6705 
473 474 771 770 506 507 804 803 4216 6480 6481 6473 4540 6707 6708 6700 4527 4537 6706 6699 6702 6709 4543 6710 6484 6711 6712 
474 475 772 771 507 508 805 804 4226 6487 6488 6480 4550 6714 6715 6707 4537 4547 6713 6706 6709 6716 4553 6717 6491 6718 6719 
475 476 773 772 508 509 806 805 4236 6494 6495 6487 4560 6721 6722 6714 4547 4557 6720 6713 6716 6723 4563 6724 6498 6725 6726 
476 477 774 773 509 510 807 806 4246 6501 6502 6494 4570 6728 6729 6721 4557 4567 6727 6720 6723 6730 4573 6731 6505 6732 6733 
477 478 775 774 510 511 808 807 4256 6508 6509 6501 4580 6735 6736 6728 4567 4577 6734 6727 6730 6737 4583 6738 6512 6739 6740 
478 479 776 775 511 512 809 808 4266 6515 6516 6508 4590 6742 6743 6735 4577 4587 6741 6734 6737 6744 4593 6745 6519 6746 6747 
479 480 777 776 512 513 810 809 4276 6522 6523 6515 4600 6749 6750 6742 4587 4597 6748 6741 6744 6751 4603 6752 6526 6753 6754 
480 481 778 777 513 514 811 810 4286 6529 6530 6522 4610 6756 6757 6749 4597 4607 6755 6748 6751 6758 4613 6759 6533 6760 6761 
481 482 779 778 514 515 812 811 4296 6536 6537 6529 4620 6763 6764 6756 4607 4617 6762 6755 6758 6765 4623 6766 6540 6767 6768 
482 483 780 779 515 516 813 812 4306 6543 6544 6536 4630 6770 6771 6763 4617 4627 6769 6762 6765 6772 4633 6773 6547 6774 6775 
483 484 781 780 516 517 814 813 4316 6550 6551 6543 4640 6777 6778 6770 4627 4637 6776 6769 6772 6779 4643 6780 6554 6781 6782 
484 485 782 781 517 518 815 814 4326 6557 6558 6550 4650 6784 6785 6777 4637 4647 6783 6776 6779 6786 4653 6787 6561 6788 6789 
485 486 783 782 518 519 816 815 4336 6564 6565 6557 4660 6791 6792 6784 4647 4657 6790 6783 6786 6793 4663 6794 6568 6795 6796 
486 487 784 783 519 520 817 816 4346 6571 6572 6564 4670 6798 6799 6791 4657 4667 6797 6790 6793 6800 4673 6801 6575 6802 6803 
487 488 785 784 520 521 818 817 4356 6578 6579 6571 4680 6805 6806 6798 4667 4677 6804 6797 6800 6807 4683 6808 6582 6809 6810 
488 489 786 785 521 522 819 818 4366 6585 6586 6578 4690 6812 6813 6805 4677 4687 6811 6804 6807 6814 4693 6815 6589 6816 6817 
489 490 787 786 522 523 820 819 4376 6592 6593 6585 4700 6819 6820 6812 4687 4697 6818 6811 6814 6821 4703 6822 6596 6823 6824 
490 491 788 787 523 524 821 820 4386 6599 6600 6592 4710 6826 6827 6819 4697 4707 6825 6818 6821 6828 4713 6829 6603 6830 6831 
491 492 789 788 524 525 822 821 4396 6606 6607 6599 4720 6833 6834 6826 4707 4717 6832 6825 6828 6835 4723 6836 6610 6837 6838 
492 493 790 789 525 526 823 822 4406 6613 6614 6606 4730 6840 6841 6833 4717 4727 6839 6832 6835 6842 4733 6843 6617 6844 6845 
493 494 791 790 526 527 824 823 4416 6620 6621 6613 4740 6847 6848 6840 4727 4737 6846 6839 6842 6849 4743 6850 6624 6851 6852 
495 496 793 792 528 529 826 825 4428 6628 6629 6630 4752 6855 6856 6857 4749 4748 6853 6854 6860 6858 4756 6859 6634 6861 6862 
496 497 794 793 529 530 827 826 4440 6637 6638 6628 4764 6864 6865 6855 4748 4761 6863 6853 6858 6866 4767 6867 6641 6868 6869 
497 498 795 794 530 531 828 827 4450 6644 6645 6637 4774 6871 6872 6864 4761 4771 6870 6863 6866 6873 4777 6874 6648 6875 6876 
498 499 796 795 531 532 829 828 4460 6651 6652 6644 4784 6878 6879 6871 4771 4781 6877 6870 6873 6880 4787 6881 6655 6882 6883 
499 500 797 796 532 533 830 829 4470 6658 6659 6651 4794 6885 6886 6878 4781 4791 6884 6877 6880 6887 4797 6888 6662 6889 6890 
500 501 798 797 533 534 831 830 4480 6665 6666 6658 4804 6892 6893 6885 4791 4801 6891 6884 6887 6894 4807 6895 6669 6896 6897 
501 502 799 798 534 535 832 831 4490 6672 6673 6665 4814 6899 6900 6892 4801 4811 6898 6891 6894 6901 4817 6902 6676 6903 6904 
502 503 800 799 535 536 833 832 4500 6679 6680 6672 4824 6906 6907 6899 4811 4821 6905 6898 6901 6908 4827 6909 6683 6910 6911 
503 504 801 800 536 537 834 833 4510 6686 6687 6679 4834 6913 6914 6906 4821 4831 6912 6905 6908 6915 4837 6916 6690 6917 6918 
504 505 802 801 537 538 835 834 4520 6693 6694 6686 4844 6920 6921 6913 4831 4841 6919 6912 6915 6922 4847 6923 6697 6924 6925 
505 506 803 802 538 539 836 835 4530 6700 6701 6693 4854 6927 6928 6920 4841 4851 6926 6919 6922 6929 4857 6930 6704 6931 6932 
506 507 804 803 539 540 837 836 4540 6707 6708 6700 4864 6934 6935 6927 4851 4861 6933 6926 6929 6936 4867 6937 6711 6938 6939 
507 508 805 804 540 541 838 837 4550 6714 6715 6707 4874 6941 6942 6934 4861 4871 6940 6933 6936 6943 4877 6944 6718 6945 6946 
508 509 806 805 541 542 839 838 4560 6721 6722 6714 4884 6948 6949 6941 4871 4881 6947 6940 6943 6950 4887 6951 6725 6952 6953 
509 510 807 806 542 543 840 839 4570 6728 6729 6721 4894 6955 6956 6948 4881 4891 6954 6947 6950 6957 4897 6958 6732 6959 6960 
510 511 808 807 543 544 841 840 4580 6735 6736 6728 4904 6962 6963 6955 4891 4901 6961 6954 6957 6964 4907 6965 6739 6966 6967 
511 512 809 808 544 545 842 841 4590 6742 6743 6735 4914 6969 6970 6962 4901 4911 6968 6961 6964 6971 4917 6972 6746 6973 6974 
512 513 810 809 545 546 843 842 4600 6749 6750 6742 4924 6976 6977 6969 4911 4921 6975 6968 6971 6978 4927 6979 6753 6980 6981 
513 514 811 810 546 547 844 843 4610 6756 6757 6749 4934 6983 6984 6976 4921 4931 6982 6975 6978 6985 4937 6986 6760 6987 6988 
514 515 812 811 547 548 845 844 4620 6763 6764 6756 4944 6990 6991 6983 4931 4941 6989 6982 6985 6992 4947 6993 6767 6994 6995 
515 516 813 812 548 549 846 845 4630 6770 6771 6763 4954 6997 6998 6990 4941 4951 6996 6989 6992 6999 4957 7000 6774 7001 7002 
516 517 814 813 549 550 847 846 4640 6777 6778 6770 4964 7004 7005 6997 4951 4961 7003 6996 6999 7006 4967 7007 6781 7008 7009 
517 518 815 814 550 551 848 847 4650 6784 6785 6777 4974 7011 7012 7004 4961 4971 7010 7003 7006 7013 4977 7014 6788 7015 7016 
518 519 816 815 551 552 849 848 4660 6791 6792 6784 4984 7018 7019 7011 4971 4981 7017 7010 7013 7020 4987 7021 6795 7022 7023 
519 520 817 816 552 553 850 849 4670 6798 6799 6791 4994 7025 7026 7018 4981 4991 7024 7017 7020 7027 4997 7028 6802 7029 7030 
520 521 818 817 553 554 851 850 4680 6805 6806 6798 5004 7032 7033 7025 4991 5001 7031 7024 7027 7034 5007 7035 6809 7036 7037 
521 522 819 818 554 555 852 851 4690 6812 6813 6805 5014 7039 7040 7032 5001 5011 7038 7031 7034 7041 5017 7042 6816 7043 7044 
522 523 820 819 555 556 853 852 4700 6819 6820 6812 5024 7046 7047 7039 5011 5021 7045 7038 7041 7048 5027 7049 6823 7050 7051 
523 524 821 820 556 557 854 853 4710 6826 6827 6819 5034 7053 7054 7046 5021 5031 7052 7045 7048 7055 5037 7056 6830 7057 7058 
524 525 822 821 557 558 855 854 4720 6833 6834 6826 5044 7060 7061 7053 5031 5041 7059 7052 7055 7062 5047 7063 6837 7064 7065 
525 526 823 822 558 559 856 855 4730 6840 6841 6833 5054 7067 7068 7060 5041 5051 7066 7059 7062 7069 5057 7070 6844 7071 7072 
526 527 824 823 559 560 857 856 4740 6847 6848 6840 5064 7074 7075 7067 5051 5061 7073 7066 7069 7076 5067 7077 6851 7078 7079 
528 529 826 825 561 562 859 858 4752 6855 6856 6857 5076 7082 7083 7084 5073 5072 7080 7081 7087 7085 5080 7086 6861 7088 7089 
529 530 827 826 562 563 860 859 4764 6864 6865 6855 5088 7091 7092 7082 5072 5085 7090 7080 7085 7093 5091 7094 6868 7095 7096 
530 531 828 827 563 564 861 860 4774 6871 6872 6864 5098 7098 7099 7091 5085 5095 7097 7090 7093 7100 5101 7101 6875 7102 7103 
531 532 829 828 564 565 862 861 4784 6878 6879 6871 5108 7105 7106 7098 5095 5105 7104 7097 7100 7107 5111 7108 6882 7109 7110 
532 533 830 829 565 566 863 862 4794 6885 6886 6878 5118 7112 7113 7105 5105 5115 7111 7104 7107 7114 5121 7115 6889 7116 7117 
533 534 831 830 566 567 864 863 4804 6892 6893 6885 5128 7119 7120 7112 5115 5125 7118 7111 7114 7121 5131 7122 6896 7123 7124 
534 535 832 831 567 568 865 864 4814 6899 6900 6892 5138 7126 7127 7119 5125 5135 7125 7118 7121 7128 5141 7129 6903 7130 7131 
535 536 833 832 568 569 866 865 4824 6906 6907 6899 5148 7133 7134 7126 5135 5145 7132 7125 7128 7135 5151 7136 6910 7137 7138 
536 537 834 833 569 570 867 866 4834 6913 6914 6906 5158 7140 7141 7133 5145 5155 7139 7132 7135 7142 5161 7143 6917 7144 7145 
537 538 835 834 570 571 868 867 4844 6920 6921 6913 5168 7147 7148 7140 5155 5165 7146 7139 7142 7149 5171 7150 6924 7151 7152 
538 539 836 835 571 572 869 868 4854 6927 6928 6920 5178 7154 7155 7147 5165 5175 7153 7146 7149 7156 5181 7157 6931 7158 7159 
539 540 837 836 572 573 870 869 4864 6934 6935 6927 5188 7161 7162 7154 5175 5185 7160 7153 7156 7163 5191 7164 6938 7165 7166 
540 541 838 837 573 574 871 870 4874 6941 6942 6934 5198 7168 7169 7161 5185 5195 7167 7160 7163 7170 5201 7171 6945 7172 7173 
541 542 839 838 574 575 872 871 4884 6948 6949 6941 5208 7175 7176 7168 5195 5205 7174 7167 7170 7177 5211 7178 6952 7179 7180 
542 543 840 839 575 576 873 872 4894 6955 6956 6948 5218 7182 7183 7175 5205 5215 7181 7174 7177 7184 5221 7185 6959 7186 7187 
543 544 841 840 576 577 874 873 4904 6962 6963 6955 5228 7189 7190 7182 5215 5225 7188 7181 7184 7191 5231 7192 6966 7193 7194 
544 545 842 841 577 578 875 874 4914 6969 6970 6962 5238 7196 7197 7189 5225 5235 7195 7188 7191 7198 5241 7199 6973 7200 7201 
545 546 843 842 578 579 876 875 4924 6976 6977 6969 5248 7203 7204 7196 5235 5245 7202 7195 7198 7205 5251 7206 6980 7207 7208 
546 547 844 843 579 580 877 876 4934 6983 6984 6976 5258 7210 7211 7203 5245 5255 7209 7202 7205 7212 5261 7213 6987 7214 7215 
547 548 845 844 580 581 878 877 4944 6990 6991 6983 5268 7217 7218 7210 5255 5265 7216 7209 7212 7219 5271 7220 6994 7221 7222 
548 549 846 845 581 582 879 878 4954 6997 6998 6990 5278 7224 7225 7217 5265 5275 7223 7216 7219 7226 5281 7227 7001 7228 7229 
549 550 847 846 582 583 880 879 4964 7004 7005 6997 5288 7231 7232 7224 5275 5285 7230 7223 7226 7233 5291 7234 7008 7235 7236 
550 551 848 847 583 584 881 880 4974 7011 7012 7004 5298 7238 7239 7231 5285 5295 7237 7230 7233 7240 5301 7241 7015 7242 7243 
551 552 849 848 584 585 882 881 4984 7018 7019 7011 5308 7245 7246 7238 5295 5305 7244 7237 7240 7247 5311 7248 7022 7249 7250 
552 553 850 849 585 586 883 882 4994 7025 7026 7018 5318 7252 7253 7245 5305 5315 7251 7244 7247 7254 5321 7255 7029 7256 7257 
553 554 851 850 586 587 884 883 5004 7032 7033 7025 5328 7259 7260 7252 5315 5325 7258 7251 7254 7261 5331 7262 7036 7263 7264 
554 555 852 851 587 588 885 884 5014 7039 7040 7032 5338 7266 7267 7259 5325 5335 7265 7258 7261 7268 5341 7269 7043 7270 7271 
555 556 853 852 588 589 886 885 5024 7046 7047 7039 5348 7273 7274 7266 5335 5345 7272 7265 7268 7275 5351 7276 7050 7277 7278 
556 557 854 853 589 590 887 886 5034 7053 7054 7046 5358 7280 7281 7273 5345 5355 7279 7272 7275 7282 5361 7283 7057 7284 7285 
557 558 855 854 590 591 888 887 5044 7060 7061 7053 5368 7287 7288 7280 5355 5365 7286 7279 7282 7289 5371 7290 7064 7291 7292 
558 559 856 855 591 592 889 888 5054 7067 7068 7060 5378 7294 7295 7287 5365 5375 7293 7286 7289 7296 5381 7297 7071 7298 7299 
559 560 857 856 592 593 890 889 5064 7074 7075 7067 5388 7301 7302 7294 5375 5385 7300 7293 7296 7303 5391 7304 7078 7305 7306 
594 595 892 891 627 628 925 924 5395 7307 7308 7309 5400 7312 7313 7314 5398 5397 7310 7311 7318 7316 5404 7317 7315 7319 7320 
595 596 893 892 628 629 926 925 5409 7321 7322 7307 5412 7324 7325 7312 5397 5410 7323 7310 7316 7327 5415 7328 7326 7329 7330 
596 597 894 893 629 630 927 926 5419 7331 7332 7321 5422 7334 7335 7324 5410 5420 7333 7323 7327 7337 5425 7338 7336 7339 7340 
597 598 895 894 630 631 928 927 5429 7341 7342 7331 5432 7344 7345 7334 5420 5430 7343 7333 7337 7347 5435 7348 7346 7349 7350 
598 599 896 895 631 632 929 928 5439 7351 7352 7341 5442 7354 7355 7344 5430 5440 7353 7343 7347 7357 5445 7358 7356 7359 7360 
599 600 897 896 632 633 930 929 5449 7361 7362 7351 5452 7364 7365 7354 5440 5450 7363 7353 7357 7367 5455 7368 7366 7369 7370 
600 601 898 897 633 634 931 930 5459 7371 7372 7361 5462 7374 7375 7364 5450 5460 7373 7363 7367 7377 5465 7378 7376 7379 7380 
601 602 899 898 634 635 932 931 5469 7381 7382 7371 5472 7384 7385 7374 5460 5470 7383 7373 7377 7387 5475 7388 7386 7389 7390 
602 603 900 899 635 636 933 932 5479 7391 7392 7381 5482 7394 7395 7384 5470 5480 7393 7383 7387 7397 5485 7398 7396 7399 7400 
603 604 901 900 636 637 934 933 5489 7401 7402 7391 5492 7404 7405 7394 5480 5490 7403 7393 7397 7407 5495 7408 7406 7409 7410 
604 605 902 901 637 638 935 934 5499 7411 7412 7401 5502 7414 7415 7404 5490 5500 7413 7403 7407 7417 5505 7418 7416 7419 7420 
605 606 903 902 638 639 936 935 5509 7421 7422 7411 5512 7424 7425 7414 5500 5510 7423 7413 7417 7427 5515 7428 7426 7429 7430 
606 607 904 903 639 640 937 936 5519 7431 7432 7421 5522 7434 7435 7424 5510 5520 7433 7423 7427 7437 5525 7438 7436 7439 7440 
607 608 905 904 640 641 938 937 5529 7441 7442 7431 5532 7444 7445 7434 5520 5530 7443 7433 7437 7447 5535 7448 7446 7449 7450 
608 609 906 905 641 642 939 938 5539 7451 7452 7441 5542 7454 7455 7444 5530 5540 7453 7443 7447 7457 5545 7458 7456 7459 7460 
609 610 907 906 642 643 940 939 5549 7461 7462 7451 5552 7464 7465 7454 5540 5550 7463 7453 7457 7467 5555 7468 7466 7469 7470 
610 611 908 907 643 644 941 940 5559 7471 7472 7461 5562 7474 7475 7464 5550 5560 7473 7463 7467 7477 5565 7478 7476 7479 7480 
611 612 909 908 644 645 942 941 5569 7481 7482 7471 5572 7484 7485 7474 5560 5570 7483 7473 7477 7487 5575 7488 7486 7489 7490 
612 613 910 909 645 646 943 942 5579 7491 7492 7481 5582 7494 7495 7484 5570 5580 7493 7483 7487 7497 5585 7498 7496 7499 7500 
613 614 911 910 646 647 944 943 5589 7501 7502 7491 5592 7504 7505 7494 5580 5590 7503 7493 7497 7507 5595 7508 7506 7509 7510 
614 615 912 911 647 648 945 944 5599 7511 7512 7501 5602 7514 7515 7504 5590 5600 7513 7503 7507 7517 5605 7518 7516 7519 7520 
615 616 913 912 648 649 946 945 5609 7521 7522 7511 5612 7524 7525 7514 5600 5610 7523 7513 7517 7527 5615 7528 7526 7529 7530 
616 617 914 913 649 650 947 946 5619 7531 7532 7521 5622 7534 7535 7524 5610 5620 7533 7523 7527 7537 5625 7538 7536 7539 7540 
617 618 915 914 650 651 948 947 5629 7541 7542 7531 5632 7544 7545 7534 5620 5630 7543 7533 7537 7547 5635 7548 7546 7549 7550 
618 619 916 915 651 652 949 948 5639 7551 7552 7541 5642 7554 7555 7544 5630 5640 7553 7543 7547 7557 5645 7558 7556 7559 7560 
619 620 917 916 652 653 950 949 5649 7561 7562 7551 5652 7564 7565 7554 5640 5650 7563 7553 7557 7567 5655 7568 7566 7569 7570 
620 621 918 917 653 654 951 950 5659 7571 7572 7561 5662 7574 7575 7564 5650 5660 7573 7563 7567 7577 5665 7578 7576 7579 7580 
621 622 919 918 654 655 952 951 5669 7581 7582 7571 5672 7584 7585 7574 5660 5670 7583 7573 7577 7587 5675 7588 7586 7589 7590 
622 623 920 919 655 656 953 952 5679 7591 7592 7581 5682 7594 7595 7584 5670 5680 7593 7583 7587 7597 5685 7598 7596 7599 7600 
623 624 921 920 656 657 954 953 5689 7601 7602 7591 5692 7604 7605 7594 5680 5690 7603 7593 7597 7607 5695 7608 7606 7609 7610 
624 625 922 921 657 658 955 954 5699 7611 7612 7601 5702 7614 7615 7604 5690 5700 7613 7603 7607 7617 5705 7618 7616 7619 7620 
625 626 923 922 658 659 956 955 5709 7621 7622 7611 5712 7624 7625 7614 5700 5710 7623 7613 7617 7627 5715 7628 7626 7629 7630 
627 628 925 924 660 661 958 957 5400 7312 7313 7314 5721 7633 7634 7635 5719 5718 7631 7632 7638 7636 5724 7637 7319 7639 7640 
628 629 926 925 661 662 959 958 5412 7324 7325 7312 5730 7642 7643 7633 5718 5728 7641 7631 7636 7644 5732 7645 7329 7646 7647 
629 630 927 926 662 663 960 959 5422 7334 7335 7324 5737 7649 7650 7642 5728 5735 7648 7641 7644 7651 5739 7652 7339 7653 7654 
630 631 928 927 663 664 961 960 5432 7344 7345 7334 5744 7656 7657 7649 5735 5742 7655 7648 7651 7658 5746 7659 7349 7660 7661 
631 632 929 928 664 665 962 961 5442 7354 7355 7344 5751 7663 7664 7656 5742 5749 7662 7655 7658 7665 5753 7666 7359 7667 7668 
632 633 930 929 665 666 963 962 5452 7364 7365 7354 5758 7670 7671 7663 5749 5756 7669 7662 7665 7672 5760 7673 7369 7674 7675 
633 634 931 930 666 667 964 963 5462 7374 7375 7364 5765 7677 7678 7670 5756 5763 7676 7669 7672 7679 5767 7680 7379 7681 7682 
634 635 932 931 667 668 965 964 5472 7384 7385 7374 5772 7684 7685 7677 5763 5770 7683 7676 7679 7686 5774 7687 7389 7688 7689 
635 636 933 932 668 669 966 965 5482 7394 7395 7384 5779 7691 7692 7684 5770 5777 7690 7683 7686 7693 5781 7694 7399 7695 7696 
636 637 934 933 669 670 967 966 5492 7404 7405 7394 5786 7698 7699 7691 5777 5784 7697 7690 7693 7700 5788 7701 7409 7702 7703 
637 638 935 934 670 671 968 967 5502 7414 7415 7404 5793 7705 7706 7698 5784 5791 7704 7697 7700 7707 5795 7708 7419 7709 7710 
638 639 936 935 671 672 969 968 5512 7424 7425 7414 5800 7712 7713 7705 5791 5798 7711 7704 7707 7714 5802 7715 7429 7716 7717 
639 640 937 936 672 673 970 969 5522 7434 7435 7424 5807 7719 7720 7712 5798 5805 7718 7711 7714 7721 5809 7722 7439 7723 7724 
640 641 938 937 673 674 971 970 5532 7444 7445 7434 5814 7726 7727 7719 5805 5812 7725 7718 7721 7728 5816 7729 7449 7730 7731 
641 642 939 938 674 675 972 971 5542 7454 7455 7444 5821 7733 7734 7726 5812 5819 7732 7725 7728 7735 5823 7736 7459 7737 7738 
642 643 940 939 675 676 973 972 5552 7464 7465 7454 5828 7740 7741 7733 5819 5826 7739 7732 7735 7742 5830 7743 7469 7744 7745 
643 644 941 940 676 677 974 973 5562 7474 7475 7464 5835 7747 7748 7740 5826 5833 7746 7739 7742 7749 5837 7750 7479 7751 7752 
644 645 942 941 677 678 975 974 5572 7484 7485 7474 5842 7754 7755 7747 5833 5840 7753 7746 7749 7756 5844 7757 7489 7758 7759 
645 646 943 942 678 679 976 975 5582 7494 7495 7484 5849 7761 7762 7754 5840 5847 7760 7753 7756 7763 5851 7764 7499 7765 7766 
646 647 944 943 679 680 977 976 5592 7504 7505 7494 5856 7768 7769 7761 5847 5854 7767 7760 7763 7770 5858 7771 7509 7772 7773 
647 648 945 944 680 681 978 977 5602 7514 7515 7504 5863 7775 7776 7768 5854 5861 7774 7767 7770 7777 5865 7778 7519 7779 7780 
648 649 946 945 681 682 979 978 5612 7524 7525 7514 5870 7782 7783 7775 5861 5868 7781 7774 7777 7784 5872 7785 7529 7786 7787 
649 650 947 946 682 683 980 979 5622 7534 7535 7524 5877 7789 7790 7782 5868 5875 7788 7781 7784 7791 5879 7792 7539 7793 7794 
650 651 948 947 683 684 981 980 5632 7544 7545 7534 5884 7796 7797 7789 5875 5882 7795 7788 7791 7798 5886 7799 7549 7800 7801 
651 652 949 948 684 685 982 981 5642 7554 7555 7544 5891 7803 7804 7796 5882 5889 7802 7795 7798 7805 5893 7806 7559 7807 7808 
652 653 950 949 685 686 983 982 5652 7564 7565 7554 5898 7810 7811 7803 5889 5896 7809 7802 7805 7812 5900 7813 7569 7814 7815 
653 654 951 950 686 687 984 983 5662 7574 7575 7564 5905 7817 7818 7810 5896 5903 7816 7809 7812 7819 5907 7820 7579 7821 7822 
654 655 952 951 687 688 985 984 5672 7584 7585 7574 5912 7824 7825 7817 5903 5910 7823 7816 7819 7826 5914 7827 7589 7828 7829 
655 656 953 952 688 689 986 985 5682 7594 7595 7584 5919 7831 7832 7824 5910 5917 7830 7823 7826 7833 5921 7834 7599 7835 7836 
656 657 954 953 689 690 987 986 5692 7604 7605 7594 5926 7838 7839 7831 5917 5924 7837 7830 7833 7840 5928 7841 7609 7842 7843 
657 658 955 954 690 691 988 987 5702 7614 7615 7604 5933 7845 7846 7838 5924 5931 7844 7837 7840 7847 5935 7848 7619 7849 7850 
658 659 956 955 691 692 989 988 5712 7624 7625 7614 5940 7852 7853 7845 5931 5938 7851 7844 7847 7854 5942 7855 7629 7856 7857 
660 661 958 957 693 694 991 990 5721 7633 7634 7635 5948 7860 7861 7862 5946 5945 7858 7859 7865 7863 5951 7864 7639 7866 7867 
661 662 959 958 694 695 992 991 5730 7642 7643 7633 5957 7869 7870 7860 5945 5955 7868 7858 7863 7871 5959 7872 7646 7873 7874 
662 663 960 959 695 696 993 992 5737 7649 7650 7642 5964 7876 7877 7869 5955 5962 7875 7868 7871 7878 5966 7879 7653 7880 7881 
663 664 961 960 696 697 994 993 5744 7656 7657 7649 5971 7883 7884 7876 5962 5969 7882 7875 7878 7885 5973 7886 7660 7887 7888 
664 665 962 961 697 698 995 994 5751 7663 7664 7656 5978 7890 7891 7883 5969 5976 7889 7882 7885 7892 5980 7893 7667 7894 7895 
665 666 963 962 698 699 996 995 5758 7670 7671 7663 5985 7897 7898 7890 5976 5983 7896 7889 7892 7899 5987 7900 7674 7901 7902 
666 667 964 963 699 700 997 996 5765 7677 7678 7670 5992 7904 7905 7897 5983 5990 7903 7896 7899 7906 5994 7907 7681 7908 7909 
667 668 965 964 700 701 998 997 5772 7684 7685 7677 5999 7911 7912 7904 5990 5997 7910 7903 7906 7913 6001 7914 7688 7915 7916 
668 669 966 965 701 702 999 998 5779 7691 7692 7684 6006 7918 7919 7911 5997 6004 7917 7910 7913 7920 6008 7921 7695 7922 7923 
669 670 967 966 702 703 1000 999 5786 7698 7699 7691 6013 7925 7926 7918 6004 6011 7924 7917 7920 7927 6015 7928 7702 7929 7930 
670 671 968 967 703 704 1001 1000 5793 7705 7706 7698 6020 7932 7933 7925 6011 6018 7931 7924 7927 7934 6022 7935 7709 7936 7937 
671 672 969 968 704 705 1002 1001 5800 7712 7713 7705 6027 7939 7940 7932 6018 6025 7938 7931 7934 7941 6029 7942 7716 7943 7944 
672 673 970 969 705 706 1003 1002 5807 7719 7720 7712 6034 7946 7947 7939 6025 6032 7945 7938 7941 7948 6036 7949 7723 7950 7951 
673 674 971 970 706 707 1004 1003 5814 7726 7727 7719 6041 7953 7954 7946 6032 6039 7952 7945 7948 7955 6043 7956 7730 7957 7958 
674 675 972 971 707 708 1005 1004 5821 7733 7734 7726 6048 7960 7961 7953 6039 6046 7959 7952 7955 7962 6050 7963 7737 7964 7965 
675 676 973 972 708 709 1006 1005 5828 7740 7741 7733 6055 7967 7968 7960 6046 6053 7966 7959 7962 7969 6057 7970 7744 7971 7972 
676 677 974 973 709 710 1007 1006 5835 7747 7748 7740 6062 7974 7975 7967 6053 6060 7973 7966 7969 7976 6064 7977 7751 7978 7979 
677 678 975 974 710 711 1008 1007 5842 7754 7755 7747 6069 7981 7982 7974 6060 6067 7980 7973 7976 7983 6071 7984 7758 7985 7986 
678 679 976 975 711 712 1009 1008 5849 7761 7762 7754 6076 7988 7989 7981 6067 6074 7987 7980 7983 7990 6078 7991 7765 7992 7993 
679 680 977 976 712 713 1010 1009 5856 7768 7769 7761 6083 7995 7996 7988 6074 6081 7994 7987 7990 7997 6085 7998 7772 7999 8000 
680 681 978 977 713 714 1011 1010 5863 7775 7776 7768 6090 8002 8003 7995 6081 6088 8001 7994 7997 8004 6092 8005 7779 8006 8007 
681 682 979 978 714 715 1012 1011 5870 7782 7783 7775 6097 8009 8010 8002 6088 6095 8008 8001 8004 8011 6099 8012 7786 8013 8014 
682 683 980 979 715 716 1013 1012 5877 7789 7790 7782 6104 8016 8017 8009 6095 6102 8015 8008 8011 8018 6106 8019 7793 8020 8021 
683 684 981 980 716 717 1014 1013 5884 7796 7797 7789 6111 8023 8024 8016 6102 6109 8022 8015 8018 8025 6113 8026 7800 8027 8028 
684 685 982 981 717 718 1015 1014 5891 7803 7804 7796 6118 8030 8031 8023 6109 6116 8029 8022 8025 8032 6120 8033 7807 8034 8035 
685 686 983 982 718 719 1016 1015 5898 7810 7811 7803 6125 8037 8038 8030 6116 6123 8036 8029 8032 8039 6127 8040 7814 8041 8042 
686 687 984 983 719 720 1017 1016 5905 7817 7818 7810 6132 8044 8045 8037 6123 6130 8043 8036 8039 8046 6134 8047 7821 8048 8049 
687 688 985 984 720 721 1018 1017 5912 7824 7825 7817 6139 8051 8052 8044 6130 6137 8050 8043 8046 8053 6141 8054 7828 8055 8056 
688 689 986 985 721 722 1019 1018 5919 7831 7832 7824 6146 8058 8059 8051 6137 6144 8057 8050 8053 8060 6148 8061 7835 8062 8063 
689 690 987 986 722 723 1020 1019 5926 7838 7839 7831 6153 8065 8066 8058 6144 6151 8064 8057 8060 8067 6155 8068 7842 8069 8070 
690 691 988 987 723 724 1021 1020 5933 7845 7846 7838 6160 8072 8073 8065 6151 6158 8071 8064 8067 8074 6162 8075 7849 8076 8077 
691 692 989 988 724 725 1022 1021 5940 7852 7853 7845 6167 8079 8080 8072 6158 6165 8078 8071 8074 8081 6169 8082 7856 8083 8084 
693 694 991 990 726 727 1024 1023 5948 7860 7861 7862 6175 8087 8088 8089 6173 6172 8085 8086 8092 8090 6178 8091 7866 8093 8094 
694 695 992 991 727 728 1025 1024 5957 7869 7870 7860 6184 8096 8097 8087 6172 6182 8095 8085 8090 8098 6186 8099 7873 8100 8101 
695 696 993 992 728 729 1026 1025 5964 7876 7877 7869 6191 8103 8104 8096 6182 6189 8102 8095 8098 8105 6193 8106 7880 8107 8108 
696 697 994 993 729 730 1027 1026 5971 7883 7884 7876 6198 8110 8111 8103 6189 6196 8109 8102 8105 8112 6200 8113 7887 8114 8115 
697 698 995 994 730 731 1028 1027 5978 7890 7891 7883 6205 8117 8118 8110 6196 6203 8116 8109 8112 8119 6207 8120 7894 8121 8122 
698 699 996 995 731 732 1029 1028 5985 7897 7898 7890 6212 8124 8125 8117 6203 6210 8123 8116 8119 8126 6214 8127 7901 8128 8129 
699 700 997 996 732 733 1030 1029 5992 7904 7905 7897 6219 8131 8132 8124 6210 6217 8130 8123 8126 8133 6221 8134 7908 8135 8136 
700 701 998 997 733 734 1031 1030 5999 7911 7912 7904 6226 8138 8139 8131 6217 6224 8137 8130 8133 8140 6228 8141 7915 8142 8143 
701 702 999 998 734 735 1032 1031 6006 7918 7919 7911 6233 8145 8146 8138 6224 6231 8144 8137 8140 8147 6235 8148 7922 8149 8150 
702 703 1000 999 735 736 1033 1032 6013 7925 7926 7918 6240 8152 8153 8145 6231 6238 8151 8144 8147 8154 6242 8155 7929 8156 8157 
703 704 1001 1000 736 737 1034 1033 6020 7932 7933 7925 6247 8159 8160 8152 6238 6245 8158 8151 8154 8161 6249 8162 7936 8163 8164 
704 705 1002 1001 737 738 1035 1034 6027 7939 7940 7932 6254 8166 8167 8159 6245 6252 8165 8158 8161 8168 6256 8169 7943 8170 8171 
705 706 1003 1002 738 739 1036 1035 6034 7946 7947 7939 6261 8173 8174 8166 6252 6259 8172 8165 8168 8175 6263 8176 7950 8177 8178 
706 707 1004 1003 739 740 1037 1036 6041 7953 7954 7946 6268 8180 8181 8173 6259 6266 8179 8172 8175 8182 6270 8183 7957 8184 8185 
707 708 1005 1004 740 741 1038 1037 6048 7960 7961 7953 6275 8187 8188 8180 6266 6273 8186 8179 8182 8189 6277 8190 7964 8191 8192 
708 709 1006 1005 741 742 1039 1038 6055 7967 7968 7960 6282 8194 8195 8187 6273 6280 8193 8186 8189 8196 6284 8197 7971 8198 8199 
709 710 1007 1006 742 743 1040 1039 6062 7974 7975 7967 6289 8201 8202 8194 6280 6287 8200 8193 8196 8203 6291 8204 7978 8205 8206 
710 711 1008 1007 743 744 1041 1040 6069 7981 7982 7974 6296 8208 8209 8201 6287 6294 8207 8200 8203 8210 6298 8211 7985 8212 8213 
711 712 1009 1008 744 745 1042 1041 6076 7988 7989 7981 6303 8215 8216 8208 6294 6301 8214 8207 8210 8217 6305 8218 7992 8219 8220 
712 713 1010 1009 745 746 1043 1042 6083 7995 7996 7988 6310 8222 8223 8215 6301 6308 8221 8214 8217 8224 6312 8225 7999 8226 8227 
713 714 1011 1010 746 747 1044 1043 6090 8002 8003 7995 6317 8229 8230 8222 6308 6315 8228 8221 8224 8231 6319 8232 8006 8233 8234 
714 715 1012 1011 747 748 1045 1044 6097 8009 8010 8002 6324 8236 8237 8229 6315 6322 8235 8228 8231 8238 6326 8239 8013 8240 8241 
715 716 1013 1012 748 749 1046 1045 6104 8016 8017 8009 6331 8243 8244 8236 6322 6329 8242 8235 8238 8245 6333 8246 8020 8247 8248 
716 717 1014 1013 749 750 1047 1046 6111 8023 8024 8016 6338 8250 8251 8243 6329 6336 8249 8242 8245 8252 6340 8253 8027 8254 8255 
717 718 1015 1014 750 751 1048 1047 6118 8030 8031 8023 6345 8257 8258 8250 6336 6343 8256 8249 8252 8259 6347 8260 8034 8261 8262 
718 719 1016 1015 751 752 1049 1048 6125 8037 8038 8030 6352 8264 8265 8257 6343 6350 8263 8256 8259 8266 6354 8267 8041 8268 8269 
719 720 1017 1016 752 753 1050 1049 6132 8044 8045 8037 6359 8271 8272 8264 6350 6357 8270 8263 8266 8273 6361 8274 8048 8275 8276 
720 721 1018 1017 753 754 1051 1050 6139 8051 8052 8044 6366 8278 8279 8271 6357 6364 8277 8270 8273 8280 6368 8281 8055 8282 8283 
721 722 1019 1018 754 755 1052 1051 6146 8058 8059 8051 6373 8285 8286 8278 6364 6371 8284 8277 8280 8287 6375 8288 8062 8289 8290 
722 723 1020 1019 755 756 1053 1052 6153 8065 8066 8058 6380 8292 8293 8285 6371 6378 8291 8284 8287 8294 6382 8295 8069 8296 8297 
723 724 1021 1020 756 757 1054 1053 6160 8072 8073 8065 6387 8299 8300 8292 6378 6385 8298 8291 8294 8301 6389 8302 8076 8303 8304 
724 725 1022 1021 757 758 1055 1054 6167 8079 8080 8072 6394 8306 8307 8299 6385 6392 8305 8298 8301 8308 6396 8309 8083 8310 8311 
726 727 1024 1023 759 760 1057 1056 6175 8087 8088 8089 6402 8314 8315 8316 6400 6399 8312 8313 8319 8317 6405 8318 8093 8320 8321 
727 728 1025 1024 760 761 1058 1057 6184 8096 8097 8087 6411 8323 8324 8314 6399 6409 8322 8312 8317 8325 6413 8326 8100 8327 8328 
728 729 1026 1025 761 762 1059 1058 6191 8103 8104 8096 6418 8330 8331 8323 6409 6416 8329 8322 8325 8332 6420 8333 8107 8334 8335 
729 730 1027 1026 762 763 1060 1059 6198 8110 8111 8103 6425 8337 8338 8330 6416 6423 8336 8329 8332 8339 6427 8340 8114 8341 8342 
730 731 1028 1027 763 764 1061 1060 6205 8117 8118 8110 6432 8344 8345 8337 6423 6430 8343 8336 8339 8346 6434 8347 8121 8348 8349 
731 732 1029 1028 764 765 1062 1061 6212 8124 8125 8117 6439 8351 8352 8344 6430 6437 8350 8343 8346 8353 6441 8354 8128 8355 8356 
732 733 1030 1029 765 766 1063 1062 6219 8131 8132 8124 6446 8358 8359 8351 6437 6444 8357 8350 8353 8360 6448 8361 8135 8362 8363 
733 734 1031 1030 766 767 1064 1063 6226 8138 8139 8131 6453 8365 8366 8358 6444 6451 8364 8357 8360 8367 6455 8368 8142 8369 8370 
734 735 1032 1031 767 768 1065 1064 6233 8145 8146 8138 6460 8372 8373 8365 6451 6458 8371 8364 8367 8374 6462 8375 8149 8376 8377 
735 736 1033 1032 768 769 1066 1065 6240 8152 8153 8145 6467 8379 8380 8372 6458 6465 8378 8371 8374 8381 6469 8382 8156 8383 8384 
736 737 1034 1033 769 770 1067 1066 6247 8159 8160 8152 6474 8386 8387 8379 6465 6472 8385 8378 8381 8388 6476 8389 8163 8390 8391 
737 738 1035 1034 770 771 1068 1067 6254 8166 8167 8159 6481 8393 8394 8386 6472 6479 8392 8385 8388 8395 6483 8396 8170 8397 8398 
738 739 1036 1035 771 772 1069 1068 6261 8173 8174 8166 6488 8400 8401 8393 6479 6486 8399 8392 8395 8402 6490 8403 8177 8404 8405 
739 740 1037 1036 772 773 1070 1069 6268 8180 8181 8173 6495 8407 8408 8400 6486 6493 8406 8399 8402 8409 6497 8410 8184 8411 8412 
740 741 1038 1037 773 774 1071 1070 6275 8187 8188 8180 6502 8414 8415 8407 6493 6500 8413 8406 8409 8416 6504 8417 8191 8418 8419 
741 742 1039 1038 774 775 1072 1071 6282 8194 8195 8187 6509 8421 8422 8414 6500 6507 8420 8413 8416 8423 6511 8424 8198 8425 8426 
742 743 1040 1039 775 776 1073 1072 6289 8201 8202 8194 6516 8428 8429 8421 6507 6514 8427 8420 8423 8430 6518 8431 8205 8432 8433 
743 744 1041 1040 776 777 1074 1073 6296 8208 8209 8201 6523 8435 8436 8428 6514 6521 8434 8427 8430 8437 6525 8438 8212 8439 8440 
744 745 1042 1041 777 778 1075 1074 6303 8215 8216 8208 6530 8442 8443 8435 6521 6528 8441 8434 8437 8444 6532 8445 8219 8446 8447 
745 746 1043 1042 778 779 1076 1075 6310 8222 8223 8215 6537 8449 8450 8442 6528 6535 8448 8441 8444 8451 6539 8452 8226 8453 8454 
746 747 1044 1043 779 780 1077 1076 6317 8229 8230 8222 6544 8456 8457 8449 6535 6542 8455 8448 8451 8458 6546 8459 8233 8460 8461 
747 748 1045 1044 780 781 1078 1077 6324 8236 8237 8229 6551 8463 8464 8456 6542 6549 8462 8455 8458 8465 6553 8466 8240 8467 8468 
748 749 1046 1045 781 782 1079 1078 6331 8243 8244 8236 6558 8470 8471 8463 6549 6556 8469 8462 8465 8472 6560 8473 8247 8474 8475 
749 750 1047 1046 782 783 1080 1079 6338 8250 8251 8243 6565 8477 8478 8470 6556 6563 8476 8469 8472 8479 6567 8480 8254 8481 8482 
750 751 1048 1047 783 784 1081 1080 6345 8257 8258 8250 6572 8484 8485 8477 6563 6570 8483 8476 8479 8486 6574 8487 8261 8488 8489 
751 752 1049 1048 784 785 1082 1081 6352 8264 8265 8257 6579 8491 8492 8484 6570 6577 8490 8483 8486 8493 6581 8494 8268 8495 8496 
752 753 1050 1049 785 786 1083 1082 6359 8271 8272 8264 6586 8498 8499 8491 6577 6584 8497 8490 8493 8500 6588 8501 8275 8502 8503 
753 754 1051 1050 786 787 1084 1083 6366 8278 8279 8271 6593 8505 8506 8498 6584 6591 8504 8497 8500 8507 6595 8508 8282 8509 8510 
754 755 1052 1051 787 788 1085 1084 6373 8285 8286 8278 6600 8512 8513 8505 6591 6598 8511 8504 8507 8514 6602 8515 8289 8516 8517 
755 756 1053 1052 788 789 1086 1085 6380 8292 8293 8285 6607 8519 8520 8512 6598 6605 8518 8511 8514 8521 6609 8522 8296 8523 8524 
756 757 1054 1053 789 790 1087 1086 6387 8299 8300 8292 6614 8526 8527 8519 6605 6612 8525 8518 8521 8528 6616 8529 8303 8530 8531 
757 758 1055 1054 790 791 1088 1087 6394 8306 8307 8299 6621 8533 8534 8526 6612 6619 8532 8525 8528 8535 6623 8536 8310 8537 8538 
759 760 1057 1056 792 793 1090 1089 6402 8314 8315 8316 6629 8541 8542 8543 6627 6626 8539 8540 8546 8544 6632 8545 8320 8547 8548 
760 761 1058 1057 793 794 1091 1090 6411 8323 8324 8314 6638 8550 8551 8541 6626 6636 8549 8539 8544 8552 6640 8553 8327 8554 8555 
761 762 1059 1058 794 795 1092 1091 6418 8330 8331 8323 6645 8557 8558 8550 6636 6643 8556 8549 8552 8559 6647 8560 8334 8561 8562 
762 763 1060 1059 795 796 1093 1092 6425 8337 8338 8330 6652 8564 8565 8557 6643 6650 8563 8556 8559 8566 6654 8567 8341 8568 8569 
763 764 1061 1060 796 797 1094 1093 6432 8344 8345 8337 6659 8571 8572 8564 6650 6657 8570 8563 8566 8573 6661 8574 8348 8575 8576 
764 765 1062 1061 797 798 1095 1094 6439 8351 8352 8344 6666 8578 8579 8571 6657 6664 8577 8570 8573 8580 6668 8581 8355 8582 8583 
765 766 1063 1062 798 799 1096 1095 6446 8358 8359 8351 6673 8585 8586 8578 6664 6671 8584 8577 8580 8587 6675 8588 8362 8589 8590 
766 767 1064 1063 799 800 1097 1096 6453 8365 8366 8358 6680 8592 8593 8585 6671 6678 8591 8584 8587 8594 6682 8595 8369 8596 8597 
767 768 1065 1064 800 801 1098 1097 6460 8372 8373 8365 6687 8599 8600 8592 6678 6685 8598 8591 8594 8601 6689 8602 8376 8603 8604 
768 769 1066 1065 801 802 1099 1098 6467 8379 8380 8372 6694 8606 8607 8599 6685 6692 8605 8598 8601 8608 6696 8609 8383 8610 8611 
769 770 1067 1066 802 803 1100 1099 6474 8386 8387 8379 6701 8613 8614 8606 6692 6699 8612 8605 8608 8615 6703 8616 8390 8617 8618 
770 771 1068 1067 803 804 1101 1100 6481 8393 8394 8386 6708 8620 8621 8613 6699 6706 8619 8612 8615 8622 6710 8623 8397 8624 8625 
771 772 1069 1068 804 805 1102 1101 6488 8400 8401 8393 6715 8627 8628 8620 6706 6713 8626 8619 8622 8629 6717 8630 8404 8631 8632 
772 773 1070 1069 805 806 1103 1102 6495 8407 8408 8400 6722 8634 8635 8627 6713 6720 8633 8626 8629 8636 6724 8637 8411 8638 8639 
773 774 1071 1070 806 807 1104 1103 6502 8414 8415 8407 6729 8641 8642 8634 6720 6727 8640 8633 8636 8643 6731 8644 8418 8645 8646 
774 775 1072 1071 807 808 1105 1104 6509 8421 8422 8414 6736 8648 8649 8641 6727 6734 8647 8640 8643 8650 6738 8651 8425 8652 8653 
775 776 1073 1072 808 809 1106 1105 6516 8428 8429 8421 6743 8655 8656 8648 6734 6741 8654 8647 8650 8657 6745 8658 8432 8659 8660 
776 777 1074 1073 809 810 1107 1106 6523 8435 8436 8428 6750 8662 8663 8655 6741 6748 8661 8654 8657 8664 6752 8665 8439 8666 8667 
777 778 1075 1074 810 811 1108 1107 6530 8442 8443 8435 6757 8669 8670 8662 6748 6755 8668 8661 8664 8671 6759 8672 8446 8673 8674 
778 779 1076 1075 811 812 1109 1108 6537 8449 8450 8442 6764 8676 8677 8669 6755 6762 8675 8668 8671 8678 6766 8679 8453 8680 8681 
779 780 1077 1076 812 813 1110 1109 6544 8456 8457 8449 6771 8683 8684 8676 6762 6769 8682 8675 8678 8685 6773 8686 8460 8687 8688 
780 781 1078 1077 813 814 1111 1110 6551 8463 8464 8456 6778 8690 8691 8683 6769 6776 8689 8682 8685 8692 6780 8693 8467 8694 8695 
781 782 1079 1078 814 815 1112 1111 6558 8470 8471 8463 6785 8697 8698 8690 6776 6783 8696 8689 8692 8699 6787 8700 8474 8701 8702 
782 783 1080 1079 815 816 1113 1112 6565 8477 8478 8470 6792 8704 8705 8697 6783 6790 8703 8696 8699 8706 6794 8707 8481 8708 8709 
783 784 1081 1080 816 817 1114 1113 6572 8484 8485 8477 6799 8711 8712 8704 6790 6797 8710 8703 8706 8713 6801 8714 8488 8715 8716 
784 785 1082 1081 817 818 1115 1114 6579 8491 8492 8484 6806 8718 8719 8711 6797 6804 8717 8710 8713 8720 6808 8721 8495 8722 8723 
785 786 1083 1082 818 819 1116 1115 6586 8498 8499 8491 6813 8725 8726 8718 6804 6811 8724 8717 8720 8727 6815 8728 8502 8729 8730 
786 787 1084 1083 819 820 1117 1116 6593 8505 8506 8498 6820 8732 8733 8725 6811 6818 8731 8724 8727 8734 6822 8735 8509 8736 8737 
787 788 1085 1084 820 821 1118 1117 6600 8512 8513 8505 6827 8739 8740 8732 6818 6825 8738 8731 8734 8741 6829 8742 8516 8743 8744 
788 789 1086 1085 821 822 1119 1118 6607 8519 8520 8512 6834 8746 8747 8739 6825 6832 8745 8738 8741 8748 6836 8749 8523 8750 8751 
789 790 1087 1086 822 823 1120 1119 6614 8526 8527 8519 6841 8753 8754 8746 6832 6839 8752 8745 8748 8755 6843 8756 8530 8757 8758 
790 791 1088 1087 823 824 1121 1120 6621 8533 8534 8526 6848 8760 8761 8753 6839 6846 8759 8752 8755 8762 6850 8763 8537 8764 8765 
792 793 1090 1089 825 826 1123 1122 6629 8541 8542 8543 6856 8768 8769 8770 6854 6853 8766 8767 8773 8771 6859 8772 8547 8774 8775 
793 794 1091 1090 826 827 1124 1123 6638 8550 8551 8541 6865 8777 8778 8768 6853 6863 8776 8766 8771 8779 6867 8780 8554 8781 8782 
794 795 1092 1091 827 828 1125 1124 6645 8557 8558 8550 6872 8784 8785 8777 6863 6870 8783 8776 8779 8786 6874 8787 8561 8788 8789 
795 796 1093 1092 828 829 1126 1125 6652 8564 8565 8557 6879 8791 8792 8784 6870 6877 8790 8783 8786 8793 6881 8794 8568 8795 8796 
796 797 1094 1093 829 830 1127 1126 6659 8571 8572 8564 6886 8798 8799 8791 6877 6884 8797 8790 8793 8800 6888 8801 8575 8802 8803 
797 798 1095 1094 830 831 1128 1127 6666 8578 8579 8571 6893 8805 8806 8798 6884 6891 8804 8797 8800 8807 6895 8808 8582 8809 8810 
798 799 1096 1095 831 832 1129 1128 6673 8585 8586 8578 6900 8812 8813 8805 6891 6898 8811 8804 8807 8814 6902 8815 8589 8816 8817 
799 800 1097 1096 832 833 1130 1129 6680 8592 8593 8585 6907 8819 8820 8812 6898 6905 8818 8811 8814 8821 6909 8822 8596 8823 8824 
800 801 1098 1097 833 834 1131 1130 6687 8599 8600 8592 6914 8826 8827 8819 6905 6912 8825 8818 8821 8828 6916 8829 8603 8830 8831 
801 802 1099 1098 834 835 1132 1131 6694 8606 8607 8599 6921 8833 8834 8826 6912 6919 8832 8825 8828 8835 6923 8836 8610 8837 8838 
802 803 1100 1099 835 836 1133 1132 6701 8613 8614 8606 6928 8840 8841 8833 6919 6926 8839 8832 8835 8842 6930 8843 8617 8844 8845 
803 804 1101 1100 836 837 1134 1133 6708 8620 8621 8613 6935 8847 8848 8840 6926 6933 8846 8839 8842 8849 6937 8850 8624 8851 8852 
804 805 1102 1101 837 838 1135 1134 6715 8627 8628 8620 6942 8854 8855 8847 6933 6940 8853 8846 8849 8856 6944 8857 8631 8858 8859 
805 806 1103 1102 838 839 1136 1135 6722 8634 8635 8627 6949 8861 8862 8854 6940 6947 8860 8853 8856 8863 6951 8864 8638 8865 8866 
806 807 1104 1103 839 840 1137 1136 6729 8641 8642 8634 6956 8868 8869 8861 6947 6954 8867 8860 8863 8870 6958 8871 8645 8872 8873 
807 808 1105 1104 840 841 1138 1137 6736 8648 8649 8641 6963 8875 8876 8868 6954 6961 8874 8867 8870 8877 6965 8878 8652 8879 8880 
808 809 1106 1105 841 842 1139 1138 6743 8655 8656 8648 6970 8882 8883 8875 6961 6968 8881 8874 8877 8884 6972 8885 8659 8886 8887 
809 810 1107 1106 842 843 1140 1139 6750 8662 8663 8655 6977 8889 8890 8882 6968 6975 8888 8881 8884 8891 6979 8892 8666 8893 8894 
810 811 1108 1107 843 844 1141 1140 6757 8669 8670 8662 6984 8896 8897 8889 6975 6982 8895 8888 8891 8898 6986 8899 8673 8900 8901 
811 812 1109 1108 844 845 1142 1141 6764 8676 8677 8669 6991 8903 8904 8896 6982 6989 8902 8895 8898 8905 6993 8906 8680 8907 8908 
812 813 1110 1109 845 846 1143 1142 6771 8683 8684 8676 6998 8910 8911 8903 6989 6996 8909 8902 8905 8912 7000 8913 8687 8914 8915 
813 814 1111 1110 846 847 1144 1143 6778 8690 8691 8683 7005 8917 8918 8910 6996 7003 8916 8909 8912 8919 7007 8920 8694 8921 8922 
814 815 1112 1111 847 848 1145 1144 6785 8697 8698 8690 7012 8924 8925 8917 7003 7010 8923 8916 8919 8926 7014 8927 8701 8928 8929 
815 816 1113 1112 848 849 1146 1145 6792 8704 8705 8697 7019 8931 8932 8924 7010 7017 8930 8923 8926 8933 7021 8934 8708 8935 8936 
816 817 1114 1113 849 850 1147 1146 6799 8711 8712 8704 7026 8938 8939 8931 7017 7024 8937 8930 8933 8940 7028 8941 8715 8942 8943 
817 818 1115 1114 850 851 1148 1147 6806 8718 8719 8711 7033 8945 8946 8938 7024 7031 8944 8937 8940 8947 7035 8948 8722 8949 8950 
818 819 1116 1115 851 852 1149 1148 6813 8725 8726 8718 7040 8952 8953 8945 7031 7038 8951 8944 8947 8954 7042 8955 8729 8956 8957 
819 820 1117 1116 852 853 1150 1149 6820 8732 8733 8725 7047 8959 8960 8952 7038 7045 8958 8951 8954 8961 7049 8962 8736 8963 8964 
820 821 1118 1117 853 854 1151 1150 6827 8739 8740 8732 7054 8966 8967 8959 7045 7052 8965 8958 8961 8968 7056 8969 8743 8970 8971 
821 822 1119 1118 854 855 1152 1151 6834 8746 8747 8739 7061 8973 8974 8966 7052 7059 8972 8965 8968 8975 7063 8976 8750 8977 8978 
822 823 1120 1119 855 856 1153 1152 6841 8753 8754 8746 7068 8980 8981 8973 7059 7066 8979 8972 8975 8982 7070 8983 8757 8984 8985 
823 824 1121 1120 856 857 1154 1153 6848 8760 8761 8753 7075 8987 8988 8980 7066 7073 8986 8979 8982 8989 7077 8990 8764 8991 8992 
825 826 1123 1122 858 859 1156 1155 6856 8768 8769 8770 7083 8995 8996 8997 7081 7080 8993 8994 9000 8998 7086 8999 8774 9001 9002 
826 827 1124 1123 859 860 1157 1156 6865 8777 8778 8768 7092 9004 9005 8995 7080 7090 9003 8993 8998 9006 7094 9007 8781 9008 9009 
827 828 1125 1124 860 861 1158 1157 6872 8784 8785 8777 7099 9011 9012 9004 7090 7097 9010 9003 9006 9013 7101 9014 8788 9015 9016 
828 829 1126 1125 861 862 1159 1158 6879 8791 8792 8784 7106 9018 9019 9011 7097 7104 9017 9010 9013 9020 7108 9021 8795 9022 9023 
829 830 1127 1126 862 863 1160 1159 6886 8798 8799 8791 7113 9025 9026 9018 7104 7111 9024 9017 9020 9027 7115 9028 8802 9029 9030 
830 831 1128 1127 863 864 1161 1160 6893 8805 8806 8798 7120 9032 9033 9025 7111 7118 9031 9024 9027 9034 7122 9035 8809 9036 9037 
831 832 1129 1128 864 865 1162 1161 6900 8812 8813 8805 7127 9039 9040 9032 7118 7125 9038 9031 9034 9041 7129 9042 8816 9043 9044 
832 833 1130 1129 865 866 1163 1162 6907 8819 8820 8812 7134 9046 9047 9039 7125 7132 9045 9038 9041 9048 7136 9049 8823 9050 9051 
833 834 1131 1130 866 867 1164 1163 6914 8826 8827 8819 7141 9053 9054 9046 7132 7139 9052 9045 9048 9055 7143 9056 8830 9057 9058 
834 835 1132 1131 867 868 1165 1164 6921 8833 8834 8826 7148 9060 9061 9053 7139 7146 9059 9052 9055 9062 7150 9063 8837 9064 9065 
835 836 1133 1132 868 869 1166 1165 6928 8840 8841 8833 7155 9067 9068 9060 7146 7153 9066 9059 9062 9069 7157 9070 8844 9071 9072 
836 837 1134 1133 869 870 1167 1166 6935 8847 8848 8840 7162 9074 9075 9067 7153 7160 9073 9066 9069 9076 7164 9077 8851 9078 9079 
837 838 1135 1134 870 871 1168 1167 6942 8854 8855 8847 7169 9081 9082 9074 7160 7167 9080 9073 9076 9083 7171 9084 8858 9085 9086 
838 839 1136 1135 871 872 1169 1168 6949 8861 8862 8854 7176 9088 9089 9081 7167 7174 9087 9080 9083 9090 7178 9091 8865 9092 9093 
839 840 1137 1136 872 873 1170 1169 6956 8868 8869 8861 7183 9095 9096 9088 7174 7181 9094 9087 9090 9097 7185 9098 8872 9099 9100 
840 841 1138 1137 873 874 1171 1170 6963 8875 8876 8868 7190 9102 9103 9095 7181 7188 9101 9094 9097 9104 7192 9105 8879 9106 9107 
841 842 1139 1138 874 875 1172 1171 6970 8882 8883 8875 7197 9109 9110 9102 7188 7195 9108 9101 9104 9111 7199 9112 8886 9113 9114 
842 843 1140 1139 875 876 1173 1172 6977 8889 8890 8882 7204 9116 9117 9109 7195 7202 9115 9108 9111 9118 7206 9119 8893 9120 9121 
843 844 1141 1140 876 877 1174 1173 6984 8896 8897 8889 7211 9123 9124 9116 7202 7209 9122 9115 9118 9125 7213 9126 8900 9127 9128 
844 845 1142 1141 877 878 1175 1174 6991 8903 8904 8896 7218 9130 9131 9123 7209 7216 9129 9122 9125 9132 7220 9133 8907 9134 9135 
845 846 1143 1142 878 879 1176 1175 6998 8910 8911 8903 7225 9137 9138 9130 7216 7223 9136 9129 9132 9139 7227 9140 8914 9141 9142 
846 847 1144 1143 879 880 1177 1176 7005 8917 8918 8910 7232 9144 9145 9137 7223 7230 9143 9136 9139 9146 7234 9147 8921 9148 9149 
847 848 1145 1144 880 881 1178 1177 7012 8924 8925 8917 7239 9151 9152 9144 7230 7237 9150 9143 9146 9153 7241 9154 8928 9155 9156 
848 849 1146 1145 881 882 1179 1178 7019 8931 8932 8924 7246 9158 9159 9151 7237 7244 9157 9150 9153 9160 7248 9161 8935 9162 9163 
849 850 1147 1146 882 883 1180 1179 7026 8938 8939 8931 7253 9165 9166 9158 7244 7251 9164 9157 9160 9167 7255 9168 8942 9169 9170 
850 851 1148 1147 883 884 1181 1180 7033 8945 8946 8938 7260 9172 9173 9165 7251 7258 9171 9164 9167 9174 7262 9175 8949 9176 9177 
851 852 1149 1148 884 885 1182 1181 7040 8952 8953 8945 7267 9179 9180 9172 7258 7265 9178 9171 9174 9181 7269 9182 8956 9183 9184 
852 853 1150 1149 885 886 1183 1182 7047 8959 8960 8952 7274 9186 9187 9179 7265 7272 9185 9178 9181 9188 7276 9189 8963 9190 9191 
853 854 1151 1150 886 887 1184 1183 7054 8966 8967 8959 7281 9193 9194 9186 7272 7279 9192 9185 9188 9195 7283 9196 8970 9197 9198 
854 855 1152 1151 887 888 1185 1184 7061 8973 8974 8966 7288 9200 9201 9193 7279 7286 9199 9192 9195 9202 7290 9203 8977 9204 9205 
855 856 1153 1152 888 889 1186 1185 7068 8980 8981 8973 7295 9207 9208 9200 7286 7293 9206 9199 9202 9209 7297 9210 8984 9211 9212 
856 857 1154 1153 889 890 1187 1186 7075 8987 8988 8980 7302 9214 9215 9207 7293 7300 9213 9206 9209 9216 7304 9217 8991 9218 9219 
891 892 1189 1188 924 925 1222 1221 7308 9220 9221 9222 7313 9225 9226 9227 7311 7310 9223 9224 9231 9229 7317 9230 9228 9232 9233 
892 893 1190 1189 925 926 1223 1222 7322 9234 9235 9220 7325 9237 9238 9225 7310 7323 9236 9223 9229 9240 7328 9241 9239 9242 9243 
893 894 1191 1190 926 927 1224 1223 7332 9244 9245 9234 7335 9247 9248 9237 7323 7333 9246 9236 9240 9250 7338 9251 9249 9252 9253 
894 895 1192 1191 927 928 1225 1224 7342 9254 9255 9244 7345 9257 9258 9247 7333 7343 9256 9246 9250 9260 7348 9261 9259 9262 9263 
895 896 1193 1192 928 929 1226 1225 7352 9264 9265 9254 7355 9267 9268 9257 7343 7353 9266 9256 9260 9270 7358 9271 9269 9272 9273 
896 897 1194 1193 929 930 1227 1226 7362 9274 9275 9264 7365 9277 9278 9267 7353 7363 9276 9266 9270 9280 7368 9281 9279 9282 9283 
897 898 1195 1194 930 931 1228 1227 7372 9284 9285 9274 7375 9287 9288 9277 7363 7373 9286 9276 9280 9290 7378 9291 9289 9292 9293 
898 899 1196 1195 931 932 1229 1228 7382 9294 9295 9284 7385 9297 9298 9287 7373 7383 9296 9286 9290 9300 7388 9301 9299 9302 9303 
899 900 1197 1196 932 933 1230 1229 7392 9304 9305 9294 7395 9307 9308 9297 7383 7393 9306 9296 9300 9310 7398 9311 9309 9312 9313 
900 901 1198 1197 933 934 1231 1230 7402 9314 9315 9304 7405 9317 9318 9307 7393 7403 9316 9306 9310 9320 7408 9321 9319 9322 9323 
901 902 1199 1198 934 935 1232 1231 7412 9324 9325 9314 7415 9327 9328 9317 7403 7413 9326 9316 9320 9330 7418 9331 9329 9332 9333 
902 903 1200 1199 935 936 1233 1232 7422 9334 9335 9324 7425 9337 9338 9327 7413 7423 9336 9326 9330 9340 7428 9341 9339 9342 9343 
903 904 1201 1200 936 937 1234 1233 7432 9344 9345 9334 7435 9347 9348 9337 7423 7433 9346 9336 9340 9350 7438 9351 9349 9352 9353 
904 905 1202 1201 937 938 1235 1234 7442 9354 9355 9344 7445 9357 9358 9347 7433 7443 9356 9346 9350 9360 7448 9361 9359 9362 9363 
905 906 1203 1202 938 939 1236 1235 7452 9364 9365 9354 7455 9367 9368 9357 7443 7453 9366 9356 9360 9370 7458 9371 9369 9372 9373 
906 907 1204 1203 939 940 1237 1236 7462 9374 9375 9364 7465 9377 9378 9367 7453 7463 9376 9366 9370 9380 7468 9381 9379 9382 9383 
907 908 1205 1204 940 941 1238 1237 7472 9384 9385 9374 7475 9387 9388 9377 7463 7473 9386 9376 9380 9390 7478 9391 9389 9392 9393 
908 909 1206 1205 941 942 1239 1238 7482 9394 9395 9384 7485 9397 9398 9387 7473 7483 9396 9386 9390 9400 7488 9401 9399 9402 9403 
909 910 1207 1206 942 943 1240 1239 7492 9404 9405 9394 7495 9407 9408 9397 7483 7493 9406 9396 9400 9410 7498 9411 9409 9412 9413 
910 911 1208 1207 943 944 1241 1240 7502 9414 9415 9404 7505 9417 9418 9407 7493 7503 9416 9406 9410 9420 7508 9421 9419 9422 9423 
911 912 1209 1208 944 945 1242 1241 7512 9424 9425 9414 7515 9427 9428 9417 7503 7513 9426 9416 9420 9430 7518 9431 9429 9432 9433 
912 913 1210 1209 945 946 1243 1242 7522 9434 9435 9424 7525 9437 9438 9427 7513 7523 9436 9426 9430 9440 7528 9441 9439 9442 9443 
913 914 1211 1210 946 947 1244 1243 7532 9444 9445 9434 7535 9447 9448 9437 7523 7533 9446 9436 9440 9450 7538 9451 9449 9452 9453 
914 915 1212 1211 947 948 1245 1244 7542 9454 9455 9444 7545 9457 9458 9447 7533 7543 9456 9446 9450 9460 7548 9461 9459 9462 9463 
915 916 1213 1212 948 949 1246 1245 7552 9464 9465 9454 7555 9467 9468 9457 7543 7553 9466 9456 9460 9470 7558 9471 9469 9472 9473 
916 917 1214 1213 949 950 1247 1246 7562 9474 9475 9464 7565 9477 9478 9467 7553 7563 9476 9466 9470 9480 7568 9481 9479 9482 9483 
917 918 1215 1214 950 951 1248 1247 7572 9484 9485 9474 7575 9487 9488 9477 7563 7573 9486 9476 9480 9490 7578 9491 9489 9492 9493 
918 919 1216 1215 951 952 1249 1248 7582 9494 9495 9484 7585 9497 9498 9487 7573 7583 9496 9486 9490 9500 7588 9501 9499 9502 9503 
919 920 1217 1216 952 953 1250 1249 7592 9504 9505 9494 7595 9507 9508 9497 7583 7593 9506 9496 9500 9510 7598 9511 9509 9512 9513 
920 921 1218 1217 953 954 1251 1250 7602 9514 9515 9504 7605 9517 9518 9507 7593 7603 9516 9506 9510 9520 7608 9521 9519 9522 9523 
921 922 1219 1218 954 955 1252 1251 7612 9524 9525 9514 7615 9527 9528 9517 7603 7613 9526 9516 9520 9530 7618 9531 9529 9532 9533 
922 923 1220 1219 955 956 1253 1252 7622 9534 9535 9524 7625 9537 9538 9527 7613 7623 9536 9526 9530 9540 7628 9541 9539 9542 9543 
924 925 1222 1221 957 958 1255 1254 7313 9225 9226 9227 7634 9546 9547 9548 7632 7631 9544 9545 9551 9549 7637 9550 9232 9552 9553 
925 926 1223 1222 958 959 1256 1255 7325 9237 9238 9225 7643 9555 9556 9546 7631 7641 9554 9544 9549 9557 7645 9558 9242 9559 9560 
926 927 1224 1223 959 960 1257 1256 7335 9247 9248 9237 7650 9562 9563 9555 7641 7648 9561 9554 9557 9564 7652 9565 9252 9566 9567 
927 928 1225 1224 960 961 1258 1257 7345 9257 9258 9247 7657 9569 9570 9562 7648 7655 9568 9561 9564 9571 7659 9572 9262 9573 9574 
928 929 1226 1225 961 962 1259 1258 7355 9267 9268 9257 7664 9576 9577 9569 7655 7662 9575 9568 9571 9578 7666 9579 9272 9580 9581 
929 930 1227 1226 962 963 1260 1259 7365 9277 9278 9267 7671 9583 9584 9576 7662 7669 9582 9575 9578 9585 7673 9586 9282 9587 9588 
930 931 1228 1227 963 964 1261 1260 7375 9287 9288 9277 7678 9590 9591 9583 7669 7676 9589 9582 9585 9592 7680 9593 9292 9594 9595 
931 932 1229 1228 964 965 1262 1261 7385 9297 9298 9287 7685 9597 9598 9590 7676 7683 9596 9589 9592 9599 7687 9600 9302 9601 9602 
932 933 1230 1229 965 966 1263 1262 7395 9307 9308 9297 7692 9604 9605 9597 7683 7690 9603 9596 9599 9606 7694 9607 9312 9608 9609 
933 934 1231 1230 966 967 1264 1263 7405 9317 9318 9307 7699 9611 9612 9604 7690 7697 9610 9603 9606 9613 7701 9614 9322 9615 9616 
934 935 1232 1231 967 968 1265 1264 7415 9327 9328 9317 7706 9618 9619 9611 7697 7704 9617 9610 9613 9620 7708 9621 9332 9622 9623 
935 936 1233 1232 968 969 1266 1265 7425 9337 9338 9327 7713 9625 9626 9618 7704 7711 9624 9617 9620 9627 7715 9628 9342 9629 9630 
936 937 1234 1233 969 970 1267 1266 7435 9347 9348 9337 7720 9632 9633 9625 7711 7718 9631 9624 9627 9634 7722 9635 9352 9636 9637 
937 938 1235 1234 970 971 1268 1267 7445 9357 9358 9347 7727 9639 9640 9632 7718 7725 9638 9631 9634 9641 7729 9642 9362 9643 9644 
938 939 1236 1235 971 972 1269 1268 7455 9367 9368 9357 7734 9646 9647 9639 7725 7732 9645 9638 9641 9648 7736 9649 9372 9650 9651 
939 940 1237 1236 972 973 1270 1269 7465 9377 9378 9367 7741 9653 9654 9646 7732 7739 9652 9645 9648 9655 7743 9656 9382 9657 9658 
940 941 1238 1237 973 974 1271 1270 7475 9387 9388 9377 7748 9660 9661 9653 7739 7746 9659 9652 9655 9662 7750 9663 9392 9664 9665 
941 942 1239 1238 974 975 1272 1271 7485 9397 9398 9387 7755 9667 9668 9660 7746 7753 9666 9659 9662 9669 7757 9670 9402 9671 9672 
942 943 1240 1239 975 976 1273 1272 7495 9407 9408 9397 7762 9674 9675 9667 7753 7760 9673 9666 9669 9676 7764 9677 9412 9678 9679 
943 944 1241 1240 976 977 1274 1273 7505 9417 9418 9407 7769 9681 9682 9674 7760 7767 9680 9673 9676 9683 7771 9684 9422 9685 9686 
944 945 1242 1241 977 978 1275 1274 7515 9427 9428 9417 7776 9688 9689 9681 7767 7774 9687 9680 9683 9690 7778 9691 9432 9692 9693 
945 946 1243 1242 978 979 1276 1275 7525 9437 9438 9427 7783 9695 9696 9688 7774 7781 9694 9687 9690 9697 7785 9698 9442 9699 9700 
946 947 1244 1243 979 980 1277 1276 7535 9447 9448 9437 7790 9702 9703 9695 7781 7788 9701 9694 9697 9704 7792 9705 9452 9706 9707 
947 948 1245 1244 980 981 1278 1277 7545 9457 9458 9447 7797 9709 9710 9702 7788 7795 9708 9701 9704 9711 7799 9712 9462 9713 9714 
948 949 1246 1245 981 982 1279 1278 7555 9467 9468 9457 7804 9716 9717 9709 7795 7802 9715 9708 9711 9718 7806 9719 9472 9720 9721 
949 950 1247 1246 982 983 1280 1279 7565 9477 9478 9467 7811 9723 9724 9716 7802 7809 9722 9715 9718 9725 7813 9726 9482 9727 9728 
950 951 1248 1247 983 984 1281 1280 7575 9487 9488 9477 7818 9730 9731 9723 7809 7816 9729 9722 9725 9732 7820 9733 9492 9734 9735 
951 952 1249 1248 984 985 1282 1281 7585 9497 9498 9487 7825 9737 9738 9730 7816 7823 9736 9729 9732 9739 7827 9740 9502 9741 9742 
952 953 1250 1249 985 986 1283 1282 7595 9507 9508 9497 7832 9744 9745 9737 7823 7830 9743 9736 9739 9746 7834 9747 9512 9748 9749 
953 954 1251 1250 986 987 1284 1283 7605 9517 9518 9507 7839 9751 9752 9744 7830 7837 9750 9743 9746 9753 7841 9754 9522 9755 9756 
954 955 1252 1251 987 988 1285 1284 7615 9527 9528 9517 7846 9758 9759 9751 7837 7844 9757 9750 9753 9760 7848 9761 9532 9762 9763 
955 956 1253 1252 988 989 1286 1285 7625 9537 9538 9527 7853 9765 9766 9758 7844 7851 9764 9757 9760 9767 7855 9768 9542 9769 9770 
957 958 1255 1254 990 991 1288 1287 7634 9546 9547 9548 7861 9773 9774 9775 7859 7858 9771 9772 9778 9776 7864 9777 9552 9779 9780 
958 959 1256 1255 991 992 1289 1288 7643 9555 9556 9546 7870 9782 9783 9773 7858 7868 9781 9771 9776 9784 7872 9785 9559 9786 9787 
959 960 1257 1256 992 993 1290 1289 7650 9562 9563 9555 7877 9789 9790 9782 7868 7875 9788 9781 9784 9791 7879 9792 9566 9793 9794 
960 961 1258 1257 993 994 1291 1290 7657 9569 9570 9562 7884 9796 9797 9789 7875 7882 9795 9788 9791 9798 7886 9799 9573 9800 9801 
961 962 1259 1258 994 995 1292 1291 7664 9576 9577 9569 7891 9803 9804 9796 7882 7889 9802 9795 9798 9805 7893 9806 9580 9807 9808 
962 963 1260 1259 995 996 1293 1292 7671 9583 9584 9576 7898 9810 9811 9803 7889 7896 9809 9802 9805 9812 7900 9813 9587 9814 9815 
963 964 1261 1260 996 997 1294 1293 7678 9590 9591 9583 7905 9817 9818 9810 7896 7903 9816 9809 9812 9819 7907 9820 9594 9821 9822 
964 965 1262 1261 997 998 1295 1294 7685 9597 9598 9590 7912 9824 9825 9817 7903 7910 9823 9816 9819 9826 7914 9827 9601 9828 9829 
965 966 1263 1262 998 999 1296 1295 7692 9604 9605 9597 7919 9831 9832 9824 7910 7917 9830 9823 9826 9833 7921 9834 9608 9835 9836 
966 967 1264 1263 999 1000 1297 1296 7699 9611 9612 9604 7926 9838 9839 9831 7917 7924 9837 9830 9833 9840 7928 9841 9615 9842 9843 
967 968 1265 1264 1000 1001 1298 1297 7706 9618 9619 9611 7933 9845 9846 9838 7924 7931 9844 9837 9840 9847 7935 9848 9622 9849 9850 
968 969 1266 1265 1001 1002 1299 1298 7713 9625 9626 9618 7940 9852 9853 9845 7931 7938 9851 9844 9847 9854 7942 9855 9629 9856 9857 
969 970 1267 1266 1002 1003 1300 1299 7720 9632 9633 9625 7947 9859 9860 9852 7938 7945 9858 9851 9854 9861 7949 9862 9636 9863 9864 
970 971 1268 1267 1003 1004 1301 1300 7727 9639 9640 9632 7954 9866 9867 9859 7945 7952 9865 9858 9861 9868 7956 9869 9643 9870 9871 
971 972 1269 1268 1004 1005 1302 1301 7734 9646 9647 9639 7961 9873 9874 9866 7952 7959 9872 9865 9868 9875 7963 9876 9650 9877 9878 
972 973 1270 1269 1005 1006 1303 1302 7741 9653 9654 9646 7968 9880 9881 9873 7959 7966 9879 9872 9875 9882 7970 9883 9657 9884 9885 
973 974 1271 1270 1006 1007 1304 1303 7748 9660 9661 9653 7975 9887 9888 9880 7966 7973 9886 9879 9882 9889 7977 9890 9664 9891 9892 
974 975 1272 1271 1007 1008 1305 1304 7755 9667 9668 9660 7982 9894 9895 9887 7973 7980 9893 9886 9889 9896 7984 9897 9671 9898 9899 
975 976 1273 1272 1008 1009 1306 1305 7762 9674 9675 9667 7989 9901 9902 9894 7980 7987 9900 9893 9896 9903 7991 9904 9678 9905 9906 
976 977 1274 1273 1009 1010 1307 1306 7769 9681 9682 9674 7996 9908 9909 9901 7987 7994 9907 9900 9903 9910 7998 9911 9685 9912 9913 
977 978 1275 1274 1010 1011 1308 1307 7776 9688 9689 9681 8003 9915 9916 9908 7994 8001 9914 9907 9910 9917 8005 9918 9692 9919 9920 
978 979 1276 1275 1011 1012 1309 1308 7783 9695 9696 9688 8010 9922 9923 9915 8001 8008 9921 9914 9917 9924 8012 9925 9699 9926 9927 
979 980 1277 1276 1012 1013 1310 1309 7790 9702 9703 9695 8017 9929 9930 9922 8008 8015 9928 9921 9924 9931 8019 9932 9706 9933 9934 
980 981 1278 1277 1013 1014 1311 1310 7797 9709 9710 9702 8024 9936 9937 9929 8015 8022 9935 9928 9931 9938 8026 9939 9713 9940 9941 
981 982 1279 1278 1014 1015 1312 1311 7804 9716 9717 9709 8031 9943 9944 9936 8022 8029 9942 9935 9938 9945 8033 9946 9720 9947 9948 
982 983 1280 1279 1015 1016 1313 1312 7811 9723 9724 9716 8038 9950 9951 9943 8029 8036 9949 9942 9945 9952 8040 9953 9727 9954 9955 
983 984 1281 1280 1016 1017 1314 1313 7818 9730 9731 9723 8045 9957 9958 9950 8036 8043 9956 9949 9952 9959 8047 9960 9734 9961 9962 
984 985 1282 1281 1017 1018 1315 1314 7825 9737 9738 9730 8052 9964 9965 9957 8043 8050 9963 9956 9959 9966 8054 9967 9741 9968 9969 
985 986 1283 1282 1018 1019 1316 1315 7832 9744 9745 9737 8059 9971 9972 9964 8050 8057 9970 9963 9966 9973 8061 9974 9748 9975 9976 
986 987 1284 1283 1019 1020 1317 1316 7839 9751 9752 9744 8066 9978 9979 9971 8057 8064 9977 9970 9973 9980 8068 9981 9755 9982 9983 
987 988 1285 1284 1020 1021 1318 1317 7846 9758 9759 9751 8073 9985 9986 9978 8064 8071 9984 9977 9980 9987 8075 9988 9762 9989 9990 
988 989 1286 1285 1021 1022 1319 1318 7853 9765 9766 9758 8080 9992 9993 9985 8071 8078 9991 9984 9987 9994 8082 9995 9769 9996 9997 
990 991 1288 1287 1023 1024 1321 1320 7861 9773 9774 9775 8088 10000 10001 10002 8086 8085 9998 9999 10005 10003 8091 10004 9779 10006 10007 
991 992 1289 1288 1024 1025 1322 1321 7870 9782 9783 9773 8097 10009 10010 10000 8085 8095 10008 9998 10003 10011 8099 10012 9786 10013 10014 
992 993 1290 1289 1025 1026 1323 1322 7877 9789 9790 9782 8104 10016 10017 10009 8095 8102 10015 10008 10011 10018 8106 10019 9793 10020 10021 
993 994 1291 1290 1026 1027 1324 1323 7884 9796 9797 9789 8111 10023 10024 10016 8102 8109 10022 10015 10018 10025 8113 10026 9800 10027 10028 
994 995 1292 1291 1027 1028 1325 1324 7891 9803 9804 9796 8118 10030 10031 10023 8109 8116 10029 10022 10025 10032 8120 10033 9807 10034 10035 
995 996 1293 1292 1028 1029 1326 1325 7898 9810 9811 9803 8125 10037 10038 10030 8116 8123 10036 10029 10032 10039 8127 10040 9814 10041 10042 
996 997 1294 1293 1029 1030 1327 1326 7905 9817 9818 9810 8132 10044 10045 10037 8123 8130 10043 10036 10039 10046 8134 10047 9821 10048 10049 
997 998 1295 1294 1030 1031 1328 1327 7912 9824 9825 9817 8139 10051 10052 10044 8130 8137 10050 10043 10046 10053 8141 10054 9828 10055 10056 
998 999 1296 1295 1031 1032 1329 1328 7919 9831 9832 9824 8146 10058 10059 10051 8137 8144 10057 10050 10053 10060 8148 10061 9835 10062 10063 
999 1000 1297 1296 1032 1033 1330 1329 7926 9838 9839 9831 8153 10065 10066 10058 8144 8151 10064 10057 10060 10067 8155 10068 9842 10069 10070 
1000 1001 1298 1297 1033 1034 1331 1330 7933 9845 9846 9838 8160 10072 10073 10065 8151 8158 10071 10064 10067 10074 8162 10075 9849 10076 10077 
1001 1002 1299 1298 1034 1035 1332 1331 7940 9852 9853 9845 8167 10079 10080 10072 8158 8165 10078 10071 10074 10081 8169 10082 9856 10083 10084 
1002 1003 1300 1299 1035 1036 1333 1332 7947 9859 9860 9852 8174 10086 10087 10079 8165 8172 10085 10078 10081 10088 8176 10089 9863 10090 10091 
1003 1004 1301 1300 1036 1037 1334 1333 7954 9866 9867 9859 8181 10093 10094 10086 8172 8179 10092 10085 10088 10095 8183 10096 9870 10097 10098 
1004 1005 1302 1301 1037 1038 1335 1334 7961 9873 9874 9866 8188 10100 10101 10093 8179 8186 10099 10092 10095 10102 8190 10103 9877 10104 10105 
1005 1006 1303 1302 1038 1039 1336 1335 7968 9880 9881 9873 8195 10107 10108 10100 8186 8193 10106 10099 10102 10109 8197 10110 9884 10111 10112 
1006 1007 1304 1303 1039 1040 1337 1336 7975 9887 9888 9880 8202 10114 10115 10107 8193 8200 10113 10106 10109 10116 8204 10117 9891 10118 10119 
1007 1008 1305 1304 1040 1041 1338 1337 7982 9894 9895 9887 8209 10121 10122 10114 8200 8207 10120 10113 10116 10123 8211 10124 9898 10125 10126 
1008 1009 1306 1305 1041 1042 1339 1338 7989 9901 9902 9894 8216 10128 10129 10121 8207 8214 10127 10120 10123 10130 8218 10131 9905 10132 10133 
1009 1010 1307 1306 1042 1043 1340 1339 7996 9908 9909 9901 8223 10135 10136 10128 8214 8221 10134 10127 10130 10137 8225 10138 9912 10139 10140 
1010 1011 1308 1307 1043 1044 1341 1340 8003 9915 9916 9908 8230 10142 10143 10135 8221 8228 10141 10134 10137 10144 8232 10145 9919 10146 10147 
1011 1012 1309 1308 1044 1045 1342 1341 8010 9922 9923 9915 8237 10149 10150 10142 8228 8235 10148 10141 10144 10151 8239 10152 9926 10153 10154 
1012 1013 1310 1309 1045 1046 1343 1342 8017 9929 9930 9922 8244 10156 10157 10149 8235 8242 10155 10148 10151 10158 8246 10159 9933 10160 10161 
1013 1014 1311 1310 1046 1047 1344 1343 8024 9936 9937 9929 8251 10163 10164 10156 8242 8249 10162 10155 10158 10165 8253 10166 9940 10167 10168 
1014 1015 1312 1311 1047 1048 1345 1344 8031 9943 9944 9936 8258 10170 10171 10163 8249 8256 10169 10162 10165 10172 8260 10173 9947 10174 10175 
1015 1016 1313 1312 1048 1049 1346 1345 8038 9950 9951 9943 8265 10177 10178 10170 8256 8263 10176 10169 10172 10179 8267 10180 9954 10181 10182 
1016 1017 1314 1313 1049 1050 1347 1346 8045 9957 9958 9950 8272 10184 10185 10177 8263 8270 10183 10176 10179 10186 8274 10187 9961 10188 10189 
1017 1018 1315 1314 1050 1051 1348 1347 8052 9964 9965 9957 8279 10191 10192 10184 8270 8277 10190 10183 10186 10193 8281 10194 9968 10195 10196 
1018 1019 1316 1315 1051 1052 1349 1348 8059 9971 9972 9964 8286 10198 10199 10191 8277 8284 10197 10190 10193 10200 8288 10201 9975 10202 10203 
1019 1020 1317 1316 1052 1053 1350 1349 8066 9978 9979 9971 8293 10205 10206 10198 8284 8291 10204 10197 10200 10207 8295 10208 9982 10209 10210 
1020 1021 1318 1317 1053 1054 1351 1350 8073 9985 9986 9978 8300 10212 10213 10205 8291 8298 10211 10204 10207 10214 8302 10215 9989 10216 10217 
1021 1022 1319 1318 1054 1055 1352 1351 8080 9992 9993 9985 8307 10219 10220 10212 8298 8305 10218 10211 10214 10221 8309 10222 9996 10223 10224 
1023 1024 1321 1320 1056 1057 1354 1353 8088 10000 10001 10002 8315 10227 10228 10229 8313 8312 10225 10226 10232 10230 8318 10231 10006 10233 10234 
1024 1025 1322 1321 1057 1058 1355 1354 8097 10009 10010 10000 8324 10236 10237 10227 8312 8322 10235 10225 10230 10238 8326 10239 10013 10240 10241 
1025 1026 1323 1322 1058 1059 1356 1355 8104 10016 10017 10009 8331 10243 10244 10236 8322 8329 10242 10235 10238 10245 8333 10246 10020 10247 10248 
1026 1027 1324 1323 1059 1060 1357 1356 8111 10023 10024 10016 8338 10250 10251 10243 8329 8336 10249 10242 10245 10252 8340 10253 10027 10254 10255 
1027 1028 1325 1324 1060 1061 1358 1357 8118 10030 10031 10023 8345 10257 10258 10250 8336 8343 10256 10249 10252 10259 8347 10260 10034 10261 10262 
1028 1029 1326 1325 1061 1062 1359 1358 8125 10037 10038 10030 8352 10264 10265 10257 8343 8350 10263 10256 10259 10266 8354 10267 10041 10268 10269 
1029 1030 1327 1326 1062 1063 1360 1359 8132 10044 10045 10037 8359 10271 10272 10264 8350 8357 10270 10263 10266 10273 8361 10274 10048 10275 10276 
1030 1031 1328 1327 1063 1064 1361 1360 8139 10051 10052 10044 8366 10278 10279 10271 8357 8364 10277 10270 10273 10280 8368 10281 10055 10282 10283 
1031 1032 1329 1328 1064 1065 1362 1361 8146 10058 10059 10051 8373 10285 10286 10278 8364 8371 10284 10277 10280 10287 8375 10288 10062 10289 10290 
1032 1033 1330 1329 1065 1066 1363 1362 8153 10065 10066 10058 8380 10292 10293 10285 8371 8378 10291 10284 10287 10294 8382 10295 10069 10296 10297 
1033 1034 1331 1330 1066 1067 1364 1363 8160 10072 10073 10065 8387 10299 10300 10292 8378 8385 10298 10291 10294 10301 8389 10302 10076 10303 10304 
1034 1035 1332 1331 1067 1068 1365 1364 8167 10079 10080 10072 8394 10306 10307 10299 8385 8392 10305 10298 10301 10308 8396 10309 10083 10310 10311 
1035 1036 1333 1332 1068 1069 1366 1365 8174 10086 10087 10079 8401 10313 10314 10306 8392 8399 10312 10305 10308 10315 8403 10316 10090 10317 10318 
1036 1037 1334 1333 1069 1070 1367 1366 8181 10093 10094 10086 8408 10320 10321 10313 8399 8406 10319 10312 10315 10322 8410 10323 10097 10324 10325 
1037 1038 1335 1334 1070 1071 1368 1367 8188 10100 10101 10093 8415 10327 10328 10320 8406 8413 10326 10319 10322 10329 8417 10330 10104 10331 10332 
1038 1039 1336 1335 1071 1072 1369 1368 8195 10107 10108 10100 8422 10334 10335 10327 8413 8420 10333 10326 10329 10336 8424 10337 10111 10338 10339 
1039 1040 1337 1336 1072 1073 1370 1369 8202 10114 10115 10107 8429 10341 10342 10334 8420 8427 10340 10333 10336 10343 8431 10344 10118 10345 10346 
1040 1041 1338 1337 1073 1074 1371 1370 8209 10121 10122 10114 8436 10348 10349 10341 8427 8434 10347 10340 10343 10350 8438 10351 10125 10352 10353 
1041 1042 1339 1338 1074 1075 1372 1371 8216 10128 10129 10121 8443 10355 10356 10348 8434 8441 10354 10347 10350 10357 8445 10358 10132 10359 10360 
1042 1043 1340 1339 1075 1076 1373 1372 8223 10135 10136 10128 8450 10362 10363 10355 8441 8448 10361 10354 10357 10364 8452 10365 10139 10366 10367 
1043 1044 1341 1340 1076 1077 1374 1373 8230 10142 10143 10135 8457 10369 10370 10362 8448 8455 10368 10361 10364 10371 8459 10372 10146 10373 10374 
1044 1045 1342 1341 1077 1078 1375 1374 8237 10149 10150 10142 8464 10376 10377 10369 8455 8462 10375 10368 10371 10378 8466 10379 10153 10380 10381 
1045 1046 1343 1342 1078 1079 1376 1375 8244 10156 10157 10149 8471 10383 10384 10376 8462 8469 10382 10375 10378 10385 8473 10386 10160 10387 10388 
1046 1047 1344 1343 1079 1080 1377 1376 8251 10163 10164 10156 8478 10390 10391 10383 8469 8476 10389 10382 10385 10392 8480 10393 10167 10394 10395 
1047 1048 1345 1344 1080 1081 1378 1377 8258 10170 10171 10163 8485 10397 10398 10390 8476 8483 10396 10389 10392 10399 8487 10400 10174 10401 10402 
1048 1049 1346 1345 1081 1082 1379 1378 8265 10177 10178 10170 8492 10404 10405 10397 8483 8490 10403 10396 10399 10406 8494 10407 10181 10408 10409 
1049 1050 1347 1346 1082 1083 1380 1379 8272 10184 10185 10177 8499 10411 10412 10404 8490 8497 10410 10403 10406 10413 8501 10414 10188 10415 10416 
1050 1051 1348 1347 1083 1084 1381 1380 8279 10191 10192 10184 8506 10418 10419 10411 8497 8504 10417 10410 10413 10420 8508 10421 10195 10422 10423 
1051 1052 1349 1348 1084 1085 1382 1381 8286 10198 10199 10191 8513 10425 10426 10418 8504 8511 10424 10417 10420 10427 8515 10428 10202 10429 10430 
1052 1053 1350 1349 1085 1086 1383 1382 8293 10205 10206 10198 8520 10432 10433 10425 8511 8518 10431 10424 10427 10434 8522 10435 10209 10436 10437 
1053 1054 1351 1350 1086 1087 1384 1383 8300 10212 10213 10205 8527 10439 10440 10432 8518 8525 10438 10431 10434 10441 8529 10442 10216 10443 10444 
1054 1055 1352 1351 1087 1088 1385 1384 8307 10219 10220 10212 8534 10446 10447 10439 8525 8532 10445 10438 10441 10448 8536 10449 10223 10450 10451 
1056 1057 1354 1353 1089 1090 1387 1386 8315 10227 10228 10229 8542 10454 10455 10456 8540 8539 10452 10453 10459 10457 8545 10458 10233 10460 10461 
1057 1058 1355 1354 1090 1091 1388 1387 8324 10236 10237 10227 8551 10463 10464 10454 8539 8549 10462 10452 10457 10465 8553 10466 10240 10467 10468 
1058 1059 1356 1355 1091 1092 1389 1388 8331 10243 10244 10236 8558 10470 10471 10463 8549 8556 10469 10462 10465 10472 8560 10473 10247 10474 10475 
1059 1060 1357 1356 1092 1093 1390 1389 8338 10250 10251 10243 8565 10477 10478 10470 8556 8563 10476 10469 10472 10479 8567 10480 10254 10481 10482 
1060 1061 1358 1357 1093 1094 1391 1390 8345 10257 10258 10250 8572 10484 10485 10477 8563 8570 10483 10476 10479 10486 8574 10487 10261 10488 10489 
1061 1062 1359 1358 1094 1095 1392 1391 8352 10264 10265 10257 8579 10491 10492 10484 8570 8577 10490 10483 10486 10493 8581 10494 10268 10495 10496 
1062 1063 1360 1359 1095 1096 1393 1392 8359 10271 10272 10264 8586 10498 10499 10491 8577 8584 10497 10490 10493 10500 8588 10501 10275 10502 10503 
1063 1064 1361 1360 1096 1097 1394 1393 8366 10278 10279 10271 8593 10505 10506 10498 8584 8591 10504 10497 10500 10507 8595 10508 10282 10509 10510 
1064 1065 1362 1361 1097 1098 1395 1394 8373 10285 10286 10278 8600 10512 10513 10505 8591 8598 10511 10504 10507 10514 8602 10515 10289 10516 10517 
1065 1066 1363 1362 1098 1099 1396 1395 8380 10292 10293 10285 8607 10519 10520 10512 8598 8605 10518 10511 10514 10521 8609 10522 10296 10523 10524 
1066 1067 1364 1363 1099 1100 1397 1396 8387 10299 10300 10292 8614 10526 10527 10519 8605 8612 10525 10518 10521 10528 8616 10529 10303 10530 10531 
1067 1068 1365 1364 1100 1101 1398 1397 8394 10306 10307 10299 8621 10533 10534 10526 8612 8619 10532 10525 10528 10535 8623 10536 10310 10537 10538 
1068 1069 1366 1365 1101 1102 1399 1398 8401 10313 10314 10306 8628 10540 10541 10533 8619 8626 10539 10532 10535 10542 8630 10543 10317 10544 10545 
1069 1070 1367 1366 1102 1103 1400 1399 8408 10320 10321 10313 8635 10547 10548 10540 8626 8633 10546 10539 10542 10549 8637 10550 10324 10551 10552 
1070 1071 1368 1367 1103 1104 1401 1400 8415 10327 10328 10320 8642 10554 10555 10547 8633 8640 10553 10546 10549 10556 8644 10557 10331 10558 10559 
1071 1072 1369 1368 1104 1105 1402 1401 8422 10334 10335 10327 8649 10561 10562 10554 8640 8647 10560 10553 10556 10563 8651 10564 10338 10565 10566 
1072 1073 1370 1369 1105 1106 1403 1402 8429 10341 10342 10334 8656 10568 10569 10561 8647 8654 10567 10560 10563 10570 8658 10571 10345 10572 10573 
1073 1074 1371 1370 1106 1107 1404 1403 8436 10348 10349 10341 8663 10575 10576 10568 8654 8661 10574 10567 10570 10577 8665 10578 10352 10579 10580 
1074 1075 1372 1371 1107 1108 1405 1404 8443 10355 10356 10348 8670 10582 10583 10575 8661 8668 10581 10574 10577 10584 8672 10585 10359 10586 10587 
1075 1076 1373 1372 1108 1109 1406 1405 8450 10362 10363 10355 8677 10589 10590 10582 8668 8675 10588 10581 10584 10591 8679 10592 10366 10593 10594 
1076 1077 1374 1373 1109 1110 1407 1406 8457 10369 10370 10362 8684 10596 10597 10589 8675 8682 10595 10588 10591 10598 8686 10599 10373 10600 10601 
1077 1078 1375 1374 1110 1111 1408 1407 8464 10376 10377 10369 8691 10603 10604 10596 8682 8689 10602 10595 10598 10605 8693 10606 10380 10607 10608 
1078 1079 1376 1375 1111 1112 1409 1408 8471 10383 10384 10376 8698 10610 10611 10603 8689 8696 10609 10602 10605 10612 8700 10613 10387 10614 10615 
1079 1080 1377 1376 1112 1113 1410 1409 8478 10390 10391 10383 8705 10617 10618 10610 8696 8703 10616 10609 10612 10619 8707 10620 10394 10621 10622 
1080 1081 1378 1377 1113 1114 1411 1410 8485 10397 10398 10390 8712 10624 10625 10617 8703 8710 10623 10616 10619 10626 8714 10627 10401 10628 10629 
1081 1082 1379 1378 1114 1115 1412 1411 8492 10404 10405 10397 8719 10631 10632 10624 8710 8717 10630 10623 10626 10633 8721 10634 10408 10635 10636 
1082 1083 1380 1379 1115 1116 1413 1412 8499 10411 10412 10404 8726 10638 10639 10631 8717 8724 10637 10630 10633 10640 8728 10641 10415 10642 10643 
1083 1084 1381 1380 1116 1117 1414 1413 8506 10418 10419 10411 8733 10645 10646 10638 8724 8731 10644 10637 10640 10647 8735 10648 10422 10649 10650 
1084 1085 1382 1381 1117 1118 1415 1414 8513 10425 10426 10418 8740 10652 10653 10645 8731 8738 10651 10644 10647 10654 8742 10655 10429 10656 10657 
1085 1086 1383 1382 1118 1119 1416 1415 8520 10432 10433 10425 8747 10659 10660 10652 8738 8745 10658 10651 10654 10661 8749 10662 10436 10663 10664 
1086 1087 1384 1383 1119 1120 1417 1416 8527 10439 10440 10432 8754 10666 10667 10659 8745 8752 10665 10658 10661 10668 8756 10669 10443 10670 10671 
1087 1088 1385 1384 1120 1121 1418 1417 8534 10446 10447 10439 8761 10673 10674 10666 8752 8759 10672 10665 10668 10675 8763 10676 10450 10677 10678 
1089 1090 1387 1386 1122 1123 1420 1419 8542 10454 10455 10456 8769 10681 10682 10683 8767 8766 10679 10680 10686 10684 8772 10685 10460 10687 10688 
1090 1091 1388 1387 1123 1124 1421 1420 8551 10463 10464 10454 8778 10690 10691 10681 8766 8776 10689 10679 10684 10692 8780 10693 10467 10694 10695 
1091 1092 1389 1388 1124 1125 1422 1421 8558 10470 10471 10463 8785 10697 10698 10690 8776 8783 10696 10689 10692 10699 8787 10700 10474 10701 10702 
1092 1093 1390 1389 1125 1126 1423 1422 8565 10477 10478 10470 8792 10704 10705 10697 8783 8790 10703 10696 10699 10706 8794 10707 10481 10708 10709 
1093 1094 1391 1390 1126 1127 1424 1423 8572 10484 10485 10477 8799 10711 10712 10704 8790 8797 10710 10703 10706 10713 8801 10714 10488 10715 10716 
1094 1095 1392 1391 1127 1128 1425 1424 8579 10491 10492 10484 8806 10718 10719 10711 8797 8804 10717 10710 10713 10720 8808 10721 10495 10722 10723 
1095 1096 1393 1392 1128 1129 1426 1425 8586 10498 10499 10491 8813 10725 10726 10718 8804 8811 10724 10717 10720 10727 8815 10728 10502 10729 10730 
1096 1097 1394 1393 1129 1130 1427 1426 8593 10505 10506 10498 8820 10732 10733 10725 8811 8818 10731 10724 10727 10734 8822 10735 10509 10736 10737 
1097 1098 1395 1394 1130 1131 1428 1427 8600 10512 10513 10505 8827 10739 10740 10732 8818 8825 10738 10731 10734 10741 8829 10742 10516 10743 10744 
1098 1099 1396 1395 1131 1132 1429 1428 8607 10519 10520 10512 8834 10746 10747 10739 8825 8832 10745 10738 10741 10748 8836 10749 10523 10750 10751 
1099 1100 1397 1396 1132 1133 1430 1429 8614 10526 10527 10519 8841 10753 10754 10746 8832 8839 10752 10745 10748 10755 8843 10756 10530 10757 10758 
1100 1101 1398 1397 1133 1134 1431 1430 8621 10533 10534 10526 8848 10760 10761 10753 8839 8846 10759 10752 10755 10762 8850 10763 10537 10764 10765 
1101 1102 1399 1398 1134 1135 1432 1431 8628 10540 10541 10533 8855 10767 10768 10760 8846 8853 10766 10759 10762 10769 8857 10770 10544 10771 10772 
1102 1103 1400 1399 1135 1136 1433 1432 8635 10547 10548 10540 8862 10774 10775 10767 8853 8860 10773 10766 10769 10776 8864 10777 10551 10778 10779 
1103 1104 1401 1400 1136 1137 1434 1433 8642 10554 10555 10547 8869 10781 10782 10774 8860 8867 10780 10773 10776 10783 8871 10784 10558 10785 10786 
1104 1105 1402 1401 1137 1138 1435 1434 8649 10561 10562 10554 8876 10788 10789 10781 8867 8874 10787 10780 10783 10790 8878 10791 10565 10792 10793 
1105 1106 1403 1402 1138 1139 1436 1435 8656 10568 10569 10561 8883 10795 10796 10788 8874 8881 10794 10787 10790 10797 8885 10798 10572 10799 10800 
1106 1107 1404 1403 1139 1140 1437 1436 8663 10575 10576 10568 8890 10802 10803 10795 8881 8888 10801 10794 10797 10804 8892 10805 10579 10806 10807 
1107 1108 1405 1404 1140 1141 1438 1437 8670 10582 10583 10575 8897 10809 10810 10802 8888 8895 10808 10801 10804 10811 8899 10812 10586 10813 10814 
1108 1109 1406 1405 1141 1142 1439 1438 8677 10589 10590 10582 8904 10816 10817 10809 8895 8902 10815 10808 10811 10818 8906 10819 10593 10820 10821 
1109 1110 1407 1406 1142 1143 1440 1439 8684 10596 10597 10589 8911 10823 10824 10816 8902 8909 10822 10815 10818 10825 8913 10826 10600 10827 10828 
1110 1111 1408 1407 1143 1144 1441 1440 8691 10603 10604 10596 8918 10830 10831 10823 8909 8916 10829 10822 10825 10832 8920 10833 10607 10834 10835 
1111 1112 1409 1408 1144 1145 1442 1441 8698 10610 10611 10603 8925 10837 10838 10830 8916 8923 10836 10829 10832 10839 8927 10840 10614 10841 10842 
1112 1113 1410 1409 1145 1146 1443 1442 8705 10617 10618 10610 8932 10844 10845 10837 8923 8930 10843 10836 10839 10846 8934 10847 10621 10848 10849 
1113 1114 1411 1410 1146 1147 1444 1443 8712 10624 10625 10617 8939 10851 10852 10844 8930 8937 10850 10843 10846 10853 8941 10854 10628 10855 10856 
1114 1115 1412 1411 1147 1148 1445 1444 8719 10631 10632 10624 8946 10858 10859 10851 8937 8944 10857 10850 10853 10860 8948 10861 10635 10862 10863 
1115 1116 1413 1412 1148 1149 1446 1445 8726 10638 10639 10631 8953 10865 10866 10858 8944 8951 10864 10857 10860 10867 8955 10868 10642 10869 10870 
1116 1117 1414 1413 1149 1150 1447 1446 8733 10645 10646 10638 8960 10872 10873 10865 8951 8958 10871 10864 10867 10874 8962 10875 10649 10876 10877 
1117 1118 1415 1414 1150 1151 1448 1447 8740 10652 10653 10645 8967 10879 10880 10872 8958 8965 10878 10871 10874 10881 8969 10882 10656 10883 10884 
1118 1119 1416 1415 1151 1152 1449 1448 8747 10659 10660 10652 8974 10886 10887 10879 8965 8972 10885 10878 10881 10888 8976 10889 10663 10890 10891 
1119 1120 1417 1416 1152 1153 1450 1449 8754 10666 10667 10659 8981 10893 10894 10886 8972 8979 10892 10885 10888 10895 8983 10896 10670 10897 10898 
1120 1121 1418 1417 1153 1154 1451 1450 8761 10673 10674 10666 8988 10900 10901 10893 8979 8986 10899 10892 10895 10902 8990 10903 10677 10904 10905 
1122 1123 1420 1419 1155 1156 1453 1452 8769 10681 10682 10683 8996 10908 10909 10910 8994 8993 10906 10907 10913 10911 8999 10912 10687 10914 10915 
1123 1124 1421 1420 1156 1157 1454 1453 8778 10690 10691 10681 9005 10917 10918 10908 8993 9003 10916 10906 10911 10919 9007 10920 10694 10921 10922 
1124 1125 1422 1421 1157 1158 1455 1454 8785 10697 10698 10690 9012 10924 10925 10917 9003 9010 10923 10916 10919 10926 9014 10927 10701 10928 10929 
1125 1126 1423 1422 1158 1159 1456 1455 8792 10704 10705 10697 9019 10931 10932 10924 9010 9017 10930 10923 10926 10933 9021 10934 10708 10935 10936 
1126 1127 1424 1423 1159 1160 1457 1456 8799 10711 10712 10704 9026 10938 10939 10931 9017 9024 10937 10930 10933 10940 9028 10941 10715 10942 10943 
1127 1128 1425 1424 1160 1161 1458 1457 8806 10718 10719 10711 9033 10945 10946 10938 9024 9031 10944 10937 10940 10947 9035 10948 10722 10949 10950 
1128 1129 1426 1425 1161 1162 1459 1458 8813 10725 10726 10718 9040 10952 10953 10945 9031 9038 10951 10944 10947 10954 9042 10955 10729 10956 10957 
1129 1130 1427 1426 1162 1163 1460 1459 8820 10732 10733 10725 9047 10959 10960 10952 9038 9045 10958 10951 10954 10961 9049 10962 10736 10963 10964 
1130 1131 1428 1427 1163 1164 1461 1460 8827 10739 10740 10732 9054 10966 10967 10959 9045 9052 10965 10958 10961 10968 9056 10969 10743 10970 10971 
1131 1132 1429 1428 1164 1165 1462 1461 8834 10746 10747 10739 9061 10973 10974 10966 9052 9059 10972 10965 10968 10975 9063 10976 10750 10977 10978 
1132 1133 1430 1429 1165 1166 1463 1462 8841 10753 10754 10746 9068 10980 10981 10973 9059 9066 10979 10972 10975 10982 9070 10983 10757 10984 10985 
1133 1134 1431 1430 1166 1167 1464 1463 8848 10760 10761 10753 9075 10987 10988 10980 9066 9073 10986 10979 10982 10989 9077 10990 10764 10991 10992 
1134 1135 1432 1431 1167 1168 1465 1464 8855 10767 10768 10760 9082 10994 10995 10987 9073 9080 10993 10986 10989 10996 9084 10997 10771 10998 10999 
1135 1136 1433 1432 1168 1169 1466 1465 8862 10774 10775 10767 9089 11001 11002 10994 9080 9087 11000 10993 10996 11003 9091 11004 10778 11005 11006 
1136 1137 1434 1433 1169 1170 1467 1466 8869 10781 10782 10774 9096 11008 11009 11001 9087 9094 11007 11000 11003 11010 9098 11011 10785 11012 11013 
1137 1138 1435 1434 1170 1171 1468 1467 8876 10788 10789 10781 9103 11015 11016 11008 9094 9101 11014 11007 11010 11017 9105 11018 10792 11019 11020 
1138 1139 1436 1435 1171 1172 1469 1468 8883 10795 10796 10788 9110 11022 11023 11015 9101 9108 11021 11014 11017 11024 9112 11025 10799 11026 11027 
1139 1140 1437 1436 1172 1173 1470 1469 8890 10802 10803 10795 9117 11029 11030 11022 9108 9115 11028 11021 11024 11031 9119 11032 10806 11033 11034 
1140 1141 1438 1437 1173 1174 1471 1470 8897 10809 10810 10802 9124 11036 11037 11029 9115 9122 11035 11028 11031 11038 9126 11039 10813 11040 11041 
1141 1142 1439 1438 1174 1175 1472 1471 8904 10816 10817 10809 9131 11043 11044 11036 9122 9129 11042 11035 11038 11045 9133 11046 10820 11047 11048 
1142 1143 1440 1439 1175 1176 1473 1472 8911 10823 10824 10816 9138 11050 11051 11043 9129 9136 11049 11042 11045 11052 9140 11053 10827 11054 11055 
1143 1144 1441 1440 1176 1177 1474 1473 8918 10830 10831 10823 9145 11057 11058 11050 9136 9143 11056 11049 11052 11059 9147 11060 10834 11061 11062 
1144 1145 1442 1441 1177 1178 1475 1474 8925 10837 10838 10830 9152 11064 11065 11057 9143 9150 11063 11056 11059 11066 9154 11067 10841 11068 11069 
1145 1146 1443 1442 1178 1179 1476 1475 8932 10844 10845 10837 9159 11071 11072 11064 9150 9157 11070 11063 11066 11073 9161 11074 10848 11075 11076 
1146 1147 1444 1443 1179 1180 1477 1476 8939 10851 10852 10844 9166 11078 11079 11071 9157 9164 11077 11070 11073 11080 9168 11081 10855 11082 11083 
1147 1148 1445 1444 1180 1181 1478 1477 8946 10858 10859 10851 9173 11085 11086 11078 9164 9171 11084 11077 11080 11087 9175 11088 10862 11089 11090 
1148 1149 1446 1445 1181 1182 1479 1478 8953 10865 10866 10858 9180 11092 11093 11085 9171 9178 11091 11084 11087 11094 9182 11095 10869 11096 11097 
1149 1150 1447 1446 1182 1183 1480 1479 8960 10872 10873 10865 9187 11099 11100 11092 9178 9185 11098 11091 11094 11101 9189 11102 10876 11103 11104 
1150 1151 1448 1447 1183 1184 1481 1480 8967 10879 10880 10872 9194 11106 11107 11099 9185 9192 11105 11098 11101 11108 9196 11109 10883 11110 11111 
1151 1152 1449 1448 1184 1185 1482 1481 8974 10886 10887 10879 9201 11113 11114 11106 9192 9199 11112 11105 11108 11115 9203 11116 10890 11117 11118 
1152 1153 1450 1449 1185 1186 1483 1482 8981 10893 10894 10886 9208 11120 11121 11113 9199 9206 11119 11112 11115 11122 9210 11123 10897 11124 11125 
1153 1154 1451 1450 1186 1187 1484 1483 8988 10900 10901 10893 9215 11127 11128 11120 9206 9213 11126 11119 11122 11129 9217 11130 10904 11131 11132 
1188 1189 1486 1485 1221 1222 1519 1518 9221 11133 11134 11135 9226 11138 11139 11140 9224 9223 11136 11137 11144 11142 9230 11143 11141 11145 11146 
1189 1190 1487 1486 1222 1223 1520 1519 9235 11147 11148 11133 9238 11150 11151 11138 9223 9236 11149 11136 11142 11153 9241 11154 11152 11155 11156 
1190 1191 1488 1487 1223 1224 1521 1520 9245 11157 11158 11147 9248 11160 11161 11150 9236 9246 11159 11149 11153 11163 9251 11164 11162 11165 11166 
1191 1192 1489 1488 1224 1225 1522 1521 9255 11167 11168 11157 9258 11170 11171 11160 9246 9256 11169 11159 11163 11173 9261 11174 11172 11175 11176 
1192 1193 1490 1489 1225 1226 1523 1522 9265 11177 11178 11167 9268 11180 11181 11170 9256 9266 11179 11169 11173 11183 9271 11184 11182 11185 11186 
1193 1194 1491 1490 1226 1227 1524 1523 9275 11187 11188 11177 9278 11190 11191 11180 9266 9276 11189 11179 11183 11193 9281 11194 11192 11195 11196 
1194 1195 1492 1491 1227 1228 1525 1524 9285 11197 11198 11187 9288 11200 11201 11190 9276 9286 11199 11189 11193 11203 9291 11204 11202 11205 11206 
1195 1196 1493 1492 1228 1229 1526 1525 9295 11207 11208 11197 9298 11210 11211 11200 9286 9296 11209 11199 11203 11213 9301 11214 11212 11215 11216 
1196 1197 1494 1493 1229 1230 1527 1526 9305 11217 11218 11207 9308 11220 11221 11210 9296 9306 11219 11209 11213 11223 9311 11224 11222 11225 11226 
1197 1198 1495 1494 1230 1231 1528 1527 9315 11227 11228 11217 9318 11230 11231 11220 9306 9316 11229 11219 11223 11233 9321 11234 11232 11235 11236 
1198 1199 1496 1495 1231 1232 1529 1528 9325 11237 11238 11227 9328 11240 11241 11230 9316 9326 11239 11229 11233 11243 9331 11244 11242 11245 11246 
1199 1200 1497 1496 1232 1233 1530 1529 9335 11247 11248 11237 9338 11250 11251 11240 9326 9336 11249 11239 11243 11253 9341 11254 11252 11255 11256 
1200 1201 1498 1497 1233 1234 1531 1530 9345 11257 11258 11247 9348 11260 11261 11250 9336 9346 11259 11249 11253 11263 9351 11264 11262 11265 11266 
1201 1202 1499 1498 1234 1235 1532 1531 9355 11267 11268 11257 9358 11270 11271 11260 9346 9356 11269 11259 11263 11273 9361 11274 11272 11275 11276 
1202 1203 1500 1499 1235 1236 1533 1532 9365 11277 11278 11267 9368 11280 11281 11270 9356 9366 11279 11269 11273 11283 9371 11284 11282 11285 11286 
1203 1204 1501 1500 1236 1237 1534 1533 9375 11287 11288 11277 9378 11290 11291 11280 9366 9376 11289 11279 11283 11293 9381 11294 11292 11295 11296 
1204 1205 1502 1501 1237 1238 1535 1534 9385 11297 11298 11287 9388 11300 11301 11290 9376 9386 11299 11289 11293 11303 9391 11304 11302 11305 11306 
1205 1206 1503 1502 1238 1239 1536 1535 9395 11307 11308 11297 9398 11310 11311 11300 9386 9396 11309 11299 11303 11313 9401 11314 11312 11315 11316 
1206 1207 1504 1503 1239 1240 1537 1536 9405 11317 11318 11307 9408 11320 11321 11310 9396 9406 11319 11309 11313 11323 9411 11324 11322 11325 11326 
1207 1208 1505 1504 1240 1241 1538 1537 9415 11327 11328 11317 9418 11330 11331 11320 9406 9416 11329 11319 11323 11333 9421 11334 11332 11335 11336 
1208 1209 1506 1505 1241 1242 1539 1538 9425 11337 11338 11327 9428 11340 11341 11330 9416 9426 11339 11329 11333 11343 9431 11344 11342 11345 11346 
1209 1210 1507 1506 1242 1243 1540 1539 9435 11347 11348 11337 9438 11350 11351 11340 9426 9436 11349 11339 11343 11353 9441 11354 11352 11355 11356 
1210 1211 1508 1507 1243 1244 1541 1540 9445 11357 11358 11347 9448 11360 11361 11350 9436 9446 11359 11349 11353 11363 9451 11364 11362 11365 11366 
1211 1212 1509 1508 1244 1245 1542 1541 9455 11367 11368 11357 9458 11370 11371 11360 9446 9456 11369 11359 11363 11373 9461 11374 11372 11375 11376 
1212 1213 1510 1509 1245 1246 1543 1542 9465 11377 11378 11367 9468 11380 11381 11370 9456 9466 11379 11369 11373 11383 9471 11384 11382 11385 11386 
1213 1214 1511 1510 1246 1247 1544 1543 9475 11387 11388 11377 9478 11390 11391 11380 9466 9476 11389 11379 11383 11393 9481 11394 11392 11395 11396 
1214 1215 1512 1511 1247 1248 1545 1544 9485 11397 11398 11387 9488 11400 11401 11390 9476 9486 11399 11389 11393 11403 9491 11404 11402 11405 11406 
1215 1216 1513 1512 1248 1249 1546 1545 9495 11407 11408 11397 9498 11410 11411 11400 9486 9496 11409 11399 11403 11413 9501 11414 11412 11415 11416 
1216 1217 1514 1513 1249 1250 1547 1546 9505 11417 11418 11407 9508 11420 11421 11410 9496 9506 11419 11409 11413 11423 9511 11424 11422 11425 11426 
1217 1218 1515 1514 1250 1251 1548 1547 9515 11427 11428 11417 9518 11430 11431 11420 9506 9516 11429 11419 11423 11433 9521 11434 11432 11435 11436 
1218 1219 1516 1515 1251 1252 1549 1548 9525 11437 11438 11427 9528 11440 11441 11430 9516 9526 11439 11429 11433 11443 9531 11444 11442 11445 11446 
1219 1220 1517 1516 1252 1253 1550 1549 9535 11447 11448 11437 9538 11450 11451 11440 9526 9536 11449 11439 11443 11453 9541 11454 11452 11455 11456 
1221 1222 1519 1518 1254 1255 1552 1551 9226 11138 11139 11140 9547 11459 11460 11461 9545 9544 11457 11458 11464 11462 9550 11463 11145 11465 11466 
1222 1223 1520 1519 1255 1256 1553 1552 9238 11150 11151 11138 9556 11468 11469 11459 9544 9554 11467 11457 11462 11470 9558 11471 11155 11472 11473 
1223 1224 1521 1520 1256 1257 1554 1553 9248 11160 11161 11150 9563 11475 11476 11468 9554 9561 11474 11467 11470 11477 9565 11478 11165 11479 11480 
1224 1225 1522 1521 1257 1258 1555 1554 9258 11170 11171 11160 9570 11482 11483 11475 9561 9568 11481 11474 11477 11484 9572 11485 11175 11486 11487 
1225 1226 1523 1522 1258 1259 1556 1555 9268 11180 11181 11170 9577 11489 11490 11482 9568 9575 11488 11481 11484 11491 9579 11492 11185 11493 11494 
1226 1227 1524 1523 1259 1260 1557 1556 9278 11190 11191 11180 9584 11496 11497 11489 9575 9582 11495 11488 11491 11498 9586 11499 11195 11500 11501 
1227 1228 1525 1524 1260 1261 1558 1557 9288 11200 11201 11190 9591 11503 11504 11496 9582 9589 11502 11495 11498 11505 9593 11506 11205 11507 11508 
1228 1229 1526 1525 1261 1262 1559 1558 9298 11210 11211 11200 9598 11510 11511 11503 9589 9596 11509 11502 11505 11512 9600 11513 11215 11514 11515 
1229 1230 1527 1526 1262 1263 1560 1559 9308 11220 11221 11210 9605 11517 11518 11510 9596 9603 11516 11509 11512 11519 9607 11520 11225 11521 11522 
1230 1231 1528 1527 1263 1264 1561 1560 9318 11230 11231 11220 9612 11524 11525 11517 9603 9610 11523 11516 11519 11526 9614 11527 11235 11528 11529 
1231 1232 1529 1528 1264 1265 1562 1561 9328 11240 11241 11230 9619 11531 11532 11524 9610 9617 11530 11523 11526 11533 9621 11534 11245 11535 11536 
1232 1233 1530 1529 1265 1266 1563 1562 9338 11250 11251 11240 9626 11538 11539 11531 9617 9624 11537 11530 11533 11540 9628 11541 11255 11542 11543 
1233 1234 1531 1530 1266 1267 1564 1563 9348 11260 11261 11250 9633 11545 11546 11538 9624 9631 11544 11537 11540 11547 9635 11548 11265 11549 11550 
1234 1235 1532 1531 1267 1268 1565 1564 9358 11270 11271 11260 9640 11552 11553 11545 9631 9638 11551 11544 11547 11554 9642 11555 11275 11556 11557 
1235 1236 1533 1532 1268 1269 1566 1565 9368 11280 11281 11270 9647 11559 11560 11552 9638 9645 11558 11551 11554 11561 9649 11562 11285 11563 11564 
1236 1237 1534 1533 1269 1270 1567 1566 9378 11290 11291 11280 9654 11566 11567 11559 9645 9652 11565 11558 11561 11568 9656 11569 11295 11570 11571 
1237 1238 1535 1534 1270 1271 1568 1567 9388 11300 11301 11290 9661 11573 11574 11566 9652 9659 11572 11565 11568 11575 9663 11576 11305 11577 11578 
1238 1239 1536 1535 1271 1272 1569 1568 9398 11310 11311 11300 9668 11580 11581 11573 9659 9666 11579 11572 11575 11582 9670 11583 11315 11584 11585 
1239 1240 1537 1536 1272 1273 1570 1569 9408 11320 11321 11310 9675 11587 11588 11580 9666 9673 11586 11579 11582 11589 9677 11590 11325 11591 11592 
1240 1241 1538 1537 1273 1274 1571 1570 9418 11330 11331 11320 9682 11594 11595 11587 9673 9680 11593 11586 11589 11596 9684 11597 11335 11598 11599 
1241 1242 1539 1538 1274 1275 1572 1571 9428 11340 11341 11330 9689 11601 11602 11594 9680 9687 11600 11593 11596 11603 9691 11604 11345 11605 11606 
1242 1243 1540 1539 1275 1276 1573 1572 9438 11350 11351 11340 9696 11608 11609 11601 9687 9694 11607 11600 11603 11610 9698 11611 11355 11612 11613 
1243 1244 1541 1540 1276 1277 1574 1573 9448 11360 11361 11350 9703 11615 11616 11608 9694 9701 11614 11607 11610 11617 9705 11618 11365 11619 11620 
1244 1245 1542 1541 1277 1278 1575 1574 9458 11370 11371 11360 9710 11622 11623 11615 9701 9708 11621 11614 11617 11624 9712 11625 11375 11626 11627 
1245 1246 1543 1542 1278 1279 1576 1575 9468 11380 11381 11370 9717 11629 11630 11622 9708 9715 11628 11621 11624 11631 9719 11632 11385 11633 11634 
1246 1247 1544 1543 1279 1280 1577 1576 9478 11390 11391 11380 9724 11636 11637 11629 9715 9722 11635 11628 11631 11638 9726 11639 11395 11640 11641 
1247 1248 1545 1544 1280 1281 1578 1577 9488 11400 11401 11390 9731 11643 11644 11636 9722 9729 11642 11635 11638 11645 9733 11646 11405 11647 11648 
1248 1249 1546 1545 1281 1282 1579 1578 9498 11410 11411 11400 9738 11650 11651 11643 9729 9736 11649 11642 11645 11652 9740 11653 11415 11654 11655 
1249 1250 1547 1546 1282 1283 1580 1579 9508 11420 11421 11410 9745 11657 11658 11650 9736 9743 11656 11649 11652 11659 9747 11660 11425 11661 11662 
1250 1251 1548 1547 1283 1284 1581 1580 9518 11430 11431 11420 9752 11664 11665 11657 9743 9750 11663 11656 11659 11666 9754 11667 11435 11668 11669 
1251 1252 1549 1548 1284 1285 1582 1581 9528 11440 11441 11430 9759 11671 11672 11664 9750 9757 11670 11663 11666 11673 9761 11674 11445 11675 11676 
1252 1253 1550 1549 1285 1286 1583 1582 9538 11450 11451 11440 9766 11678 11679 11671 9757 9764 11677 11670 11673 11680 9768 11681 11455 11682 11683 
1254 1255 1552 1551 1287 1288 1585 1584 9547 11459 11460 11461 9774 11686 11687 11688 9772 9771 11684 11685 11691 11689 9777 11690 11465 11692 11693 
1255 1256 1553 1552 1288 1289 1586 1585 9556 11468 11469 11459 9783 11695 11696 11686 9771 9781 11694 11684 11689 11697 9785 11698 11472 11699 11700 
1256 1257 1554 1553 1289 1290 1587 1586 9563 11475 11476 11468 9790 11702 11703 11695 9781 9788 11701 11694 11697 11704 9792 11705 11479 11706 11707 
1257 1258 1555 1554 1290 1291 1588 1587 9570 11482 11483 11475 9797 11709 11710 11702 9788 9795 11708 11701 11704 11711 9799 11712 11486 11713 11714 
1258 1259 1556 1555 1291 1292 1589 1588 9577 11489 11490 11482 9804 11716 11717 11709 9795 9802 11715 11708 11711 11718 9806 11719 11493 11720 11721 
1259 1260 1557 1556 1292 1293 1590 1589 9584 11496 11497 11489 9811 11723 11724 11716 9802 9809 11722 11715 11718 11725 9813 11726 11500 11727 11728 
1260 1261 1558 1557 1293 1294 1591 1590 9591 11503 11504 11496 9818 11730 11731 11723 9809 9816 11729 11722 11725 11732 9820 11733 11507 11734 11735 
1261 1262 1559 1558 1294 1295 1592 1591 9598 11510 11511 11503 9825 11737 11738 11730 9816 9823 11736 11729 11732 11739 9827 11740 11514 11741 11742 
1262 1263 1560 1559 1295 1296 1593 1592 9605 11517 11518 11510 9832 11744 11745 11737 9823 9830 11743 11736 11739 11746 9834 11747 11521 11748 11749 
1263 1264 1561 1560 1296 1297 1594 1593 9612 11524 11525 11517 9839 11751 11752 11744 9830 9837 11750 11743 11746 11753 9841 11754 11528 11755 11756 
1264 1265 1562 1561 1297 1298 1595 1594 9619 11531 11532 11524 9846 11758 11759 11751 9837 9844 11757 11750 11753 11760 9848 11761 11535 11762 11763 
1265 1266 1563 1562 1298 1299 1596 1595 9626 11538 11539 11531 9853 11765 11766 11758 9844 9851 11764 11757 11760 11767 9855 11768 11542 11769 11770 
1266 1267 1564 1563 1299 1300 1597 1596 9633 11545 11546 11538 9860 11772 11773 11765 9851 9858 11771 11764 11767 11774 9862 11775 11549 11776 11777 
1267 1268 1565 1564 1300 1301 1598 1597 9640 11552 11553 11545 9867 11779 11780 11772 9858 9865 11778 11771 11774 11781 9869 11782 11556 11783 11784 
1268 1269 1566 1565 1301 1302 1599 1598 9647 11559 11560 11552 9874 11786 11787 11779 9865 9872 11785 11778 11781 11788 9876 11789 11563 11790 11791 
1269 1270 1567 1566 1302 1303 1600 1599 9654 11566 11567 11559 9881 11793 11794 11786 9872 9879 11792 11785 11788 11795 9883 11796 11570 11797 11798 
1270 1271 1568 1567 1303 1304 1601 1600 9661 11573 11574 11566 9888 11800 11801 11793 9879 9886 11799 11792 11795 11802 9890 11803 11577 11804 11805 
1271 1272 1569 1568 1304 1305 1602 1601 9668 11580 11581 11573 9895 11807 11808 11800 9886 9893 11806 11799 11802 11809 9897 11810 11584 11811 11812 
1272 1273 1570 1569 1305 1306 1603 1602 9675 11587 11588 11580 9902 11814 11815 11807 9893 9900 11813 11806 11809 11816 9904 11817 11591 11818 11819 
1273 1274 1571 1570 1306 1307 1604 1603 9682 11594 11595 11587 9909 11821 11822 11814 9900 9907 11820 11813 11816 11823 9911 11824 11598 11825 11826 
1274 1275 1572 1571 1307 1308 1605 1604 9689 11601 11602 11594 9916 11828 11829 11821 9907 9914 11827 11820 11823 11830 9918 11831 11605 11832 11833 
1275 1276 1573 1572 1308 1309 1606 1605 9696 11608 11609 11601 9923 11835 11836 11828 9914 9921 11834 11827 11830 11837 9925 11838 11612 11839 11840 
1276 1277 1574 1573 1309 1310 1607 1606 9703 11615 11616 11608 9930 11842 11843 11835 9921 9928 11841 11834 11837 11844 9932 11845 11619 11846 11847 
1277 1278 1575 1574 1310 1311 1608 1607 9710 11622 11623 11615 9937 11849 11850 11842 9928 9935 11848 11841 11844 11851 9939 11852 11626 11853 11854 
1278 1279 1576 1575 1311 1312 1609 1608 9717 11629 11630 11622 9944 11856 11857 11849 9935 9942 11855 11848 11851 11858 9946 11859 11633 11860 11861 
1279 1280 1577 1576 1312 1313 1610 1609 9724 11636 11637 11629 9951 11863 11864 11856 9942 9949 11862 11855 11858 11865 9953 11866 11640 11867 11868 
1280 1281 1578 1577 1313 1314 1611 1610 9731 11643 11644 11636 9958 11870 11871 11863 9949 9956 11869 11862 11865 11872 9960 11873 11647 11874 11875 
1281 1282 1579 1578 1314 1315 1612 1611 9738 11650 11651 11643 9965 11877 11878 11870 9956 9963 11876 11869 11872 11879 9967 11880 11654 11881 11882 
1282 1283 1580 1579 1315 1316 1613 1612 9745 11657 11658 11650 9972 11884 11885 11877 9963 9970 11883 11876 11879 11886 9974 11887 11661 11888 11889 
1283 1284 1581 1580 1316 1317 1614 1613 9752 11664 11665 11657 9979 11891 11892 11884 9970 9977 11890 11883 11886 11893 9981 11894 11668 11895 11896 
1284 1285 1582 1581 1317 1318 1615 1614 9759 11671 11672 11664 9986 11898 11899 11891 9977 9984 11897 11890 11893 11900 9988 11901 11675 11902 11903 
1285 1286 1583 1582 1318 1319 1616 1615 9766 11678 11679 11671 9993 11905 11906 11898 9984 9991 11904 11897 11900 11907 9995 11908 11682 11909 11910 
1287 1288 1585 1584 1320 1321 1618 1617 9774 11686 11687 11688 10001 11913 11914 11915 9999 9998 11911 11912 11918 11916 10004 11917 11692 11919 11920 
1288 1289 1586 1585 1321 1322 1619 1618 9783 11695 11696 11686 10010 11922 11923 11913 9998 10008 11921 11911 11916 11924 10012 11925 11699 11926 11927 
1289 1290 1587 1586 1322 1323 1620 1619 9790 11702 11703 11695 10017 11929 11930 11922 10008 10015 11928 11921 11924 11931 10019 11932 11706 11933 11934 
1290 1291 1588 1587 1323 1324 1621 1620 9797 11709 11710 11702 10024 11936 11937 11929 10015 10022 11935 11928 11931 11938 10026 11939 11713 11940 11941 
1291 1292 1589 1588 1324 1325 1622 1621 9804 11716 11717 11709 10031 11943 11944 11936 10022 10029 11942 11935 11938 11945 10033 11946 11720 11947 11948 
1292 1293 1590 1589 1325 1326 1623 1622 9811 11723 11724 11716 10038 11950 11951 11943 10029 10036 11949 11942 11945 11952 10040 11953 11727 11954 11955 
1293 1294 1591 1590 1326 1327 1624 1623 9818 11730 11731 11723 10045 11957 11958 11950 10036 10043 11956 11949 11952 11959 10047 11960 11734 11961 11962 
1294 1295 1592 1591 1327 1328 1625 1624 9825 11737 11738 11730 10052 11964 11965 11957 10043 10050 11963 11956 11959 11966 10054 11967 11741 11968 11969 
1295 1296 1593 1592 1328 1329 1626 1625 9832 11744 11745 11737 10059 11971 11972 11964 10050 10057 11970 11963 11966 11973 10061 11974 11748 11975 11976 
1296 1297 1594 1593 1329 1330 1627 1626 9839 11751 11752 11744 10066 11978 11979 11971 10057 10064 11977 11970 11973 11980 10068 11981 11755 11982 11983 
1297 1298 1595 1594 1330 1331 1628 1627 9846 11758 11759 11751 10073 11985 11986 11978 10064 10071 11984 11977 11980 11987 10075 11988 11762 11989 11990 
1298 1299 1596 1595 1331 1332 1629 1628 9853 11765 11766 11758 10080 11992 11993 11985 10071 10078 11991 11984 11987 11994 10082 11995 11769 11996 11997 
1299 1300 1597 1596 1332 1333 1630 1629 9860 11772 11773 11765 10087 11999 12000 11992 10078 10085 11998 11991 11994 12001 10089 12002 11776 12003 12004 
1300 1301 1598 1597 1333 1334 1631 1630 9867 11779 11780 11772 10094 12006 12007 11999 10085 10092 12005 11998 12001 12008 10096 12009 11783 12010 12011 
1301 1302 1599 1598 1334 1335 1632 1631 9874 11786 11787 11779 10101 12013 12014 12006 10092 10099 12012 12005 12008 12015 10103 12016 11790 12017 12018 
1302 1303 1600 1599 1335 1336 1633 1632 9881 11793 11794 11786 10108 12020 12021 12013 10099 10106 12019 12012 12015 12022 10110 12023 11797 12024 12025 
1303 1304 1601 1600 1336 1337 1634 1633 9888 11800 11801 11793 10115 12027 12028 12020 10106 10113 12026 12019 12022 12029 10117 12030 11804 12031 12032 
1304 1305 1602 1601 1337 1338 1635 1634 9895 11807 11808 11800 10122 12034 12035 12027 10113 10120 12033 12026 12029 12036 10124 12037 11811 12038 12039 
1305 1306 1603 1602 1338 1339 1636 1635 9902 11814 11815 11807 10129 12041 12042 12034 10120 10127 12040 12033 12036 12043 10131 12044 11818 12045 12046 
1306 1307 1604 1603 1339 1340 1637 1636 9909 11821 11822 11814 10136 12048 12049 12041 10127 10134 12047 12040 12043 12050 10138 12051 11825 12052 12053 
1307 1308 1605 1604 1340 1341 1638 1637 9916 11828 11829 11821 10143 12055 12056 12048 10134 10141 12054 12047 12050 12057 10145 12058 11832 12059 12060 
1308 1309 1606 1605 1341 1342 1639 1638 9923 11835 11836 11828 10150 12062 12063 12055 10141 10148 12061 12054 12057 12064 10152 12065 11839 12066 12067 
1309 1310 1607 1606 1342 1343 1640 1639 9930 11842 11843 11835 10157 12069 12070 12062 10148 10155 12068 12061 12064 12071 10159 12072 11846 12073 12074 
1310 1311 1608 1607 1343 1344 1641 1640 9937 11849 11850 11842 10164 12076 12077 12069 10155 10162 12075 12068 12071 12078 10166 12079 11853 12080 12081 
1311 1312 1609 1608 1344 1345 1642 1641 9944 11856 11857 11849 10171 12083 12084 12076 10162 10169 12082 12075 12078 12085 10173 12086 11860 12087 12088 
1312 1313 1610 1609 1345 1346 1643 1642 9951 11863 11864 11856 10178 12090 12091 12083 10169 10176 12089 12082 12085 12092 10180 12093 11867 12094 12095 
1313 1314 1611 1610 1346 1347 1644 1643 9958 11870 11871 11863 10185 12097 12098 12090 10176 10183 12096 12089 12092 12099 10187 12100 11874 12101 12102 
1314 1315 1612 1611 1347 1348 1645 1644 9965 11877 11878 11870 10192 12104 12105 12097 10183 10190 12103 12096 12099 12106 10194 12107 11881 12108 12109 
1315 1316 1613 1612 1348 1349 1646 1645 9972 11884 11885 11877 10199 12111 12112 12104 10190 10197 12110 12103 12106 12113 10201 12114 11888 12115 12116 
1316 1317 1614 1613 1349 1350 1647 1646 9979 11891 11892 11884 10206 12118 12119 12111 10197 10204 12117 12110 12113 12120 10208 12121 11895 12122 12123 
1317 1318 1615 1614 1350 1351 1648 1647 9986 11898 11899 11891 10213 12125 12126 12118 10204 10211 12124 12117 12120 12127 10215 12128 11902 12129 12130 
1318 1319 1616 1615 1351 1352 1649 1648 9993 11905 11906 11898 10220 12132 12133 12125 10211 10218 12131 12124 12127 12134 10222 12135 11909 12136 12137 
1320 1321 1618 1617 1353 1354 1651 1650 10001 11913 11914 11915 10228 12140 12141 12142 10226 10225 12138 12139 12145 12143 10231 12144 11919 12146 12147 
1321 1322 1619 1618 1354 1355 1652 1651 10010 11922 11923 11913 10237 12149 12150 12140 10225 10235 12148 12138 12143 12151 10239 12152 11926 12153 12154 
1322 1323 1620 1619 1355 1356 1653 1652 10017 11929 11930 11922 10244 12156 12157 12149 10235 10242 12155 12148 12151 12158 10246 12159 11933 12160 12161 
1323 1324 1621 1620 1356 1357 1654 1653 10024 11936 11937 11929 10251 12163 12164 12156 10242 10249 12162 12155 12158 12165 10253 12166 11940 12167 12168 
1324 1325 1622 1621 1357 1358 1655 1654 10031 11943 11944 11936 10258 12170 12171 12163 10249 10256 12169 12162 12165 12172 10260 12173 11947 12174 12175 
1325 1326 1623 1622 1358 1359 1656 1655 10038 11950 11951 11943 10265 12177 12178 12170 10256 10263 12176 12169 12172 12179 10267 12180 11954 12181 12182 
1326 1327 1624 1623 1359 1360 1657 1656 10045 11957 11958 11950 10272 12184 12185 12177 10263 10270 12183 12176 12179 12186 10274 12187 11961 12188 12189 
1327 1328 1625 1624 1360 1361 1658 1657 10052 11964 11965 11957 10279 12191 12192 12184 10270 10277 12190 12183 12186 12193 10281 12194 11968 12195 12196 
1328 1329 1626 1625 1361 1362 1659 1658 10059 11971 11972 11964 10286 12198 12199 12191 10277 10284 12197 12190 12193 12200 10288 12201 11975 12202 12203 
1329 1330 1627 1626 1362 1363 1660 1659 10066 11978 11979 11971 10293 12205 12206 12198 10284 10291 12204 12197 12200 12207 10295 12208 11982 12209 12210 
1330 1331 1628 1627 1363 1364 1661 1660 10073 11985 11986 11978 10300 12212 12213 12205 10291 10298 12211 12204 12207 12214 10302 12215 11989 12216 12217 
1331 1332 1629 1628 1364 1365 1662 1661 10080 11992 11993 11985 10307 12219 12220 12212 10298 10305 12218 12211 12214 12221 10309 12222 11996 12223 12224 
1332 1333 1630 1629 1365 1366 1663 1662 10087 11999 12000 11992 10314 12226 12227 12219 10305 10312 12225 12218 12221 12228 10316 12229 12003 12230 12231 
1333 1334 1631 1630 1366 1367 1664 1663 10094 12006 12007 11999 10321 12233 12234 12226 10312 10319 12232 12225 12228 12235 10323 12236 12010 12237 12238 
1334 1335 1632 1631 1367 1368 1665 1664 10101 12013 12014 12006 10328 12240 12241 12233 10319 10326 12239 12232 12235 12242 10330 12243 12017 12244 12245 
1335 1336 1633 1632 1368 1369 1666 1665 10108 12020 12021 12013 10335 12247 12248 12240 10326 10333 12246 12239 12242 12249 10337 12250 12024 12251 12252 
1336 1337 1634 1633 1369 1370 1667 1666 10115 12027 12028 12020 10342 12254 12255 12247 10333 10340 12253 12246 12249 12256 10344 12257 12031 12258 12259 
1337 1338 1635 1634 1370 1371 1668 1667 10122 12034 12035 12027 10349 12261 12262 12254 10340 10347 12260 12253 12256 12263 10351 12264 12038 12265 12266 
1338 1339 1636 1635 1371 1372 1669 1668 10129 12041 12042 12034 10356 12268 12269 12261 10347 10354 12267 12260 12263 12270 10358 12271 12045 12272 12273 
1339 1340 1637 1636 1372 1373 1670 1669 10136 12048 12049 12041 10363 12275 12276 12268 10354 10361 12274 12267 12270 12277 10365 12278 12052 12279 12280 
1340 1341 1638 1637 1373 1374 1671 1670 10143 12055 12056 12048 10370 12282 12283 12275 10361 10368 12281 12274 12277 12284 10372 12285 12059 12286 12287 
1341 1342 1639 1638 1374 1375 1672 1671 10150 12062 12063 12055 10377 12289 12290 12282 10368 10375 12288 12281 12284 12291 10379 12292 12066 12293 12294 
1342 1343 1640 1639 1375 1376 1673 1672 10157 12069 12070 12062 10384 12296 12297 12289 10375 10382 12295 12288 12291 12298 10386 12299 12073 12300 12301 
1343 1344 1641 1640 1376 1377 1674 1673 10164 12076 12077 12069 10391 12303 12304 12296 10382 10389 12302 12295 12298 12305 10393 12306 12080 12307 12308 
1344 1345 1642 1641 1377 1378 1675 1674 10171 12083 12084 12076 10398 12310 12311 12303 10389 10396 12309 12302 12305 12312 10400 12313 12087 12314 12315 
1345 1346 1643 1642 1378 1379 1676 1675 10178 12090 12091 12083 10405 12317 12318 12310 10396 10403 12316 12309 12312 12319 10407 12320 12094 12321 12322 
1346 1347 1644 1643 1379 1380 1677 1676 10185 12097 12098 12090 10412 12324 12325 12317 10403 10410 12323 12316 12319 12326 10414 12327 12101 12328 12329 
1347 1348 1645 1644 1380 1381 1678 1677 10192 12104 12105 12097 10419 12331 12332 12324 10410 10417 12330 12323 12326 12333 10421 12334 12108 12335 12336 
1348 1349 1646 1645 1381 1382 1679 1678 10199 12111 12112 12104 10426 12338 12339 12331 10417 10424 12337 12330 12333 12340 10428 12341 12115 12342 12343 
1349 1350 1647 1646 1382 1383 1680 1679 10206 12118 12119 12111 10433 12345 12346 12338 10424 10431 12344 12337 12340 12347 10435 12348 12122 12349 12350 
1350 1351 1648 1647 1383 1384 1681 1680 10213 12125 12126 12118 10440 12352 12353 12345 10431 10438 12351 12344 12347 12354 10442 12355 12129 12356 12357 
1351 1352 1649 1648 1384 1385 1682 1681 10220 12132 12133 12125 10447 12359 12360 12352 10438 10445 12358 12351 12354 12361 10449 12362 12136 12363 12364 
1353 1354 1651 1650 1386 1387 1684 1683 10228 12140 12141 12142 10455 12367 12368 12369 10453 10452 12365 12366 12372 12370 10458 12371 12146 12373 12374 
1354 1355 1652 1651 1387 1388 1685 1684 10237 12149 12150 12140 10464 12376 12377 12367 10452 10462 12375 12365 12370 12378 10466 12379 12153 12380 12381 
1355 1356 1653 1652 1388 1389 1686 1685 10244 12156 12157 12149 10471 12383 12384 12376 10462 10469 12382 12375 12378 12385 10473 12386 12160 12387 12388 
1356 1357 1654 1653 1389 1390 1687 1686 10251 12163 12164 12156 10478 12390 12391 12383 10469 10476 12389 12382 12385 12392 10480 12393 12167 12394 12395 
1357 1358 1655 1654 1390 1391 1688 1687 10258 12170 12171 12163 10485 12397 12398 12390 10476 10483 12396 12389 12392 12399 10487 12400 12174 12401 12402 
1358 1359 1656 1655 1391 1392 1689 1688 10265 12177 12178 12170 10492 12404 12405 12397 10483 10490 12403 12396 12399 12406 10494 12407 12181 12408 12409 
1359 1360 1657 1656 1392 1393 1690 1689 10272 12184 12185 12177 10499 12411 12412 12404 10490 10497 12410 12403 12406 12413 10501 12414 12188 12415 12416 
1360 1361 1658 1657 1393 1394 1691 1690 10279 12191 12192 12184 10506 12418 12419 12411 10497 10504 12417 12410 12413 12420 10508 12421 12195 12422 12423 
1361 1362 1659 1658 1394 1395 1692 1691 10286 12198 12199 12191 10513 12425 12426 12418 10504 10511 12424 12417 12420 12427 10515 12428 12202 12429 12430 
1362 1363 1660 1659 1395 1396 1693 1692 10293 12205 12206 12198 10520 12432 12433 12425 10511 10518 12431 12424 12427 12434 10522 12435 12209 12436 12437 
1363 1364 1661 1660 1396 1397 1694 1693 10300 12212 12213 12205 10527 12439 12440 12432 10518 10525 12438 12431 12434 12441 10529 12442 12216 12443 12444 
1364 1365 1662 1661 1397 1398 1695 1694 10307 12219 12220 12212 10534 12446 12447 12439 10525 10532 12445 12438 12441 12448 10536 12449 12223 12450 12451 
1365 1366 1663 1662 1398 1399 1696 1695 10314 12226 12227 12219 10541 12453 12454 12446 10532 10539 12452 12445 12448 12455 10543 12456 12230 12457 12458 
1366 1367 1664 1663 1399 1400 1697 1696 10321 12233 12234 12226 10548 12460 12461 12453 10539 10546 12459 12452 12455 12462 10550 12463 12237 12464 12465 
1367 1368 1665 1664 1400 1401 1698 1697 10328 12240 12241 12233 10555 12467 12468 12460 10546 10553 12466 12459 12462 12469 10557 12470 12244 12471 12472 
1368 1369 1666 1665 1401 1402 1699 1698 10335 12247 12248 12240 10562 12474 12475 12467 10553 10560 12473 12466 12469 12476 10564 12477 12251 12478 12479 
1369 1370 1667 1666 1402 1403 1700 1699 10342 12254 12255 12247 10569 12481 12482 12474 10560 10567 12480 12473 12476 12483 10571 12484 12258 12485 12486 
1370 1371 1668 1667 1403 1404 1701 1700 10349 12261 12262 12254 10576 12488 12489 12481 10567 10574 12487 12480 12483 12490 10578 12491 12265 12492 12493 
1371 1372 1669 1668 1404 1405 1702 1701 10356 12268 12269 12261 10583 12495 12496 12488 10574 10581 12494 12487 12490 12497 10585 12498 12272 12499 12500 
1372 1373 1670 1669 1405 1406 1703 1702 10363 12275 12276 12268 10590 12502 12503 12495 10581 10588 12501 12494 12497 12504 10592 12505 12279 12506 12507 
1373 1374 1671 1670 1406 1407 1704 1703 10370 12282 12283 12275 10597 12509 12510 12502 10588 10595 12508 12501 12504 12511 10599 12512 12286 12513 12514 
1374 1375 1672 1671 1407 1408 1705 1704 10377 12289 12290 12282 10604 12516 12517 12509 10595 10602 12515 12508 12511 12518 10606 12519 12293 12520 12521 
1375 1376 1673 1672 1408 1409 1706 1705 10384 12296 12297 12289 10611 12523 12524 12516 10602 10609 12522 12515 12518 12525 10613 12526 12300 12527 12528 
1376 1377 1674 1673 1409 1410 1707 1706 10391 12303 12304 12296 10618 12530 12531 12523 10609 10616 12529 12522 12525 12532 10620 12533 12307 12534 12535 
1377 1378 1675 1674 1410 1411 1708 1707 10398 12310 12311 12303 10625 12537 12538 12530 10616 10623 12536 12529 12532 12539 10627 12540 12314 12541 12542 
1378 1379 1676 1675 1411 1412 1709 1708 10405 12317 12318 12310 10632 12544 12545 12537 10623 10630 12543 12536 12539 12546 10634 12547 12321 12548 12549 
1379 1380 1677 1676 1412 1413 1710 1709 10412 12324 12325 12317 10639 12551 12552 12544 10630 10637 12550 12543 12546 12553 10641 12554 12328 12555 12556 
1380 1381 1678 1677 1413 1414 1711 1710 10419 12331 12332 12324 10646 12558 12559 12551 10637 10644 12557 12550 12553 12560 10648 12561 12335 12562 12563 
1381 1382 1679 1678 1414 1415 1712 1711 10426 12338 12339 12331 10653 12565 12566 12558 10644 10651 12564 12557 12560 12567 10655 12568 12342 12569 12570 
1382 1383 1680 1679 1415 1416 1713 1712 10433 12345 12346 12338 10660 12572 12573 12565 10651 10658 12571 12564 12567 12574 10662 12575 12349 12576 12577 
1383 1384 1681 1680 1416 1417 1714 1713 10440 12352 12353 12345 10667 12579 12580 12572 10658 10665 12578 12571 12574 12581 10669 12582 12356 12583 12584 
1384 1385 1682 1681 1417 1418 1715 1714 10447 12359 12360 12352 10674 12586 12587 12579 10665 10672 12585 12578 12581 12588 10676 12589 12363 12590 12591 
1386 1387 1684 1683 1419 1420 1717 1716 10455 12367 12368 12369 10682 12594 12595 12596 10680 10679 12592 12593 12599 12597 10685 12598 12373 12600 12601 
1387 1388 1685 1684 1420 1421 1718 1717 10464 12376 12377 12367 10691 12603 12604 12594 10679 10689 12602 12592 12597 12605 10693 12606 12380 12607 12608 
1388 1389 1686 1685 1421 1422 1719 1718 10471 12383 12384 12376 10698 12610 12611 12603 10689 10696 12609 12602 12605 12612 10700 12613 12387 12614 12615 
1389 1390 1687 1686 1422 1423 1720 1719 10478 12390 12391 12383 10705 12617 12618 12610 10696 10703 12616 12609 12612 12619 10707 12620 12394 12621 12622 
1390 1391 1688 1687 1423 1424 1721 1720 10485 12397 12398 12390 10712 12624 12625 12617 10703 10710 12623 12616 12619 12626 10714 12627 12401 12628 12629 
1391 1392 1689 1688 1424 1425 1722 1721 10492 12404 12405 12397 10719 12631 12632 12624 10710 10717 12630 12623 12626 12633 10721 12634 12408 12635 12636 
1392 1393 1690 1689 1425 1426 1723 1722 10499 12411 12412 12404 10726 12638 12639 12631 10717 10724 12637 12630 12633 12640 10728 12641 12415 12642 12643 
1393 1394 1691 1690 1426 1427 1724 1723 10506 12418 12419 12411 10733 12645 12646 12638 10724 10731 12644 12637 12640 12647 10735 12648 12422 12649 12650 
1394 1395 1692 1691 1427 1428 1725 1724 10513 12425 12426 12418 10740 12652 12653 12645 10731 10738 12651 12644 12647 12654 10742 12655 12429 12656 12657 
1395 1396 1693 1692 1428 1429 1726 1725 10520 12432 12433 12425 10747 12659 12660 12652 10738 10745 12658 12651 12654 12661 10749 12662 12436 12663 12664 
1396 1397 1694 1693 1429 1430 1727 1726 10527 12439 12440 12432 10754 12666 12667 12659 10745 10752 12665 12658 12661 12668 10756 12669 12443 12670 12671 
1397 1398 1695 1694 1430 1431 1728 1727 10534 12446 12447 12439 10761 12673 12674 12666 10752 10759 12672 12665 12668 12675 10763 12676 12450 12677 12678 
1398 1399 1696 1695 1431 1432 1729 1728 10541 12453 12454 12446 10768 12680 12681 12673 10759 10766 12679 12672 12675 12682 10770 12683 12457 12684 12685 
1399 1400 1697 1696 1432 1433 1730 1729 10548 12460 12461 12453 10775 12687 12688 12680 10766 10773 12686 12679 12682 12689 10777 12690 12464 12691 12692 
1400 1401 1698 1697 1433 1434 1731 1730 10555 12467 12468 12460 10782 12694 12695 12687 10773 10780 12693 12686 12689 12696 10784 12697 12471 12698 12699 
1401 1402 1699 1698 1434 1435 1732 1731 10562 12474 12475 12467 10789 12701 12702 12694 10780 10787 12700 12693 12696 12703 10791 12704 12478 12705 12706 
1402 1403 1700 1699 1435 1436 1733 1732 10569 12481 12482 12474 10796 12708 12709 12701 10787 10794 12707 12700 12703 12710 10798 12711 12485 12712 12713 
1403 1404 1701 1700 1436 1437 1734 1733 10576 12488 12489 12481 10803 12715 12716 12708 10794 10801 12714 12707 12710 12717 10805 12718 12492 12719 12720 
1404 1405 1702 1701 1437 1438 1735 1734 10583 12495 12496 12488 10810 12722 12723 12715 10801 10808 12721 12714 12717 12724 10812 12725 12499 12726 12727 
1405 1406 1703 1702 1438 1439 1736 1735 10590 12502 12503 12495 10817 12729 12730 12722 10808 10815 12728 12721 12724 12731 10819 12732 12506 12733 12734 
1406 1407 1704 1703 1439 1440 1737 1736 10597 12509 12510 12502 10824 12736 12737 12729 10815 10822 12735 12728 12731 12738 10826 12739 12513 12740 12741 
1407 1408 1705 1704 1440 1441 1738 1737 10604 12516 12517 12509 10831 12743 12744 12736 10822 10829 12742 12735 12738 12745 10833 12746 12520 12747 12748 
1408 1409 1706 1705 1441 1442 1739 1738 10611 12523 12524 12516 10838 12750 12751 12743 10829 10836 12749 12742 12745 12752 10840 12753 12527 12754 12755 
1409 1410 1707 1706 1442 1443 1740 1739 10618 12530 12531 12523 10845 12757 12758 12750 10836 10843 12756 12749 12752 12759 10847 12760 12534 12761 12762 
1410 1411 1708 1707 1443 1444 1741 1740 10625 12537 12538 12530 10852 12764 12765 12757 10843 10850 12763 12756 12759 12766 10854 12767 12541 12768 12769 
1411 1412 1709 1708 1444 1445 1742 1741 10632 12544 12545 12537 10859 12771 12772 12764 10850 10857 12770 12763 12766 12773 10861 12774 12548 12775 12776 
1412 1413 1710 1709 1445 1446 1743 1742 10639 12551 12552 12544 10866 12778 12779 12771 10857 10864 12777 12770 12773 12780 10868 12781 12555 12782 12783 
1413 1414 1711 1710 1446 1447 1744 1743 10646 12558 12559 12551 10873 12785 12786 12778 10864 10871 12784 12777 12780 12787 10875 12788 12562 12789 12790 
1414 1415 1712 1711 1447 1448 1745 1744 10653 12565 12566 12558 10880 12792 12793 12785 10871 10878 12791 12784 12787 12794 10882 12795 12569 12796 12797 
1415 1416 1713 1712 1448 1449 1746 1745 10660 12572 12573 12565 10887 12799 12800 12792 10878 10885 12798 12791 12794 12801 10889 12802 12576 12803 12804 
1416 1417 1714 1713 1449 1450 1747 1746 10667 12579 12580 12572 10894 12806 12807 12799 10885 10892 12805 12798 12801 12808 10896 12809 12583 12810 12811 
1417 1418 1715 1714 1450 1451 1748 1747 10674 12586 12587 12579 10901 12813 12814 12806 10892 10899 12812 12805 12808 12815 10903 12816 12590 12817 12818 
1419 1420 1717 1716 1452 1453 1750 1749 10682 12594 12595 12596 10909 12821 12822 12823 10907 10906 12819 12820 12826 12824 10912 12825 12600 12827 12828 
1420 1421 1718 1717 1453 1454 1751 1750 10691 12603 12604 12594 10918 12830 12831 12821 10906 10916 12829 12819 12824 12832 10920 12833 12607 12834 12835 
1421 1422 1719 1718 1454 1455 1752 1751 10698 12610 12611 12603 10925 12837 12838 12830 10916 10923 12836 12829 12832 12839 10927 12840 12614 12841 12842 
1422 1423 1720 1719 1455 1456 1753 1752 10705 12617 12618 12610 10932 12844 12845 12837 10923 10930 12843 12836 12839 12846 10934 12847 12621 12848 12849 
1423 1424 1721 1720 1456 1457 1754 1753 10712 12624 12625 12617 10939 12851 12852 12844 10930 10937 12850 12843 12846 12853 10941 12854 12628 12855 12856 
1424 1425 1722 1721 1457 1458 1755 1754 10719 12631 12632 12624 10946 12858 12859 12851 10937 10944 12857 12850 12853 12860 10948 12861 12635 12862 12863 
1425 1426 1723 1722 1458 1459 1756 1755 10726 12638 12639 12631 10953 12865 12866 12858 10944 10951 12864 12857 12860 12867 10955 12868 12642 12869 12870 
1426 1427 1724 1723 1459 1460 1757 1756 10733 12645 12646 12638 10960 12872 12873 12865 10951 10958 12871 12864 12867 12874 10962 12875 12649 12876 12877 
1427 1428 1725 1724 1460 1461 1758 1757 10740 12652 12653 12645 10967 12879 12880 12872 10958 10965 12878 12871 12874 12881 10969 12882 12656 12883 12884 
1428 1429 1726 1725 1461 1462 1759 1758 10747 12659 12660 12652 10974 12886 12887 12879 10965 10972 12885 12878 12881 12888 10976 12889 12663 12890 12891 
1429 1430 1727 1726 1462 1463 1760 1759 10754 12666 12667 12659 10981 12893 12894 12886 10972 10979 12892 12885 12888 12895 10983 12896 12670 12897 12898 
1430 1431 1728 1727 1463 1464 1761 1760 10761 12673 12674 12666 10988 12900 12901 12893 10979 10986 12899 12892 12895 12902 10990 12903 12677 12904 12905 
1431 1432 1729 1728 1464 1465 1762 1761 10768 12680 12681 12673 10995 12907 12908 12900 10986 10993 12906 12899 12902 12909 10997 12910 12684 12911 12912 
1432 1433 1730 1729 1465 1466 1763 1762 10775 12687 12688 12680 11002 12914 12915 12907 10993 11000 12913 12906 12909 12916 11004 12917 12691 12918 12919 
1433 1434 1731 1730 1466 1467 1764 1763 10782 12694 12695 12687 11009 12921 12922 12914 11000 11007 12920 12913 12916 12923 11011 12924 12698 12925 12926 
1434 1435 1732 1731 1467 1468 1765 1764 10789 12701 12702 12694 11016 12928 12929 12921 11007 11014 12927 12920 12923 12930 11018 12931 12705 12932 12933 
1435 1436 1733 1732 1468 1469 1766 1765 10796 12708 12709 12701 11023 12935 12936 12928 11014 11021 12934 12927 12930 12937 11025 12938 12712 12939 12940 
1436 1437 1734 1733 1469 1470 1767 1766 10803 12715 12716 12708 11030 12942 12943 12935 11021 11028 12941 12934 12937 12944 11032 12945 12719 12946 12947 
1437 1438 1735 1734 1470 1471 1768 1767 10810 12722 12723 12715 11037 12949 12950 12942 11028 11035 12948 12941 12944 12951 11039 12952 12726 12953 12954 
1438 1439 1736 1735 1471 1472 1769 1768 10817 12729 12730 12722 11044 12956 12957 12949 11035 11042 12955 12948 12951 12958 11046 12959 12733 12960 12961 
1439 1440 1737 1736 1472 1473 1770 1769 10824 12736 12737 12729 11051 12963 12964 12956 11042 11049 12962 12955 12958 12965 11053 12966 12740 12967 12968 
1440 1441 1738 1737 1473 1474 1771 1770 10831 12743 12744 12736 11058 12970 12971 12963 11049 11056 12969 12962 12965 12972 11060 12973 12747 12974 12975 
1441 1442 1739 1738 1474 1475 1772 1771 10838 12750 12751 12743 11065 12977 12978 12970 11056 11063 12976 12969 12972 12979 11067 12980 12754 12981 12982 
1442 1443 1740 1739 1475 1476 1773 1772 10845 12757 12758 12750 11072 12984 12985 12977 11063 11070 12983 12976 12979 12986 11074 12987 12761 12988 12989 
1443 1444 1741 1740 1476 1477 1774 1773 10852 12764 12765 12757 11079 12991 12992 12984 11070 11077 12990 12983 12986 12993 11081 12994 12768 12995 12996 
1444 1445 1742 1741 1477 1478 1775 1774 10859 12771 12772 12764 11086 12998 12999 12991 11077 11084 12997 12990 12993 13000 11088 13001 12775 13002 13003 
1445 1446 1743 1742 1478 1479 1776 1775 10866 12778 12779 12771 11093 13005 13006 12998 11084 11091 13004 12997 13000 13007 11095 13008 12782 13009 13010 
1446 1447 1744 1743 1479 1480 1777 1776 10873 12785 12786 12778 11100 13012 13013 13005 11091 11098 13011 13004 13007 13014 11102 13015 12789 13016 13017 
1447 1448 1745 1744 1480 1481 1778 1777 10880 12792 12793 12785 11107 13019 13020 13012 11098 11105 13018 13011 13014 13021 11109 13022 12796 13023 13024 
1448 1449 1746 1745 1481 1482 1779 1778 10887 12799 12800 12792 11114 13026 13027 13019 11105 11112 13025 13018 13021 13028 11116 13029 12803 13030 13031 
1449 1450 1747 1746 1482 1483 1780 1779 10894 12806 12807 12799 11121 13033 13034 13026 11112 11119 13032 13025 13028 13035 11123 13036 12810 13037 13038 
1450 1451 1748 1747 1483 1484 1781 1780 10901 12813 12814 12806 11128 13040 13041 13033 11119 11126 13039 13032 13035 13042 11130 13043 12817 13044 13045 
1485 1486 1783 1782 1518 1519 1816 1815 11134 13046 13047 13048 11139 13051 13052 13053 11137 11136 13049 13050 13057 13055 11143 13056 13054 13058 13059 
1486 1487 1784 1783 1519 1520 1817 1816 11148 13060 13061 13046 11151 13063 13064 13051 11136 11149 13062 13049 13055 13066 11154 13067 13065 13068 13069 
1487 1488 1785 1784 1520 1521 1818 1817 11158 13070 13071 13060 11161 13073 13074 13063 11149 11159 13072 13062 13066 13076 11164 13077 13075 13078 13079 
1488 1489 1786 1785 1521 1522 1819 1818 11168 13080 13081 13070 11171 13083 13084 13073 11159 11169 13082 13072 13076 13086 11174 13087 13085 13088 13089 
1489 1490 1787 1786 1522 1523 1820 1819 11178 13090 13091 13080 11181 13093 13094 13083 11169 11179 13092 13082 13086 13096 11184 13097 13095 13098 13099 
1490 1491 1788 1787 1523 1524 1821 1820 11188 13100 13101 13090 11191 13103 13104 13093 11179 11189 13102 13092 13096 13106 11194 13107 13105 13108 13109 
1491 1492 1789 1788 1524 1525 1822 1821 11198 13110 13111 13100 11201 13113 13114 13103 11189 11199 13112 13102 13106 13116 11204 13117 13115 13118 13119 
1492 1493 1790 1789 1525 1526 1823 1822 11208 13120 13121 13110 11211 13123 13124 13113 11199 11209 13122 13112 13116 13126 11214 13127 13125 13128 13129 
1493 1494 1791 1790 1526 1527 1824 1823 11218 13130 13131 13120 11221 13133 13134 13123 11209 11219 13132 13122 13126 13136 11224 13137 13135 13138 13139 
1494 1495 1792 1791 1527 1528 1825 1824 11228 13140 13141 13130 11231 13143 13144 13133 11219 11229 13142 13132 13136 13146 11234 13147 13145 13148 13149 
1495 1496 1793 1792 1528 1529 1826 1825 11238 13150 13151 13140 11241 13153 13154 13143 11229 11239 13152 13142 13146 13156 11244 13157 13155 13158 13159 
1496 1497 1794 1793 1529 1530 1827 1826 11248 13160 13161 13150 11251 13163 13164 13153 11239 11249 13162 13152 13156 13166 11254 13167 13165 13168 13169 
1497 1498 1795 1794 1530 1531 1828 1827 11258 13170 13171 13160 11261 13173 13174 13163 11249 11259 13172 13162 13166 13176 11264 13177 13175 13178 13179 
1498 1499 1796 1795 1531 1532 1829 1828 11268 13180 13181 13170 11271 13183 13184 13173 11259 11269 13182 13172 13176 13186 11274 13187 13185 13188 13189 
1499 1500 1797 1796 1532 1533 1830 1829 11278 13190 13191 13180 11281 13193 13194 13183 11269 11279 13192 13182 13186 13196 11284 13197 13195 13198 13199 
1500 1501 1798 1797 1533 1534 1831 1830 11288 13200 13201 13190 11291 13203 13204 13193 11279 11289 13202 13192 13196 13206 11294 13207 13205 13208 13209 
1501 1502 1799 1798 1534 1535 1832 1831 11298 13210 13211 13200 11301 13213 13214 13203 11289 11299 13212 13202 13206 13216 11304 13217 13215 13218 13219 
1502 1503 1800 1799 1535 1536 1833 1832 11308 13220 13221 13210 11311 13223 13224 13213 11299 11309 13222 13212 13216 13226 11314 13227 13225 13228 13229 
1503 1504 1801 1800 1536 1537 1834 1833 11318 13230 13231 13220 11321 13233 13234 13223 11309 11319 13232 13222 13226 13236 11324 13237 13235 13238 13239 
1504 1505 1802 1801 1537 1538 1835 1834 11328 13240 13241 13230 11331 13243 13244 13233 11319 11329 13242 13232 13236 13246 11334 13247 13245 13248 13249 
1505 1506 1803 1802 1538 1539 1836 1835 11338 13250 13251 13240 11341 13253 13254 13243 11329 11339 13252 13242 13246 13256 11344 13257 13255 13258 13259 
1506 1507 1804 1803 1539 1540 1837 1836 11348 13260 13261 13250 11351 13263 13264 13253 11339 11349 13262 13252 13256 13266 11354 13267 13265 13268 13269 
1507 1508 1805 1804 1540 1541 1838 1837 11358 13270 13271 13260 11361 13273 13274 13263 11349 11359 13272 13262 13266 13276 11364 13277 13275 13278 13279 
1508 1509 1806 1805 1541 1542 1839 1838 11368 13280 13281 13270 11371 13283 13284 13273 11359 11369 13282 13272 13276 13286 11374 13287 13285 13288 13289 
1509 1510 1807 1806 1542 1543 1840 1839 11378 13290 13291 13280 11381 13293 13294 13283 11369 11379 13292 13282 13286 13296 11384 13297 13295 13298 13299 
1510 1511 1808 1807 1543 1544 1841 1840 11388 13300 13301 13290 11391 13303 13304 13293 11379 11389 13302 13292 13296 13306 11394 13307 13305 13308 13309 
1511 1512 1809 1808 1544 1545 1842 1841 11398 13310 13311 13300 11401 13313 13314 13303 11389 11399 13312 13302 13306 13316 11404 13317 13315 13318 13319 
1512 1513 1810 1809 1545 1546 1843 1842 11408 13320 13321 13310 11411 13323 13324 13313 11399 11409 13322 13312 13316 13326 11414 13327 13325 13328 13329 
1513 1514 1811 1810 1546 1547 1844 1843 11418 13330 13331 13320 11421 13333 13334 13323 11409 11419 13332 13322 13326 13336 11424 13337 13335 13338 13339 
1514 1515 1812 1811 1547 1548 1845 1844 11428 13340 13341 13330 11431 13343 13344 13333 11419 11429 13342 13332 13336 13346 11434 13347 13345 13348 13349 
1515 1516 1813 1812 1548 1549 1846 1845 11438 13350 13351 13340 11441 13353 13354 13343 11429 11439 13352 13342 13346 13356 11444 13357 13355 13358 13359 
1516 1517 1814 1813 1549 1550 1847 1846 11448 13360 13361 13350 11451 13363 13364 13353 11439 11449 13362 13352 13356 13366 11454 13367 13365 13368 13369 
1518 1519 1816 1815 1551 1552 1849 1848 11139 13051 13052 13053 11460 13372 13373 13374 11458 11457 13370 13371 13377 13375 11463 13376 13058 13378 13379 
1519 1520 1817 1816 1552 1553 1850 1849 11151 13063 13064 13051 11469 13381 13382 13372 11457 11467 13380 13370 13375 13383 11471 13384 13068 13385 13386 
1520 1521 1818 1817 1553 1554 1851 1850 11161 13073 13074 13063 11476 13388 13389 13381 11467 11474 13387 13380 13383 13390 11478 13391 13078 13392 13393 
1521 1522 1819 1818 1554 1555 1852 1851 11171 13083 13084 13073 11483 13395 13396 13388 11474 11481 13394 13387 13390 13397 11485 13398 13088 13399 13400 
1522 1523 1820 1819 1555 1556 1853 1852 11181 13093 13094 13083 11490 13402 13403 13395 11481 11488 13401 13394 13397 13404 11492 13405 13098 13406 13407 
1523 1524 1821 1820 1556 1557 1854 1853 11191 13103 13104 13093 11497 13409 13410 13402 11488 11495 13408 13401 13404 13411 11499 13412 13108 13413 13414 
1524 1525 1822 1821 1557 1558 1855 1854 11201 13113 13114 13103 11504 13416 13417 13409 11495 11502 13415 13408 13411 13418 11506 13419 13118 13420 13421 
1525 1526 1823 1822 1558 1559 1856 1855 11211 13123 13124 13113 11511 13423 13424 13416 11502 11509 13422 13415 13418 13425 11513 13426 13128 13427 13428 
1526 1527 1824 1823 1559 1560 1857 1856 11221 13133 13134 13123 11518 13430 13431 13423 11509 11516 13429 13422 13425 13432 11520 13433 13138 13434 13435 
1527 1528 1825 1824 1560 1561 1858 1857 11231 13143 13144 13133 11525 13437 13438 13430 11516 11523 13436 13429 13432 13439 11527 13440 13148 13441 13442 
1528 1529 1826 1825 1561 1562 1859 1858 11241 13153 13154 13143 11532 13444 13445 13437 11523 11530 13443 13436 13439 13446 11534 13447 13158 13448 13449 
1529 1530 1827 1826 1562 1563 1860 1859 11251 13163 13164 13153 11539 13451 13452 13444 11530 11537 13450 13443 13446 13453 11541 13454 13168 13455 13456 
1530 1531 1828 1827 1563 1564 1861 1860 11261 13173 13174 13163 11546 13458 13459 13451 11537 11544 13457 13450 13453 13460 11548 13461 13178 13462 13463 
1531 1532 1829 1828 1564 1565 1862 1861 11271 13183 13184 13173 11553 13465 13466 13458 11544 11551 13464 13457 13460 13467 11555 13468 13188 13469 13470 
1532 1533 1830 1829 1565 1566 1863 1862 11281 13193 13194 13183 11560 13472 13473 13465 11551 11558 13471 13464 13467 13474 11562 13475 13198 13476 13477 
1533 1534 1831 1830 1566 1567 1864 1863 11291 13203 13204 13193 11567 13479 13480 13472 11558 11565 13478 13471 13474 13481 11569 13482 13208 13483 13484 
1534 1535 1832 1831 1567 1568 1865 1864 11301 13213 13214 13203 11574 13486 13487 13479 11565 11572 13485 13478 13481 13488 11576 13489 13218 13490 13491 
1535 1536 1833 1832 1568 1569 1866 1865 11311 13223 13224 13213 11581 13493 13494 13486 11572 11579 13492 13485 13488 13495 11583 13496 13228 13497 13498 
1536 1537 1834 1833 1569 1570 1867 1866 11321 13233 13234 13223 11588 13500 13501 13493 11579 11586 13499 13492 13495 13502 11590 13503 13238 13504 13505 
1537 1538 1835 1834 1570 1571 1868 1867 11331 13243 13244 13233 11595 13507 13508 13500 11586 11593 13506 13499 13502 13509 11597 13510 13248 13511 13512 
1538 1539 1836 1835 1571 1572 1869 1868 11341 13253 13254 13243 11602 13514 13515 13507 11593 11600 13513 13506 13509 13516 11604 13517 13258 13518 13519 
1539 1540 1837 1836 1572 1573 1870 1869 11351 13263 13264 13253 11609 13521 13522 13514 11600 11607 13520 13513 13516 13523 11611 13524 13268 13525 13526 
1540 1541 1838 1837 1573 1574 1871 1870 11361 13273 13274 13263 11616 13528 13529 13521 11607 11614 13527 13520 13523 13530 11618 13531 13278 13532 13533 
1541 1542 1839 1838 1574 1575 1872 1871 11371 13283 13284 13273 11623 13535 13536 13528 11614 11621 13534 13527 13530 13537 11625 13538 13288 13539 13540 
1542 1543 1840 1839 1575 1576 1873 1872 11381 13293 13294 13283 11630 13542 13543 13535 11621 11628 13541 13534 13537 13544 11632 13545 13298 13546 13547 
1543 1544 1841 1840 1576 1577 1874 1873 11391 13303 13304 13293 11637 13549 13550 13542 11628 11635 13548 13541 13544 13551 11639 13552 13308 13553 13554 
1544 1545 1842 1841 1577 1578 1875 1874 11401 13313 13314 13303 11644 13556 13557 13549 11635 11642 13555 13548 13551 13558 11646 13559 13318 13560 13561 
1545 1546 1843 1842 1578 1579 1876 1875 11411 13323 13324 13313 11651 13563 13564 13556 11642 11649 13562 13555 13558 13565 11653 13566 13328 13567 13568 
1546 1547 1844 1843 1579 1580 1877 1876 11421 13333 13334 13323 11658 13570 13571 13563 11649 11656 13569 13562 13565 13572 11660 13573 13338 13574 13575 
1547 1548 1845 1844 1580 1581 1878 1877 11431 13343 13344 13333 11665 13577 13578 13570 11656 11663 13576 13569 13572 13579 11667 13580 13348 13581 13582 
1548 1549 1846 1845 1581 1582 1879 1878 11441 13353 13354 13343 11672 13584 13585 13577 11663 11670 13583 13576 13579 13586 11674 13587 13358 13588 13589 
1549 1550 1847 1846 1582 1583 1880 1879 11451 13363 13364 13353 11679 13591 13592 13584 11670 11677 13590 13583 13586 13593 11681 13594 13368 13595 13596 
1551 1552 1849 1848 1584 1585 1882 1881 11460 13372 13373 13374 11687 13599 13600 13601 11685 11684 13597 13598 13604 13602 11690 13603 13378 13605 13606 
1552 1553 1850 1849 1585 1586 1883 1882 11469 13381 13382 13372 11696 13608 13609 13599 11684 11694 13607 13597 13602 13610 11698 13611 13385 13612 13613 
1553 1554 1851 1850 1586 1587 1884 1883 11476 13388 13389 13381 11703 13615 13616 13608 11694 11701 13614 13607 13610 13617 11705 13618 13392 13619 13620 
1554 1555 1852 1851 1587 1588 1885 1884 11483 13395 13396 13388 11710 13622 13623 13615 11701 11708 13621 13614 13617 13624 11712 13625 13399 13626 13627 
1555 1556 1853 1852 1588 1589 1886 1885 11490 13402 13403 13395 11717 13629 13630 13622 11708 11715 13628 13621 13624 13631 11719 13632 13406 13633 13634 
1556 1557 1854 1853 1589 1590 1887 1886 11497 13409 13410 13402 11724 13636 13637 13629 11715 11722 13635 13628 13631 13638 11726 13639 13413 13640 13641 
1557 1558 1855 1854 1590 1591 1888 1887 11504 13416 13417 13409 11731 13643 13644 13636 11722 11729 13642 13635 13638 13645 11733 13646 13420 13647 13648 
1558 1559 1856 1855 1591 1592 1889 1888 11511 13423 13424 13416 11738 13650 13651 13643 11729 11736 13649 13642 13645 13652 11740 13653 13427 13654 13655 
1559 1560 1857 1856 1592 1593 1890 1889 11518 13430 13431 13423 11745 13657 13658 13650 11736 11743 13656 13649 13652 13659 11747 13660 13434 13661 13662 
1560 1561 1858 1857 1593 1594 1891 1890 11525 13437 13438 13430 11752 13664 13665 13657 11743 11750 13663 13656 13659 13666 11754 13667 13441 13668 13669 
1561 1562 1859 1858 1594 1595 1892 1891 11532 13444 13445 13437 11759 13671 13672 13664 11750 11757 13670 13663 13666 13673 11761 13674 13448 13675 13676 
1562 1563 1860 1859 1595 1596 1893 1892 11539 13451 13452 13444 11766 13678 13679 13671 11757 11764 13677 13670 13673 13680 11768 13681 13455 13682 13683 
1563 1564 1861 1860 1596 1597 1894 1893 11546 13458 13459 13451 11773 13685 13686 13678 11764 11771 13684 13677 13680 13687 11775 13688 13462 13689 13690 
1564 1565 1862 1861 1597 1598 1895 1894 11553 13465 13466 13458 11780 13692 13693 13685 11771 11778 13691 13684 13687 13694 11782 13695 13469 13696 13697 
1565 1566 1863 1862 1598 1599 1896 1895 11560 13472 13473 13465 11787 13699 13700 13692 11778 11785 13698 13691 13694 13701 11789 13702 13476 13703 13704 
1566 1567 1864 1863 1599 1600 1897 1896 11567 13479 13480 13472 11794 13706 13707 13699 11785 11792 13705 13698 13701 13708 11796 13709 13483 13710 13711 
1567 1568 1865 1864 1600 1601 1898 1897 11574 13486 13487 13479 11801 13713 13714 13706 11792 11799 13712 13705 13708 13715 11803 13716 13490 13717 13718 
1568 1569 1866 1865 1601 1602 1899 1898 11581 13493 13494 13486 11808 13720 13721 13713 11799 11806 13719 13712 13715 13722 11810 13723 13497 13724 13725 
1569 1570 1867 1866 1602 1603 1900 1899 11588 13500 13501 13493 11815 13727 13728 13720 11806 11813 13726 13719 13722 13729 11817 13730 13504 13731 13732 
1570 1571 1868 1867 1603 1604 1901 1900 11595 13507 13508 13500 11822 13734 13735 13727 11813 11820 13733 13726 13729 13736 11824 13737 13511 13738 13739 
1571 1572 1869 1868 1604 1605 1902 1901 11602 13514 13515 13507 11829 13741 13742 13734 11820 11827 13740 13733 13736 13743 11831 13744 13518 13745 13746 
1572 1573 1870 1869 1605 1606 1903 1902 11609 13521 13522 13514 11836 13748 13749 13741 11827 11834 13747 13740 13743 13750 11838 13751 13525 13752 13753 
1573 1574 1871 1870 1606 1607 1904 1903 11616 13528 13529 13521 11843 13755 13756 13748 11834 11841 13754 13747 13750 13757 11845 13758 13532 13759 13760 
1574 1575 1872 1871 1607 1608 1905 1904 11623 13535 13536 13528 11850 13762 13763 13755 11841 11848 13761 13754 13757 13764 11852 13765 13539 13766 13767 
1575 1576 1873 1872 1608 1609 1906 1905 11630 13542 13543 13535 11857 13769 13770 13762 11848 11855 13768 13761 13764 13771 11859 13772 13546 13773 13774 
1576 1577 1874 1873 1609 1610 1907 1906 11637 13549 13550 13542 11864 13776 13777 13769 11855 11862 13775 13768 13771 13778 11866 13779 13553 13780 13781 
1577 1578 1875 1874 1610 1611 1908 1907 11644 13556 13557 13549 11871 13783 13784 13776 11862 11869 13782 13775 13778 13785 11873 13786 13560 13787 13788 
1578 1579 1876 1875 1611 1612 1909 1908 11651 13563 13564 13556 11878 13790 13791 13783 11869 11876 13789 13782 13785 13792 11880 13793 13567 13794 13795 
1579 1580 1877 1876 1612 1613 1910 1909 11658 13570 13571 13563 11885 13797 13798 13790 11876 11883 13796 13789 13792 13799 11887 13800 13574 13801 13802 
1580 1581 1878 1877 1613 1614 1911 1910 11665 13577 13578 13570 11892 13804 13805 13797 11883 11890 13803 13796 13799 13806 11894 13807 13581 13808 13809 
1581 1582 1879 1878 1614 1615 1912 1911 11672 13584 13585 13577 11899 13811 13812 13804 11890 11897 13810 13803 13806 13813 11901 13814 13588 13815 13816 
1582 1583 1880 1879 1615 1616 1913 1912 11679 13591 13592 13584 11906 13818 13819 13811 11897 11904 13817 13810 13813 13820 11908 13821 13595 13822 13823 
1584 1585 1882 1881 1617 1618 1915 1914 11687 13599 13600 13601 11914 13826 13827 13828 11912 11911 13824 13825 13831 13829 11917 13830 13605 13832 13833 
1585 1586 1883 1882 1618 1619 1916 1915 11696 13608 13609 13599 11923 13835 13836 13826 11911 11921 13834 13824 13829 13837 11925 13838 13612 13839 13840 
1586 1587 1884 1883 1619 1620 1917 1916 11703 13615 13616 13608 11930 13842 13843 13835 11921 11928 13841 13834 13837 13844 11932 13845 13619 13846 13847 
1587 1588 1885 1884 1620 1621 1918 1917 11710 13622 13623 13615 11937 13849 13850 13842 11928 11935 13848 13841 13844 13851 11939 13852 13626 13853 13854 
1588 1589 1886 1885 1621 1622 1919 1918 11717 13629 13630 13622 11944 13856 13857 13849 11935 11942 13855 13848 13851 13858 11946 13859 13633 13860 13861 
1589 1590 1887 1886 1622 1623 1920 1919 11724 13636 13637 13629 11951 13863 13864 13856 11942 11949 13862 13855 13858 13865 11953 13866 13640 13867 13868 
1590 1591 1888 1887 1623 1624 1921 1920 11731 13643 13644 13636 11958 13870 13871 13863 11949 11956 13869 13862 13865 13872 11960 13873 13647 13874 13875 
1591 1592 1889 1888 1624 1625 1922 1921 11738 13650 13651 13643 11965 13877 13878 13870 11956 11963 13876 13869 13872 13879 11967 13880 13654 13881 13882 
1592 1593 1890 1889 1625 1626 1923 1922 11745 13657 13658 13650 11972 13884 13885 13877 11963 11970 13883 13876 13879 13886 11974 13887 13661 13888 13889 
1593 1594 1891 1890 1626 1627 1924 1923 11752 13664 13665 13657 11979 13891 13892 13884 11970 11977 13890 13883 13886 13893 11981 13894 13668 13895 13896 
1594 1595 1892 1891 1627 1628 1925 1924 11759 13671 13672 13664 11986 13898 13899 13891 11977 11984 13897 13890 13893 13900 11988 13901 13675 13902 13903 
1595 1596 1893 1892 1628 1629 1926 1925 11766 13678 13679 13671 11993 13905 13906 13898 11984 11991 13904 13897 13900 13907 11995 13908 13682 13909 13910 
1596 1597 1894 1893 1629 1630 1927 1926 11773 13685 13686 13678 12000 13912 13913 13905 11991 11998 13911 13904 13907 13914 12002 13915 13689 13916 13917 
1597 1598 1895 1894 1630 1631 1928 1927 11780 13692 13693 13685 12007 13919 13920 13912 11998 12005 13918 13911 13914 13921 12009 13922 13696 13923 13924 
1598 1599 1896 1895 1631 1632 1929 1928 11787 13699 13700 13692 12014 13926 13927 13919 12005 12012 13925 13918 13921 13928 12016 13929 13703 13930 13931 
1599 1600 1897 1896 1632 1633 1930 1929 11794 13706 13707 13699 12021 13933 13934 13926 12012 12019 13932 13925 13928 13935 12023 13936 13710 13937 13938 
1600 1601 1898 1897 1633 1634 1931 1930 11801 13713 13714 13706 12028 13940 13941 13933 12019 12026 13939 13932 13935 13942 12030 13943 13717 13944 13945 
1601 1602 1899 1898 1634 1635 1932 1931 11808 13720 13721 13713 12035 13947 13948 13940 12026 12033 13946 13939 13942 13949 12037 13950 13724 13951 13952 
1602 1603 1900 1899 1635 1636 1933 1932 11815 13727 13728 13720 12042 13954 13955 13947 12033 12040 13953 13946 13949 13956 12044 13957 13731 13958 13959 
1603 1604 1901 1900 1636 1637 1934 1933 11822 13734 13735 13727 12049 13961 13962 13954 12040 12047 13960 13953 13956 13963 12051 13964 13738 13965 13966 
1604 1605 1902 1901 1637 1638 1935 1934 11829 13741 13742 13734 12056 13968 13969 13961 12047 12054 13967 13960 13963 13970 12058 13971 13745 13972 13973 
1605 1606 1903 1902 1638 1639 1936 1935 11836 13748 13749 13741 12063 13975 13976 13968 12054 12061 13974 13967 13970 13977 12065 13978 13752 13979 13980 
1606 1607 1904 1903 1639 1640 1937 1936 11843 13755 13756 13748 12070 13982 13983 13975 12061 12068 13981 13974 13977 13984 12072 13985 13759 13986 13987 
1607 1608 1905 1904 1640 1641 1938 1937 11850 13762 13763 13755 12077 13989 13990 13982 12068 12075 13988 13981 13984 13991 12079 13992 13766 13993 13994 
1608 1609 1906 1905 1641 1642 1939 1938 11857 13769 13770 13762 12084 13996 13997 13989 12075 12082 13995 13988 13991 13998 12086 13999 13773 14000 14001 
1609 1610 1907 1906 1642 1643 1940 1939 11864 13776 13777 13769 12091 14003 14004 13996 12082 12089 14002 13995 13998 14005 12093 14006 13780 14007 14008 
1610 1611 1908 1907 1643 1644 1941 1940 11871 13783 13784 13776 12098 14010 14011 14003 12089 12096 14009 14002 14005 14012 12100 14013 13787 14014 14015 
1611 1612 1909 1908 1644 1645 1942 1941 11878 13790 13791 13783 12105 14017 14018 14010 12096 12103 14016 14009 14012 14019 12107 14020 13794 14021 14022 
1612 1613 1910 1909 1645 1646 1943 1942 11885 13797 13798 13790 12112 14024 14025 14017 12103 12110 14023 14016 14019 14026 12114 14027 13801 14028 14029 
1613 1614 1911 1910 1646 1647 1944 1943 11892 13804 13805 13797 12119 14031 14032 14024 12110 12117 14030 14023 14026 14033 12121 14034 13808 14035 14036 
1614 1615 1912 1911 1647 1648 1945 1944 11899 13811 13812 13804 12126 14038 14039 14031 12117 12124 14037 14030 14033 14040 12128 14041 13815 14042 14043 
1615 1616 1913 1912 1648 1649 1946 1945 11906 13818 13819 13811 12133 14045 14046 14038 12124 12131 14044 14037 14040 14047 12135 14048 13822 14049 14050 
1617 1618 1915 1914 1650 1651 1948 1947 11914 13826 13827 13828 12141 14053 14054 14055 12139 12138 14051 14052 14058 14056 12144 14057 13832 14059 14060 
1618 1619 1916 1915 1651 1652 1949 1948 11923 13835 13836 13826 12150 14062 14063 14053 12138 12148 14061 14051 14056 14064 12152 14065 13839 14066 14067 
1619 1620 1917 1916 1652 1653 1950 1949 11930 13842 13843 13835 12157 14069 14070 14062 12148 12155 14068 14061 14064 14071 12159 14072 13846 14073 14074 
1620 1621 1918 1917 1653 1654 1951 1950 11937 13849 13850 13842 12164 14076 14077 14069 12155 12162 14075 14068 14071 14078 12166 14079 13853 14080 14081 
1621 1622 1919 1918 1654 1655 1952 1951 11944 13856 13857 13849 12171 14083 14084 14076 12162 12169 14082 14075 14078 14085 12173 14086 13860 14087 14088 
1622 1623 1920 1919 1655 1656 1953 1952 11951 13863 13864 13856 12178 14090 14091 14083 12169 12176 14089 14082 14085 14092 12180 14093 13867 14094 14095 
1623 1624 1921 1920 1656 1657 1954 1953 11958 13870 13871 13863 12185 14097 14098 14090 12176 12183 14096 14089 14092 14099 12187 14100 13874 14101 14102 
1624 1625 1922 1921 1657 1658 1955 1954 11965 13877 13878 13870 12192 14104 14105 14097 12183 12190 14103 14096 14099 14106 12194 14107 13881 14108 14109 
1625 1626 1923 1922 1658 1659 1956 1955 11972 13884 13885 13877 12199 14111 14112 14104 12190 12197 14110 14103 14106 14113 12201 14114 13888 14115 14116 
1626 1627 1924 1923 1659 1660 1957 1956 11979 13891 13892 13884 12206 14118 14119 14111 12197 12204 14117 14110 14113 14120 12208 14121 13895 14122 14123 
1627 1628 1925 1924 1660 1661 1958 1957 11986 13898 13899 13891 12213 14125 14126 14118 12204 12211 14124 14117 14120 14127 12215 14128 13902 14129 14130 
1628 1629 1926 1925 1661 1662 1959 1958 11993 13905 13906 13898 12220 14132 14133 14125 12211 12218 14131 14124 14127 14134 12222 14135 13909 14136 14137 
1629 1630 1927 1926 1662 1663 1960 1959 12000 13912 13913 13905 12227 14139 14140 14132 12218 12225 14138 14131 14134 14141 12229 14142 13916 14143 14144 
1630 1631 1928 1927 1663 1664 1961 1960 12007 13919 13920 13912 12234 14146 14147 14139 12225 12232 14145 14138 14141 14148 12236 14149 13923 14150 14151 
1631 1632 1929 1928 1664 1665 1962 1961 12014 13926 13927 13919 12241 14153 14154 14146 12232 12239 14152 14145 14148 14155 12243 14156 13930 14157 14158 
1632 1633 1930 1929 1665 1666 1963 1962 12021 13933 13934 13926 12248 14160 14161 14153 12239 12246 14159 14152 14155 14162 12250 14163 13937 14164 14165 
1633 1634 1931 1930 1666 1667 1964 1963 12028 13940 13941 13933 12255 14167 14168 14160 12246 12253 14166 14159 14162 14169 12257 14170 13944 14171 14172 
1634 1635 1932 1931 1667 1668 1965 1964 12035 13947 13948 13940 12262 14174 14175 14167 12253 12260 14173 14166 14169 14176 12264 14177 13951 14178 14179 
1635 1636 1933 1932 1668 1669 1966 1965 12042 13954 13955 13947 12269 14181 14182 14174 12260 12267 14180 14173 14176 14183 12271 14184 13958 14185 14186 
1636 1637 1934 1933 1669 1670 1967 1966 12049 13961 13962 13954 12276 14188 14189 14181 12267 12274 14187 14180 14183 14190 12278 14191 13965 14192 14193 
1637 1638 1935 1934 1670 1671 1968 1967 12056 13968 13969 13961 12283 14195 14196 14188 12274 12281 14194 14187 14190 14197 12285 14198 13972 14199 14200 
1638 1639 1936 1935 1671 1672 1969 1968 12063 13975 13976 13968 12290 14202 14203 14195 12281 12288 14201 14194 14197 14204 12292 14205 13979 14206 14207 
1639 1640 1937 1936 1672 1673 1970 1969 12070 13982 13983 13975 12297 14209 14210 14202 12288 12295 14208 14201 14204 14211 12299 14212 13986 14213 14214 
1640 1641 1938 1937 1673 1674 1971 1970 12077 13989 13990 13982 12304 14216 14217 14209 12295 12302 14215 14208 14211 14218 12306 14219 13993 14220 14221 
1641 1642 1939 1938 1674 1675 1972 1971 12084 13996 13997 13989 12311 14223 14224 14216 12302 12309 14222 14215 14218 14225 12313 14226 14000 14227 14228 
1642 1643 1940 1939 1675 1676 1973 1972 12091 14003 14004 13996 12318 14230 14231 14223 12309 12316 14229 14222 14225 14232 12320 14233 14007 14234 14235 
1643 1644 1941 1940 1676 1677 1974 1973 12098 14010 14011 14003 12325 14237 14238 14230 12316 12323 14236 14229 14232 14239 12327 14240 14014 14241 14242 
1644 1645 1942 1941 1677 1678 1975 1974 12105 14017 14018 14010 12332 14244 14245 14237 12323 12330 14243 14236 14239 14246 12334 14247 14021 14248 14249 
1645 1646 1943 1942 1678 1679 1976 1975 12112 14024 14025 14017 12339 14251 14252 14244 12330 12337 14250 14243 14246 14253 12341 14254 14028 14255 14256 
1646 1647 1944 1943 1679 1680 1977 1976 12119 14031 14032 14024 12346 14258 14259 14251 12337 12344 14257 14250 14253 14260 12348 14261 14035 14262 14263 
1647 1648 1945 1944 1680 1681 1978 1977 12126 14038 14039 14031 12353 14265 14266 14258 12344 12351 14264 14257 14260 14267 12355 14268 14042 14269 14270 
1648 1649 1946 1945 1681 1682 1979 1978 12133 14045 14046 14038 12360 14272 14273 14265 12351 12358 14271 14264 14267 14274 12362 14275 14049 14276 14277 
1650 1651 1948 1947 1683 1684 1981 1980 12141 14053 14054 14055 12368 14280 14281 14282 12366 12365 14278 14279 14285 14283 12371 14284 14059 14286 14287 
1651 1652 1949 1948 1684 1685 1982 1981 12150 14062 14063 14053 12377 14289 14290 14280 12365 12375 14288 14278 14283 14291 12379 14292 14066 14293 14294 
1652 1653 1950 1949 1685 1686 1983 1982 12157 14069 14070 14062 12384 14296 14297 14289 12375 12382 14295 14288 14291 14298 12386 14299 14073 14300 14301 
1653 1654 1951 1950 1686 1687 1984 1983 12164 14076 14077 14069 12391 14303 14304 14296 12382 12389 14302 14295 14298 14305 12393 14306 14080 14307 14308 
1654 1655 1952 1951 1687 1688 1985 1984 12171 14083 14084 14076 12398 14310 14311 14303 12389 12396 14309 14302 14305 14312 12400 14313 14087 14314 14315 
1655 1656 1953 1952 1688 1689 1986 1985 12178 14090 14091 14083 12405 14317 14318 14310 12396 12403 14316 14309 14312 14319 12407 14320 14094 14321 14322 
1656 1657 1954 1953 1689 1690 1987 1986 12185 14097 14098 14090 12412 14324 14325 14317 12403 12410 14323 14316 14319 14326 12414 14327 14101 14328 14329 
1657 1658 1955 1954 1690 1691 1988 1987 12192 14104 14105 14097 12419 14331 14332 14324 12410 12417 14330 14323 14326 14333 12421 14334 14108 14335 14336 
1658 1659 1956 1955 1691 1692 1989 1988 12199 14111 14112 14104 12426 14338 14339 14331 12417 12424 14337 14330 14333 14340 12428 14341 14115 14342 14343 
1659 1660 1957 1956 1692 1693 1990 1989 12206 14118 14119 14111 12433 14345 14346 14338 12424 12431 14344 14337 14340 14347 12435 14348 14122 14349 14350 
1660 1661 1958 1957 1693 1694 1991 1990 12213 14125 14126 14118 12440 14352 14353 14345 12431 12438 14351 14344 14347 14354 12442 14355 14129 14356 14357 
1661 1662 1959 1958 1694 1695 1992 1991 12220 14132 14133 14125 12447 14359 14360 14352 12438 12445 14358 14351 14354 14361 12449 14362 14136 14363 14364 
1662 1663 1960 1959 1695 1696 1993 1992 12227 14139 14140 14132 12454 14366 14367 14359 12445 12452 14365 14358 14361 14368 12456 14369 14143 14370 14371 
1663 1664 1961 1960 1696 1697 1994 1993 12234 14146 14147 14139 12461 14373 14374 14366 12452 12459 14372 14365 14368 14375 12463 14376 14150 14377 14378 
1664 1665 1962 1961 1697 1698 1995 1994 12241 14153 14154 14146 12468 14380 14381 14373 12459 12466 14379 14372 14375 14382 12470 14383 14157 14384 14385 
1665 1666 1963 1962 1698 1699 1996 1995 12248 14160 14161 14153 12475 14387 14388 14380 12466 12473 14386 14379 14382 14389 12477 14390 14164 14391 14392 
1666 1667 1964 1963 1699 1700 1997 1996 12255 14167 14168 14160 12482 14394 14395 14387 12473 12480 14393 14386 14389 14396 12484 14397 14171 14398 14399 
1667 1668 1965 1964 1700 1701 1998 1997 12262 14174 14175 14167 12489 14401 14402 14394 12480 12487 14400 14393 14396 14403 12491 14404 14178 14405 14406 
1668 1669 1966 1965 1701 1702 1999 1998 12269 14181 14182 14174 12496 14408 14409 14401 12487 12494 14407 14400 14403 14410 12498 14411 14185 14412 14413 
1669 1670 1967 1966 1702 1703 2000 1999 12276 14188 14189 14181 12503 14415 14416 14408 12494 12501 14414 14407 14410 14417 12505 14418 14192 14419 14420 
1670 1671 1968 1967 1703 1704 2001 2000 12283 14195 14196 14188 12510 14422 14423 14415 12501 12508 14421 14414 14417 14424 12512 14425 14199 14426 14427 
1671 1672 1969 1968 1704 1705 2002 2001 12290 14202 14203 14195 12517 14429 14430 14422 12508 12515 14428 14421 14424 14431 12519 14432 14206 14433 14434 
1672 1673 1970 1969 1705 1706 2003 2002 12297 14209 14210 14202 12524 14436 14437 14429 12515 12522 14435 14428 14431 14438 12526 14439 14213 14440 14441 
1673 1674 1971 1970 1706 1707 2004 2003 12304 14216 14217 14209 12531 14443 14444 14436 12522 12529 14442 14435 14438 14445 12533 14446 14220 14447 14448 
1674 1675 1972 1971 1707 1708 2005 2004 12311 14223 14224 14216 12538 14450 14451 14443 12529 12536 14449 14442 14445 14452 12540 14453 14227 14454 14455 
1675 1676 1973 1972 1708 1709 2006 2005 12318 14230 14231 14223 12545 14457 14458 14450 12536 12543 14456 14449 14452 14459 12547 14460 14234 14461 14462 
1676 1677 1974 1973 1709 1710 2007 2006 12325 14237 14238 14230 12552 14464 14465 14457 12543 12550 14463 14456 14459 14466 12554 14467 14241 14468 14469 
1677 1678 1975 1974 1710 1711 2008 2007 12332 14244 14245 14237 12559 14471 14472 14464 12550 12557 14470 14463 14466 14473 12561 14474 14248 14475 14476 
1678 1679 1976 1975 1711 1712 2009 2008 12339 14251 14252 14244 12566 14478 14479 14471 12557 12564 14477 14470 14473 14480 12568 14481 14255 14482 14483 
1679 1680 1977 1976 1712 1713 2010 2009 12346 14258 14259 14251 12573 14485 14486 14478 12564 12571 14484 14477 14480 14487 12575 14488 14262 14489 14490 
1680 1681 1978 1977 1713 1714 2011 2010 12353 14265 14266 14258 12580 14492 14493 14485 12571 12578 14491 14484 14487 14494 12582 14495 14269 14496 14497 
1681 1682 1979 1978 1714 1715 2012 2011 12360 14272 14273 14265 12587 14499 14500 14492 12578 12585 14498 14491 14494 14501 12589 14502 14276 14503 14504 
1683 1684 1981 1980 1716 1717 2014 2013 12368 14280 14281 14282 12595 14507 14508 14509 12593 12592 14505 14506 14512 14510 12598 14511 14286 14513 14514 
1684 1685 1982 1981 1717 1718 2015 2014 12377 14289 14290 14280 12604 14516 14517 14507 12592 12602 14515 14505 14510 14518 12606 14519 14293 14520 14521 
1685 1686 1983 1982 1718 1719 2016 2015 12384 14296 14297 14289 12611 14523 14524 14516 12602 12609 14522 14515 14518 14525 12613 14526 14300 14527 14528 
1686 1687 1984 1983 1719 1720 2017 2016 12391 14303 14304 14296 12618 14530 14531 14523 12609 12616 14529 14522 14525 14532 12620 14533 14307 14534 14535 
1687 1688 1985 1984 1720 1721 2018 2017 12398 14310 14311 14303 12625 14537 14538 14530 12616 12623 14536 14529 14532 14539 12627 14540 14314 14541 14542 
1688 1689 1986 1985 1721 1722 2019 2018 12405 14317 14318 14310 12632 14544 14545 14537 12623 12630 14543 14536 14539 14546 12634 14547 14321 14548 14549 
1689 1690 1987 1986 1722 1723 2020 2019 12412 14324 14325 14317 12639 14551 14552 14544 12630 12637 14550 14543 14546 14553 12641 14554 14328 14555 14556 
1690 1691 1988 1987 1723 1724 2021 2020 12419 14331 14332 14324 12646 14558 14559 14551 12637 12644 14557 14550 14553 14560 12648 14561 14335 14562 14563 
1691 1692 1989 1988 1724 1725 2022 2021 12426 14338 14339 14331 12653 14565 14566 14558 12644 12651 14564 14557 14560 14567 12655 14568 14342 14569 14570 
1692 1693 1990 1989 1725 1726 2023 2022 12433 14345 14346 14338 12660 14572 14573 14565 12651 12658 14571 14564 14567 14574 12662 14575 14349 14576 14577 
1693 1694 1991 1990 1726 1727 2024 2023 12440 14352 14353 14345 12667 14579 14580 14572 12658 12665 14578 14571 14574 14581 12669 14582 14356 14583 14584 
1694 1695 1992 1991 1727 1728 2025 2024 12447 14359 14360 14352 12674 14586 14587 14579 12665 12672 14585 14578 14581 14588 12676 14589 14363 14590 14591 
1695 1696 1993 1992 1728 1729 2026 2025 12454 14366 14367 14359 12681 14593 14594 14586 12672 12679 14592 14585 14588 14595 12683 14596 14370 14597 14598 
1696 1697 1994 1993 1729 1730 2027 2026 12461 14373 14374 14366 12688 14600 14601 14593 12679 12686 14599 14592 14595 14602 12690 14603 14377 14604 14605 
1697 1698 1995 1994 1730 1731 2028 2027 12468 14380 14381 14373 12695 14607 14608 14600 12686 12693 14606 14599 14602 14609 12697 14610 14384 14611 14612 
1698 1699 1996 1995 1731 1732 2029 2028 12475 14387 14388 14380 12702 14614 14615 14607 12693 12700 14613 14606 14609 14616 12704 14617 14391 14618 14619 
1699 1700 1997 1996 1732 1733 2030 2029 12482 14394 14395 14387 12709 14621 14622 14614 12700 12707 14620 14613 14616 14623 12711 14624 14398 14625 14626 
1700 1701 1998 1997 1733 1734 2031 2030 12489 14401 14402 14394 12716 14628 14629 14621 12707 12714 14627 14620 14623 14630 12718 14631 14405 14632 14633 
1701 1702 1999 1998 1734 1735 2032 2031 12496 14408 14409 14401 12723 14635 14636 14628 12714 12721 14634 14627 14630 14637 12725 14638 14412 14639 14640 
1702 1703 2000 1999 1735 1736 2033 2032 12503 14415 14416 14408 12730 14642 14643 14635 12721 12728 14641 14634 14637 14644 12732 14645 14419 14646 14647 
1703 1704 2001 2000 1736 1737 2034 2033 12510 14422 14423 14415 12737 14649 14650 14642 12728 12735 14648 14641 14644 14651 12739 14652 14426 14653 14654 
1704 1705 2002 2001 1737 1738 2035 2034 12517 14429 14430 14422 12744 14656 14657 14649 12735 12742 14655 14648 14651 14658 12746 14659 14433 14660 14661 
1705 1706 2003 2002 1738 1739 2036 2035 12524 14436 14437 14429 12751 14663 14664 14656 12742 12749 14662 14655 14658 14665 12753 14666 14440 14667 14668 
1706 1707 2004 2003 1739 1740 2037 2036 12531 14443 14444 14436 12758 14670 14671 14663 12749 12756 14669 14662 14665 14672 12760 14673 14447 14674 14675 
1707 1708 2005 2004 1740 1741 2038 2037 12538 14450 14451 14443 12765 14677 14678 14670 12756 12763 14676 14669 14672 14679 12767 14680 14454 14681 14682 
1708 1709 2006 2005 1741 1742 2039 2038 12545 14457 14458 14450 12772 14684 14685 14677 12763 12770 14683 14676 14679 14686 12774 14687 14461 14688 14689 
1709 1710 2007 2006 1742 1743 2040 2039 12552 14464 14465 14457 12779 14691 14692 14684 12770 12777 14690 14683 14686 14693 12781 14694 14468 14695 14696 
1710 1711 2008 2007 1743 1744 2041 2040 12559 14471 14472 14464 12786 14698 14699 14691 12777 12784 14697 14690 14693 14700 12788 14701 14475 14702 14703 
1711 1712 2009 2008 1744 1745 2042 2041 12566 14478 14479 14471 12793 14705 14706 14698 12784 12791 14704 14697 14700 14707 12795 14708 14482 14709 14710 
1712 1713 2010 2009 1745 1746 2043 2042 12573 14485 14486 14478 12800 14712 14713 14705 12791 12798 14711 14704 14707 14714 12802 14715 14489 14716 14717 
1713 1714 2011 2010 1746 1747 2044 2043 12580 14492 14493 14485 12807 14719 14720 14712 12798 12805 14718 14711 14714 14721 12809 14722 14496 14723 14724 
1714 1715 2012 2011 1747 1748 2045 2044 12587 14499 14500 14492 12814 14726 14727 14719 12805 12812 14725 14718 14721 14728 12816 14729 14503 14730 14731 
1716 1717 2014 2013 1749 1750 2047 2046 12595 14507 14508 14509 12822 14734 14735 14736 12820 12819 14732 14733 14739 14737 12825 14738 14513 14740 14741 
1717 1718 2015 2014 1750 1751 2048 2047 12604 14516 14517 14507 12831 14743 14744 14734 12819 12829 14742 14732 14737 14745 12833 14746 14520 14747 14748 
1718 1719 2016 2015 1751 1752 2049 2048 12611 14523 14524 14516 12838 14750 14751 14743 12829 12836 14749 14742 14745 14752 12840 14753 14527 14754 14755 
1719 1720 2017 2016 1752 1753 2050 2049 12618 14530 14531 14523 12845 14757 14758 14750 12836 12843 14756 14749 14752 14759 12847 14760 14534 14761 14762 
1720 1721 2018 2017 1753 1754 2051 2050 12625 14537 14538 14530 12852 14764 14765 14757 12843 12850 14763 14756 14759 14766 12854 14767 14541 14768 14769 
1721 1722 2019 2018 1754 1755 2052 2051 12632 14544 14545 14537 12859 14771 14772 14764 12850 12857 14770 14763 14766 14773 12861 14774 14548 14775 14776 
1722 1723 2020 2019 1755 1756 2053 2052 12639 14551 14552 14544 12866 14778 14779 14771 12857 12864 14777 14770 14773 14780 12868 14781 14555 14782 14783 
1723 1724 2021 2020 1756 1757 2054 2053 12646 14558 14559 14551 12873 14785 14786 14778 12864 12871 14784 14777 14780 14787 12875 14788 14562 14789 14790 
1724 1725 2022 2021 1757 1758 2055 2054 12653 14565 14566 14558 12880 14792 14793 14785 12871 12878 14791 14784 14787 14794 12882 14795 14569 14796 14797 
1725 1726 2023 2022 1758 1759 2056 2055 12660 14572 14573 14565 12887 14799 14800 14792 12878 12885 14798 14791 14794 14801 12889 14802 14576 14803 14804 
1726 1727 2024 2023 1759 1760 2057 2056 12667 14579 14580 14572 12894 14806 14807 14799 12885 12892 14805 14798 14801 14808 12896 14809 14583 14810 14811 
1727 1728 2025 2024 1760 1761 2058 2057 12674 14586 14587 14579 12901 14813 14814 14806 12892 12899 14812 14805 14808 14815 12903 14816 14590 14817 14818 
1728 1729 2026 2025 1761 1762 2059 2058 12681 14593 14594 14586 12908 14820 14821 14813 12899 12906 14819 14812 14815 14822 12910 14823 14597 14824 14825 
1729 1730 2027 2026 1762 1763 2060 2059 12688 14600 14601 14593 12915 14827 14828 14820 12906 12913 14826 14819 14822 14829 12917 14830 14604 14831 14832 
1730 1731 2028 2027 1763 1764 2061 2060 12695 14607 14608 14600 12922 14834 14835 14827 12913 12920 14833 14826 14829 14836 12924 14837 14611 14838 14839 
1731 1732 2029 2028 1764 1765 2062 2061 12702 14614 14615 14607 12929 14841 14842 14834 12920 12927 14840 14833 14836 14843 12931 14844 14618 14845 14846 
1732 1733 2030 2029 1765 1766 2063 2062 12709 14621 14622 14614 12936 14848 14849 14841 12927 12934 14847 14840 14843 14850 12938 14851 14625 14852 14853 
1733 1734 2031 2030 1766 1767 2064 2063 12716 14628 14629 14621 12943 14855 14856 14848 12934 12941 14854 14847 14850 14857 12945 14858 14632 14859 14860 
1734 1735 2032 2031 1767 1768 2065 2064 12723 14635 14636 14628 12950 14862 14863 14855 12941 12948 14861 14854 14857 14864 12952 14865 14639 14866 14867 
1735 1736 2033 2032 1768 1769 2066 2065 12730 14642 14643 14635 12957 14869 14870 14862 12948 12955 14868 14861 14864 14871 12959 14872 14646 14873 14874 
1736 1737 2034 2033 1769 1770 2067 2066 12737 14649 14650 14642 12964 14876 14877 14869 12955 12962 14875 14868 14871 14878 12966 14879 14653 14880 14881 
1737 1738 2035 2034 1770 1771 2068 2067 12744 14656 14657 14649 12971 14883 14884 14876 12962 12969 14882 14875 14878 14885 12973 14886 14660 14887 14888 
1738 1739 2036 2035 1771 1772 2069 2068 12751 14663 14664 14656 12978 14890 14891 14883 12969 12976 14889 14882 14885 14892 12980 14893 14667 14894 14895 
1739 1740 2037 2036 1772 1773 2070 2069 12758 14670 14671 14663 12985 14897 14898 14890 12976 12983 14896 14889 14892 14899 12987 14900 14674 14901 14902 
1740 1741 2038 2037 1773 1774 2071 2070 12765 14677 14678 14670 12992 14904 14905 14897 12983 12990 14903 14896 14899 14906 12994 14907 14681 14908 14909 
1741 1742 2039 2038 1774 1775 2072 2071 12772 14684 14685 14677 12999 14911 14912 14904 12990 12997 14910 14903 14906 14913 13001 14914 14688 14915 14916 
1742 1743 2040 2039 1775 1776 2073 2072 12779 14691 14692 14684 13006 14918 14919 14911 12997 13004 14917 14910 14913 14920 13008 14921 14695 14922 14923 
1743 1744 2041 2040 1776 1777 2074 2073 12786 14698 14699 14691 13013 14925 14926 14918 13004 13011 14924 14917 14920 14927 13015 14928 14702 14929 14930 
1744 1745 2042 2041 1777 1778 2075 2074 12793 14705 14706 14698 13020 14932 14933 14925 13011 13018 14931 14924 14927 14934 13022 14935 14709 14936 14937 
1745 1746 2043 2042 1778 1779 2076 2075 12800 14712 14713 14705 13027 14939 14940 14932 13018 13025 14938 14931 14934 14941 13029 14942 14716 14943 14944 
1746 1747 2044 2043 1779 1780 2077 2076 12807 14719 14720 14712 13034 14946 14947 14939 13025 13032 14945 14938 14941 14948 13036 14949 14723 14950 14951 
1747 1748 2045 2044 1780 1781 2078 2077 12814 14726 14727 14719 13041 14953 14954 14946 13032 13039 14952 14945 14948 14955 13043 14956 14730 14957 14958 
1782 1783 2080 2079 1815 1816 2113 2112 13047 14959 14960 14961 13052 14964 14965 14966 13050 13049 14962 14963 14970 14968 13056 14969 14967 14971 14972 
1783 1784 2081 2080 1816 1817 2114 2113 13061 14973 14974 14959 13064 14976 14977 14964 13049 13062 14975 14962 14968 14979 13067 14980 14978 14981 14982 
1784 1785 2082 2081 1817 1818 2115 2114 13071 14983 14984 14973 13074 14986 14987 14976 13062 13072 14985 14975 14979 14989 13077 14990 14988 14991 14992 
1785 1786 2083 2082 1818 1819 2116 2115 13081 14993 14994 14983 13084 14996 14997 14986 13072 13082 14995 14985 14989 14999 13087 15000 14998 15001 15002 
1786 1787 2084 2083 1819 1820 2117 2116 13091 15003 15004 14993 13094 15006 15007 14996 13082 13092 15005 14995 14999 15009 13097 15010 15008 15011 15012 
1787 1788 2085 2084 1820 1821 2118 2117 13101 15013 15014 15003 13104 15016 15017 15006 13092 13102 15015 15005 15009 15019 13107 15020 15018 15021 15022 
1788 1789 2086 2085 1821 1822 2119 2118 13111 15023 15024 15013 13114 15026 15027 15016 13102 13112 15025 15015 15019 15029 13117 15030 15028 15031 15032 
1789 1790 2087 2086 1822 1823 2120 2119 13121 15033 15034 15023 13124 15036 15037 15026 13112 13122 15035 15025 15029 15039 13127 15040 15038 15041 15042 
1790 1791 2088 2087 1823 1824 2121 2120 13131 15043 15044 15033 13134 15046 15047 15036 13122 13132 15045 15035 15039 15049 13137 15050 15048 15051 15052 
1791 1792 2089 2088 1824 1825 2122 2121 13141 15053 15054 15043 13144 15056 15057 15046 13132 13142 15055 15045 15049 15059 13147 15060 15058 15061 15062 
1792 1793 2090 2089 1825 1826 2123 2122 13151 15063 15064 15053 13154 15066 15067 15056 13142 13152 15065 15055 15059 15069 13157 15070 15068 15071 15072 
1793 1794 2091 2090 1826 1827 2124 2123 13161 15073 15074 15063 13164 15076 15077 15066 13152 13162 15075 15065 15069 15079 13167 15080 15078 15081 15082 
1794 1795 2092 2091 1827 1828 2125 2124 13171 15083 15084 15073 13174 15086 15087 15076 13162 13172 15085 15075 15079 15089 13177 15090 15088 15091 15092 
1795 1796 2093 2092 1828 1829 2126 2125 13181 15093 15094 15083 13184 15096 15097 15086 13172 13182 15095 15085 15089 15099 13187 15100 15098 15101 15102 
1796 1797 2094 2093 1829 1830 2127 2126 13191 15103 15104 15093 13194 15106 15107 15096 13182 13192 15105 15095 15099 15109 13197 15110 15108 15111 15112 
1797 1798 2095 2094 1830 1831 2128 2127 13201 15113 15114 15103 13204 15116 15117 15106 13192 13202 15115 15105 15109 15119 13207 15120 15118 15121 15122 
1798 1799 2096 2095 1831 1832 2129 2128 13211 15123 15124 15113 13214 15126 15127 15116 13202 13212 15125 15115 15119 15129 13217 15130 15128 15131 15132 
1799 1800 2097 2096 1832 1833 2130 2129 13221 15133 15134 15123 13224 15136 15137 15126 13212 13222 15135 15125 15129 15139 13227 15140 15138 15141 15142 
1800 1801 2098 2097 1833 1834 2131 2130 13231 15143 15144 15133 13234 15146 15147 15136 13222 13232 15145 15135 15139 15149 13237 15150 15148 15151 15152 
1801 1802 2099 2098 1834 1835 2132 2131 13241 15153 15154 15143 13244 15156 15157 15146 13232 13242 15155 15145 15149 15159 13247 15160 15158 15161 15162 
1802 1803 2100 2099 1835 1836 2133 2132 13251 15163 15164 15153 13254 15166 15167 15156 13242 13252 15165 15155 15159 15169 13257 15170 15168 15171 15172 
1803 1804 2101 2100 1836 1837 2134 2133 13261 15173 15174 15163 13264 15176 15177 15166 13252 13262 15175 15165 15169 15179 13267 15180 15178 15181 15182 
1804 1805 2102 2101 1837 1838 2135 2134 13271 15183 15184 15173 13274 15186 15187 15176 13262 13272 15185 15175 15179 15189 13277 15190 15188 15191 15192 
1805 1806 2103 2102 1838 1839 2136 2135 13281 15193 15194 15183 13284 15196 15197 15186 13272 13282 15195 15185 15189 15199 13287 15200 15198 15201 15202 
1806 1807 2104 2103 1839 1840 2137 2136 13291 15203 15204 15193 13294 15206 15207 15196 13282 13292 15205 15195 15199 15209 13297 15210 15208 15211 15212 
1807 1808 2105 2104 1840 1841 2138 2137 13301 15213 15214 15203 13304 15216 15217 15206 13292 13302 15215 15205 15209 15219 13307 15220 15218 15221 15222 
1808 1809 2106 2105 1841 1842 2139 2138 13311 15223 15224 15213 13314 15226 15227 15216 13302 13312 15225 15215 15219 15229 13317 15230 15228 15231 15232 
1809 1810 2107 2106 1842 1843 2140 2139 13321 15233 15234 15223 13324 15236 15237 15226 13312 13322 15235 15225 15229 15239 13327 15240 15238 15241 15242 
1810 1811 2108 2107 1843 1844 2141 2140 13331 15243 15244 15233 13334 15246 15247 15236 13322 13332 15245 15235 15239 15249 13337 15250 15248 15251 15252 
1811 1812 2109 2108 1844 1845 2142 2141 13341 15253 15254 15243 13344 15256 15257 15246 13332 13342 15255 15245 15249 15259 13347 15260 15258 15261 15262 
1812 1813 2110 2109 1845 1846 2143 2142 13351 15263 15264 15253 13354 15266 15267 15256 13342 13352 15265 15255 15259 15269 13357 15270 15268 15271 15272 
1813 1814 2111 2110 1846 1847 2144 2143 13361 15273 15274 15263 13364 15276 15277 15266 13352 13362 15275 15265 15269 15279 13367 15280 15278 15281 15282 
1815 1816 2113 2112 1848 1849 2146 2145 13052 14964 14965 14966 13373 15285 15286 15287 13371 13370 15283 15284 15290 15288 13376 15289 14971 15291 15292 
1816 1817 2114 2113 1849 1850 2147 2146 13064 14976 14977 14964 13382 15294 15295 15285 13370 13380 15293 15283 15288 15296 13384 15297 14981 15298 15299 
1817 1818 2115 2114 1850 1851 2148 2147 13074 14986 14987 14976 13389 15301 15302 15294 13380 13387 15300 15293 15296 15303 13391 15304 14991 15305 15306 
1818 1819 2116 2115 1851 1852 2149 2148 13084 14996 14997 14986 13396 15308 15309 15301 13387 13394 15307 15300 15303 15310 13398 15311 15001 15312 15313 
1819 1820 2117 2116 1852 1853 2150 2149 13094 15006 15007 14996 13403 15315 15316 15308 13394 13401 15314 15307 15310 15317 13405 15318 15011 15319 15320 
1820 1821 2118 2117 1853 1854 2151 2150 13104 15016 15017 15006 13410 15322 15323 15315 13401 13408 15321 15314 15317 15324 13412 15325 15021 15326 15327 
1821 1822 2119 2118 1854 1855 2152 2151 13114 15026 15027 15016 13417 15329 15330 15322 13408 13415 15328 15321 15324 15331 13419 15332 15031 15333 15334 
1822 1823 2120 2119 1855 1856 2153 2152 13124 15036 15037 15026 13424 15336 15337 15329 13415 13422 15335 15328 15331 15338 13426 15339 15041 15340 15341 
1823 1824 2121 2120 1856 1857 2154 2153 13134 15046 15047 15036 13431 15343 15344 15336 13422 13429 15342 15335 15338 15345 13433 15346 15051 15347 15348 
1824 1825 2122 2121 1857 1858 2155 2154 13144 15056 15057 15046 13438 15350 15351 15343 13429 13436 15349 15342 15345 15352 13440 15353 15061 15354 15355 
1825 1826 2123 2122 1858 1859 2156 2155 13154 15066 15067 15056 13445 15357 15358 15350 13436 13443 15356 15349 15352 15359 13447 15360 15071 15361 15362 
1826 1827 2124 2123 1859 1860 2157 2156 13164 15076 15077 15066 13452 15364 15365 15357 13443 13450 15363 15356 15359 15366 13454 15367 15081 15368 15369 
1827 1828 2125 2124 1860 1861 2158 2157 13174 15086 15087 15076 13459 15371 15372 15364 13450 13457 15370 15363 15366 15373 13461 15374 15091 15375 15376 
1828 1829 2126 2125 1861 1862 2159 2158 13184 15096 15097 15086 13466 15378 15379 15371 13457 13464 15377 15370 15373 15380 13468 15381 15101 15382 15383 
1829 1830 2127 2126 1862 1863 2160 2159 13194 15106 15107 15096 13473 15385 15386 15378 13464 13471 15384 15377 15380 15387 13475 15388 15111 15389 15390 
1830 1831 2128 2127 1863 1864 2161 2160 13204 15116 15117 15106 13480 15392 15393 15385 13471 13478 15391 15384 15387 15394 13482 15395 15121 15396 15397 
1831 1832 2129 2128 1864 1865 2162 2161 13214 15126 15127 15116 13487 15399 15400 15392 13478 13485 15398 15391 15394 15401 13489 15402 15131 15403 15404 
1832 1833 2130 2129 1865 1866 2163 2162 13224 15136 15137 15126 13494 15406 15407 15399 13485 13492 15405 15398 15401 15408 13496 15409 15141 15410 15411 
1833 1834 2131 2130 1866 1867 2164 2163 13234 15146 15147 15136 13501 15413 15414 15406 13492 13499 15412 15405 15408 15415 13503 15416 15151 15417 15418 
1834 1835 2132 2131 1867 1868 2165 2164 13244 15156 15157 15146 13508 15420 15421 15413 13499 13506 15419 15412 15415 15422 13510 15423 15161 15424 15425 
1835 1836 2133 2132 1868 1869 2166 2165 13254 15166 15167 15156 13515 15427 15428 15420 13506 13513 15426 15419 15422 15429 13517 15430 15171 15431 15432 
1836 1837 2134 2133 1869 1870 2167 2166 13264 15176 15177 15166 13522 15434 15435 15427 13513 13520 15433 15426 15429 15436 13524 15437 15181 15438 15439 
1837 1838 2135 2134 1870 1871 2168 2167 13274 15186 15187 15176 13529 15441 15442 15434 13520 13527 15440 15433 15436 15443 13531 15444 15191 15445 15446 
1838 1839 2136 2135 1871 1872 2169 2168 13284 15196 15197 15186 13536 15448 15449 15441 13527 13534 15447 15440 15443 15450 13538 15451 15201 15452 15453 
1839 1840 2137 2136 1872 1873 2170 2169 13294 15206 15207 15196 13543 15455 15456 15448 13534 13541 15454 15447 15450 15457 13545 15458 15211 15459 15460 
1840 1841 2138 2137 1873 1874 2171 2170 13304 15216 15217 15206 13550 15462 15463 15455 13541 13548 15461 15454 15457 15464 13552 15465 15221 15466 15467 
1841 1842 2139 2138 1874 1875 2172 2171 13314 15226 15227 15216 13557 15469 15470 15462 13548 13555 15468 15461 15464 15471 13559 15472 15231 15473 15474 
1842 1843 2140 2139 1875 1876 2173 2172 13324 15236 15237 15226 13564 15476 15477 15469 13555 13562 15475 15468 15471 15478 13566 15479 15241 15480 15481 
1843 1844 2141 2140 1876 1877 2174 2173 13334 15246 15247 15236 13571 15483 15484 15476 13562 13569 15482 15475 15478 15485 13573 15486 15251 15487 15488 
1844 1845 2142 2141 1877 1878 2175 2174 13344 15256 15257 15246 13578 15490 15491 15483 13569 13576 15489 15482 15485 15492 13580 15493 15261 15494 15495 
1845 1846 2143 2142 1878 1879 2176 2175 13354 15266 15267 15256 13585 15497 15498 15490 13576 13583 15496 15489 15492 15499 13587 15500 15271 15501 15502 
1846 1847 2144 2143 1879 1880 2177 2176 13364 15276 15277 15266 13592 15504 15505 15497 13583 13590 15503 15496 15499 15506 13594 15507 15281 15508 15509 
1848 1849 2146 2145 1881 1882 2179 2178 13373 15285 15286 15287 13600 15512 15513 15514 13598 13597 15510 15511 15517 15515 13603 15516 15291 15518 15519 
1849 1850 2147 2146 1882 1883 2180 2179 13382 15294 15295 15285 13609 15521 15522 15512 13597 13607 15520 15510 15515 15523 13611 15524 15298 15525 15526 
1850 1851 2148 2147 1883 1884 2181 2180 13389 15301 15302 15294 13616 15528 15529 15521 13607 13614 15527 15520 15523 15530 13618 15531 15305 15532 15533 
1851 1852 2149 2148 1884 1885 2182 2181 13396 15308 15309 15301 13623 15535 15536 15528 13614 13621 15534 15527 15530 15537 13625 15538 15312 15539 15540 
1852 1853 2150 2149 1885 1886 2183 2182 13403 15315 15316 15308 13630 15542 15543 15535 13621 13628 15541 15534 15537 15544 13632 15545 15319 15546 15547 
1853 1854 2151 2150 1886 1887 2184 2183 13410 15322 15323 15315 13637 15549 15550 15542 13628 13635 15548 15541 15544 15551 13639 15552 15326 15553 15554 
1854 1855 2152 2151 1887 1888 2185 2184 13417 15329 15330 15322 13644 15556 15557 15549 13635 13642 15555 15548 15551 15558 13646 15559 15333 15560 15561 
1855 1856 2153 2152 1888 1889 2186 2185 13424 15336 15337 15329 13651 15563 15564 15556 13642 13649 15562 15555 15558 15565 13653 15566 15340 15567 15568 
1856 1857 2154 2153 1889 1890 2187 2186 13431 15343 15344 15336 13658 15570 15571 15563 13649 13656 15569 15562 15565 15572 13660 15573 15347 15574 15575 
1857 1858 2155 2154 1890 1891 2188 2187 13438 15350 15351 15343 13665 15577 15578 15570 13656 13663 15576 15569 15572 15579 13667 15580 15354 15581 15582 
1858 1859 2156 2155 1891 1892 2189 2188 13445 15357 15358 15350 13672 15584 15585 15577 13663 13670 15583 15576 15579 15586 13674 15587 15361 15588 15589 
1859 1860 2157 2156 1892 1893 2190 2189 13452 15364 15365 15357 13679 15591 15592 15584 13670 13677 15590 15583 15586 15593 13681 15594 15368 15595 15596 
1860 1861 2158 2157 1893 1894 2191 2190 13459 15371 15372 15364 13686 15598 15599 15591 13677 13684 15597 15590 15593 15600 13688 15601 15375 15602 15603 
1861 1862 2159 2158 1894 1895 2192 2191 13466 15378 15379 15371 13693 15605 15606 15598 13684 13691 15604 15597 15600 15607 13695 15608 15382 15609 15610 
1862 1863 2160 2159 1895 1896 2193 2192 13473 15385 15386 15378 13700 15612 15613 15605 13691 13698 15611 15604 15607 15614 13702 15615 15389 15616 15617 
1863 1864 2161 2160 1896 1897 2194 2193 13480 15392 15393 15385 13707 15619 15620 15612 13698 13705 15618 15611 15614 15621 13709 15622 15396 15623 15624 
1864 1865 2162 2161 1897 1898 2195 2194 13487 15399 15400 15392 13714 15626 15627 15619 13705 13712 15625 15618 15621 15628 13716 15629 15403 15630 15631 
1865 1866 2163 2162 1898 1899 2196 2195 13494 15406 15407 15399 13721 15633 15634 15626 13712 13719 15632 15625 15628 15635 13723 15636 15410 15637 15638 
1866 1867 2164 2163 1899 1900 2197 2196 13501 15413 15414 15406 13728 15640 15641 15633 13719 13726 15639 15632 15635 15642 13730 15643 15417 15644 15645 
1867 1868 2165 2164 1900 1901 2198 2197 13508 15420 15421 15413 13735 15647 15648 15640 13726 13733 15646 15639 15642 15649 13737 15650 15424 15651 15652 
1868 1869 2166 2165 1901 1902 2199 2198 13515 15427 15428 15420 13742 15654 15655 15647 13733 13740 15653 15646 15649 15656 13744 15657 15431 15658 15659 
1869 1870 2167 2166 1902 1903 2200 2199 13522 15434 15435 15427 13749 15661 15662 15654 13740 13747 15660 15653 15656 15663 13751 15664 15438 15665 15666 
1870 1871 2168 2167 1903 1904 2201 2200 13529 15441 15442 15434 13756 15668 15669 15661 13747 13754 15667 15660 15663 15670 13758 15671 15445 15672 15673 
1871 1872 2169 2168 1904 1905 2202 2201 13536 15448 15449 15441 13763 15675 15676 15668 13754 13761 15674 15667 15670 15677 13765 15678 15452 15679 15680 
1872 1873 2170 2169 1905 1906 2203 2202 13543 15455 15456 15448 13770 15682 15683 15675 13761 13768 15681 15674 15677 15684 13772 15685 15459 15686 15687 
1873 1874 2171 2170 1906 1907 2204 2203 13550 15462 15463 15455 13777 15689 15690 15682 13768 13775 15688 15681 15684 15691 13779 15692 15466 15693 15694 
1874 1875 2172 2171 1907 1908 2205 2204 13557 15469 15470 15462 13784 15696 15697 15689 13775 13782 15695 15688 15691 15698 13786 15699 15473 15700 15701 
1875 1876 2173 2172 1908 1909 2206 2205 13564 15476 15477 15469 13791 15703 15704 15696 13782 13789 15702 15695 15698 15705 13793 15706 15480 15707 15708 
1876 1877 2174 2173 1909 1910 2207 2206 13571 15483 15484 15476 13798 15710 15711 15703 13789 13796 15709 15702 15705 15712 13800 15713 15487 15714 15715 
1877 1878 2175 2174 1910 1911 2208 2207 13578 15490 15491 15483 13805 15717 15718 15710 13796 13803 15716 15709 15712 15719 13807 15720 15494 15721 15722 
1878 1879 2176 2175 1911 1912 2209 2208 13585 15497 15498 15490 13812 15724 15725 15717 13803 13810 15723 15716 15719 15726 13814 15727 15501 15728 15729 
1879 1880 2177 2176 1912 1913 2210 2209 13592 15504 15505 15497 13819 15731 15732 15724 13810 13817 15730 15723 15726 15733 13821 15734 15508 15735 15736 
1881 1882 2179 2178 1914 1915 2212 2211 13600 15512 15513 15514 13827 15739 15740 15741 13825 13824 15737 15738 15744 15742 13830 15743 15518 15745 15746 
1882 1883 2180 2179 1915 1916 2213 2212 13609 15521 15522 15512 13836 15748 15749 15739 13824 13834 15747 15737 15742 15750 13838 15751 15525 15752 15753 
1883 1884 2181 2180 1916 1917 2214 2213 13616 15528 15529 15521 13843 15755 15756 15748 13834 13841 15754 15747 15750 15757 13845 15758 15532 15759 15760 
1884 1885 2182 2181 1917 1918 2215 2214 13623 15535 15536 15528 13850 15762 15763 15755 13841 13848 15761 15754 15757 15764 13852 15765 15539 15766 15767 
1885 1886 2183 2182 1918 1919 2216 2215 13630 15542 15543 15535 13857 15769 15770 15762 13848 13855 15768 15761 15764 15771 13859 15772 15546 15773 15774 
1886 1887 2184 2183 1919 1920 2217 2216 13637 15549 15550 15542 13864 15776 15777 15769 13855 13862 15775 15768 15771 15778 13866 15779 15553 15780 15781 
1887 1888 2185 2184 1920 1921 2218 2217 13644 15556 15557 15549 13871 15783 15784 15776 13862 13869 15782 15775 15778 15785 13873 15786 15560 15787 15788 
1888 1889 2186 2185 1921 1922 2219 2218 13651 15563 15564 15556 13878 15790 15791 15783 13869 13876 15789 15782 15785 15792 13880 15793 15567 15794 15795 
1889 1890 2187 2186 1922 1923 2220 2219 13658 15570 15571 15563 13885 15797 15798 15790 13876 13883 15796 15789 15792 15799 13887 15800 15574 15801 15802 
1890 1891 2188 2187 1923 1924 2221 2220 13665 15577 15578 15570 13892 15804 15805 15797 13883 13890 15803 15796 15799 15806 13894 15807 15581 15808 15809 
1891 1892 2189 2188 1924 1925 2222 2221 13672 15584 15585 15577 13899 15811 15812 15804 13890 13897 15810 15803 15806 15813 13901 15814 15588 15815 15816 
1892 1893 2190 2189 1925 1926 2223 2222 13679 15591 15592 15584 13906 15818 15819 15811 13897 13904 15817 15810 15813 15820 13908 15821 15595 15822 15823 
1893 1894 2191 2190 1926 1927 2224 2223 13686 15598 15599 15591 13913 15825 15826 15818 13904 13911 15824 15817 15820 15827 13915 15828 15602 15829 15830 
1894 1895 2192 2191 1927 1928 2225 2224 13693 15605 15606 15598 13920 15832 15833 15825 13911 13918 15831 15824 15827 15834 13922 15835 15609 15836 15837 
1895 1896 2193 2192 1928 1929 2226 2225 13700 15612 15613 15605 13927 15839 15840 15832 13918 13925 15838 15831 15834 15841 13929 15842 15616 15843 15844 
1896 1897 2194 2193 1929 1930 2227 2226 13707 15619 15620 15612 13934 15846 15847 15839 13925 13932 15845 15838 15841 15848 13936 15849 15623 15850 15851 
1897 1898 2195 2194 1930 1931 2228 2227 13714 15626 15627 15619 13941 15853 15854 15846 13932 13939 15852 15845 15848 15855 13943 15856 15630 15857 15858 
1898 1899 2196 2195 1931 1932 2229 2228 13721 15633 15634 15626 13948 15860 15861 15853 13939 13946 15859 15852 15855 15862 13950 15863 15637 15864 15865 
1899 1900 2197 2196 1932 1933 2230 2229 13728 15640 15641 15633 13955 15867 15868 15860 13946 13953 15866 15859 15862 15869 13957 15870 15644 15871 15872 
1900 1901 2198 2197 1933 1934 2231 2230 13735 15647 15648 15640 13962 15874 15875 15867 13953 13960 15873 15866 15869 15876 13964 15877 15651 15878 15879 
1901 1902 2199 2198 1934 1935 2232 2231 13742 15654 15655 15647 13969 15881 15882 15874 13960 13967 15880 15873 15876 15883 13971 15884 15658 15885 15886 
1902 1903 2200 2199 1935 1936 2233 2232 13749 15661 15662 15654 13976 15888 15889 15881 13967 13974 15887 15880 15883 15890 13978 15891 15665 15892 15893 
1903 1904 2201 2200 1936 1937 2234 2233 13756 15668 15669 15661 13983 15895 15896 15888 13974 13981 15894 15887 15890 15897 13985 15898 15672 15899 15900 
1904 1905 2202 2201 1937 1938 2235 2234 13763 15675 15676 15668 13990 15902 15903 15895 13981 13988 15901 15894 15897 15904 13992 15905 15679 15906 15907 
1905 1906 2203 2202 1938 1939 2236 2235 13770 15682 15683 15675 13997 15909 15910 15902 13988 13995 15908 15901 15904 15911 13999 15912 15686 15913 15914 
1906 1907 2204 2203 1939 1940 2237 2236 13777 15689 15690 15682 14004 15916 15917 15909 13995 14002 15915 15908 15911 15918 14006 15919 15693 15920 15921 
1907 1908 2205 2204 1940 1941 2238 2237 13784 15696 15697 15689 14011 15923 15924 15916 14002 14009 15922 15915 15918 15925 14013 15926 15700 15927 15928 
1908 1909 2206 2205 1941 1942 2239 2238 13791 15703 15704 15696 14018 15930 15931 15923 14009 14016 15929 15922 15925 15932 14020 15933 15707 15934 15935 
1909 1910 2207 2206 1942 1943 2240 2239 13798 15710 15711 15703 14025 15937 15938 15930 14016 14023 15936 15929 15932 15939 14027 15940 15714 15941 15942 
1910 1911 2208 2207 1943 1944 2241 2240 13805 15717 15718 15710 14032 15944 15945 15937 14023 14030 15943 15936 15939 15946 14034 15947 15721 15948 15949 
1911 1912 2209 2208 1944 1945 2242 2241 13812 15724 15725 15717 14039 15951 15952 15944 14030 14037 15950 15943 15946 15953 14041 15954 15728 15955 15956 
1912 1913 2210 2209 1945 1946 2243 2242 13819 15731 15732 15724 14046 15958 15959 15951 14037 14044 15957 15950 15953 15960 14048 15961 15735 15962 15963 
1914 1915 2212 2211 1947 1948 2245 2244 13827 15739 15740 15741 14054 15966 15967 15968 14052 14051 15964 15965 15971 15969 14057 15970 15745 15972 15973 
1915 1916 2213 2212 1948 1949 2246 2245 13836 15748 15749 15739 14063 15975 15976 15966 14051 14061 15974 15964 15969 15977 14065 15978 15752 15979 15980 
1916 1917 2214 2213 1949 1950 2247 2246 13843 15755 15756 15748 14070 15982 15983 15975 14061 14068 15981 15974 15977 15984 14072 15985 15759 15986 15987 
1917 1918 2215 2214 1950 1951 2248 2247 13850 15762 15763 15755 14077 15989 15990 15982 14068 14075 15988 15981 15984 15991 14079 15992 15766 15993 15994 
1918 1919 2216 2215 1951 1952 2249 2248 13857 15769 15770 15762 14084 15996 15997 15989 14075 14082 15995 15988 15991 15998 14086 15999 15773 16000 16001 
1919 1920 2217 2216 1952 1953 2250 2249 13864 15776 15777 15769 14091 16003 16004 15996 14082 14089 16002 15995 15998 16005 14093 16006 15780 16007 16008 
1920 1921 2218 2217 1953 1954 2251 2250 13871 15783 15784 15776 14098 16010 16011 16003 14089 14096 16009 16002 16005 16012 14100 16013 15787 16014 16015 
1921 1922 2219 2218 1954 1955 2252 2251 13878 15790 15791 15783 14105 16017 16018 16010 14096 14103 16016 16009 16012 16019 14107 16020 15794 16021 16022 
1922 1923 2220 2219 1955 1956 2253 2252 13885 15797 15798 15790 14112 16024 16025 16017 14103 14110 16023 16016 16019 16026 14114 16027 15801 16028 16029 
1923 1924 2221 2220 1956 1957 2254 2253 13892 15804 15805 15797 14119 16031 16032 16024 14110 14117 16030 16023 16026 16033 14121 16034 15808 16035 16036 
1924 1925 2222 2221 1957 1958 2255 2254 13899 15811 15812 15804 14126 16038 16039 16031 14117 14124 16037 16030 16033 16040 14128 16041 15815 16042 16043 
1925 1926 2223 2222 1958 1959 2256 2255 13906 15818 15819 15811 14133 16045 16046 16038 14124 14131 16044 16037 16040 16047 14135 16048 15822 16049 16050 
1926 1927 2224 2223 1959 1960 2257 2256 13913 15825 15826 15818 14140 16052 16053 16045 14131 14138 16051 16044 16047 16054 14142 16055 15829 16056 16057 
1927 1928 2225 2224 1960 1961 2258 2257 13920 15832 15833 15825 14147 16059 16060 16052 14138 14145 16058 16051 16054 16061 14149 16062 15836 16063 16064 
1928 1929 2226 2225 1961 1962 2259 2258 13927 15839 15840 15832 14154 16066 16067 16059 14145 14152 16065 16058 16061 16068 14156 16069 15843 16070 16071 
1929 1930 2227 2226 1962 1963 2260 2259 13934 15846 15847 15839 14161 16073 16074 16066 14152 14159 16072 16065 16068 16075 14163 16076 15850 16077 16078 
1930 1931 2228 2227 1963 1964 2261 2260 13941 15853 15854 15846 14168 16080 16081 16073 14159 14166 16079 16072 16075 16082 14170 16083 15857 16084 16085 
1931 1932 2229 2228 1964 1965 2262 2261 13948 15860 15861 15853 14175 16087 16088 16080 14166 14173 16086 16079 16082 16089 14177 16090 15864 16091 16092 
1932 1933 2230 2229 1965 1966 2263 2262 13955 15867 15868 15860 14182 16094 16095 16087 14173 14180 16093 16086 16089 16096 14184 16097 15871 16098 16099 
1933 1934 2231 2230 1966 1967 2264 2263 13962 15874 15875 15867 14189 16101 16102 16094 14180 14187 16100 16093 16096 16103 14191 16104 15878 16105 16106 
1934 1935 2232 2231 1967 1968 2265 2264 13969 15881 15882 15874 14196 16108 16109 16101 14187 14194 16107 16100 16103 16110 14198 16111 15885 16112 16113 
1935 1936 2233 2232 1968 1969 2266 2265 13976 15888 15889 15881 14203 16115 16116 16108 14194 14201 16114 16107 16110 16117 14205 16118 15892 16119 16120 
1936 1937 2234 2233 1969 1970 2267 2266 13983 15895 15896 15888 14210 16122 16123 16115 14201 14208 16121 16114 16117 16124 14212 16125 15899 16126 16127 
1937 1938 2235 2234 1970 1971 2268 2267 13990 15902 15903 15895 14217 16129 16130 16122 14208 14215 16128 16121 16124 16131 14219 16132 15906 16133 16134 
1938 1939 2236 2235 1971 1972 2269 2268 13997 15909 15910 15902 14224 16136 16137 16129 14215 14222 16135 16128 16131 16138 14226 16139 15913 16140 16141 
1939 1940 2237 2236 1972 1973 2270 2269 14004 15916 15917 15909 14231 16143 16144 16136 14222 14229 16142 16135 16138 16145 14233 16146 15920 16147 16148 
1940 1941 2238 2237 1973 1974 2271 2270 14011 15923 15924 15916 14238 16150 16151 16143 14229 14236 16149 16142 16145 16152 14240 16153 15927 16154 16155 
1941 1942 2239 2238 1974 1975 2272 2271 14018 15930 15931 15923 14245 16157 16158 16150 14236 14243 16156 16149 16152 16159 14247 16160 15934 16161 16162 
1942 1943 2240 2239 1975 1976 2273 2272 14025 15937 15938 15930 14252 16164 16165 16157 14243 14250 16163 16156 16159 16166 14254 16167 15941 16168 16169 
1943 1944 2241 2240 1976 1977 2274 2273 14032 15944 15945 15937 14259 16171 16172 16164 14250 14257 16170 16163 16166 16173 14261 16174 15948 16175 16176 
1944 1945 2242 2241 1977 1978 2275 2274 14039 15951 15952 15944 14266 16178 16179 16171 14257 14264 16177 16170 16173 16180 14268 16181 15955 16182 16183 
1945 1946 2243 2242 1978 1979 2276 2275 14046 15958 15959 15951 14273 16185 16186 16178 14264 14271 16184 16177 16180 16187 14275 16188 15962 16189 16190 
1947 1948 2245 2244 1980 1981 2278 2277 14054 15966 15967 15968 14281 16193 16194 16195 14279 14278 16191 16192 16198 16196 14284 16197 15972 16199 16200 
1948 1949 2246 2245 1981 1982 2279 2278 14063 15975 15976 15966 14290 16202 16203 16193 14278 14288 16201 16191 16196 16204 14292 16205 15979 16206 16207 
1949 1950 2247 2246 1982 1983 2280 2279 14070 15982 15983 15975 14297 16209 16210 16202 14288 14295 16208 16201 16204 16211 14299 16212 15986 16213 16214 
1950 1951 2248 2247 1983 1984 2281 2280 14077 15989 15990 15982 14304 16216 16217 16209 14295 14302 16215 16208 16211 16218 14306 16219 15993 16220 16221 
1951 1952 2249 2248 1984 1985 2282 2281 14084 15996 15997 15989 14311 16223 16224 16216 14302 14309 16222 16215 16218 16225 14313 16226 16000 16227 16228 
1952 1953 2250 2249 1985 1986 2283 2282 14091 16003 16004 15996 14318 16230 16231 16223 14309 14316 16229 16222 16225 16232 14320 16233 16007 16234 16235 
1953 1954 2251 2250 1986 1987 2284 2283 14098 16010 16011 16003 14325 16237 16238 16230 14316 14323 16236 16229 16232 16239 14327 16240 16014 16241 16242 
1954 1955 2252 2251 1987 1988 2285 2284 14105 16017 16018 16010 14332 16244 16245 16237 14323 14330 16243 16236 16239 16246 14334 16247 16021 16248 16249 
1955 1956 2253 2252 1988 1989 2286 2285 14112 16024 16025 16017 14339 16251 16252 16244 14330 14337 16250 16243 16246 16253 14341 16254 16028 16255 16256 
1956 1957 2254 2253 1989 1990 2287 2286 14119 16031 16032 16024 14346 16258 16259 16251 14337 14344 16257 16250 16253 16260 14348 16261 16035 16262 16263 
1957 1958 2255 2254 1990 1991 2288 2287 14126 16038 16039 16031 14353 16265 16266 16258 14344 14351 16264 16257 16260 16267 14355 16268 16042 16269 16270 
1958 1959 2256 2255 1991 1992 2289 2288 14133 16045 16046 16038 14360 16272 16273 16265 14351 14358 16271 16264 16267 16274 14362 16275 16049 16276 16277 
1959 1960 2257 2256 1992 1993 2290 2289 14140 16052 16053 16045 14367 16279 16280 16272 14358 14365 16278 16271 16274 16281 14369 16282 16056 16283 16284 
1960 1961 2258 2257 1993 1994 2291 2290 14147 16059 16060 16052 14374 16286 16287 16279 14365 14372 16285 16278 16281 16288 14376 16289 16063 16290 16291 
1961 1962 2259 2258 1994 1995 2292 2291 14154 16066 16067 16059 14381 16293 16294 16286 14372 14379 16292 16285 16288 16295 14383 16296 16070 16297 16298 
1962 1963 2260 2259 1995 1996 2293 2292 14161 16073 16074 16066 14388 16300 16301 16293 14379 14386 16299 16292 16295 16302 14390 16303 16077 16304 16305 
1963 1964 2261 2260 1996 1997 2294 2293 14168 16080 16081 16073 14395 16307 16308 16300 14386 14393 16306 16299 16302 16309 14397 16310 16084 16311 16312 
1964 1965 2262 2261 1997 1998 2295 2294 14175 16087 16088 16080 14402 16314 16315 16307 14393 14400 16313 16306 16309 16316 14404 16317 16091 16318 16319 
1965 1966 2263 2262 1998 1999 2296 2295 14182 16094 16095 16087 14409 16321 16322 16314 14400 14407 16320 16313 16316 16323 14411 16324 16098 16325 16326 
1966 1967 2264 2263 1999 2000 2297 2296 14189 16101 16102 16094 14416 16328 16329 16321 14407 14414 16327 16320 16323 16330 14418 16331 16105 16332 16333 
1967 1968 2265 2264 2000 2001 2298 2297 14196 16108 16109 16101 14423 16335 16336 16328 14414 14421 16334 16327 16330 16337 14425 16338 16112 16339 16340 
1968 1969 2266 2265 2001 2002 2299 2298 14203 16115 16116 16108 14430 16342 16343 16335 14421 14428 16341 16334 16337 16344 14432 16345 16119 16346 16347 
1969 1970 2267 2266 2002 2003 2300 2299 14210 16122 16123 16115 14437 16349 16350 16342 14428 14435 16348 16341 16344 16351 14439 16352 16126 16353 16354 
1970 1971 2268 2267 2003 2004 2301 2300 14217 16129 16130 16122 14444 16356 16357 16349 14435 14442 16355 16348 16351 16358 14446 16359 16133 16360 16361 
1971 1972 2269 2268 2004 2005 2302 2301 14224 16136 16137 16129 14451 16363 16364 16356 14442 14449 16362 16355 16358 16365 14453 16366 16140 16367 16368 
1972 1973 2270 2269 2005 2006 2303 2302 14231 16143 16144 16136 14458 16370 16371 16363 14449 14456 16369 16362 16365 16372 14460 16373 16147 16374 16375 
1973 1974 2271 2270 2006 2007 2304 2303 14238 16150 16151 16143 14465 16377 16378 16370 14456 14463 16376 16369 16372 16379 14467 16380 16154 16381 16382 
1974 1975 2272 2271 2007 2008 2305 2304 14245 16157 16158 16150 14472 16384 16385 16377 14463 14470 16383 16376 16379 16386 14474 16387 16161 16388 16389 
1975 1976 2273 2272 2008 2009 2306 2305 14252 16164 16165 16157 14479 16391 16392 16384 14470 14477 16390 16383 16386 16393 14481 16394 16168 16395 16396 
1976 1977 2274 2273 2009 2010 2307 2306 14259 16171 16172 16164 14486 16398 16399 16391 14477 14484 16397 16390 16393 16400 14488 16401 16175 16402 16403 
1977 1978 2275 2274 2010 2011 2308 2307 14266 16178 16179 16171 14493 16405 16406 16398 14484 14491 16404 16397 16400 16407 14495 16408 16182 16409 16410 
1978 1979 2276 2275 2011 2012 2309 2308 14273 16185 16186 16178 14500 16412 16413 16405 14491 14498 16411 16404 16407 16414 14502 16415 16189 16416 16417 
1980 1981 2278 2277 2013 2014 2311 2310 14281 16193 16194 16195 14508 16420 16421 16422 14506 14505 16418 16419 16425 16423 14511 16424 16199 16426 16427 
1981 1982 2279 2278 2014 2015 2312 2311 14290 16202 16203 16193 14517 16429 16430 16420 14505 14515 16428 16418 16423 16431 14519 16432 16206 16433 16434 
1982 1983 2280 2279 2015 2016 2313 2312 14297 16209 16210 16202 14524 16436 16437 16429 14515 14522 16435 16428 16431 16438 14526 16439 16213 16440 16441 
1983 1984 2281 2280 2016 2017 2314 2313 14304 16216 16217 16209 14531 16443 16444 16436 14522 14529 16442 16435 16438 16445 14533 16446 16220 16447 16448 
1984 1985 2282 2281 2017 2018 2315 2314 14311 16223 16224 16216 14538 16450 16451 16443 14529 14536 16449 16442 16445 16452 14540 16453 16227 16454 16455 
1985 1986 2283 2282 2018 2019 2316 2315 14318 16230 16231 16223 14545 16457 16458 16450 14536 14543 16456 16449 16452 16459 14547 16460 16234 16461 16462 
1986 1987 2284 2283 2019 2020 2317 2316 14325 16237 16238 16230 14552 16464 16465 16457 14543 14550 16463 16456 16459 16466 14554 16467 16241 16468 16469 
1987 1988 2285 2284 2020 2021 2318 2317 14332 16244 16245 16237 14559 16471 16472 16464 14550 14557 16470 16463 16466 16473 14561 16474 16248 16475 16476 
1988 1989 2286 2285 2021 2022 2319 2318 14339 16251 16252 16244 14566 16478 16479 16471 14557 14564 16477 16470 16473 16480 14568 16481 16255 16482 16483 
1989 1990 2287 2286 2022 2023 2320 2319 14346 16258 16259 16251 14573 16485 16486 16478 14564 14571 16484 16477 16480 16487 14575 16488 16262 16489 16490 
1990 1991 2288 2287 2023 2024 2321 2320 14353 16265 16266 16258 14580 16492 16493 16485 14571 14578 16491 16484 16487 16494 14582 16495 16269 16496 16497 
1991 1992 2289 2288 2024 2025 2322 2321 14360 16272 16273 16265 14587 16499 16500 16492 14578 14585 16498 16491 16494 16501 14589 16502 16276 16503 16504 
1992 1993 2290 2289 2025 2026 2323 2322 14367 16279 16280 16272 14594 16506 16507 16499 14585 14592 16505 16498 16501 16508 14596 16509 16283 16510 16511 
1993 1994 2291 2290 2026 2027 2324 2323 14374 16286 16287 16279 14601 16513 16514 16506 14592 14599 16512 16505 16508 16515 14603 16516 16290 16517 16518 
1994 1995 2292 2291 2027 2028 2325 2324 14381 16293 16294 16286 14608 16520 16521 16513 14599 14606 16519 16512 16515 16522 14610 16523 16297 16524 16525 
1995 1996 2293 2292 2028 2029 2326 2325 14388 16300 16301 16293 14615 16527 16528 16520 14606 14613 16526 16519 16522 16529 14617 16530 16304 16531 16532 
1996 1997 2294 2293 2029 2030 2327 2326 14395 16307 16308 16300 14622 16534 16535 16527 14613 14620 16533 16526 16529 16536 14624 16537 16311 16538 16539 
1997 1998 2295 2294 2030 2031 2328 2327 14402 16314 16315 16307 14629 16541 16542 16534 14620 14627 16540 16533 16536 16543 14631 16544 16318 16545 16546 
1998 1999 2296 2295 2031 2032 2329 2328 14409 16321 16322 16314 14636 16548 16549 16541 14627 14634 16547 16540 16543 16550 14638 16551 16325 16552 16553 
1999 2000 2297 2296 2032 2033 2330 2329 14416 16328 16329 16321 14643 16555 16556 16548 14634 14641 16554 16547 16550 16557 14645 16558 16332 16559 16560 
2000 2001 2298 2297 2033 2034 2331 2330 14423 16335 16336 16328 14650 16562 16563 16555 14641 14648 16561 16554 16557 16564 14652 16565 16339 16566 16567 
2001 2002 2299 2298 2034 2035 2332 2331 14430 16342 16343 16335 14657 16569 16570 16562 14648 14655 16568 16561 16564 16571 14659 16572 16346 16573 16574 
2002 2003 2300 2299 2035 2036 2333 2332 14437 16349 16350 16342 14664 16576 16577 16569 14655 14662 16575 16568 16571 16578 14666 16579 16353 16580 16581 
2003 2004 2301 2300 2036 2037 2334 2333 14444 16356 16357 16349 14671 16583 16584 16576 14662 14669 16582 16575 16578 16585 14673 16586 16360 16587 16588 
2004 2005 2302 2301 2037 2038 2335 2334 14451 16363 16364 16356 14678 16590 16591 16583 14669 14676 16589 16582 16585 16592 14680 16593 16367 16594 16595 
2005 2006 2303 2302 2038 2039 2336 2335 14458 16370 16371 16363 14685 16597 16598 16590 14676 14683 16596 16589 16592 16599 14687 16600 16374 16601 16602 
2006 2007 2304 2303 2039 2040 2337 2336 14465 16377 16378 16370 14692 16604 16605 16597 14683 14690 16603 16596 16599 16606 14694 16607 16381 16608 16609 
2007 2008 2305 2304 2040 2041 2338 2337 14472 16384 16385 16377 14699 16611 16612 16604 14690 14697 16610 16603 16606 16613 14701 16614 16388 16615 16616 
2008 2009 2306 2305 2041 2042 2339 2338 14479 16391 16392 16384 14706 16618 16619 16611 14697 14704 16617 16610 16613 16620 14708 16621 16395 16622 16623 
2009 2010 2307 2306 2042 2043 2340 2339 14486 16398 16399 16391 14713 16625 16626 16618 14704 14711 16624 16617 16620 16627 14715 16628 16402 16629 16630 
2010 2011 2308 2307 2043 2044 2341 2340 14493 16405 16406 16398 14720 16632 16633 16625 14711 14718 16631 16624 16627 16634 14722 16635 16409 16636 16637 
2011 2012 2309 2308 2044 2045 2342 2341 14500 16412 16413 16405 14727 16639 16640 16632 14718 14725 16638 16631 16634 16641 14729 16642 16416 16643 16644 
2013 2014 2311 2310 2046 2047 2344 2343 14508 16420 16421 16422 14735 16647 16648 16649 14733 14732 16645 16646 16652 16650 14738 16651 16426 16653 16654 
2014 2015 2312 2311 2047 2048 2345 2344 14517 16429 16430 16420 14744 16656 16657 16647 14732 14742 16655 16645 16650 16658 14746 16659 16433 16660 16661 
2015 2016 2313 2312 2048 2049 2346 2345 14524 16436 16437 16429 14751 16663 16664 16656 14742 14749 16662 16655 16658 16665 14753 16666 16440 16667 16668 
2016 2017 2314 2313 2049 2050 2347 2346 14531 16443 16444 16436 14758 16670 16671 16663 14749 14756 16669 16662 16665 16672 14760 16673 16447 16674 16675 
2017 2018 2315 2314 2050 2051 2348 2347 14538 16450 16451 16443 14765 16677 16678 16670 14756 14763 16676 16669 16672 16679 14767 16680 16454 16681 16682 
2018 2019 2316 2315 2051 2052 2349 2348 14545 16457 16458 16450 14772 16684 16685 16677 14763 14770 16683 16676 16679 16686 14774 16687 16461 16688 16689 
2019 2020 2317 2316 2052 2053 2350 2349 14552 16464 16465 16457 14779 16691 16692 16684 14770 14777 16690 16683 16686 16693 14781 16694 16468 16695 16696 
2020 2021 2318 2317 2053 2054 2351 2350 14559 16471 16472 16464 14786 16698 16699 16691 14777 14784 16697 16690 16693 16700 14788 16701 16475 16702 16703 
2021 2022 2319 2318 2054 2055 2352 2351 14566 16478 16479 16471 14793 16705 16706 16698 14784 14791 16704 16697 16700 16707 14795 16708 16482 16709 16710 
2022 2023 2320 2319 2055 2056 2353 2352 14573 16485 16486 16478 14800 16712 16713 16705 14791 14798 16711 16704 16707 16714 14802 16715 16489 16716 16717 
2023 2024 2321 2320 2056 2057 2354 2353 14580 16492 16493 16485 14807 16719 16720 16712 14798 14805 16718 16711 16714 16721 14809 16722 16496 16723 16724 
2024 2025 2322 2321 2057 2058 2355 2354 14587 16499 16500 16492 14814 16726 16727 16719 14805 14812 16725 16718 16721 16728 14816 16729 16503 16730 16731 
2025 2026 2323 2322 2058 2059 2356 2355 14594 16506 16507 16499 14821 16733 16734 16726 14812 14819 16732 16725 16728 16735 14823 16736 16510 16737 16738 
2026 2027 2324 2323 2059 2060 2357 2356 14601 16513 16514 16506 14828 16740 16741 16733 14819 14826 16739 16732 16735 16742 14830 16743 16517 16744 16745 
2027 2028 2325 2324 2060 2061 2358 2357 14608 16520 16521 16513 14835 16747 16748 16740 14826 14833 16746 16739 16742 16749 14837 16750 16524 16751 16752 
2028 2029 2326 2325 2061 2062 2359 2358 14615 16527 16528 16520 14842 16754 16755 16747 14833 14840 16753 16746 16749 16756 14844 16757 16531 16758 16759 
2029 2030 2327 2326 2062 2063 2360 2359 14622 16534 16535 16527 14849 16761 16762 16754 14840 14847 16760 16753 16756 16763 14851 16764 16538 16765 16766 
2030 2031 2328 2327 2063 2064 2361 2360 14629 16541 16542 16534 14856 16768 16769 16761 14847 14854 16767 16760 16763 16770 14858 16771 16545 16772 16773 
2031 2032 2329 2328 2064 2065 2362 2361 14636 16548 16549 16541 14863 16775 16776 16768 14854 14861 16774 16767 16770 16777 14865 16778 16552 16779 16780 
2032 2033 2330 2329 2065 2066 2363 2362 14643 16555 16556 16548 14870 16782 16783 16775 14861 14868 16781 16774 16777 16784 14872 16785 16559 16786 16787 
2033 2034 2331 2330 2066 2067 2364 2363 14650 16562 16563 16555 14877 16789 16790 16782 14868 14875 16788 16781 16784 16791 14879 16792 16566 16793 16794 
2034 2035 2332 2331 2067 2068 2365 2364 14657 16569 16570 16562 14884 16796 16797 16789 14875 14882 16795 16788 16791 16798 14886 16799 16573 16800 16801 
2035 2036 2333 2332 2068 2069 2366 2365 14664 16576 16577 16569 14891 16803 16804 16796 14882 14889 16802 16795 16798 16805 14893 16806 16580 16807 16808 
2036 2037 2334 2333 2069 2070 2367 2366 14671 16583 16584 16576 14898 16810 16811 16803 14889 14896 16809 16802 16805 16812 14900 16813 16587 16814 16815 
2037 2038 2335 2334 2070 2071 2368 2367 14678 16590 16591 16583 14905 16817 16818 16810 14896 14903 16816 16809 16812 16819 14907 16820 16594 16821 16822 
2038 2039 2336 2335 2071 2072 2369 2368 14685 16597 16598 16590 14912 16824 16825 16817 14903 14910 16823 16816 16819 16826 14914 16827 16601 16828 16829 
2039 2040 2337 2336 2072 2073 2370 2369 14692 16604 16605 16597 14919 16831 16832 16824 14910 14917 16830 16823 16826 16833 14921 16834 16608 16835 16836 
2040 2041 2338 2337 2073 2074 2371 2370 14699 16611 16612 16604 14926 16838 16839 16831 14917 14924 16837 16830 16833 16840 14928 16841 16615 16842 16843 
2041 2042 2339 2338 2074 2075 2372 2371 14706 16618 16619 16611 14933 16845 16846 16838 14924 14931 16844 16837 16840 16847 14935 16848 16622 16849 16850 
2042 2043 2340 2339 2075 2076 2373 2372 14713 16625 16626 16618 14940 16852 16853 16845 14931 14938 16851 16844 16847 16854 14942 16855 16629 16856 16857 
2043 2044 2341 2340 2076 2077 2374 2373 14720 16632 16633 16625 14947 16859 16860 16852 14938 14945 16858 16851 16854 16861 14949 16862 16636 16863 16864 
2044 2045 2342 2341 2077 2078 2375 2374 14727 16639 16640 16632 14954 16866 16867 16859 14945 14952 16865 16858 16861 16868 14956 16869 16643 16870 16871 
2079 2080 2377 2376 2112 2113 2410 2409 14960 16872 16873 16874 14965 16877 16878 16879 14963 14962 16875 16876 16883 16881 14969 16882 16880 16884 16885 
2080 2081 2378 2377 2113 2114 2411 2410 14974 16886 16887 16872 14977 16889 16890 16877 14962 14975 16888 16875 16881 16892 14980 16893 16891 16894 16895 
2081 2082 2379 2378 2114 2115 2412 2411 14984 16896 16897 16886 14987 16899 16900 16889 14975 14985 16898 16888 16892 16902 14990 16903 16901 16904 16905 
2082 2083 2380 2379 2115 2116 2413 2412 14994 16906 16907 16896 14997 16909 16910 16899 14985 14995 16908 16898 16902 16912 15000 16913 16911 16914 16915 
2083 2084 2381 2380 2116 2117 2414 2413 15004 16916 16917 16906 15007 16919 16920 16909 14995 15005 16918 16908 16912 16922 15010 16923 16921 16924 16925 
2084 2085 2382 2381 2117 2118 2415 2414 15014 16926 16927 16916 15017 16929 16930 16919 15005 15015 16928 16918 16922 16932 15020 16933 16931 16934 16935 
2085 2086 2383 2382 2118 2119 2416 2415 15024 16936 16937 16926 15027 16939 16940 16929 15015 15025 16938 16928 16932 16942 15030 16943 16941 16944 16945 
2086 2087 2384 2383 2119 2120 2417 2416 15034 16946 16947 16936 15037 16949 16950 16939 15025 15035 16948 16938 16942 16952 15040 16953 16951 16954 16955 
2087 2088 2385 2384 2120 2121 2418 2417 15044 16956 16957 16946 15047 16959 16960 16949 15035 15045 16958 16948 16952 16962 15050 16963 16961 16964 16965 
2088 2089 2386 2385 2121 2122 2419 2418 15054 16966 16967 16956 15057 16969 16970 16959 15045 15055 16968 16958 16962 16972 15060 16973 16971 16974 16975 
2089 2090 2387 2386 2122 2123 2420 2419 15064 16976 16977 16966 15067 16979 16980 16969 15055 15065 16978 16968 16972 16982 15070 16983 16981 16984 16985 
2090 2091 2388 2387 2123 2124 2421 2420 15074 16986 16987 16976 15077 16989 16990 16979 15065 15075 16988 16978 16982 16992 15080 16993 16991 16994 16995 
2091 2092 2389 2388 2124 2125 2422 2421 15084 16996 16997 16986 15087 16999 17000 16989 15075 15085 16998 16988 16992 17002 15090 17003 17001 17004 17005 
2092 2093 2390 2389 2125 2126 2423 2422 15094 17006 17007 16996 15097 17009 17010 16999 15085 15095 17008 16998 17002 17012 15100 17013 17011 17014 17015 
2093 2094 2391 2390 2126 2127 2424 2423 15104 17016 17017 17006 15107 17019 17020 17009 15095 15105 17018 17008 17012 17022 15110 17023 17021 17024 17025 
2094 2095 2392 2391 2127 2128 2425 2424 15114 17026 17027 17016 15117 17029 17030 17019 15105 15115 17028 17018 17022 17032 15120 17033 17031 17034 17035 
2095 2096 2393 2392 2128 2129 2426 2425 15124 17036 17037 17026 15127 17039 17040 17029 15115 15125 17038 17028 17032 17042 15130 17043 17041 17044 17045 
2096 2097 2394 2393 2129 2130 2427 2426 15134 17046 17047 17036 15137 17049 17050 17039 15125 15135 17048 17038 17042 17052 15140 17053 17051 17054 17055 
2097 2098 2395 2394 2130 2131 2428 2427 15144 17056 17057 17046 15147 17059 17060 17049 15135 15145 17058 17048 17052 17062 15150 17063 17061 17064 17065 
2098 2099 2396 2395 2131 2132 2429 2428 15154 17066 17067 17056 15157 17069 17070 17059 15145 15155 17068 17058 17062 17072 15160 17073 17071 17074 17075 
2099 2100 2397 2396 2132 2133 2430 2429 15164 17076 17077 17066 15167 17079 17080 17069 15155 15165 17078 17068 17072 17082 15170 17083 17081 17084 17085 
2100 2101 2398 2397 2133 2134 2431 2430 15174 17086 17087 17076 15177 17089 17090 17079 15165 15175 17088 17078 17082 17092 15180 17093 17091 17094 17095 
2101 2102 2399 2398 2134 2135 2432 2431 15184 17096 17097 17086 15187 17099 17100 17089 15175 15185 17098 17088 17092 17102 15190 17103 17101 17104 17105 
2102 2103 2400 2399 2135 2136 2433 2432 15194 17106 17107 17096 15197 17109 17110 17099 15185 15195 17108 17098 17102 17112 15200 17113 17111 17114 17115 
2103 2104 2401 2400 2136 2137 2434 2433 15204 17116 17117 17106 15207 17119 17120 17109 15195 15205 17118 17108 17112 17122 15210 17123 17121 17124 17125 
2104 2105 2402 2401 2137 2138 2435 2434 15214 17126 17127 17116 15217 17129 17130 17119 15205 15215 17128 17118 17122 17132 15220 17133 17131 17134 17135 
2105 2106 2403 2402 2138 2139 2436 2435 15224 17136 17137 17126 15227 17139 17140 17129 15215 15225 17138 17128 17132 17142 15230 17143 17141 17144 17145 
2106 2107 2404 2403 2139 2140 2437 2436 15234 17146 17147 17136 15237 17149 17150 17139 15225 15235 17148 17138 17142 17152 15240 17153 17151 17154 17155 
2107 2108 2405 2404 2140 2141 2438 2437 15244 17156 17157 17146 15247 17159 17160 17149 15235 15245 17158 17148 17152 17162 15250 17163 17161 17164 17165 
2108 2109 2406 2405 2141 2142 2439 2438 15254 17166 17167 17156 15257 17169 17170 17159 15245 15255 17168 17158 17162 17172 15260 17173 17171 17174 17175 
2109 2110 2407 2406 2142 2143 2440 2439 15264 17176 17177 17166 15267 17179 17180 17169 15255 15265 17178 17168 17172 17182 15270 17183 17181 17184 17185 
2110 2111 2408 2407 2143 2144 2441 2440 15274 17186 17187 17176 15277 17189 17190 17179 15265 15275 17188 17178 17182 17192 15280 17193 17191 17194 17195 
2112 2113 2410 2409 2145 2146 2443 2442 14965 16877 16878 16879 15286 17198 17199 17200 15284 15283 17196 17197 17203 17201 15289 17202 16884 17204 17205 
2113 2114 2411 2410 2146 2147 2444 2443 14977 16889 16890 16877 15295 17207 17208 17198 15283 15293 17206 17196 17201 17209 15297 17210 16894 17211 17212 
2114 2115 2412 2411 2147 2148 2445 2444 14987 16899 16900 16889 15302 17214 17215 17207 15293 15300 17213 17206 17209 17216 15304 17217 16904 17218 17219 
2115 2116 2413 2412 2148 2149 2446 2445 14997 16909 16910 16899 15309 17221 17222 17214 15300 15307 17220 17213 17216 17223 15311 17224 16914 17225 17226 
2116 2117 2414 2413 2149 2150 2447 2446 15007 16919 16920 16909 15316 17228 17229 17221 15307 15314 17227 17220 17223 17230 15318 17231 16924 17232 17233 
2117 2118 2415 2414 2150 2151 2448 2447 15017 16929 16930 16919 15323 17235 17236 17228 15314 15321 17234 17227 17230 17237 15325 17238 16934 17239 17240 
2118 2119 2416 2415 2151 2152 2449 2448 15027 16939 16940 16929 15330 17242 17243 17235 15321 15328 17241 17234 17237 17244 15332 17245 16944 17246 17247 
2119 2120 2417 2416 2152 2153 2450 2449 15037 16949 16950 16939 15337 17249 17250 17242 15328 15335 17248 17241 17244 17251 15339 17252 16954 17253 17254 
2120 2121 2418 2417 2153 2154 2451 2450 15047 16959 16960 16949 15344 17256 17257 17249 15335 15342 17255 17248 17251 17258 15346 17259 16964 17260 17261 
2121 2122 2419 2418 2154 2155 2452 2451 15057 16969 16970 16959 15351 17263 17264 17256 15342 15349 17262 17255 17258 17265 15353 17266 16974 17267 17268 
2122 2123 2420 2419 2155 2156 2453 2452 15067 16979 16980 16969 15358 17270 17271 17263 15349 15356 17269 17262 17265 17272 15360 17273 16984 17274 17275 
2123 2124 2421 2420 2156 2157 2454 2453 15077 16989 16990 16979 15365 17277 17278 17270 15356 15363 17276 17269 17272 17279 15367 17280 16994 17281 17282 
2124 2125 2422 2421 2157 2158 2455 2454 15087 16999 17000 16989 15372 17284 17285 17277 15363 15370 17283 17276 17279 17286 15374 17287 17004 17288 17289 
2125 2126 2423 2422 2158 2159 2456 2455 15097 17009 17010 16999 15379 17291 17292 17284 15370 15377 17290 17283 17286 17293 15381 17294 17014 17295 17296 
2126 2127 2424 2423 2159 2160 2457 2456 15107 17019 17020 17009 15386 17298 17299 17291 15377 15384 17297 17290 17293 17300 15388 17301 17024 17302 17303 
2127 2128 2425 2424 2160 2161 2458 2457 15117 17029 17030 17019 15393 17305 17306 17298 15384 15391 17304 17297 17300 17307 15395 17308 17034 17309 17310 
2128 2129 2426 2425 2161 2162 2459 2458 15127 17039 17040 17029 15400 17312 17313 17305 15391 15398 17311 17304 17307 17314 15402 17315 17044 17316 17317 
2129 2130 2427 2426 2162 2163 2460 2459 15137 17049 17050 17039 15407 17319 17320 17312 15398 15405 17318 17311 17314 17321 15409 17322 17054 17323 17324 
2130 2131 2428 2427 2163 2164 2461 2460 15147 17059 17060 17049 15414 17326 17327 17319 15405 15412 17325 17318 17321 17328 15416 17329 17064 17330 17331 
2131 2132 2429 2428 2164 2165 2462 2461 15157 17069 17070 17059 15421 17333 17334 17326 15412 15419 17332 17325 17328 17335 15423 17336 17074 17337 17338 
2132 2133 2430 2429 2165 2166 2463 2462 15167 17079 17080 17069 15428 17340 17341 17333 15419 15426 17339 17332 17335 17342 15430 17343 17084 17344 17345 
2133 2134 2431 2430 2166 2167 2464 2463 15177 17089 17090 17079 15435 17347 17348 17340 15426 15433 17346 17339 17342 17349 15437 17350 17094 17351 17352 
2134 2135 2432 2431 2167 2168 2465 2464 15187 17099 17100 17089 15442 17354 17355 17347 15433 15440 17353 17346 17349 17356 15444 17357 17104 17358 17359 
2135 2136 2433 2432 2168 2169 2466 2465 15197 17109 17110 17099 15449 17361 17362 17354 15440 15447 17360 17353 17356 17363 15451 17364 17114 17365 17366 
2136 2137 2434 2433 2169 2170 2467 2466 15207 17119 17120 17109 15456 17368 17369 17361 15447 15454 17367 17360 17363 17370 15458 17371 17124 17372 17373 
2137 2138 2435 2434 2170 2171 2468 2467 15217 17129 17130 17119 15463 17375 17376 17368 15454 15461 17374 17367 17370 17377 15465 17378 17134 17379 17380 
2138 2139 2436 2435 2171 2172 2469 2468 15227 17139 17140 17129 15470 17382 17383 17375 15461 15468 17381 17374 17377 17384 15472 17385 17144 17386 17387 
2139 2140 2437 2436 2172 2173 2470 2469 15237 17149 17150 17139 15477 17389 17390 17382 15468 15475 17388 17381 17384 17391 15479 17392 17154 17393 17394 
2140 2141 2438 2437 2173 2174 2471 2470 15247 17159 17160 17149 15484 17396 17397 17389 15475 15482 17395 17388 17391 17398 15486 17399 17164 17400 17401 
2141 2142 2439 2438 2174 2175 2472 2471 15257 17169 17170 17159 15491 17403 17404 17396 15482 15489 17402 17395 17398 17405 15493 17406 17174 17407 17408 
2142 2143 2440 2439 2175 2176 2473 2472 15267 17179 17180 17169 15498 17410 17411 17403 15489 15496 17409 17402 17405 17412 15500 17413 17184 17414 17415 
2143 2144 2441 2440 2176 2177 2474 2473 15277 17189 17190 17179 15505 17417 17418 17410 15496 15503 17416 17409 17412 17419 15507 17420 17194 17421 17422 
2145 2146 2443 2442 2178 2179 2476 2475 15286 17198 17199 17200 15513 17425 17426 17427 15511 15510 17423 17424 17430 17428 15516 17429 17204 17431 17432 
2146 2147 2444 2443 2179 2180 2477 2476 15295 17207 17208 17198 15522 17434 17435 17425 15510 15520 17433 17423 17428 17436 15524 17437 17211 17438 17439 
2147 2148 2445 2444 2180 2181 2478 2477 15302 17214 17215 17207 15529 17441 17442 17434 15520 15527 17440 17433 17436 17443 15531 17444 17218 17445 17446 
2148 2149 2446 2445 2181 2182 2479 2478 15309 17221 17222 17214 15536 17448 17449 17441 15527 15534 17447 17440 17443 17450 15538 17451 17225 17452 17453 
2149 2150 2447 2446 2182 2183 2480 2479 15316 17228 17229 17221 15543 17455 17456 17448 15534 15541 17454 17447 17450 17457 15545 17458 17232 17459 17460 
2150 2151 2448 2447 2183 2184 2481 2480 15323 17235 17236 17228 15550 17462 17463 17455 15541 15548 17461 17454 17457 17464 15552 17465 17239 17466 17467 
2151 2152 2449 2448 2184 2185 2482 2481 15330 17242 17243 17235 15557 17469 17470 17462 15548 15555 17468 17461 17464 17471 15559 17472 17246 17473 17474 
2152 2153 2450 2449 2185 2186 2483 2482 15337 17249 17250 17242 15564 17476 17477 17469 15555 15562 17475 17468 17471 17478 15566 17479 17253 17480 17481 
2153 2154 2451 2450 2186 2187 2484 2483 15344 17256 17257 17249 15571 17483 17484 17476 15562 15569 17482 17475 17478 17485 15573 17486 17260 17487 17488 
2154 2155 2452 2451 2187 2188 2485 2484 15351 17263 17264 17256 15578 17490 17491 17483 15569 15576 17489 17482 17485 17492 15580 17493 17267 17494 17495 
2155 2156 2453 2452 2188 2189 2486 2485 15358 17270 17271 17263 15585 17497 17498 17490 15576 15583 17496 17489 17492 17499 15587 17500 17274 17501 17502 
2156 2157 2454 2453 2189 2190 2487 2486 15365 17277 17278 17270 15592 17504 17505 17497 15583 15590 17503 17496 17499 17506 15594 17507 17281 17508 17509 
2157 2158 2455 2454 2190 2191 2488 2487 15372 17284 17285 17277 15599 17511 17512 17504 15590 15597 17510 17503 17506 17513 15601 17514 17288 17515 17516 
2158 2159 2456 2455 2191 2192 2489 2488 15379 17291 17292 17284 15606 17518 17519 17511 15597 15604 17517 17510 17513 17520 15608 17521 17295 17522 17523 
2159 2160 2457 2456 2192 2193 2490 2489 15386 17298 17299 17291 15613 17525 17526 17518 15604 15611 17524 17517 17520 17527 15615 17528 17302 17529 17530 
2160 2161 2458 2457 2193 2194 2491 2490 15393 17305 17306 17298 15620 17532 17533 17525 15611 15618 17531 17524 17527 17534 15622 17535 17309 17536 17537 
2161 2162 2459 2458 2194 2195 2492 2491 15400 17312 17313 17305 15627 17539 17540 17532 15618 15625 17538 17531 17534 17541 15629 17542 17316 17543 17544 
2162 2163 2460 2459 2195 2196 2493 2492 15407 17319 17320 17312 15634 17546 17547 17539 15625 15632 17545 17538 17541 17548 15636 17549 17323 17550 17551 
2163 2164 2461 2460 2196 2197 2494 2493 15414 17326 17327 17319 15641 17553 17554 17546 15632 15639 17552 17545 17548 17555 15643 17556 17330 17557 17558 
2164 2165 2462 2461 2197 2198 2495 2494 15421 17333 17334 17326 15648 17560 17561 17553 15639 15646 17559 17552 17555 17562 15650 17563 17337 17564 17565 
2165 2166 2463 2462 2198 2199 2496 2495 15428 17340 17341 17333 15655 17567 17568 17560 15646 15653 17566 17559 17562 17569 15657 17570 17344 17571 17572 
2166 2167 2464 2463 2199 2200 2497 2496 15435 17347 17348 17340 15662 17574 17575 17567 15653 15660 17573 17566 17569 17576 15664 17577 17351 17578 17579 
2167 2168 2465 2464 2200 2201 2498 2497 15442 17354 17355 17347 15669 17581 17582 17574 15660 15667 17580 17573 17576 17583 15671 17584 17358 17585 17586 
2168 2169 2466 2465 2201 2202 2499 2498 15449 17361 17362 17354 15676 17588 17589 17581 15667 15674 17587 17580 17583 17590 15678 17591 17365 17592 17593 
2169 2170 2467 2466 2202 2203 2500 2499 15456 17368 17369 17361 15683 17595 17596 17588 15674 15681 17594 17587 17590 17597 15685 17598 17372 17599 17600 
2170 2171 2468 2467 2203 2204 2501 2500 15463 17375 17376 17368 15690 17602 17603 17595 15681 15688 17601 17594 17597 17604 15692 17605 17379 17606 17607 
2171 2172 2469 2468 2204 2205 2502 2501 15470 17382 17383 17375 15697 17609 17610 17602 15688 15695 17608 17601 17604 17611 15699 17612 17386 17613 17614 
2172 2173 2470 2469 2205 2206 2503 2502 15477 17389 17390 17382 15704 17616 17617 17609 15695 15702 17615 17608 17611 17618 15706 17619 17393 17620 17621 
2173 2174 2471 2470 2206 2207 2504 2503 15484 17396 17397 17389 15711 17623 17624 17616 15702 15709 17622 17615 17618 17625 15713 17626 17400 17627 17628 
2174 2175 2472 2471 2207 2208 2505 2504 15491 17403 17404 17396 15718 17630 17631 17623 15709 15716 17629 17622 17625 17632 15720 17633 17407 17634 17635 
2175 2176 2473 2472 2208 2209 2506 2505 15498 17410 17411 17403 15725 17637 17638 17630 15716 15723 17636 17629 17632 17639 15727 17640 17414 17641 17642 
2176 2177 2474 2473 2209 2210 2507 2506 15505 17417 17418 17410 15732 17644 17645 17637 15723 15730 17643 17636 17639 17646 15734 17647 17421 17648 17649 
2178 2179 2476 2475 2211 2212 2509 2508 15513 17425 17426 17427 15740 17652 17653 17654 15738 15737 17650 17651 17657 17655 15743 17656 17431 17658 17659 
2179 2180 2477 2476 2212 2213 2510 2509 15522 17434 17435 17425 15749 17661 17662 17652 15737 15747 17660 17650 17655 17663 15751 17664 17438 17665 17666 
2180 2181 2478 2477 2213 2214 2511 2510 15529 17441 17442 17434 15756 17668 17669 17661 15747 15754 17667 17660 17663 17670 15758 17671 17445 17672 17673 
2181 2182 2479 2478 2214 2215 2512 2511 15536 17448 17449 17441 15763 17675 17676 17668 15754 15761 17674 17667 17670 17677 15765 17678 17452 17679 17680 
2182 2183 2480 2479 2215 2216 2513 2512 15543 17455 17456 17448 15770 17682 17683 17675 15761 15768 17681 17674 17677 17684 15772 17685 17459 17686 17687 
2183 2184 2481 2480 2216 2217 2514 2513 15550 17462 17463 17455 15777 17689 17690 17682 15768 15775 17688 17681 17684 17691 15779 17692 17466 17693 17694 
2184 2185 2482 2481 2217 2218 2515 2514 15557 17469 17470 17462 15784 17696 17697 17689 15775 15782 17695 17688 17691 17698 15786 17699 17473 17700 17701 
2185 2186 2483 2482 2218 2219 2516 2515 15564 17476 17477 17469 15791 17703 17704 17696 15782 15789 17702 17695 17698 17705 15793 17706 17480 17707 17708 
2186 2187 2484 2483 2219 2220 2517 2516 15571 17483 17484 17476 15798 17710 17711 17703 15789 15796 17709 17702 17705 17712 15800 17713 17487 17714 17715 
2187 2188 2485 2484 2220 2221 2518 2517 15578 17490 17491 17483 15805 17717 17718 17710 15796 15803 17716 17709 17712 17719 15807 17720 17494 17721 17722 
2188 2189 2486 2485 2221 2222 2519 2518 15585 17497 17498 17490 15812 17724 17725 17717 15803 15810 17723 17716 17719 17726 15814 17727 17501 17728 17729 
2189 2190 2487 2486 2222 2223 2520 2519 15592 17504 17505 17497 15819 17731 17732 17724 15810 15817 17730 17723 17726 17733 15821 17734 17508 17735 17736 
2190 2191 2488 2487 2223 2224 2521 2520 15599 17511 17512 17504 15826 17738 17739 17731 15817 15824 17737 17730 17733 17740 15828 17741 17515 17742 17743 
2191 2192 2489 2488 2224 2225 2522 2521 15606 17518 17519 17511 15833 17745 17746 17738 15824 15831 17744 17737 17740 17747 15835 17748 17522 17749 17750 
2192 2193 2490 2489 2225 2226 2523 2522 15613 17525 17526 17518 15840 17752 17753 17745 15831 15838 17751 17744 17747 17754 15842 17755 17529 17756 17757 
2193 2194 2491 2490 2226 2227 2524 2523 15620 17532 17533 17525 15847 17759 17760 17752 15838 15845 17758 17751 17754 17761 15849 17762 17536 17763 17764 
2194 2195 2492 2491 2227 2228 2525 2524 15627 17539 17540 17532 15854 17766 17767 17759 15845 15852 17765 17758 17761 17768 15856 17769 17543 17770 17771 
2195 2196 2493 2492 2228 2229 2526 2525 15634 17546 17547 17539 15861 17773 17774 17766 15852 15859 17772 17765 17768 17775 15863 17776 17550 17777 17778 
2196 2197 2494 2493 2229 2230 2527 2526 15641 17553 17554 17546 15868 17780 17781 17773 15859 15866 17779 17772 17775 17782 15870 17783 17557 17784 17785 
2197 2198 2495 2494 2230 2231 2528 2527 15648 17560 17561 17553 15875 17787 17788 17780 15866 15873 17786 17779 17782 17789 15877 17790 17564 17791 17792 
2198 2199 2496 2495 2231 2232 2529 2528 15655 17567 17568 17560 15882 17794 17795 17787 15873 15880 17793 17786 17789 17796 15884 17797 17571 17798 17799 
2199 2200 2497 2496 2232 2233 2530 2529 15662 17574 17575 17567 15889 17801 17802 17794 15880 15887 17800 17793 17796 17803 15891 17804 17578 17805 17806 
2200 2201 2498 2497 2233 2234 2531 2530 15669 17581 17582 17574 15896 17808 17809 17801 15887 15894 17807 17800 17803 17810 15898 17811 17585 17812 17813 
2201 2202 2499 2498 2234 2235 2532 2531 15676 17588 17589 17581 15903 17815 17816 17808 15894 15901 17814 17807 17810 17817 15905 17818 17592 17819 17820 
2202 2203 2500 2499 2235 2236 2533 2532 15683 17595 17596 17588 15910 17822 17823 17815 15901 15908 17821 17814 17817 17824 15912 17825 17599 17826 17827 
2203 2204 2501 2500 2236 2237 2534 2533 15690 17602 17603 17595 15917 17829 17830 17822 15908 15915 17828 17821 17824 17831 15919 17832 17606 17833 17834 
2204 2205 2502 2501 2237 2238 2535 2534 15697 17609 17610 17602 15924 17836 17837 17829 15915 15922 17835 17828 17831 17838 15926 17839 17613 17840 17841 
2205 2206 2503 2502 2238 2239 2536 2535 15704 17616 17617 17609 15931 17843 17844 17836 15922 15929 17842 17835 17838 17845 15933 17846 17620 17847 17848 
2206 2207 2504 2503 2239 2240 2537 2536 15711 17623 17624 17616 15938 17850 17851 17843 15929 15936 17849 17842 17845 17852 15940 17853 17627 17854 17855 
2207 2208 2505 2504 2240 2241 2538 2537 15718 17630 17631 17623 15945 17857 17858 17850 15936 15943 17856 17849 17852 17859 15947 17860 17634 17861 17862 
2208 2209 2506 2505 2241 2242 2539 2538 15725 17637 17638 17630 15952 17864 17865 17857 15943 15950 17863 17856 17859 17866 15954 17867 17641 17868 17869 
2209 2210 2507 2506 2242 2243 2540 2539 15732 17644 17645 17637 15959 17871 17872 17864 15950 15957 17870 17863 17866 17873 15961 17874 17648 17875 17876 
2211 2212 2509 2508 2244 2245 2542 2541 15740 17652 17653 17654 15967 17879 17880 17881 15965 15964 17877 17878 17884 17882 15970 17883 17658 17885 17886 
2212 2213 2510 2509 2245 2246 2543 2542 15749 17661 17662 17652 15976 17888 17889 17879 15964 15974 17887 17877 17882 17890 15978 17891 17665 17892 17893 
2213 2214 2511 2510 2246 2247 2544 2543 15756 17668 17669 17661 15983 17895 17896 17888 15974 15981 17894 17887 17890 17897 15985 17898 17672 17899 17900 
2214 2215 2512 2511 2247 2248 2545 2544 15763 17675 17676 17668 15990 17902 17903 17895 15981 15988 17901 17894 17897 17904 15992 17905 17679 17906 17907 
2215 2216 2513 2512 2248 2249 2546 2545 15770 17682 17683 17675 15997 17909 17910 17902 15988 15995 17908 17901 17904 17911 15999 17912 17686 17913 17914 
2216 2217 2514 2513 2249 2250 2547 2546 15777 17689 17690 17682 16004 17916 17917 17909 15995 16002 17915 17908 17911 17918 16006 17919 17693 17920 17921 
2217 2218 2515 2514 2250 2251 2548 2547 15784 17696 17697 17689 16011 17923 17924 17916 16002 16009 17922 17915 17918 17925 16013 17926 17700 17927 17928 
2218 2219 2516 2515 2251 2252 2549 2548 15791 17703 17704 17696 16018 17930 17931 17923 16009 16016 17929 17922 17925 17932 16020 17933 17707 17934 17935 
2219 2220 2517 2516 2252 2253 2550 2549 15798 17710 17711 17703 16025 17937 17938 17930 16016 16023 17936 17929 17932 17939 16027 17940 17714 17941 17942 
2220 2221 2518 2517 2253 2254 2551 2550 15805 17717 17718 17710 16032 17944 17945 17937 16023 16030 17943 17936 17939 17946 16034 17947 17721 17948 17949 
2221 2222 2519 2518 2254 2255 2552 2551 15812 17724 17725 17717 16039 17951 17952 17944 16030 16037 17950 17943 17946 17953 16041 17954 17728 17955 17956 
2222 2223 2520 2519 2255 2256 2553 2552 15819 17731 17732 17724 16046 17958 17959 17951 16037 16044 17957 17950 17953 17960 16048 17961 17735 17962 17963 
2223 2224 2521 2520 2256 2257 2554 2553 15826 17738 17739 17731 16053 17965 17966 17958 16044 16051 17964 17957 17960 17967 16055 17968 17742 17969 17970 
2224 2225 2522 2521 2257 2258 2555 2554 15833 17745 17746 17738 16060 17972 17973 17965 16051 16058 17971 17964 17967 17974 16062 17975 17749 17976 17977 
2225 2226 2523 2522 2258 2259 2556 2555 15840 17752 17753 17745 16067 17979 17980 17972 16058 16065 17978 17971 17974 17981 16069 17982 17756 17983 17984 
2226 2227 2524 2523 2259 2260 2557 2556 15847 17759 17760 17752 16074 17986 17987 17979 16065 16072 17985 17978 17981 17988 16076 17989 17763 17990 17991 
2227 2228 2525 2524 2260 2261 2558 2557 15854 17766 17767 17759 16081 17993 17994 17986 16072 16079 17992 17985 17988 17995 16083 17996 17770 17997 17998 
2228 2229 2526 2525 2261 2262 2559 2558 15861 17773 17774 17766 16088 18000 18001 17993 16079 16086 17999 17992 17995 18002 16090 18003 17777 18004 18005 
2229 2230 2527 2526 2262 2263 2560 2559 15868 17780 17781 17773 16095 18007 18008 18000 16086 16093 18006 17999 18002 18009 16097 18010 17784 18011 18012 
2230 2231 2528 2527 2263 2264 2561 2560 15875 17787 17788 17780 16102 18014 18015 18007 16093 16100 18013 18006 18009 18016 16104 18017 17791 18018 18019 
2231 2232 2529 2528 2264 2265 2562 2561 15882 17794 17795 17787 16109 18021 18022 18014 16100 16107 18020 18013 18016 18023 16111 18024 17798 18025 18026 
2232 2233 2530 2529 2265 2266 2563 2562 15889 17801 17802 17794 16116 18028 18029 18021 16107 16114 18027 18020 18023 18030 16118 18031 17805 18032 18033 
2233 2234 2531 2530 2266 2267 2564 2563 15896 17808 17809 17801 16123 18035 18036 18028 16114 16121 18034 18027 18030 18037 16125 18038 17812 18039 18040 
2234 2235 2532 2531 2267 2268 2565 2564 15903 17815 17816 17808 16130 18042 18043 18035 16121 16128 18041 18034 18037 18044 16132 18045 17819 18046 18047 
2235 2236 2533 2532 2268 2269 2566 2565 15910 17822 17823 17815 16137 18049 18050 18042 16128 16135 18048 18041 18044 18051 16139 18052 17826 18053 18054 
2236 2237 2534 2533 2269 2270 2567 2566 15917 17829 17830 17822 16144 18056 18057 18049 16135 16142 18055 18048 18051 18058 16146 18059 17833 18060 18061 
2237 2238 2535 2534 2270 2271 2568 2567 15924 17836 17837 17829 16151 18063 18064 18056 16142 16149 18062 18055 18058 18065 16153 18066 17840 18067 18068 
2238 2239 2536 2535 2271 2272 2569 2568 15931 17843 17844 17836 16158 18070 18071 18063 16149 16156 18069 18062 18065 18072 16160 18073 17847 18074 18075 
2239 2240 2537 2536 2272 2273 2570 2569 15938 17850 17851 17843 16165 18077 18078 18070 16156 16163 18076 18069 18072 18079 16167 18080 17854 18081 18082 
2240 2241 2538 2537 2273 2274 2571 2570 15945 17857 17858 17850 16172 18084 18085 18077 16163 16170 18083 18076 18079 18086 16174 18087 17861 18088 18089 
2241 2242 2539 2538 2274 2275 2572 2571 15952 17864 17865 17857 16179 18091 18092 18084 16170 16177 18090 18083 18086 18093 16181 18094 17868 18095 18096 
2242 2243 2540 2539 2275 2276 2573 2572 15959 17871 17872 17864 16186 18098 18099 18091 16177 16184 18097 18090 18093 18100 16188 18101 17875 18102 18103 
2244 2245 2542 2541 2277 2278 2575 2574 15967 17879 17880 17881 16194 18106 18107 18108 16192 16191 18104 18105 18111 18109 16197 18110 17885 18112 18113 
2245 2246 2543 2542 2278 2279 2576 2575 15976 17888 17889 17879 16203 18115 18116 18106 16191 16201 18114 18104 18109 18117 16205 18118 17892 18119 18120 
2246 2247 2544 2543 2279 2280 2577 2576 15983 17895 17896 17888 16210 18122 18123 18115 16201 16208 18121 18114 18117 18124 16212 18125 17899 18126 18127 
2247 2248 2545 2544 2280 2281 2578 2577 15990 17902 17903 17895 16217 18129 18130 18122 16208 16215 18128 18121 18124 18131 16219 18132 17906 18133 18134 
2248 2249 2546 2545 2281 2282 2579 2578 15997 17909 17910 17902 16224 18136 18137 18129 16215 16222 18135 18128 18131 18138 16226 18139 17913 18140 18141 
2249 2250 2547 2546 2282 2283 2580 2579 16004 17916 17917 17909 16231 18143 18144 18136 16222 16229 18142 18135 18138 18145 16233 18146 17920 18147 18148 
2250 2251 2548 2547 2283 2284 2581 2580 16011 17923 17924 17916 16238 18150 18151 18143 16229 16236 18149 18142 18145 18152 16240 18153 17927 18154 18155 
2251 2252 2549 2548 2284 2285 2582 2581 16018 17930 17931 17923 16245 18157 18158 18150 16236 16243 18156 18149 18152 18159 16247 18160 17934 18161 18162 
2252 2253 2550 2549 2285 2286 2583 2582 16025 17937 17938 17930 16252 18164 18165 18157 16243 16250 18163 18156 18159 18166 16254 18167 17941 18168 18169 
2253 2254 2551 2550 2286 2287 2584 2583 16032 17944 17945 17937 16259 18171 18172 18164 16250 16257 18170 18163 18166 18173 16261 18174 17948 18175 18176 
2254 2255 2552 2551 2287 2288 2585 2584 16039 17951 17952 17944 16266 18178 18179 18171 16257 16264 18177 18170 18173 18180 16268 18181 17955 18182 18183 
2255 2256 2553 2552 2288 2289 2586 2585 16046 17958 17959 17951 16273 18185 18186 18178 16264 16271 18184 18177 18180 18187 16275 18188 17962 18189 18190 
2256 2257 2554 2553 2289 2290 2587 2586 16053 17965 17966 17958 16280 18192 18193 18185 16271 16278 18191 18184 18187 18194 16282 18195 17969 18196 18197 
2257 2258 2555 2554 2290 2291 2588 2587 16060 17972 17973 17965 16287 18199 18200 18192 16278 16285 18198 18191 18194 18201 16289 18202 17976 18203 18204 
2258 2259 2556 2555 2291 2292 2589 2588 16067 17979 17980 17972 16294 18206 18207 18199 16285 16292 18205 18198 18201 18208 16296 18209 17983 18210 18211 
2259 2260 2557 2556 2292 2293 2590 2589 16074 17986 17987 17979 16301 18213 18214 18206 16292 16299 18212 18205 18208 18215 16303 18216 17990 18217 18218 
2260 2261 2558 2557 2293 2294 2591 2590 16081 17993 17994 17986 16308 18220 18221 18213 16299 16306 18219 18212 18215 18222 16310 18223 17997 18224 18225 
2261 2262 2559 2558 2294 2295 2592 2591 16088 18000 18001 17993 16315 18227 18228 18220 16306 16313 18226 18219 18222 18229 16317 18230 18004 18231 18232 
2262 2263 2560 2559 2295 2296 2593 2592 16095 18007 18008 18000 16322 18234 18235 18227 16313 16320 18233 18226 18229 18236 16324 18237 18011 18238 18239 
2263 2264 2561 2560 2296 2297 2594 2593 16102 18014 18015 18007 16329 18241 18242 18234 16320 16327 18240 18233 18236 18243 16331 18244 18018 18245 18246 
2264 2265 2562 2561 2297 2298 2595 2594 16109 18021 18022 18014 16336 18248 18249 18241 16327 16334 18247 18240 18243 18250 16338 18251 18025 18252 18253 
2265 2266 2563 2562 2298 2299 2596 2595 16116 18028 18029 18021 16343 18255 18256 18248 16334 16341 18254 18247 18250 18257 16345 18258 18032 18259 18260 
2266 2267 2564 2563 2299 2300 2597 2596 16123 18035 18036 18028 16350 18262 18263 18255 16341 16348 18261 18254 18257 18264 16352 18265 18039 18266 18267 
2267 2268 2565 2564 2300 2301 2598 2597 16130 18042 18043 18035 16357 18269 18270 18262 16348 16355 18268 18261 18264 18271 16359 18272 18046 18273 18274 
2268 2269 2566 2565 2301 2302 2599 2598 16137 18049 18050 18042 16364 18276 18277 18269 16355 16362 18275 18268 18271 18278 16366 18279 18053 18280 18281 
2269 2270 2567 2566 2302 2303 2600 2599 16144 18056 18057 18049 16371 18283 18284 18276 16362 16369 18282 18275 18278 18285 16373 18286 18060 18287 18288 
2270 2271 2568 2567 2303 2304 2601 2600 16151 18063 18064 18056 16378 18290 18291 18283 16369 16376 18289 18282 18285 18292 16380 18293 18067 18294 18295 
2271 2272 2569 2568 2304 2305 2602 2601 16158 18070 18071 18063 16385 18297 18298 18290 16376 16383 18296 18289 18292 18299 16387 18300 18074 18301 18302 
2272 2273 2570 2569 2305 2306 2603 2602 16165 18077 18078 18070 16392 18304 18305 18297 16383 16390 18303 18296 18299 18306 16394 18307 18081 18308 18309 
2273 2274 2571 2570 2306 2307 2604 2603 16172 18084 18085 18077 16399 18311 18312 18304 16390 16397 18310 18303 18306 18313 16401 18314 18088 18315 18316 
2274 2275 2572 2571 2307 2308 2605 2604 16179 18091 18092 18084 16406 18318 18319 18311 16397 16404 18317 18310 18313 18320 16408 18321 18095 18322 18323 
2275 2276 2573 2572 2308 2309 2606 2605 16186 18098 18099 18091 16413 18325 18326 18318 16404 16411 18324 18317 18320 18327 16415 18328 18102 18329 18330 
2277 2278 2575 2574 2310 2311 2608 2607 16194 18106 18107 18108 16421 18333 18334 18335 16419 16418 18331 18332 18338 18336 16424 18337 18112 18339 18340 
2278 2279 2576 2575 2311 2312 2609 2608 16203 18115 18116 18106 16430 18342 18343 18333 16418 16428 18341 18331 18336 18344 16432 18345 18119 18346 18347 
2279 2280 2577 2576 2312 2313 2610 2609 16210 18122 18123 18115 16437 18349 18350 18342 16428 16435 18348 18341 18344 18351 16439 18352 18126 18353 18354 
2280 2281 2578 2577 2313 2314 2611 2610 16217 18129 18130 18122 16444 18356 18357 18349 16435 16442 18355 18348 18351 18358 16446 18359 18133 18360 18361 
2281 2282 2579 2578 2314 2315 2612 2611 16224 18136 18137 18129 16451 18363 18364 18356 16442 16449 18362 18355 18358 18365 16453 18366 18140 18367 18368 
2282 2283 2580 2579 2315 2316 2613 2612 16231 18143 18144 18136 16458 18370 18371 18363 16449 16456 18369 18362 18365 18372 16460 18373 18147 18374 18375 
2283 2284 2581 2580 2316 2317 2614 2613 16238 18150 18151 18143 16465 18377 18378 18370 16456 16463 18376 18369 18372 18379 16467 18380 18154 18381 18382 
2284 2285 2582 2581 2317 2318 2615 2614 16245 18157 18158 18150 16472 18384 18385 18377 16463 16470 18383 18376 18379 18386 16474 18387 18161 18388 18389 
2285 2286 2583 2582 2318 2319 2616 2615 16252 18164 18165 18157 16479 18391 18392 18384 16470 16477 18390 18383 18386 18393 16481 18394 18168 18395 18396 
2286 2287 2584 2583 2319 2320 2617 2616 16259 18171 18172 18164 16486 18398 18399 18391 16477 16484 18397 18390 18393 18400 16488 18401 18175 18402 18403 
2287 2288 2585 2584 2320 2321 2618 2617 16266 18178 18179 18171 16493 18405 18406 18398 16484 16491 18404 18397 18400 18407 16495 18408 18182 18409 18410 
2288 2289 2586 2585 2321 2322 2619 2618 16273 18185 18186 18178 16500 18412 18413 18405 16491 16498 18411 18404 18407 18414 16502 18415 18189 18416 18417 
2289 2290 2587 2586 2322 2323 2620 2619 16280 18192 18193 18185 16507 18419 18420 18412 16498 16505 18418 18411 18414 18421 16509 18422 18196 18423 18424 
2290 2291 2588 2587 2323 2324 2621 2620 16287 18199 18200 18192 16514 18426 18427 18419 16505 16512 18425 18418 18421 18428 16516 18429 18203 18430 18431 
2291 2292 2589 2588 2324 2325 2622 2621 16294 18206 18207 18199 16521 18433 18434 18426 16512 16519 18432 18425 18428 18435 16523 18436 18210 18437 18438 
2292 2293 2590 2589 2325 2326 2623 2622 16301 18213 18214 18206 16528 18440 18441 18433 16519 16526 18439 18432 18435 18442 16530 18443 18217 18444 18445 
2293 2294 2591 2590 2326 2327 2624 2623 16308 18220 18221 18213 16535 18447 18448 18440 16526 16533 18446 18439 18442 18449 16537 18450 18224 18451 18452 
2294 2295 2592 2591 2327 2328 2625 2624 16315 18227 18228 18220 16542 18454 18455 18447 16533 16540 18453 18446 18449 18456 16544 18457 18231 18458 18459 
2295 2296 2593 2592 2328 2329 2626 2625 16322 18234 18235 18227 16549 18461 18462 18454 16540 16547 18460 18453 18456 18463 16551 18464 18238 18465 18466 
2296 2297 2594 2593 2329 2330 2627 2626 16329 18241 18242 18234 16556 18468 18469 18461 16547 16554 18467 18460 18463 18470 16558 18471 18245 18472 18473 
2297 2298 2595 2594 2330 2331 2628 2627 16336 18248 18249 18241 16563 18475 18476 18468 16554 16561 18474 18467 18470 18477 16565 18478 18252 18479 18480 
2298 2299 2596 2595 2331 2332 2629 2628 16343 18255 18256 18248 16570 18482 18483 18475 16561 16568 18481 18474 18477 18484 16572 18485 18259 18486 18487 
2299 2300 2597 2596 2332 2333 2630 2629 16350 18262 18263 18255 16577 18489 18490 18482 16568 16575 18488 18481 18484 18491 16579 18492 18266 18493 18494 
2300 2301 2598 2597 2333 2334 2631 2630 16357 18269 18270 18262 16584 18496 18497 18489 16575 16582 18495 18488 18491 18498 16586 18499 18273 18500 18501 
2301 2302 2599 2598 2334 2335 2632 2631 16364 18276 18277 18269 16591 18503 18504 18496 16582 16589 18502 18495 18498 18505 16593 18506 18280 18507 18508 
2302 2303 2600 2599 2335 2336 2633 2632 16371 18283 18284 18276 16598 18510 18511 18503 16589 16596 18509 18502 18505 18512 16600 18513 18287 18514 18515 
2303 2304 2601 2600 2336 2337 2634 2633 16378 18290 18291 18283 16605 18517 18518 18510 16596 16603 18516 18509 18512 18519 16607 18520 18294 18521 18522 
2304 2305 2602 2601 2337 2338 2635 2634 16385 18297 18298 18290 16612 18524 18525 18517 16603 16610 18523 18516 18519 18526 16614 18527 18301 18528 18529 
2305 2306 2603 2602 2338 2339 2636 2635 16392 18304 18305 18297 16619 18531 18532 18524 16610 16617 18530 18523 18526 18533 16621 18534 18308 18535 18536 
2306 2307 2604 2603 2339 2340 2637 2636 16399 18311 18312 18304 16626 18538 18539 18531 16617 16624 18537 18530 18533 18540 16628 18541 18315 18542 18543 
2307 2308 2605 2604 2340 2341 2638 2637 16406 18318 18319 18311 16633 18545 18546 18538 16624 16631 18544 18537 18540 18547 16635 18548 18322 18549 18550 
2308 2309 2606 2605 2341 2342 2639 2638 16413 18325 18326 18318 16640 18552 18553 18545 16631 16638 18551 18544 18547 18554 16642 18555 18329 18556 18557 
2310 2311 2608 2607 2343 2344 2641 2640 16421 18333 18334 18335 16648 18560 18561 18562 16646 16645 18558 18559 18565 18563 16651 18564 18339 18566 18567 
2311 2312 2609 2608 2344 2345 2642 2641 16430 18342 18343 18333 16657 18569 18570 18560 16645 16655 18568 18558 18563 18571 16659 18572 18346 18573 18574 
2312 2313 2610 2609 2345 2346 2643 2642 16437 18349 18350 18342 16664 18576 18577 18569 16655 16662 18575 18568 18571 18578 16666 18579 18353 18580 18581 
2313 2314 2611 2610 2346 2347 2644 2643 16444 18356 18357 18349 16671 18583 18584 18576 16662 16669 18582 18575 18578 18585 16673 18586 18360 18587 18588 
2314 2315 2612 2611 2347 2348 2645 2644 16451 18363 18364 18356 16678 18590 18591 18583 16669 16676 18589 18582 18585 18592 16680 18593 18367 18594 18595 
2315 2316 2613 2612 2348 2349 2646 2645 16458 18370 18371 18363 16685 18597 18598 18590 16676 16683 18596 18589 18592 18599 16687 18600 18374 18601 18602 
2316 2317 2614 2613 2349 2350 2647 2646 16465 18377 18378 18370 16692 18604 18605 18597 16683 16690 18603 18596 18599 18606 16694 18607 18381 18608 18609 
2317 2318 2615 2614 2350 2351 2648 2647 16472 18384 18385 18377 16699 18611 18612 18604 16690 16697 18610 18603 18606 18613 16701 18614 18388 18615 18616 
2318 2319 2616 2615 2351 2352 2649 2648 16479 18391 18392 18384 16706 18618 18619 18611 16697 16704 18617 18610 18613 18620 16708 18621 18395 18622 18623 
2319 2320 2617 2616 2352 2353 2650 2649 16486 18398 18399 18391 16713 18625 18626 18618 16704 16711 18624 18617 18620 18627 16715 18628 18402 18629 18630 
2320 2321 2618 2617 2353 2354 2651 2650 16493 18405 18406 18398 16720 18632 18633 18625 16711 16718 18631 18624 18627 18634 16722 18635 18409 18636 18637 
2321 2322 2619 2618 2354 2355 2652 2651 16500 18412 18413 18405 16727 18639 18640 18632 16718 16725 18638 18631 18634 18641 16729 18642 18416 18643 18644 
2322 2323 2620 2619 2355 2356 2653 2652 16507 18419 18420 18412 16734 18646 18647 18639 16725 16732 18645 18638 18641 18648 16736 18649 18423 18650 18651 
2323 2324 2621 2620 2356 2357 2654 2653 16514 18426 18427 18419 16741 18653 18654 18646 16732 16739 18652 18645 18648 18655 16743 18656 18430 18657 18658 
2324 2325 2622 2621 2357 2358 2655 2654 16521 18433 18434 18426 16748 18660 18661 18653 16739 16746 18659 18652 18655 18662 16750 18663 18437 18664 18665 
2325 2326 2623 2622 2358 2359 2656 2655 16528 18440 18441 18433 16755 18667 18668 18660 16746 16753 18666 18659 18662 18669 16757 18670 18444 18671 18672 
2326 2327 2624 2623 2359 2360 2657 2656 16535 18447 18448 18440 16762 18674 18675 18667 16753 16760 18673 18666 18669 18676 16764 18677 18451 18678 18679 
2327 2328 2625 2624 2360 2361 2658 2657 16542 18454 18455 18447 16769 18681 18682 18674 16760 16767 18680 18673 18676 18683 16771 18684 18458 18685 18686 
2328 2329 2626 2625 2361 2362 2659 2658 16549 18461 18462 18454 16776 18688 18689 18681 16767 16774 18687 18680 18683 18690 16778 18691 18465 18692 18693 
2329 2330 2627 2626 2362 2363 2660 2659 16556 18468 18469 18461 16783 18695 18696 18688 16774 16781 18694 18687 18690 18697 16785 18698 18472 18699 18700 
2330 2331 2628 2627 2363 2364 2661 2660 16563 18475 18476 18468 16790 18702 18703 18695 16781 16788 18701 18694 18697 18704 16792 18705 18479 18706 18707 
2331 2332 2629 2628 2364 2365 2662 2661 16570 18482 18483 18475 16797 18709 18710 18702 16788 16795 18708 18701 18704 18711 16799 18712 18486 18713 18714 
2332 2333 2630 2629 2365 2366 2663 2662 16577 18489 18490 18482 16804 18716 18717 18709 16795 16802 18715 18708 18711 18718 16806 18719 18493 18720 18721 
2333 2334 2631 2630 2366 2367 2664 2663 16584 18496 18497 18489 16811 18723 18724 18716 16802 16809 18722 18715 18718 18725 16813 18726 18500 18727 18728 
2334 2335 2632 2631 2367 2368 2665 2664 16591 18503 18504 18496 16818 18730 18731 18723 16809 16816 18729 18722 18725 18732 16820 18733 18507 18734 18735 
2335 2336 2633 2632 2368 2369 2666 2665 16598 18510 18511 18503 16825 18737 18738 18730 16816 16823 18736 18729 18732 18739 16827 18740 18514 18741 18742 
2336 2337 2634 2633 2369 2370 2667 2666 16605 18517 18518 18510 16832 18744 18745 18737 16823 16830 18743 18736 18739 18746 16834 18747 18521 18748 18749 
2337 2338 2635 2634 2370 2371 2668 2667 16612 18524 18525 18517 16839 18751 18752 18744 16830 16837 18750 18743 18746 18753 16841 18754 18528 18755 18756 
2338 2339 2636 2635 2371 2372 2669 2668 16619 18531 18532 18524 16846 18758 18759 18751 16837 16844 18757 18750 18753 18760 16848 18761 18535 18762 18763 
2339 2340 2637 2636 2372 2373 2670 2669 16626 18538 18539 18531 16853 18765 18766 18758 16844 16851 18764 18757 18760 18767 16855 18768 18542 18769 18770 
2340 2341 2638 2637 2373 2374 2671 2670 16633 18545 18546 18538 16860 18772 18773 18765 16851 16858 18771 18764 18767 18774 16862 18775 18549 18776 18777 
2341 2342 2639 2638 2374 2375 2672 2671 16640 18552 18553 18545 16867 18779 18780 18772 16858 16865 18778 18771 18774 18781 16869 18782 18556 18783 18784 
CELL_TYPES 2048
29 29 29 29 29 29 29 29 29 29 29 29 29 29 29 29 29 29 29 29 29 29 29 29 29 29 29 29 29 29 29 29 29 29 29 29 29 29 29 29 29 29 29 29 29 29 29 29 29 29 29 29 29 29 29 29 29 29 29 29 29 29 29 29 29 29 29 29 29 29 29 29 29 29 29 29 29 29 29 29 29 29 29 29 29 29 29 29 29 29 29 29 29 29 29 29 29 29 29 29 29 29 29 29 29 29 29 29 29 29 29 29 29 29 29 29 29 29 29 29 29 29 29 29 29 29 29 29 29 29 29 29 29 29 29 29 29 29 29 29 29 29 29 29 29 29 29 29 29 29 29 29 29 29 29 29 29 29 29 29 29 29 29 29 29 29 29 29 29 29 29 29 29 29 29 29 29 29 29 29 29 29 29 29 29 29 29 29 29 29 29 29 29 29 29 29 29 29 29 29 29 29 29 29 29 29 29 29 29 29 29 29 29 29 29 29 29 29 29 29 29 29 29 29 29 29 29 29 29 29 29 29 29 29 29 29 29 29 29 29 29 29 29 29 29 29 29 29 29 29 29 29 29 29 29 29 29 29 29 29 29 29 29 29 29 29 29 29 29 29 29 29 29 29 29 29 29 29 29 29 29 29 29 29 29 29 29 29 29 29 29 29 29 29 29 29 29 29 29 29 29 29 29 29 29 29 29 29 29 29 29 29 29 29 29 29 29 29 29 29 29 29 29 29 29 29 29 29 29 29 29 29 29 29 29 29 29 29 29 29 29 29 29 29 29 29 29 29 29 29 29 29 29 29 29 29 29 29 29 29 29 29 29 29 29 29 29 29 29 29 29 29 29 29 29 29 29 29 29 29 29 29 29 29 29 29 29 29 29 29 29 29 29 29 29 29 29 29 29 29 29 29 29 29 29 29 29 29 29 29 29 29 29 29 29 29 29 29 29 29 29 29 29 29 29 29 29 29 29 29 29 29 29 29 29 29 29 29 29 29 29 29 29 29 29 29 29 29 29 29 29 29 29 29 29 29 29 29 29 29 29 29 29 29 29 29 29 29 29 29 29 29 29 29 29 29 29 29 29 29 29 29 29 29 29 29 29 29 29 29 29 29 29 29 29 29 29 29 29 29 29 29 29 29 29 29 29 29 29 29 29 29 29 29 29 29 29 29 29 29 29 29 29 29 29 29 29 29 29 29 29 29 29 29 29 29 29 29 29 29 29 29 29 29 29 29 29 29 29 29 29 29 29 29 29 29 29 29 29 29 29 29 29 29 29 29 29 29 29 29 29 29 29 29 29 29 29 29 29 29 29 29 29 29 29 29 29 29 29 29 29 29 29 29 29 29 29 29 29 29 29 29 29 29 29 29 29 29 29 29 29 29 29 29 29 29 29 29 29 29 29 29 29 29 29 29 29 29 29 29 29 29 29 29 29 29 29 29 29 29 29 29 29 29 29 29 29 29 29 29 29 29 29 29 29 29 29 29 29 29 29 29 29 29 29 29 29 29 29 29 29 29 29 29 29 29 29 29 29 29 29 29 29 29 29 29 29 29 29 29 29 29 29 29 29 29 29 29 29 29 29 29 29 29 29 29 29 29 29 29 29 29 29 29 29 29 29 29 29 29 29 29 29 29 29 29 29 29 29 29 29 29 29 29 29 29 29 29 29 29 29 29 29 29 29 29 29 29 29 29 29 29 29 29 29 29 29 29 29 29 29 29 29 29 29 29 29 29 29 29 29 29 29 29 29 29 29 29 29 29 29 29 29 29 29 29 29 29 29 29 29 29 29 29 29 29 29 29 29 29 29 29 29 29 29 29 29 29 29 29 29 29 29 29 29 29 29 29 29 29 29 29 29 29 29 29 29 29 29 29 29 29 29 29 29 29 29 29 29 29 29 29 29 29 29 29 29 29 29 29 29 29 29 29 29 29 29 29 29 29 29 29 29 29 29 29 29 29 29 29 29 29 29 29 29 29 29 29 29 29 29 29 29 29 29 29 29 29 29 29 29 29 29 29 29 29 29 29 29 29 29 29 29 29 29 29 29 29 29 29 29 29 29 29 29 29 29 29 29 29 29 29 29 29 29 29 29 29 29 29 29 29 29 29 29 29 29 29 29 29 29 29 29 29 29 29 29 29 29 29 29 29 29 29 29 29 29 29 29 29 29 29 29 29 29 29 29 29 29 29 29 29 29 29 29 29 29 29 29 29 29 29 29 29 29 29 29 29 29 29 29 29 29 29 29 29 29 29 29 29 29 29 29 29 29 29 29 29 29 29 29 29 29 29 29 29 29 29 29 29 29 29 29 29 29 29 29 29 29 29 29 29 29 29 29 29 29 29 29 29 29 29 29 29 29 29 29 29 29 29 29 29 29 29 29 29 29 29 29 29 29 29 29 29 29 29 29 29 29 29 29 29 29 29 29 29 29 29 29 29 29 29 29 29 29 29 29 29 29 29 29 29 29 29 29 29 29 29 29 29 29 29 29 29 29 29 29 29 29 29 29 29 29 29 29 29 29 29 29 29 29 29 29 29 29 29 29 29 29 29 29 29 29 29 29 29 29 29 29 29 29 29 29 29 29 29 29 29 29 29 29 29 29 29 29 29 29 29 29 29 29 29 29 29 29 29 29 29 29 29 29 29 29 29 29 29 29 29 29 29 29 29 29 29 29 29 29 29 29 29 29 29 29 29 29 29 29 29 29 29 29 29 29 29 29 29 29 29 29 29 29 29 29 29 29 29 29 29 29 29 29 29 29 29 29 29 29 29 29 29 29 29 29 29 29 29 29 29 29 29 29 29 29 29 29 29 29 29 29 29 29 29 29 29 29 29 29 29 29 29 29 29 29 29 29 29 29 29 29 29 29 29 29 29 29 29 29 29 29 29 29 29 29 29 29 29 29 29 29 29 29 29 29 29 29 29 29 29 29 29 29 29 29 29 29 29 29 29 29 29 29 29 29 29 29 29 29 29 29 29 29 29 29 29 29 29 29 29 29 29 29 29 29 29 29 29 29 29 29 29 29 29 29 29 29 29 29 29 29 29 29 29 29 29 29 29 29 29 29 29 29 29 29 29 29 29 29 29 29 29 29 29 29 29 29 29 29 29 29 29 29 29 29 29 29 29 29 29 29 29 29 29 29 29 29 29 29 29 29 29 29 29 29 29 29 29 29 29 29 29 29 29 29 29 29 29 29 29 29 29 29 29 29 29 29 29 29 29 29 29 29 29 29 29 29 29 29 29 29 29 29 29 29 29 29 29 29 29 29 29 29 29 29 29 29 29 29 29 29 29 29 29 29 29 29 29 29 29 29 29 29 29 29 29 29 29 29 29 29 29 29 29 29 29 29 29 29 29 29 29 29 29 29 29 29 29 29 29 29 29 29 29 29 29 29 29 29 29 29 29 29 29 29 29 29 29 29 29 29 29 29 29 29 29 29 29 29 29 29 29 29 29 29 29 29 29 29 29 29 29 29 29 29 29 29 29 29 29 29 29 29 29 29 29 29 29 29 29 29 29 29 29 29 29 29 29 29 29 29 29 29 29 29 29 29 29 29 29 29 29 29 29 29 29 29 29 29 29 29 29 29 29 29 29 29 29 29 29 29 29 29 29 29 29 29 29 29 29 29 29 29 29 29 29 29 29 29 29 29 29 29 29 29 29 29 29 29 29 29 29 29 29 29 29 29 29 29 29 29 29 29 29 29 29 29 29 29 29 29 29 29 29 29 29 29 29 29 29 29 29 29 29 29 29 29 29 29 29 29 29 29 29 29 29 29 29 29 29 29 29 29 29 29 29 29 29 29 29 29 29 29 29 29 29 29 29 29 29 29 29 29 29 29 29 29 29 29 29 29 29 29 29 29 29 29 29 29 29 29 29 29 29 29 29 29 29 29 29 29 29 29 29 29 29 29 29 29 29 29 29 29 29 29 29 29 29 29 29 29 29 29 29 29 29 29 29 29 29 29 29 29 29 29 29 29 29 29 29 29 29 29 29 29 29 29 29 29 29 29 29 29 29 29 29 29 29 29 29 29 29 29 29 29 29 29 29 29 29 29 29 29 29 29 29 29 29 29 29 29 29 29 29 29 29 29 29 29 29 29 29 29 29 29 29 29 29 29 29 29 29 29 29 29 29 29 29 29 29 29 29 29 29 29 29 29 29 29 29 29 29 29 29 29 29 29 29 29 29 29 29 29 29 29 29 29 29 29 29 29 29 29 29 29 29 29 29 29 29 29 29 29 29 29 29 29 29 29 29 29 29 29 29 29 29 29 29 29 29 29 29 29 29 29 29 29 29 29 29 29 29 29 29 29 29 29 29 29 29 29 29 29 29 29 29 29 29 29 29 29 29 29 29 29 29 29 29 29 29 29 29 29 29 29 29 29 29 29 29 29 29 29 29 29 29 29 29 29 29 29 29 29 29 29 29 29 29 29 29 29 29 29 29 29 29 29 29 29 29 29 29 29 29 29 29 29 29 29 29 29 29 29 29 29 29 29 29 29 29 29 29 29 29 29 29 29 29 29 29 29 29 29 29 29 29 29 29 29 29 29 29 29 29 29 29 29 29 29 29 29 29 29 29 29 29 29 29 29 29 29 29 29 29 29 29 29 29 29 29 

POINT_DATA 18785
SCALARS weights float 1
LOOKUP_TABLE default
0.072338 0.144676 0.144676 0.144676 0.144676 0.144676 0.144676 0.144676 0.144676 0.144676 0.144676 0.144676 0.144676 0.144676 0.144676 0.144676 0.144676 0.144676 0.144676 0.144676 0.144676 0.144676 0.144676 0.144676 0.144676 0.144676 0.144676 0.144676 0.144676 0.144676 0.144676 0.144676 0.072338 0.144676 0.289352 0.289352 0.289352 0.289352 0.289352 0.289352 0.289352 0.289352 0.289352 0.289352 0.289352 0.289352 0.289352 0.289352 0.289352 0.289352 0.289352 0.289352 0.289352 0.289352 0.289352 0.289352 0.289352 0.289352 0.289352 0.289352 0.289352 0.289352 0.289352 0.289352 0.289352 0.144676 0.144676 0.289352 0.289352 0.289352 0.289352 0.289352 0.289352 0.289352 0.289352 0.289352 0.289352 0.289352 0.289352 0.289352 0.289352 0.289352 0.289352 0.289352 0.289352 0.289352 0.289352 0.289352 0.289352 0.289352 0.289352 0.289352 0.289352 0.289352 0.289352 0.289352 0.289352 0.289352 0.144676 0.144676 0.289352 0.289352 0.289352 0.289352 0.289352 0.289352 0.289352 0.289352 0.289352 0.289352 0.289352 0.289352 0.289352 0.289352 0.289352 0.289352 0.289352 0.289352 0.289352 0.289352 0.289352 0.289352 0.289352 0.289352 0.289352 0.289352 0.289352 0.289352 0.289352 0.289352 0.289352 0.144676 0.144676 0.289352 0.289352 0.289352 0.289352 0.289352 0.289352 0.289352 0.289352 0.289352 0.289352 0.289352 0.289352 0.289352 0.289352 0.289352 0.289352 0.289352 0.289352 0.289352 0.289352 0.289352 0.289352 0.289352 0.289352 0.289352 0.289352 0.289352 0.289352 0.289352 0.289352 0.289352 0.144676 0.144676 0.289352 0.289352 0.289352 0.289352 0.289352 0.289352 0.289352 0.289352 0.289352 0.289352 0.289352 0.289352 0.289352 0.289352 0.289352 0.289352 0.289352 0.289352 0.289352 0.289352 0.289352 0.289352 0.289352 0.289352 0.289352 0.289352 0.289352 0.289352 0.289352 0.289352 0.289352 0.144676 0.144676 0.289352 0.289352 0.289352 0.289352 0.289352 0.289352 0.289352 0.289352 0.289352 0.289352 0.289352 0.289352 0.289352 0.289352 0.289352 0.289352 0.289352 0.289352 0.289352 0.289352 0.289352 0.289352 0.289352 0.289352 0.289352 0.289352 0.289352 0.289352 0.289352 0.289352 0.289352 0.144676 0.144676 0.289352 0.289352 0.289352 0.289352 0.289352 0.289352 0.289352 0.289352 0.289352 0.289352 0.289352 0.289352 0.289352 0.289352 0.289352 0.289352 0.289352 0.289352 0.289352 0.289352 0.289352 0.289352 0.289352 0.289352 0.289352 0.289352 0.289352 0.289352 0.289352 0.289352 0.289352 0.144676 0.072338 0.144676 0.144676 0.144676 0.144676 0.144676 0.144676 0.144676 0.144676 0.144676 0.144676 0.144676 0.144676 0.144676 0.144676 0.144676 0.144676 0.144676 0.144676 0.144676 0.144676 0.144676 0.144676 0.144676 0.144676 0.144676 0.144676 0.144676 0.144676 0.144676 0.144676 0.144676 0.072338 0.144676 0.289352 0.289352 0.289352 0.289352 0.289352 0.289352 0.289352 0.289352 0.289352 0.289352 0.289352 0.289352 0.289352 0.289352 0.289352 0.289352 0.289352 0.289352 0.289352 0.289352 0.289352 0.289352 0.289352 0.289352 0.289352 0.289352 0.289352 0.289352 0.289352 0.289352 0.289352 0.144676 0.289352 0.578704 0.578704 0.578704 0.578704 0.578704 0.578704 0.578704 0.578704 0.578704 0.578704 0.578704 0.578704 0.578704 0.578704 0.578704 0.578704 0.578704 0.578704 0.578703 0.578704 0.578704 0.578704 0.578704 0.578704 0.578704 0.578704 0.578704 0.578703 0.578703 0.578704 0.578704 0.289352 0.289352 0.578704 0.578704 0.578704 0.578704 0.578704 0.578704 0.578704 0.578704 0.578704 0.578704 0.578704 0.578704 0.578704 0.578704 0.578704 0.578704 0.578704 0.578704 0.578703 0.578704 0.578704 0.578704 0.578704 0.578704 0.578704 0.578704 0.578704 0.578703 0.578703 0.578704 0.578704 0.289352 0.289352 0.578704 0.578704 0.578704 0.578704 0.578704 0.578704 0.578704 0.578704 0.578704 0.578704 0.578704 0.578704 0.578704 0.578704 0.578704 0.578704 0.578704 0.578704 0.578703 0.578704 0.578704 0.578704 0.578704 0.578704 0.578704 0.578704 0.578704 0.578703 0.578703 0.578704 0.578704 0.289352 0.289352 0.578704 0.578704 0.578704 0.578704 0.578704 0.578704 0.578704 0.578704 0.578704 0.578704 0.578704 0.578704 0.578704 0.578704 0.578704 0.578704 0.578704 0.578704 0.578703 0.578704 0.578704 0.578704 0.578704 0.578704 0.578703 0.578704 0.578704 0.578703 0.578703 0.578704 0.578704 0.289352 0.289352 0.578704 0.578704 0.578704 0.578704 0.578704 0.578704 0.578704 0.578704 0.578704 0.578704 0.578704 0.578704 0.578704 0.578704 0.578704 0.578704 0.578704 0.578704 0.578703 0.578704 0.578704 0.578704 0.578704 0.578704 0.578704 0.578704 0.578704 0.578703 0.578703 0.578704 0.578704 0.289352 0.289352 0.578704 0.578704 0.578704 0.578704 0.578704 0.578704 0.578704 0.578704 0.578704 0.578704 0.578704 0.578704 0.578704 0.578704 0.578704 0.578704 0.578704 0.578704 0.578704 0.578704 0.578704 0.578704 0.578704 0.578704 0.578704 0.578704 0.578704 0.578703 0.578703 0.578704 0.578704 0.289352 0.289352 0.578704 0.578704 0.578704 0.578704 0.578704 0.578704 0.578704 0.578704 0.578704 0.578704 0.578704 0.578704 0.578704 0.578704 0.578704 0.578704 0.578704 0.578704 0.578703 0.578704 0.578704 0.578704 0.578704 0.578704 0.578704 0.578704 0.578704 0.578703 0.578703 0.578704 0.578704 0.289352 0.144676 0.289352 0.289352 0.289352 0.289352 0.289352 0.289352 0.289352 0.289352 0.289352 0.289352 0.289352 0.289352 0.289352 0.289352 0.289352 0.289352 0.289352 0.289352 0.289352 0.289352 0.289352 0.289352 0.289352 0.289352 0.289352 0.289352 0.289352 0.289351 0.289352 0.289352 0.289352 0.144676 0.144676 0.289352 0.289352 0.289352 0.289352 0.289352 0.289352 0.289352 0.289352 0.289352 0.289352 0.289352 0.289352 0.289352 0.289352 0.289352 0.289352 0.289352 0.289352 0.289352 0.289352 0.289352 0.289352 0.289352 0.289352 0.289352 0.289352 0.289352 0.289352 0.289352 0.289352 0.289352 0.144676 0.289352 0.578704 0.578704 0.578704 0.578704 0.578704 0.578704 0.578704 0.578704 0.578704 0.578704 0.578704 0.578704 0.578704 0.578704 0.578704 0.578704 0.578704 0.578704 0.578704 0.578704 0.578704 0.578704 0.578704 0.578704 0.578704 0.578704 0.578704 0.578703 0.578703 0.578704 0.578704 0.289352 0.289352 0.578704 0.578704 0.578704 0.578704 0.578704 0.578704 0.578704 0.578704 0.578704 0.578704 0.578704 0.578704 0.578704 0.578704 0.578704 0.578704 0.578704 0.578704 0.578704 0.578704 0.578704 0.578704 0.578704 0.578704 0.578704 0.578704 0.578704 0.578703 0.578703 0.578704 0.578704 0.289352 0.289352 0.578704 0.578704 0.578704 0.578704 0.578704 0.578704 0.578704 0.578704 0.578704 0.578704 0.578704 0.578704 0.578704 0.578704 0.578704 0.578704 0.578704 0.578704 0.578703 0.578704 0.578704 0.578704 0.578704 0.578704 0.578704 0.578704 0.578704 0.578703 0.578703 0.578704 0.578704 0.289352 0.289352 0.578704 0.578704 0.578704 0.578704 0.578704 0.578704 0.578704 0.578704 0.578704 0.578704 0.578704 0.578704 0.578704 0.578704 0.578704 0.578704 0.578704 0.578704 0.578703 0.578704 0.578704 0.578704 0.578704 0.578704 0.578704 0.578704 0.578704 0.578703 0.578703 0.578704 0.578704 0.289352 0.289352 0.578704 0.578704 0.578704 0.578704 0.578704 0.578704 0.578704 0.578704 0.578704 0.578704 0.578704 0.578704 0.578704 0.578704 0.578704 0.578704 0.578704 0.578704 0.578704 0.578704 0.578704 0.578704 0.578704 0.578704 0.578704 0.578704 0.578704 0.578703 0.578703 0.578704 0.578704 0.289352 0.289352 0.578704 0.578704 0.578704 0.578704 0.578704 0.578704 0.578704 0.578704 0.578704 0.578704 0.578704 0.578704 0.578704 0.578704 0.578704 0.578704 0.578704 0.578704 0.578704 0.578704 0.578704 0.578704 0.578704 0.578704 0.578704 0.578704 0.578704 0.578703 0.578703 0.578704 0.578704 0.289352 0.289352 0.578704 0.578704 0.578704 0.578704 0.578704 0.578704 0.578704 0.578704 0.578704 0.578704 0.578704 0.578704 0.578704 0.578704 0.578704 0.578704 0.578704 0.578704 0.578703 0.578704 0.578704 0.578704 0.578704 0.578704 0.578704 0.578704 0.578704 0.578703 0.578703 0.578704 0.578704 0.289352 0.144676 0.289352 0.289352 0.289352 0.289352 0.289352 0.289352 0.289352 0.289352 0.289352 0.289352 0.289352 0.289352 0.289352 0.289352 0.289352 0.289352 0.289352 0.289352 0.289352 0.289352 0.289352 0.289352 0.289352 0.289352 0.289352 0.289352 0.289352 0.289352 0.289352 0.289352 0.289352 0.144676 0.144676 0.289352 0.289352 0.289352 0.289352 0.289352 0.289352 0.289352 0.289352 0.289352 0.289352 0.289352 0.289352 0.289352 0.289352 0.289352 0.289352 0.289352 0.289352 0.289352 0.289352 0.289352 0.289352 0.289352 0.289352 0.289352 0.289352 0.289352 0.289351 0.289352 0.289352 0.289352 0.144676 0.289352 0.578704 0.578704 0.578704 0.578704 0.578704 0.578704 0.578704 0.578704 0.578704 0.578703 0.578704 0.578704 0.578704 0.578704 0.578704 0.578704 0.578704 0.578703 0.578703 0.578703 0.578704 0.578703 0.578704 0.578703 0.578703 0.578704 0.578704 0.578703 0.578703 0.578703 0.578704 0.289352 0.289352 0.578704 0.578704 0.578704 0.578704 0.578704 0.578704 0.578704 0.578704 0.578704 0.578703 0.578704 0.578704 0.578704 0.578704 0.578703 0.578704 0.578704 0.578703 0.578703 0.578703 0.578704 0.578703 0.578704 0.578703 0.578703 0.578704 0.578704 0.578703 0.578703 0.578703 0.578704 0.289352 0.289352 0.578704 0.578704 0.578704 0.578704 0.578704 0.578704 0.578704 0.578704 0.578704 0.578703 0.578703 0.578704 0.578704 0.578704 0.578704 0.578704 0.578703 0.578703 0.578703 0.578703 0.578704 0.578703 0.578704 0.578703 0.578703 0.578704 0.578704 0.578703 0.578703 0.578703 0.578704 0.289352 0.289352 0.578704 0.578704 0.578704 0.578703 0.578704 0.578704 0.578704 0.578704 0.578704 0.578703 0.578703 0.578703 0.578704 0.578703 0.578703 0.578704 0.578703 0.578703 0.578703 0.578703 0.578704 0.578703 0.578703 0.578703 0.578703 0.578704 0.578704 0.578703 0.578703 0.578703 0.578703 0.289352 0.289352 0.578704 0.578704 0.578704 0.578704 0.578704 0.578704 0.578704 0.578704 0.578704 0.578703 0.578704 0.578704 0.578704 0.578704 0.578703 0.578704 0.578703 0.578703 0.578703 0.578703 0.578704 0.578703 0.578703 0.578703 0.578703 0.578704 0.578704 0.578703 0.578703 0.578703 0.578704 0.289352 0.289352 0.578704 0.578704 0.578704 0.578704 0.578704 0.578704 0.578704 0.578704 0.578704 0.578703 0.578704 0.578704 0.578704 0.578704 0.578704 0.578704 0.578704 0.578703 0.578703 0.578703 0.578704 0.578703 0.578704 0.578704 0.578703 0.578704 0.578704 0.578703 0.578703 0.578703 0.578704 0.289352 0.289352 0.578704 0.578704 0.578704 0.578704 0.578704 0.578704 0.578704 0.578704 0.578704 0.578703 0.578703 0.578704 0.578704 0.578704 0.578703 0.578704 0.578703 0.578703 0.578703 0.578703 0.578704 0.578703 0.578703 0.578703 0.578703 0.578704 0.578704 0.578703 0.578703 0.578703 0.578704 0.289352 0.144676 0.289352 0.289352 0.289352 0.289352 0.289352 0.289352 0.289352 0.289352 0.289352 0.289352 0.289352 0.289352 0.289352 0.289352 0.289352 0.289352 0.289352 0.289352 0.289352 0.289352 0.289352 0.289352 0.289352 0.289352 0.289352 0.289352 0.289352 0.289351 0.289352 0.289352 0.289352 0.144676 0.144676 0.289352 0.289352 0.289352 0.289352 0.289352 0.289352 0.289352 0.289352 0.289352 0.289352 0.289352 0.289352 0.289352 0.289352 0.289352 0.289352 0.289352 0.289352 0.289352 0.289352 0.289352 0.289352 0.289352 0.289352 0.289352 0.289352 0.289352 0.289352 0.289352 0.289352 0.289352 0.144676 0.289352 0.578704 0.578704 0.578704 0.578704 0.578704 0.578704 0.578704 0.578704 0.578704 0.578704 0.578704 0.578704 0.578704 0.578704 0.578704 0.578704 0.578704 0.578704 0.578703 0.578704 0.578704 0.578704 0.578704 0.578704 0.578704 0.578704 0.578704 0.578703 0.578703 0.578704 0.578704 0.289352 0.289352 0.578704 0.578704 0.578704 0.578704 0.578704 0.578704 0.578704 0.578704 0.578704 0.578704 0.578704 0.578704 0.578704 0.578704 0.578704 0.578704 0.578704 0.578704 0.578703 0.578704 0.578704 0.578704 0.578704 0.578704 0.578704 0.578704 0.578704 0.578703 0.578703 0.578704 0.578704 0.289352 0.289352 0.578704 0.578704 0.578704 0.578704 0.578704 0.578704 0.578704 0.578704 0.578704 0.578704 0.578704 0.578704 0.578704 0.578704 0.578704 0.578704 0.578704 0.578704 0.578703 0.578704 0.578704 0.578704 0.578704 0.578704 0.578704 0.578704 0.578704 0.578703 0.578703 0.578704 0.578704 0.289352 0.289352 0.578704 0.578704 0.578704 0.578704 0.578704 0.578704 0.578704 0.578704 0.578704 0.578704 0.578704 0.578704 0.578704 0.578704 0.578704 0.578704 0.578704 0.578704 0.578703 0.578704 0.578704 0.578704 0.578704 0.578704 0.578704 0.578704 0.578704 0.578703 0.578703 0.578704 0.578704 0.289352 0.289352 0.578704 0.578704 0.578704 0.578704 0.578704 0.578704 0.578704 0.578704 0.578704 0.578704 0.578704 0.578704 0.578704 0.578704 0.578704 0.578704 0.578704 0.578704 0.578703 0.578704 0.578704 0.578704 0.578704 0.578704 0.578703 0.578704 0.578704 0.578703 0.578703 0.578704 0.578704 0.289352 0.289352 0.578704 0.578704 0.578704 0.578704 0.578704 0.578704 0.578704 0.578704 0.578704 0.578704 0.578704 0.578704 0.578704 0.578704 0.578704 0.578704 0.578704 0.578704 0.578703 0.578704 0.578704 0.578704 0.578704 0.578704 0.578704 0.578704 0.578704 0.578703 0.578703 0.578704 0.578704 0.289352 0.289352 0.578704 0.578704 0.578704 0.578704 0.578704 0.578704 0.578704 0.578704 0.578704 0.578704 0.578704 0.578704 0.578704 0.578704 0.578704 0.578704 0.578704 0.578704 0.578703 0.578704 0.578704 0.578704 0.578704 0.578704 0.578704 0.578704 0.578704 0.578703 0.578703 0.578704 0.578704 0.289352 0.144676 0.289352 0.289352 0.289352 0.289352 0.289352 0.289352 0.289352 0.289352 0.289352 0.289352 0.289352 0.289352 0.289352 0.289352 0.289352 0.289352 0.289352 0.289352 0.289352 0.289352 0.289352 0.289352 0.289352 0.289352 0.289352 0.289352 0.289352 0.289351 0.289352 0.289352 0.289352 0.144676 0.144676 0.289352 0.289352 0.289352 0.289352 0.289352 0.289352 0.289352 0.289352 0.289352 0.289352 0.289352 0.289352 0.289352 0.289352 0.289352 0.289352 0.289352 0.289352 0.289352 0.289352 0.289352 0.289352 0.289352 0.289352 0.289352 0.289352 0.289352 0.289352 0.289352 0.289352 0.289352 0.144676 0.289352 0.578704 0.578704 0.578704 0.578704 0.578704 0.578704 0.578704 0.578704 0.578704 0.578704 0.578704 0.578704 0.578704 0.578704 0.578704 0.578704 0.578704 0.578704 0.578704 0.578704 0.578704 0.578704 0.578704 0.578704 0.578704 0.578704 0.578704 0.578703 0.578704 0.578704 0.578704 0.289352 0.289352 0.578704 0.578704 0.578704 0.578704 0.578704 0.578704 0.578704 0.578704 0.578704 0.578704 0.578704 0.578704 0.578704 0.578704 0.578704 0.578704 0.578704 0.578704 0.578704 0.578704 0.578704 0.578704 0.578704 0.578704 0.578704 0.578704 0.578704 0.578703 0.578703 0.578704 0.578704 0.289352 0.289352 0.578704 0.578704 0.578704 0.578704 0.578704 0.578704 0.578704 0.578704 0.578704 0.578704 0.578704 0.578704 0.578704 0.578704 0.578704 0.578704 0.578704 0.578704 0.578704 0.578704 0.578704 0.578704 0.578704 0.578704 0.578704 0.578704 0.578704 0.578703 0.578703 0.578704 0.578704 0.289352 0.289352 0.578704 0.578704 0.578704 0.578704 0.578704 0.578704 0.578704 0.578704 0.578704 0.578704 0.578704 0.578704 0.578704 0.578704 0.578704 0.578704 0.578704 0.578704 0.578704 0.578704 0.578704 0.578704 0.578704 0.578704 0.578704 0.578704 0.578704 0.578703 0.578703 0.578704 0.578704 0.289352 0.289352 0.578704 0.578704 0.578704 0.578704 0.578704 0.578704 0.578704 0.578704 0.578704 0.578704 0.578704 0.578704 0.578704 0.578704 0.578704 0.578704 0.578704 0.578704 0.578704 0.578704 0.578704 0.578704 0.578704 0.578704 0.578704 0.578704 0.578704 0.578703 0.578703 0.578704 0.578704 0.289352 0.289352 0.578704 0.578704 0.578704 0.578704 0.578704 0.578704 0.578704 0.578704 0.578704 0.578704 0.578704 0.578704 0.578704 0.578704 0.578704 0.578704 0.578704 0.578704 0.578704 0.578704 0.578704 0.578704 0.578704 0.578704 0.578704 0.578704 0.578704 0.578703 0.578703 0.578704 0.578704 0.289352 0.289352 0.578704 0.578704 0.578704 0.578704 0.578704 0.578704 0.578704 0.578704 0.578704 0.578704 0.578704 0.578704 0.578704 0.578704 0.578704 0.578704 0.578704 0.578704 0.578704 0.578704 0.578704 0.578704 0.578704 0.578704 0.578704 0.578704 0.578704 0.578703 0.578703 0.578704 0.578704 0.289352 0.144676 0.289352 0.289352 0.289352 0.289352 0.289352 0.289352 0.289352 0.289352 0.289352 0.289352 0.289352 0.289352 0.289352 0.289352 0.289352 0.289352 0.289352 0.289352 0.289352 0.289352 0.289352 0.289352 0.289352 0.289352 0.289352 0.289352 0.289352 0.289352 0.289352 0.289352 0.289352 0.144676 0.144676 0.289352 0.289352 0.289352 0.289352 0.289352 0.289352 0.289352 0.289352 0.289352 0.289352 0.289352 0.289352 0.289352 0.289352 0.289352 0.289352 0.289352 0.289352 0.289352 0.289352 0.289352 0.289352 0.289352 0.289352 0.289352 0.289352 0.289352 0.289351 0.289352 0.289352 0.289352 0.144676 0.289352 0.578704 0.578704 0.578704 0.578704 0.578704 0.578704 0.578704 0.578704 0.578704 0.578703 0.578704 0.578704 0.578704 0.578704 0.578704 0.578704 0.578704 0.578703 0.578703 0.578703 0.578704 0.578703 0.578704 0.578704 0.578703 0.578704 0.578704 0.578703 0.578703 0.578703 0.578704 0.289352 0.289352 0.578704 0.578704 0.578704 0.578704 0.578704 0.578704 0.578704 0.578704 0.578704 0.578704 0.578704 0.578704 0.578704 0.578704 0.578704 0.578704 0.578703 0.578703 0.578703 0.578703 0.578704 0.578704 0.578704 0.578704 0.578703 0.578704 0.578704 0.578703 0.578703 0.578703 0.578704 0.289352 0.289352 0.578704 0.578704 0.578704 0.578704 0.578704 0.578704 0.578704 0.578704 0.578704 0.578703 0.578704 0.578704 0.578704 0.578704 0.578704 0.578704 0.578703 0.578703 0.578703 0.578703 0.578704 0.578703 0.578704 0.578703 0.578703 0.578704 0.578704 0.578703 0.578703 0.578703 0.578704 0.289352 0.289352 0.578704 0.578704 0.578704 0.578704 0.578704 0.578704 0.578704 0.578704 0.578703 0.578703 0.578703 0.578704 0.578704 0.578703 0.578703 0.578704 0.578703 0.578703 0.578703 0.578703 0.578704 0.578703 0.578703 0.578703 0.578703 0.578704 0.578704 0.578703 0.578703 0.578703 0.578704 0.289352 0.289352 0.578704 0.578704 0.578704 0.578704 0.578704 0.578704 0.578704 0.578704 0.578704 0.578703 0.578704 0.578704 0.578704 0.578704 0.578703 0.578704 0.578703 0.578703 0.578703 0.578703 0.578704 0.578704 0.578704 0.578703 0.578703 0.578704 0.578704 0.578703 0.578703 0.578703 0.578704 0.289352 0.289352 0.578704 0.578704 0.578704 0.578704 0.578704 0.578704 0.578704 0.578704 0.578704 0.578704 0.578704 0.578704 0.578704 0.578704 0.578704 0.578704 0.578704 0.578703 0.578703 0.578704 0.578704 0.578704 0.578704 0.578704 0.578703 0.578704 0.578704 0.578703 0.578703 0.578703 0.578704 0.289352 0.289352 0.578704 0.578704 0.578704 0.578704 0.578704 0.578704 0.578704 0.578704 0.578704 0.578703 0.578704 0.578704 0.578704 0.578704 0.578704 0.578704 0.578704 0.578703 0.578703 0.578703 0.578704 0.578703 0.578704 0.578703 0.578703 0.578704 0.578704 0.578703 0.578703 0.578703 0.578704 0.289352 0.144676 0.289352 0.289352 0.289352 0.289352 0.289352 0.289352 0.289352 0.289352 0.289352 0.289352 0.289352 0.289352 0.289352 0.289352 0.289352 0.289352 0.289352 0.289352 0.289352 0.289352 0.289352 0.289352 0.289352 0.289352 0.289352 0.289352 0.289352 0.289351 0.289352 0.289352 0.289352 0.144676 0.144676 0.289352 0.289352 0.289352 0.289352 0.289352 0.289352 0.289352 0.289352 0.289352 0.289352 0.289352 0.289352 0.289352 0.289352 0.289352 0.289352 0.289352 0.289352 0.289352 0.289352 0.289352 0.289352 0.289352 0.289352 0.289352 0.289352 0.289352 0.289352 0.289352 0.289352 0.289352 0.144676 0.289352 0.578704 0.578704 0.578704 0.578704 0.578704 0.578704 0.578704 0.578704 0.578704 0.578704 0.578704 0.578704 0.578704 0.578704 0.578704 0.578704 0.578704 0.578704 0.578703 0.578704 0.578704 0.578704 0.578704 0.578704 0.578704 0.578704 0.578704 0.578703 0.578703 0.578704 0.578704 0.289352 0.289352 0.578704 0.578704 0.578704 0.578704 0.578704 0.578704 0.578704 0.578704 0.578704 0.578704 0.578704 0.578704 0.578704 0.578704 0.578704 0.578704 0.578704 0.578704 0.578703 0.578704 0.578704 0.578704 0.578704 0.578704 0.578703 0.578704 0.578704 0.578703 0.578703 0.578704 0.578704 0.289352 0.289352 0.578704 0.578704 0.578704 0.578704 0.578704 0.578704 0.578704 0.578704 0.578704 0.578704 0.578704 0.578704 0.578704 0.578704 0.578704 0.578704 0.578704 0.578704 0.578703 0.578704 0.578704 0.578704 0.578704 0.578704 0.578703 0.578704 0.578704 0.578703 0.578703 0.578704 0.578704 0.289352 0.289352 0.578704 0.578704 0.578704 0.578704 0.578704 0.578704 0.578704 0.578704 0.578704 0.578704 0.578704 0.578704 0.578704 0.578704 0.578704 0.578704 0.578704 0.578703 0.578703 0.578704 0.578704 0.578704 0.578704 0.578704 0.578703 0.578704 0.578704 0.578703 0.578703 0.578704 0.578704 0.289352 0.289352 0.578704 0.578704 0.578704 0.578704 0.578704 0.578704 0.578704 0.578704 0.578704 0.578704 0.578704 0.578704 0.578704 0.578704 0.578704 0.578704 0.578704 0.578703 0.578703 0.578704 0.578704 0.578704 0.578704 0.578704 0.578704 0.578704 0.578704 0.578703 0.578703 0.578704 0.578704 0.289352 0.289352 0.578704 0.578704 0.578704 0.578704 0.578704 0.578704 0.578704 0.578704 0.578704 0.578704 0.578704 0.578704 0.578704 0.578704 0.578704 0.578704 0.578704 0.578704 0.578703 0.578704 0.578704 0.578704 0.578704 0.578704 0.578704 0.578704 0.578704 0.578703 0.578703 0.578704 0.578704 0.289352 0.289352 0.578704 0.578704 0.578704 0.578704 0.578704 0.578704 0.578704 0.578704 0.578704 0.578704 0.578704 0.578704 0.578704 0.578704 0.578704 0.578704 0.578704 0.578703 0.578703 0.578704 0.578704 0.578704 0.578704 0.578704 0.578703 0.578704 0.578704 0.578703 0.578703 0.578704 0.578704 0.289352 0.144676 0.289352 0.289352 0.289352 0.289352 0.289352 0.289352 0.289352 0.289352 0.289352 0.289352 0.289352 0.289352 0.289352 0.289352 0.289352 0.289352 0.289352 0.289352 0.289352 0.289352 0.289352 0.289352 0.289352 0.289352 0.289352 0.289352 0.289352 0.289351 0.289352 0.289352 0.289352 0.144676 0.072338 0.144676 0.144676 0.144676 0.144676 0.144676 0.144676 0.144676 0.144676 0.144676 0.144676 0.144676 0.144676 0.144676 0.144676 0.144676 0.144676 0.144676 0.144676 0.144676 0.144676 0.144676 0.144676 0.144676 0.144676 0.144676 0.144676 0.144676 0.144676 0.144676 0.144676 0.144676 0.072338 0.144676 0.289352 0.289352 0.289352 0.289352 0.289352 0.289352 0.289352 0.289352 0.289352 0.289352 0.289352 0.289352 0.289352 0.289352 0.289352 0.289352 0.289352 0.289352 0.289352 0.289352 0.289352 0.289352 0.289352 0.289352 0.289352 0.289352 0.289352 0.289351 0.289352 0.289352 0.289352 0.144676 0.144676 0.289352 0.289352 0.289352 0.289352 0.289352 0.289352 0.289352 0.289352 0.289352 0.289352 0.289352 0.289352 0.289352 0.289352 0.289352 0.289352 0.289352 0.289352 0.289352 0.289352 0.289352 0.289352 0.289352 0.289352 0.289352 0.289352 0.289352 0.289351 0.289352 0.289352 0.289352 0.144676 0.144676 0.289352 0.289352 0.289352 0.289352 0.289352 0.289352 0.289352 0.289352 0.289352 0.289352 0.289352 0.289352 0.289352 0.289352 0.289352 0.289352 0.289352 0.289352 0.289352 0.289352 0.289352 0.289352 0.289352 0.289352 0.289352 0.289352 0.289352 0.289351 0.289352 0.289352 0.289352 0.144676 0.144676 0.289352 0.289352 0.289352 0.289352 0.289352 0.289352 0.289352 0.289352 0.289352 0.289352 0.289352 0.289352 0.289352 0.289352 0.289352 0.289352 0.289352 0.289352 0.289352 0.289352 0.289352 0.289352 0.289352 0.289352 0.289352 0.289352 0.289352 0.289351 0.289352 0.289352 0.289352 0.144676 0.144676 0.289352 0.289352 0.289352 0.289352 0.289352 0.289352 0.289352 0.289352 0.289352 0.289352 0.289352 0.289352 0.289352 0.289352 0.289352 0.289352 0.289352 0.289352 0.289352 0.289352 0.289352 0.289352 0.289352 0.289352 0.289352 0.289352 0.289352 0.289351 0.289352 0.289352 0.289352 0.144676 0.144676 0.289352 0.289352 0.289352 0.289352 0.289352 0.289352 0.289352 0.289352 0.289352 0.289352 0.289352 0.289352 0.289352 0.289352 0.289352 0.289352 0.289352 0.289352 0.289352 0.289352 0.289352 0.289352 0.289352 0.289352 0.289352 0.289352 0.289352 0.289352 0.289352 0.289352 0.289352 0.144676 0.144676 0.289352 0.289352 0.289352 0.289352 0.289352 0.289352 0.289352 0.289352 0.289352 0.289352 0.289352 0.289352 0.289352 0.289352 0.289352 0.289352 0.289352 0.289352 0.289352 0.289352 0.289352 0.289352 0.289352 0.289352 0.289352 0.289352 0.289352 0.289351 0.289352 0.289352 0.289352 0.144676 0.0723379 0.144676 0.144676 0.144676 0.144676 0.144676 0.144676 0.144676 0.144676 0.144676 0.144676 0.144676 0.144676 0.144676 0.144676 0.144676 0.144676 0.144676 0.144676 0.144676 0.144676 0.144676 0.144676 0.144676 0.144676 0.144676 0.144676 0.144676 0.144676 0.144676 0.144676 0.144676 0.072338 0.072338 0.144676 0.144676 0.072338 0.072338 0.144676 0.289352 0.144676 0.144676 0.289352 0.289352 0.144676 0.072338 0.072338 0.144676 0.144676 0.072338 0.144676 0.072338 0.072338 0.144676 0.144676 0.144676 0.289352 0.144676 0.289352 0.289352 0.072338 0.072338 0.144676 0.144676 0.144676 0.072338 0.072338 0.144676 0.144676 0.144676 0.289352 0.144676 0.289352 0.289352 0.072338 0.072338 0.144676 0.144676 0.144676 0.072338 0.072338 0.144676 0.144676 0.144676 0.289352 0.144676 0.289352 0.289352 0.072338 0.072338 0.144676 0.144676 0.144676 0.072338 0.072338 0.144676 0.144676 0.144676 0.289352 0.144676 0.289352 0.289352 0.072338 0.072338 0.144676 0.144676 0.144676 0.072338 0.072338 0.144676 0.144676 0.144676 0.289352 0.144676 0.289352 0.289352 0.072338 0.072338 0.144676 0.144676 0.144676 0.072338 0.072338 0.144676 0.144676 0.144676 0.289352 0.144676 0.289352 0.289352 0.072338 0.072338 0.144676 0.144676 0.144676 0.072338 0.072338 0.144676 0.144676 0.144676 0.289352 0.144676 0.289352 0.289352 0.072338 0.072338 0.144676 0.144676 0.144676 0.072338 0.072338 0.144676 0.144676 0.144676 0.289352 0.144676 0.289352 0.289352 0.072338 0.072338 0.144676 0.144676 0.144676 0.072338 0.072338 0.144676 0.144676 0.144676 0.289352 0.144676 0.289352 0.289352 0.072338 0.072338 0.144676 0.144676 0.144676 0.072338 0.072338 0.144676 0.144676 0.144676 0.289352 0.144676 0.289352 0.289352 0.072338 0.072338 0.144676 0.144676 0.144676 0.072338 0.072338 0.144676 0.144676 0.144676 0.289352 0.144676 0.289352 0.289352 0.072338 0.072338 0.144676 0.144676 0.144676 0.072338 0.072338 0.144676 0.144676 0.144676 0.289352 0.144676 0.289352 0.289352 0.072338 0.072338 0.144676 0.144676 0.144676 0.072338 0.072338 0.144676 0.144676 0.144676 0.289352 0.144676 0.289352 0.289352 0.072338 0.072338 0.144676 0.144676 0.144676 0.072338 0.072338 0.144676 0.144676 0.144676 0.289352 0.144676 0.289352 0.289352 0.072338 0.072338 0.144676 0.144676 0.144676 0.072338 0.072338 0.144676 0.144676 0.144676 0.289352 0.144676 0.289352 0.289352 0.072338 0.072338 0.144676 0.144676 0.144676 0.072338 0.072338 0.144676 0.144676 0.144676 0.289352 0.144676 0.289352 0.289352 0.072338 0.072338 0.144676 0.144676 0.144676 0.072338 0.072338 0.144676 0.144676 0.144676 0.289352 0.144676 0.289352 0.289352 0.072338 0.072338 0.144676 0.144676 0.144676 0.072338 0.072338 0.144676 0.144676 0.144676 0.289352 0.144676 0.289352 0.289352 0.072338 0.072338 0.144676 0.144676 0.144676 0.072338 0.0723379 0.144676 0.144676 0.144676 0.289352 0.144676 0.289352 0.289352 0.0723379 0.0723379 0.144676 0.144676 0.144676 0.0723379 0.072338 0.144676 0.144676 0.144676 0.289352 0.144676 0.289352 0.289352 0.072338 0.072338 0.144676 0.144676 0.144676 0.072338 0.072338 0.144676 0.144676 0.144676 0.289352 0.144676 0.289352 0.289352 0.072338 0.072338 0.144676 0.144676 0.144676 0.072338 0.072338 0.144676 0.144676 0.144676 0.289352 0.144676 0.289352 0.289352 0.072338 0.072338 0.144676 0.144676 0.144676 0.072338 0.072338 0.144676 0.144676 0.144676 0.289352 0.144676 0.289352 0.289352 0.072338 0.072338 0.144676 0.144676 0.144676 0.072338 0.0723379 0.144676 0.144676 0.144676 0.289352 0.144676 0.289352 0.289352 0.0723379 0.0723379 0.144676 0.144676 0.144676 0.0723379 0.072338 0.144676 0.144676 0.144676 0.289352 0.144676 0.289352 0.289352 0.072338 0.072338 0.144676 0.144676 0.144676 0.072338 0.0723381 0.144676 0.144676 0.144676 0.289352 0.144676 0.289352 0.289352 0.0723381 0.0723381 0.144676 0.144676 0.144676 0.0723381 0.0723379 0.144676 0.144676 0.144676 0.289352 0.144676 0.289352 0.289352 0.0723379 0.0723379 0.144676 0.144676 0.144676 0.0723379 0.0723379 0.144676 0.144676 0.144676 0.289352 0.144676 0.289352 0.289351 0.0723379 0.0723379 0.144676 0.144676 0.144676 0.0723379 0.072338 0.144676 0.144676 0.144676 0.289352 0.144676 0.289352 0.289352 0.072338 0.072338 0.144676 0.144676 0.144676 0.072338 0.0723379 0.144676 0.144676 0.144676 0.289352 0.144676 0.289352 0.289352 0.0723379 0.0723379 0.144676 0.144676 0.144676 0.0723379 0.072338 0.072338 0.144676 0.072338 0.144676 0.144676 0.144676 0.289352 0.072338 0.072338 0.072338 0.144676 0.144676 0.072338 0.072338 0.144676 0.289352 0.144676 0.144676 0.289352 0.289352 0.144676 0.072338 0.144676 0.144676 0.072338 0.144676 0.072338 0.144676 0.289352 0.144676 0.289352 0.289352 0.072338 0.144676 0.144676 0.144676 0.072338 0.144676 0.289352 0.144676 0.289352 0.289352 0.072338 0.144676 0.144676 0.144676 0.072338 0.144676 0.289352 0.144676 0.289352 0.289352 0.072338 0.144676 0.144676 0.144676 0.072338 0.144676 0.289352 0.144676 0.289352 0.289352 0.072338 0.144676 0.144676 0.144676 0.072338 0.144676 0.289352 0.144676 0.289352 0.289352 0.072338 0.144676 0.144676 0.144676 0.072338 0.144676 0.289352 0.144676 0.289352 0.289352 0.072338 0.144676 0.144676 0.144676 0.072338 0.144676 0.289352 0.144676 0.289352 0.289352 0.072338 0.144676 0.144676 0.144676 0.072338 0.144676 0.289352 0.144676 0.289352 0.289352 0.072338 0.144676 0.144676 0.144676 0.072338 0.144676 0.289352 0.144676 0.289352 0.289352 0.072338 0.144676 0.144676 0.144676 0.072338 0.144676 0.289352 0.144676 0.289352 0.289352 0.072338 0.144676 0.144676 0.144676 0.072338 0.144676 0.289352 0.144676 0.289352 0.289352 0.072338 0.144676 0.144676 0.144676 0.072338 0.144676 0.289352 0.144676 0.289352 0.289352 0.072338 0.144676 0.144676 0.144676 0.072338 0.144676 0.289352 0.144676 0.289352 0.289352 0.072338 0.144676 0.144676 0.144676 0.072338 0.144676 0.289352 0.144676 0.289352 0.289352 0.072338 0.144676 0.144676 0.144676 0.072338 0.144676 0.289352 0.144676 0.289352 0.289352 0.072338 0.144676 0.144676 0.144676 0.072338 0.144676 0.289352 0.144676 0.289352 0.289352 0.072338 0.144676 0.144676 0.144676 0.072338 0.144676 0.289352 0.144676 0.289352 0.289352 0.072338 0.144676 0.144676 0.144676 0.072338 0.144676 0.289352 0.144676 0.289352 0.289352 0.072338 0.144676 0.144676 0.144676 0.072338 0.144676 0.289352 0.144676 0.289352 0.289352 0.0723379 0.144676 0.144676 0.144676 0.0723379 0.144676 0.289352 0.144676 0.289352 0.289352 0.072338 0.144676 0.144676 0.144676 0.072338 0.144676 0.289352 0.144676 0.289352 0.289352 0.072338 0.144676 0.144676 0.144676 0.072338 0.144676 0.289352 0.144676 0.289352 0.289352 0.072338 0.144676 0.144676 0.144676 0.072338 0.144676 0.289352 0.144676 0.289352 0.289352 0.072338 0.144676 0.144676 0.144676 0.072338 0.144676 0.289352 0.144676 0.289352 0.289352 0.0723379 0.144676 0.144676 0.144676 0.0723379 0.144676 0.289352 0.144676 0.289352 0.289352 0.072338 0.144676 0.144676 0.144676 0.072338 0.144676 0.289352 0.144676 0.289352 0.289352 0.0723381 0.144676 0.144676 0.144676 0.0723381 0.144676 0.289352 0.144676 0.289352 0.289352 0.0723379 0.144676 0.144676 0.144676 0.0723379 0.144676 0.289352 0.144676 0.289352 0.289351 0.0723379 0.144676 0.144676 0.144676 0.0723379 0.144676 0.289352 0.144676 0.289352 0.289352 0.072338 0.144676 0.144676 0.144676 0.072338 0.144676 0.289352 0.144676 0.289352 0.289352 0.0723379 0.144676 0.144676 0.144676 0.0723379 0.072338 0.144676 0.144676 0.144676 0.289352 0.072338 0.072338 0.144676 0.144676 0.072338 0.072338 0.144676 0.289352 0.144676 0.144676 0.289352 0.289352 0.144676 0.072338 0.144676 0.144676 0.072338 0.144676 0.072338 0.144676 0.289352 0.144676 0.289352 0.289352 0.072338 0.144676 0.144676 0.144676 0.072338 0.144676 0.289352 0.144676 0.289352 0.289352 0.072338 0.144676 0.144676 0.144676 0.072338 0.144676 0.289352 0.144676 0.289352 0.289352 0.072338 0.144676 0.144676 0.144676 0.072338 0.144676 0.289352 0.144676 0.289352 0.289352 0.072338 0.144676 0.144676 0.144676 0.072338 0.144676 0.289352 0.144676 0.289352 0.289352 0.072338 0.144676 0.144676 0.144676 0.072338 0.144676 0.289352 0.144676 0.289352 0.289352 0.072338 0.144676 0.144676 0.144676 0.072338 0.144676 0.289352 0.144676 0.289352 0.289352 0.072338 0.144676 0.144676 0.144676 0.072338 0.144676 0.289352 0.144676 0.289352 0.289352 0.072338 0.144676 0.144676 0.144676 0.072338 0.144676 0.289352 0.144676 0.289352 0.289352 0.072338 0.144676 0.144676 0.144676 0.072338 0.144676 0.289352 0.144676 0.289352 0.289352 0.072338 0.144676 0.144676 0.144676 0.072338 0.144676 0.289352 0.144676 0.289352 0.289352 0.072338 0.144676 0.144676 0.144676 0.072338 0.144676 0.289352 0.144676 0.289352 0.289352 0.072338 0.144676 0.144676 0.144676 0.072338 0.144676 0.289352 0.144676 0.289352 0.289352 0.072338 0.144676 0.144676 0.144676 0.072338 0.144676 0.289352 0.144676 0.289352 0.289352 0.072338 0.144676 0.144676 0.144676 0.072338 0.144676 0.289352 0.144676 0.289352 0.289352 0.072338 0.144676 0.144676 0.144676 0.072338 0.144676 0.289352 0.144676 0.289352 0.289352 0.072338 0.144676 0.144676 0.144676 0.072338 0.144676 0.289352 0.144676 0.289352 0.289352 0.072338 0.144676 0.144676 0.144676 0.072338 0.144676 0.289352 0.144676 0.289352 0.289352 0.072338 0.144676 0.144676 0.144676 0.072338 0.144676 0.289352 0.144676 0.289352 0.289352 0.0723379 0.144676 0.144676 0.144676 0.0723379 0.144676 0.289352 0.144676 0.289352 0.289352 0.072338 0.144676 0.144676 0.144676 0.072338 0.144676 0.289352 0.144676 0.289352 0.289352 0.072338 0.144676 0.144676 0.144676 0.072338 0.144676 0.289352 0.144676 0.289352 0.289352 0.072338 0.144676 0.144676 0.144676 0.072338 0.144676 0.289352 0.144676 0.289352 0.289352 0.072338 0.144676 0.144676 0.144676 0.072338 0.144676 0.289352 0.144676 0.289352 0.289352 0.0723379 0.144676 0.144676 0.144676 0.0723379 0.144676 0.289352 0.144676 0.289352 0.289352 0.072338 0.144676 0.144676 0.144676 0.072338 0.144676 0.289352 0.144676 0.289352 0.289352 0.0723381 0.144676 0.144676 0.144676 0.0723381 0.144676 0.289352 0.144676 0.289352 0.289352 0.0723379 0.144676 0.144676 0.144676 0.0723379 0.144676 0.289352 0.144676 0.289352 0.289351 0.0723379 0.144676 0.144676 0.144676 0.0723379 0.144676 0.289352 0.144676 0.289352 0.289352 0.072338 0.144676 0.144676 0.144676 0.072338 0.144676 0.289352 0.144676 0.289352 0.289352 0.0723379 0.144676 0.144676 0.144676 0.0723379 0.072338 0.144676 0.144676 0.144676 0.289352 0.072338 0.072338 0.144676 0.144676 0.072338 0.072338 0.144676 0.289352 0.144676 0.144676 0.289352 0.289352 0.144676 0.072338 0.144676 0.144676 0.072338 0.144676 0.072338 0.144676 0.289352 0.144676 0.289352 0.289352 0.072338 0.144676 0.144676 0.144676 0.072338 0.144676 0.289352 0.144676 0.289352 0.289352 0.072338 0.144676 0.144676 0.144676 0.072338 0.144676 0.289352 0.144676 0.289352 0.289352 0.072338 0.144676 0.144676 0.144676 0.072338 0.144676 0.289352 0.144676 0.289352 0.289352 0.072338 0.144676 0.144676 0.144676 0.072338 0.144676 0.289352 0.144676 0.289352 0.289352 0.072338 0.144676 0.144676 0.144676 0.072338 0.144676 0.289352 0.144676 0.289352 0.289352 0.072338 0.144676 0.144676 0.144676 0.072338 0.144676 0.289352 0.144676 0.289352 0.289352 0.072338 0.144676 0.144676 0.144676 0.072338 0.144676 0.289352 0.144676 0.289352 0.289352 0.072338 0.144676 0.144676 0.144676 0.072338 0.144676 0.289352 0.144676 0.289352 0.289352 0.072338 0.144676 0.144676 0.144676 0.072338 0.144676 0.289352 0.144676 0.289352 0.289352 0.072338 0.144676 0.144676 0.144676 0.072338 0.144676 0.289352 0.144676 0.289352 0.289352 0.072338 0.144676 0.144676 0.144676 0.072338 0.144676 0.289352 0.144676 0.289352 0.289352 0.072338 0.144676 0.144676 0.144676 0.072338 0.144676 0.289352 0.144676 0.289352 0.289352 0.072338 0.144676 0.144676 0.144676 0.072338 0.144676 0.289352 0.144676 0.289352 0.289352 0.0723379 0.144676 0.144676 0.144676 0.0723379 0.144676 0.289352 0.144676 0.289352 0.289352 0.072338 0.144676 0.144676 0.144676 0.072338 0.144676 0.289352 0.144676 0.289352 0.289352 0.072338 0.144676 0.144676 0.144676 0.072338 0.144676 0.289352 0.144676 0.289352 0.289352 0.072338 0.144676 0.144676 0.144676 0.072338 0.144676 0.289352 0.144676 0.289352 0.289352 0.0723379 0.144676 0.144676 0.144676 0.0723379 0.144676 0.289352 0.144676 0.289352 0.289352 0.0723379 0.144676 0.144676 0.144676 0.0723379 0.144676 0.289352 0.144676 0.289352 0.289352 0.072338 0.144676 0.144676 0.144676 0.072338 0.144676 0.289352 0.144676 0.289352 0.289352 0.072338 0.144676 0.144676 0.144676 0.072338 0.144676 0.289352 0.144676 0.289352 0.289352 0.0723379 0.144676 0.144676 0.144676 0.0723379 0.144676 0.289352 0.144676 0.289352 0.289352 0.072338 0.144676 0.144676 0.144676 0.072338 0.144676 0.289352 0.144676 0.289352 0.289352 0.0723379 0.144676 0.144676 0.144676 0.0723379 0.144676 0.289352 0.144676 0.289352 0.289352 0.072338 0.144676 0.144676 0.144676 0.072338 0.144676 0.289352 0.144676 0.289352 0.289352 0.0723381 0.144676 0.144676 0.144676 0.0723381 0.144676 0.289352 0.144676 0.289352 0.289352 0.0723379 0.144676 0.144676 0.144676 0.0723379 0.144676 0.289352 0.144676 0.289352 0.289351 0.0723379 0.144676 0.144676 0.144676 0.0723379 0.144676 0.289352 0.144676 0.289352 0.289352 0.072338 0.144676 0.144676 0.144676 0.072338 0.144676 0.289352 0.144676 0.289352 0.289352 0.0723379 0.144676 0.144676 0.144676 0.0723379 0.072338 0.144676 0.144676 0.144676 0.289352 0.072338 0.072338 0.144676 0.144676 0.072338 0.072338 0.144676 0.289352 0.144676 0.144676 0.289352 0.289352 0.144676 0.072338 0.144676 0.144676 0.072338 0.144676 0.072338 0.144676 0.289352 0.144676 0.289352 0.289352 0.072338 0.144676 0.144676 0.144676 0.072338 0.144676 0.289352 0.144676 0.289352 0.289352 0.072338 0.144676 0.144676 0.144676 0.072338 0.144676 0.289352 0.144676 0.289352 0.289352 0.072338 0.144676 0.144676 0.144676 0.072338 0.144676 0.289352 0.144676 0.289352 0.289352 0.072338 0.144676 0.144676 0.144676 0.072338 0.144676 0.289352 0.144676 0.289352 0.289352 0.072338 0.144676 0.144676 0.144676 0.072338 0.144676 0.289352 0.144676 0.289352 0.289352 0.072338 0.144676 0.144676 0.144676 0.072338 0.144676 0.289352 0.144676 0.289352 0.289352 0.072338 0.144676 0.144676 0.144676 0.072338 0.144676 0.289352 0.144676 0.289352 0.289352 0.072338 0.144676 0.144676 0.144676 0.072338 0.144676 0.289352 0.144676 0.289352 0.289352 0.072338 0.144676 0.144676 0.144676 0.072338 0.144676 0.289352 0.144676 0.289352 0.289352 0.072338 0.144676 0.144676 0.144676 0.072338 0.144676 0.289352 0.144676 0.289352 0.289352 0.072338 0.144676 0.144676 0.144676 0.072338 0.144676 0.289352 0.144676 0.289352 0.289352 0.072338 0.144676 0.144676 0.144676 0.072338 0.144676 0.289352 0.144676 0.289352 0.289352 0.072338 0.144676 0.144676 0.144676 0.072338 0.144676 0.289352 0.144676 0.289352 0.289352 0.0723379 0.144676 0.144676 0.144676 0.0723379 0.144676 0.289352 0.144676 0.289352 0.289352 0.072338 0.144676 0.144676 0.144676 0.072338 0.144676 0.289352 0.144676 0.289352 0.289352 0.072338 0.144676 0.144676 0.144676 0.072338 0.144676 0.289352 0.144676 0.289352 0.289352 0.072338 0.144676 0.144676 0.144676 0.072338 0.144676 0.289352 0.144676 0.289352 0.289352 0.072338 0.144676 0.144676 0.144676 0.072338 0.144676 0.289352 0.144676 0.289352 0.289352 0.0723379 0.144676 0.144676 0.144676 0.0723379 0.144676 0.289352 0.144676 0.289352 0.289352 0.072338 0.144676 0.144676 0.144676 0.072338 0.144676 0.289352 0.144676 0.289352 0.289352 0.072338 0.144676 0.144676 0.144676 0.072338 0.144676 0.289352 0.144676 0.289352 0.289352 0.0723379 0.144676 0.144676 0.144676 0.0723379 0.144676 0.289352 0.144676 0.289352 0.289352 0.072338 0.144676 0.144676 0.144676 0.072338 0.144676 0.289352 0.144676 0.289352 0.289352 0.0723379 0.144676 0.144676 0.144676 0.0723379 0.144676 0.289352 0.144676 0.289352 0.289352 0.072338 0.144676 0.144676 0.144676 0.072338 0.144676 0.289352 0.144676 0.289352 0.289352 0.0723381 0.144676 0.144676 0.144676 0.0723381 0.144676 0.289352 0.144676 0.289352 0.289352 0.0723379 0.144676 0.144676 0.144676 0.0723379 0.144676 0.289352 0.144676 0.289352 0.289351 0.0723379 0.144676 0.144676 0.144676 0.0723379 0.144676 0.289352 0.144676 0.289352 0.289352 0.072338 0.144676 0.144676 0.144676 0.072338 0.144676 0.289352 0.144676 0.289352 0.289352 0.0723379 0.144676 0.144676 0.144676 0.0723379 0.072338 0.144676 0.144676 0.144676 0.289352 0.072338 0.072338 0.144676 0.144676 0.072338 0.072338 0.144676 0.289352 0.144676 0.144676 0.289352 0.289352 0.144676 0.072338 0.144676 0.144676 0.072338 0.144676 0.072338 0.144676 0.289352 0.144676 0.289352 0.289352 0.072338 0.144676 0.144676 0.144676 0.072338 0.144676 0.289352 0.144676 0.289352 0.289352 0.072338 0.144676 0.144676 0.144676 0.072338 0.144676 0.289352 0.144676 0.289352 0.289352 0.072338 0.144676 0.144676 0.144676 0.072338 0.144676 0.289352 0.144676 0.289352 0.289352 0.072338 0.144676 0.144676 0.144676 0.072338 0.144676 0.289352 0.144676 0.289352 0.289352 0.072338 0.144676 0.144676 0.144676 0.072338 0.144676 0.289352 0.144676 0.289352 0.289352 0.072338 0.144676 0.144676 0.144676 0.072338 0.144676 0.289352 0.144676 0.289352 0.289352 0.072338 0.144676 0.144676 0.144676 0.072338 0.144676 0.289352 0.144676 0.289352 0.289352 0.072338 0.144676 0.144676 0.144676 0.072338 0.144676 0.289352 0.144676 0.289352 0.289352 0.072338 0.144676 0.144676 0.144676 0.072338 0.144676 0.289352 0.144676 0.289352 0.289352 0.072338 0.144676 0.144676 0.144676 0.072338 0.144676 0.289352 0.144676 0.289352 0.289352 0.072338 0.144676 0.144676 0.144676 0.072338 0.144676 0.289352 0.144676 0.289352 0.289352 0.072338 0.144676 0.144676 0.144676 0.072338 0.144676 0.289352 0.144676 0.289352 0.289352 0.072338 0.144676 0.144676 0.144676 0.072338 0.144676 0.289352 0.144676 0.289352 0.289352 0.072338 0.144676 0.144676 0.144676 0.072338 0.144676 0.289352 0.144676 0.289352 0.289352 0.072338 0.144676 0.144676 0.144676 0.072338 0.144676 0.289352 0.144676 0.289352 0.289352 0.072338 0.144676 0.144676 0.144676 0.072338 0.144676 0.289352 0.144676 0.289352 0.289352 0.072338 0.144676 0.144676 0.144676 0.072338 0.144676 0.289352 0.144676 0.289352 0.289352 0.072338 0.144676 0.144676 0.144676 0.072338 0.144676 0.289352 0.144676 0.289352 0.289352 0.0723379 0.144676 0.144676 0.144676 0.0723379 0.144676 0.289352 0.144676 0.289352 0.289352 0.072338 0.144676 0.144676 0.144676 0.072338 0.144676 0.289352 0.144676 0.289352 0.289352 0.072338 0.144676 0.144676 0.144676 0.072338 0.144676 0.289352 0.144676 0.289352 0.289352 0.072338 0.144676 0.144676 0.144676 0.072338 0.144676 0.289352 0.144676 0.289352 0.289352 0.072338 0.144676 0.144676 0.144676 0.072338 0.144676 0.289352 0.144676 0.289352 0.289352 0.0723379 0.144676 0.144676 0.144676 0.0723379 0.144676 0.289352 0.144676 0.289352 0.289352 0.072338 0.144676 0.144676 0.144676 0.072338 0.144676 0.289352 0.144676 0.289352 0.289352 0.0723381 0.144676 0.144676 0.144676 0.0723381 0.144676 0.289352 0.144676 0.289352 0.289352 0.0723379 0.144676 0.144676 0.144676 0.0723379 0.144676 0.289352 0.144676 0.289352 0.289351 0.0723379 0.144676 0.144676 0.144676 0.0723379 0.144676 0.289352 0.144676 0.289352 0.289352 0.072338 0.144676 0.144676 0.144676 0.072338 0.144676 0.289352 0.144676 0.289352 0.289352 0.072338 0.144676 0.144676 0.144676 0.072338 0.072338 0.144676 0.144676 0.144676 0.289352 0.072338 0.072338 0.144676 0.144676 0.072338 0.072338 0.144676 0.289352 0.144676 0.144676 0.289352 0.289352 0.144676 0.072338 0.144676 0.144676 0.072338 0.144676 0.072338 0.144676 0.289352 0.144676 0.289352 0.289352 0.072338 0.144676 0.144676 0.144676 0.072338 0.144676 0.289352 0.144676 0.289352 0.289352 0.072338 0.144676 0.144676 0.144676 0.072338 0.144676 0.289352 0.144676 0.289352 0.289352 0.072338 0.144676 0.144676 0.144676 0.072338 0.144676 0.289352 0.144676 0.289352 0.289352 0.072338 0.144676 0.144676 0.144676 0.072338 0.144676 0.289352 0.144676 0.289352 0.289352 0.072338 0.144676 0.144676 0.144676 0.072338 0.144676 0.289352 0.144676 0.289352 0.289352 0.072338 0.144676 0.144676 0.144676 0.072338 0.144676 0.289352 0.144676 0.289352 0.289352 0.072338 0.144676 0.144676 0.144676 0.072338 0.144676 0.289352 0.144676 0.289352 0.289352 0.072338 0.144676 0.144676 0.144676 0.072338 0.144676 0.289352 0.144676 0.289352 0.289352 0.072338 0.144676 0.144676 0.144676 0.072338 0.144676 0.289352 0.144676 0.289352 0.289352 0.072338 0.144676 0.144676 0.144676 0.072338 0.144676 0.289352 0.144676 0.289352 0.289352 0.072338 0.144676 0.144676 0.144676 0.072338 0.144676 0.289352 0.144676 0.289352 0.289352 0.072338 0.144676 0.144676 0.144676 0.072338 0.144676 0.289352 0.144676 0.289352 0.289352 0.072338 0.144676 0.144676 0.144676 0.072338 0.144676 0.289352 0.144676 0.289352 0.289352 0.072338 0.144676 0.144676 0.144676 0.072338 0.144676 0.289352 0.144676 0.289352 0.289352 0.072338 0.144676 0.144676 0.144676 0.072338 0.144676 0.289352 0.144676 0.289352 0.289352 0.072338 0.144676 0.144676 0.144676 0.072338 0.144676 0.289352 0.144676 0.289352 0.289352 0.072338 0.144676 0.144676 0.144676 0.072338 0.144676 0.289352 0.144676 0.289352 0.289352 0.072338 0.144676 0.144676 0.144676 0.072338 0.144676 0.289352 0.144676 0.289352 0.289352 0.0723379 0.144676 0.144676 0.144676 0.0723379 0.144676 0.289352 0.144676 0.289352 0.289352 0.072338 0.144676 0.144676 0.144676 0.072338 0.144676 0.289352 0.144676 0.289352 0.289352 0.072338 0.144676 0.144676 0.144676 0.072338 0.144676 0.289352 0.144676 0.289352 0.289352 0.072338 0.144676 0.144676 0.144676 0.072338 0.144676 0.289352 0.144676 0.289352 0.289352 0.072338 0.144676 0.144676 0.144676 0.072338 0.144676 0.289352 0.144676 0.289352 0.289352 0.072338 0.144676 0.144676 0.144676 0.072338 0.144676 0.289352 0.144676 0.289352 0.289352 0.072338 0.144676 0.144676 0.144676 0.072338 0.144676 0.289352 0.144676 0.289352 0.289352 0.0723381 0.144676 0.144676 0.144676 0.0723381 0.144676 0.289352 0.144676 0.289352 0.289352 0.0723379 0.144676 0.144676 0.144676 0.0723379 0.144676 0.289352 0.144676 0.289352 0.289351 0.0723379 0.144676 0.144676 0.144676 0.0723379 0.144676 0.289352 0.144676 0.289352 0.289352 0.072338 0.144676 0.144676 0.144676 0.072338 0.144676 0.289352 0.144676 0.289352 0.289352 0.072338 0.144676 0.144676 0.144676 0.072338 0.072338 0.144676 0.144676 0.144676 0.289352 0.072338 0.072338 0.144676 0.144676 0.072338 0.072338 0.144676 0.289352 0.144676 0.072338 0.144676 0.144676 0.072338 0.072338 0.144676 0.144676 0.072338 0.072338 0.072338 0.144676 0.289352 0.072338 0.144676 0.144676 0.072338 0.144676 0.144676 0.072338 0.072338 0.144676 0.289352 0.072338 0.144676 0.144676 0.072338 0.144676 0.144676 0.072338 0.072338 0.144676 0.289352 0.072338 0.144676 0.144676 0.072338 0.144676 0.144676 0.072338 0.072338 0.144676 0.289352 0.072338 0.144676 0.144676 0.072338 0.144676 0.144676 0.072338 0.072338 0.144676 0.289352 0.072338 0.144676 0.144676 0.072338 0.144676 0.144676 0.072338 0.072338 0.144676 0.289352 0.072338 0.144676 0.144676 0.072338 0.144676 0.144676 0.072338 0.072338 0.144676 0.289352 0.072338 0.144676 0.144676 0.072338 0.144676 0.144676 0.072338 0.072338 0.144676 0.289352 0.072338 0.144676 0.144676 0.072338 0.144676 0.144676 0.072338 0.072338 0.144676 0.289352 0.0723379 0.144676 0.144676 0.0723379 0.144676 0.144676 0.0723379 0.0723379 0.144676 0.289352 0.072338 0.144676 0.144676 0.072338 0.144676 0.144676 0.072338 0.072338 0.144676 0.289352 0.072338 0.144676 0.144676 0.072338 0.144676 0.144676 0.072338 0.072338 0.144676 0.289352 0.072338 0.144676 0.144676 0.072338 0.144676 0.144676 0.072338 0.072338 0.144676 0.289352 0.072338 0.144676 0.144676 0.072338 0.144676 0.144676 0.072338 0.072338 0.144676 0.289352 0.0723379 0.144676 0.144676 0.0723379 0.144676 0.144676 0.0723379 0.0723379 0.144676 0.289352 0.072338 0.144676 0.144676 0.072338 0.144676 0.144676 0.072338 0.072338 0.144676 0.289352 0.072338 0.144676 0.144676 0.072338 0.144676 0.144676 0.072338 0.072338 0.144676 0.289352 0.072338 0.144676 0.144676 0.072338 0.144676 0.144676 0.072338 0.072338 0.144676 0.289352 0.0723379 0.144676 0.144676 0.0723379 0.144676 0.144676 0.0723379 0.0723379 0.144676 0.289352 0.0723379 0.144676 0.144676 0.0723379 0.144676 0.144676 0.0723379 0.0723379 0.144676 0.289352 0.072338 0.144676 0.144676 0.072338 0.144676 0.144676 0.072338 0.072338 0.144676 0.289352 0.072338 0.144676 0.144676 0.072338 0.144676 0.144676 0.072338 0.072338 0.144676 0.289352 0.0723379 0.144676 0.144676 0.0723379 0.144676 0.144676 0.0723379 0.0723379 0.144676 0.289352 0.072338 0.144676 0.144676 0.072338 0.144676 0.144676 0.072338 0.072338 0.144676 0.289352 0.0723379 0.144676 0.144676 0.0723379 0.144676 0.144676 0.0723379 0.0723379 0.144676 0.289352 0.072338 0.144676 0.144676 0.072338 0.144676 0.144676 0.072338 0.072338 0.144676 0.289352 0.0723381 0.144676 0.144676 0.0723381 0.144676 0.144676 0.0723381 0.0723381 0.144676 0.289351 0.0723379 0.144676 0.144676 0.0723379 0.144676 0.144676 0.0723379 0.0723379 0.144676 0.289352 0.0723378 0.144676 0.144676 0.0723378 0.144676 0.144676 0.0723378 0.0723378 0.144676 0.289352 0.072338 0.144676 0.144676 0.072338 0.144676 0.144676 0.072338 0.072338 0.144676 0.289352 0.0723379 0.144676 0.144676 0.0723379 0.144676 0.144676 0.0723379 0.0723379 0.072338 0.144676 0.072338 0.072338 0.144676 0.072338 0.072338 0.144676 0.072338 0.072338 0.144676 0.144676 0.072338 0.289352 0.144676 0.289352 0.289352 0.144676 0.072338 0.144676 0.144676 0.072338 0.144676 0.072338 0.144676 0.144676 0.289352 0.289352 0.289352 0.072338 0.144676 0.144676 0.144676 0.072338 0.144676 0.144676 0.289352 0.289352 0.289352 0.072338 0.144676 0.144676 0.144676 0.072338 0.144676 0.144676 0.289352 0.289352 0.289352 0.072338 0.144676 0.144676 0.144676 0.072338 0.144676 0.144676 0.289352 0.289352 0.289352 0.072338 0.144676 0.144676 0.144676 0.072338 0.144676 0.144676 0.289352 0.289352 0.289352 0.072338 0.144676 0.144676 0.144676 0.072338 0.144676 0.144676 0.289352 0.289352 0.289352 0.072338 0.144676 0.144676 0.144676 0.072338 0.144676 0.144676 0.289352 0.289352 0.289352 0.072338 0.144676 0.144676 0.144676 0.072338 0.144676 0.144676 0.289352 0.289352 0.289352 0.072338 0.144676 0.144676 0.144676 0.072338 0.144676 0.144676 0.289352 0.289352 0.289352 0.0723379 0.144676 0.144676 0.144676 0.0723379 0.144676 0.144676 0.289352 0.289352 0.289352 0.0723379 0.144676 0.144676 0.144676 0.0723379 0.144676 0.144676 0.289352 0.289352 0.289352 0.072338 0.144676 0.144676 0.144676 0.072338 0.144676 0.144676 0.289352 0.289352 0.289352 0.072338 0.144676 0.144676 0.144676 0.072338 0.144676 0.144676 0.289352 0.289352 0.289352 0.072338 0.144676 0.144676 0.144676 0.072338 0.144676 0.144676 0.289352 0.289352 0.289352 0.0723379 0.144676 0.144676 0.144676 0.0723379 0.144676 0.144676 0.289352 0.289352 0.289352 0.072338 0.144676 0.144676 0.144676 0.072338 0.144676 0.144676 0.289352 0.289352 0.289352 0.072338 0.144676 0.144676 0.144676 0.072338 0.144676 0.144676 0.289352 0.289352 0.289352 0.0723379 0.144676 0.144676 0.144676 0.0723379 0.144676 0.144676 0.289352 0.289352 0.289352 0.0723379 0.144676 0.144676 0.144676 0.0723379 0.144676 0.144676 0.289352 0.289352 0.289352 0.0723379 0.144676 0.144676 0.144676 0.0723379 0.144676 0.144676 0.289352 0.289352 0.289352 0.072338 0.144676 0.144676 0.144676 0.072338 0.144676 0.144676 0.289352 0.289352 0.289352 0.072338 0.144676 0.144676 0.144676 0.072338 0.144676 0.144676 0.289352 0.289352 0.289352 0.0723379 0.144676 0.144676 0.144676 0.0723379 0.144676 0.144676 0.289352 0.289352 0.289352 0.072338 0.144676 0.144676 0.144676 0.072338 0.144676 0.144676 0.289352 0.289352 0.289352 0.0723379 0.144676 0.144676 0.144676 0.0723379 0.144676 0.144676 0.289352 0.289352 0.289352 0.0723379 0.144676 0.144676 0.144676 0.0723379 0.144676 0.144676 0.289352 0.289352 0.289352 0.0723381 0.144676 0.144676 0.144676 0.0723381 0.144676 0.144676 0.289352 0.289352 0.289352 0.0723379 0.144676 0.144676 0.144676 0.0723379 0.144676 0.144676 0.289352 0.289352 0.289351 0.0723378 0.144676 0.144676 0.144676 0.0723378 0.144676 0.144676 0.289352 0.289352 0.289352 0.072338 0.144676 0.144676 0.144676 0.072338 0.144676 0.144676 0.289352 0.289352 0.289352 0.0723379 0.144676 0.144676 0.144676 0.0723379 0.072338 0.144676 0.144676 0.144676 0.289352 0.072338 0.072338 0.144676 0.144676 0.072338 0.289352 0.144676 0.289352 0.289352 0.144676 0.144676 0.144676 0.072338 0.144676 0.072338 0.289352 0.289352 0.289352 0.144676 0.144676 0.144676 0.072338 0.289352 0.289352 0.289352 0.144676 0.144676 0.144676 0.072338 0.289352 0.289352 0.289352 0.144676 0.144676 0.144676 0.072338 0.289352 0.289352 0.289352 0.144676 0.144676 0.144676 0.072338 0.289352 0.289352 0.289352 0.144676 0.144676 0.144676 0.072338 0.289352 0.289352 0.289352 0.144676 0.144676 0.144676 0.072338 0.289352 0.289352 0.289352 0.144676 0.144676 0.144676 0.072338 0.289352 0.289352 0.289352 0.144676 0.144676 0.144676 0.072338 0.289352 0.289352 0.289352 0.144676 0.144676 0.144676 0.0723379 0.289352 0.289352 0.289352 0.144676 0.144676 0.144676 0.0723379 0.289352 0.289352 0.289352 0.144676 0.144676 0.144676 0.072338 0.289352 0.289352 0.289352 0.144676 0.144676 0.144676 0.072338 0.289352 0.289352 0.289352 0.144676 0.144676 0.144676 0.072338 0.289352 0.289352 0.289352 0.144676 0.144676 0.144676 0.0723379 0.289352 0.289352 0.289352 0.144676 0.144676 0.144676 0.072338 0.289352 0.289352 0.289352 0.144676 0.144676 0.144676 0.072338 0.289352 0.289352 0.289352 0.144676 0.144676 0.144676 0.0723379 0.289352 0.289352 0.289352 0.144676 0.144676 0.144676 0.0723379 0.289352 0.289352 0.289352 0.144676 0.144676 0.144676 0.0723379 0.289352 0.289352 0.289352 0.144676 0.144676 0.144676 0.072338 0.289352 0.289352 0.289352 0.144676 0.144676 0.144676 0.0723379 0.289352 0.289352 0.289352 0.144676 0.144676 0.144676 0.0723379 0.289352 0.289352 0.289352 0.144676 0.144676 0.144676 0.072338 0.289352 0.289352 0.289352 0.144676 0.144676 0.144676 0.0723379 0.289352 0.289352 0.289352 0.144676 0.144676 0.144676 0.0723379 0.289352 0.289352 0.289352 0.144676 0.144676 0.144676 0.0723381 0.289352 0.289351 0.289352 0.144676 0.144676 0.144676 0.0723379 0.289352 0.289352 0.289351 0.144676 0.144676 0.144676 0.0723378 0.289352 0.289352 0.289352 0.144676 0.144676 0.144676 0.072338 0.289352 0.289352 0.289352 0.144676 0.144676 0.144676 0.0723379 0.144676 0.144676 0.289352 0.072338 0.144676 0.144676 0.072338 0.289352 0.144676 0.289352 0.289352 0.144676 0.144676 0.144676 0.072338 0.144676 0.072338 0.289352 0.289352 0.289352 0.144676 0.144676 0.144676 0.072338 0.289352 0.289352 0.289352 0.144676 0.144676 0.144676 0.072338 0.289352 0.289352 0.289352 0.144676 0.144676 0.144676 0.072338 0.289352 0.289352 0.289352 0.144676 0.144676 0.144676 0.072338 0.289352 0.289352 0.289352 0.144676 0.144676 0.144676 0.072338 0.289352 0.289352 0.289352 0.144676 0.144676 0.144676 0.072338 0.289352 0.289352 0.289352 0.144676 0.144676 0.144676 0.072338 0.289352 0.289352 0.289352 0.144676 0.144676 0.144676 0.072338 0.289352 0.289352 0.289352 0.144676 0.144676 0.144676 0.0723379 0.289352 0.289352 0.289352 0.144676 0.144676 0.144676 0.0723379 0.289352 0.289352 0.289352 0.144676 0.144676 0.144676 0.072338 0.289352 0.289352 0.289352 0.144676 0.144676 0.144676 0.072338 0.289352 0.289352 0.289352 0.144676 0.144676 0.144676 0.072338 0.289352 0.289352 0.289352 0.144676 0.144676 0.144676 0.0723379 0.289352 0.289352 0.289352 0.144676 0.144676 0.144676 0.072338 0.289352 0.289352 0.289352 0.144676 0.144676 0.144676 0.072338 0.289352 0.289352 0.289352 0.144676 0.144676 0.144676 0.0723379 0.289352 0.289352 0.289352 0.144676 0.144676 0.144676 0.0723379 0.289352 0.289352 0.289352 0.144676 0.144676 0.144676 0.0723379 0.289352 0.289352 0.289352 0.144676 0.144676 0.144676 0.072338 0.289352 0.289352 0.289352 0.144676 0.144676 0.144676 0.072338 0.289352 0.289352 0.289352 0.144676 0.144676 0.144676 0.0723379 0.289352 0.289352 0.289352 0.144676 0.144676 0.144676 0.072338 0.289352 0.289352 0.289352 0.144676 0.144676 0.144676 0.0723379 0.289352 0.289352 0.289352 0.144676 0.144676 0.144676 0.0723379 0.289352 0.289352 0.289352 0.144676 0.144676 0.144676 0.0723381 0.289352 0.289351 0.289352 0.144676 0.144676 0.144676 0.0723379 0.289352 0.289352 0.289351 0.144676 0.144676 0.144676 0.0723378 0.289352 0.289352 0.289352 0.144676 0.144676 0.144676 0.072338 0.289352 0.289352 0.289352 0.144676 0.144676 0.144676 0.0723379 0.144676 0.144676 0.289352 0.072338 0.144676 0.144676 0.072338 0.289352 0.144676 0.289352 0.289352 0.144676 0.144676 0.144676 0.072338 0.144676 0.072338 0.289352 0.289352 0.289352 0.144676 0.144676 0.144676 0.072338 0.289352 0.289352 0.289352 0.144676 0.144676 0.144676 0.072338 0.289352 0.289352 0.289352 0.144676 0.144676 0.144676 0.0723379 0.289352 0.289352 0.289352 0.144676 0.144676 0.144676 0.072338 0.289352 0.289352 0.289352 0.144676 0.144676 0.144676 0.072338 0.289352 0.289352 0.289352 0.144676 0.144676 0.144676 0.0723379 0.289352 0.289352 0.289352 0.144676 0.144676 0.144676 0.0723379 0.289352 0.289352 0.289352 0.144676 0.144676 0.144676 0.072338 0.289352 0.289352 0.289352 0.144676 0.144676 0.144676 0.0723379 0.289352 0.289352 0.289352 0.144676 0.144676 0.144676 0.0723379 0.289352 0.289352 0.289352 0.144676 0.144676 0.144676 0.072338 0.289352 0.289352 0.289352 0.144676 0.144676 0.144676 0.0723379 0.289352 0.289352 0.289352 0.144676 0.144676 0.144676 0.072338 0.289352 0.289352 0.289352 0.144676 0.144676 0.144676 0.0723379 0.289352 0.289352 0.289352 0.144676 0.144676 0.144676 0.072338 0.289352 0.289352 0.289352 0.144676 0.144676 0.144676 0.072338 0.289352 0.289352 0.289352 0.144676 0.144676 0.144676 0.0723379 0.289352 0.289352 0.289352 0.144676 0.144676 0.144676 0.0723379 0.289352 0.289352 0.289352 0.144676 0.144676 0.144676 0.0723379 0.289352 0.289352 0.289352 0.144676 0.144676 0.144676 0.072338 0.289352 0.289352 0.289352 0.144676 0.144676 0.144676 0.0723379 0.289352 0.289352 0.289352 0.144676 0.144676 0.144676 0.0723379 0.289352 0.289352 0.289352 0.144676 0.144676 0.144676 0.072338 0.289352 0.289352 0.289352 0.144676 0.144676 0.144676 0.0723379 0.289352 0.289352 0.289352 0.144676 0.144676 0.144676 0.0723379 0.289352 0.289352 0.289352 0.144676 0.144676 0.144676 0.072338 0.289352 0.289351 0.289352 0.144676 0.144676 0.144676 0.0723379 0.289352 0.289352 0.289351 0.144676 0.144676 0.144676 0.0723378 0.289352 0.289352 0.289352 0.144676 0.144676 0.144676 0.072338 0.289352 0.289352 0.289352 0.144676 0.144676 0.144676 0.0723379 0.144676 0.144676 0.289352 0.072338 0.144676 0.144676 0.072338 0.289352 0.144676 0.289352 0.289352 0.144676 0.144676 0.144676 0.072338 0.144676 0.072338 0.289352 0.289352 0.289352 0.144676 0.144676 0.144676 0.072338 0.289352 0.289352 0.289352 0.144676 0.144676 0.144676 0.072338 0.289352 0.289352 0.289352 0.144676 0.144676 0.144676 0.0723379 0.289352 0.289352 0.289352 0.144676 0.144676 0.144676 0.072338 0.289352 0.289352 0.289352 0.144676 0.144676 0.144676 0.072338 0.289352 0.289352 0.289352 0.144676 0.144676 0.144676 0.0723379 0.289352 0.289352 0.289352 0.144676 0.144676 0.144676 0.072338 0.289352 0.289352 0.289352 0.144676 0.144676 0.144676 0.072338 0.289352 0.289352 0.289352 0.144676 0.144676 0.144676 0.0723379 0.289352 0.289352 0.289352 0.144676 0.144676 0.144676 0.0723379 0.289352 0.289352 0.289352 0.144676 0.144676 0.144676 0.072338 0.289352 0.289352 0.289352 0.144676 0.144676 0.144676 0.0723379 0.289352 0.289352 0.289352 0.144676 0.144676 0.144676 0.072338 0.289352 0.289352 0.289352 0.144676 0.144676 0.144676 0.0723379 0.289352 0.289352 0.289352 0.144676 0.144676 0.144676 0.072338 0.289352 0.289352 0.289352 0.144676 0.144676 0.144676 0.072338 0.289352 0.289352 0.289352 0.144676 0.144676 0.144676 0.0723379 0.289352 0.289352 0.289352 0.144676 0.144676 0.144676 0.0723379 0.289352 0.289352 0.289352 0.144676 0.144676 0.144676 0.0723379 0.289352 0.289352 0.289352 0.144676 0.144676 0.144676 0.072338 0.289352 0.289352 0.289352 0.144676 0.144676 0.144676 0.0723379 0.289352 0.289352 0.289352 0.144676 0.144676 0.144676 0.0723379 0.289352 0.289352 0.289352 0.144676 0.144676 0.144676 0.072338 0.289352 0.289352 0.289352 0.144676 0.144676 0.144676 0.0723379 0.289352 0.289352 0.289352 0.144676 0.144676 0.144676 0.0723379 0.289352 0.289352 0.289352 0.144676 0.144676 0.144676 0.072338 0.289352 0.289351 0.289352 0.144676 0.144676 0.144676 0.0723379 0.289352 0.289352 0.289351 0.144676 0.144676 0.144676 0.0723378 0.289352 0.289352 0.289352 0.144676 0.144676 0.144676 0.072338 0.289352 0.289352 0.289352 0.144676 0.144676 0.144676 0.0723379 0.144676 0.144676 0.289352 0.072338 0.144676 0.144676 0.072338 0.289352 0.144676 0.289352 0.289352 0.144676 0.144676 0.144676 0.072338 0.144676 0.072338 0.289352 0.289352 0.289352 0.144676 0.144676 0.144676 0.072338 0.289352 0.289352 0.289352 0.144676 0.144676 0.144676 0.072338 0.289352 0.289352 0.289352 0.144676 0.144676 0.144676 0.072338 0.289352 0.289352 0.289352 0.144676 0.144676 0.144676 0.072338 0.289352 0.289352 0.289352 0.144676 0.144676 0.144676 0.072338 0.289352 0.289352 0.289352 0.144676 0.144676 0.144676 0.072338 0.289352 0.289352 0.289352 0.144676 0.144676 0.144676 0.072338 0.289352 0.289352 0.289352 0.144676 0.144676 0.144676 0.072338 0.289352 0.289352 0.289352 0.144676 0.144676 0.144676 0.0723379 0.289352 0.289352 0.289352 0.144676 0.144676 0.144676 0.0723379 0.289352 0.289352 0.289352 0.144676 0.144676 0.144676 0.072338 0.289352 0.289352 0.289352 0.144676 0.144676 0.144676 0.072338 0.289352 0.289352 0.289352 0.144676 0.144676 0.144676 0.072338 0.289352 0.289352 0.289352 0.144676 0.144676 0.144676 0.0723379 0.289352 0.289352 0.289352 0.144676 0.144676 0.144676 0.072338 0.289352 0.289352 0.289352 0.144676 0.144676 0.144676 0.072338 0.289352 0.289352 0.289352 0.144676 0.144676 0.144676 0.0723379 0.289352 0.289352 0.289352 0.144676 0.144676 0.144676 0.0723379 0.289352 0.289352 0.289352 0.144676 0.144676 0.144676 0.0723379 0.289352 0.289352 0.289352 0.144676 0.144676 0.144676 0.072338 0.289352 0.289352 0.289352 0.144676 0.144676 0.144676 0.0723379 0.289352 0.289352 0.289352 0.144676 0.144676 0.144676 0.0723379 0.289352 0.289352 0.289352 0.144676 0.144676 0.144676 0.072338 0.289352 0.289352 0.289352 0.144676 0.144676 0.144676 0.0723379 0.289352 0.289352 0.289352 0.144676 0.144676 0.144676 0.072338 0.289352 0.289352 0.289352 0.144676 0.144676 0.144676 0.0723381 0.289352 0.289351 0.289352 0.144676 0.144676 0.144676 0.0723379 0.289352 0.289352 0.289351 0.144676 0.144676 0.144676 0.0723378 0.289352 0.289352 0.289352 0.144676 0.144676 0.144676 0.072338 0.289352 0.289352 0.289352 0.144676 0.144676 0.144676 0.0723379 0.144676 0.144676 0.289352 0.072338 0.144676 0.144676 0.072338 0.289352 0.144676 0.289352 0.289352 0.144676 0.144676 0.144676 0.072338 0.144676 0.072338 0.289352 0.289352 0.289352 0.144676 0.144676 0.144676 0.072338 0.289352 0.289352 0.289352 0.144676 0.144676 0.144676 0.072338 0.289352 0.289352 0.289352 0.144676 0.144676 0.144676 0.072338 0.289352 0.289352 0.289352 0.144676 0.144676 0.144676 0.072338 0.289352 0.289352 0.289352 0.144676 0.144676 0.144676 0.072338 0.289352 0.289352 0.289352 0.144676 0.144676 0.144676 0.072338 0.289352 0.289352 0.289352 0.144676 0.144676 0.144676 0.072338 0.289352 0.289352 0.289352 0.144676 0.144676 0.144676 0.072338 0.289352 0.289352 0.289352 0.144676 0.144676 0.144676 0.072338 0.289352 0.289352 0.289352 0.144676 0.144676 0.144676 0.0723379 0.289352 0.289352 0.289352 0.144676 0.144676 0.144676 0.072338 0.289352 0.289352 0.289352 0.144676 0.144676 0.144676 0.072338 0.289352 0.289352 0.289352 0.144676 0.144676 0.144676 0.072338 0.289352 0.289352 0.289352 0.144676 0.144676 0.144676 0.0723379 0.289352 0.289352 0.289352 0.144676 0.144676 0.144676 0.072338 0.289352 0.289352 0.289352 0.144676 0.144676 0.144676 0.072338 0.289352 0.289352 0.289352 0.144676 0.144676 0.144676 0.0723379 0.289352 0.289352 0.289352 0.144676 0.144676 0.144676 0.0723379 0.289352 0.289352 0.289352 0.144676 0.144676 0.144676 0.0723379 0.289352 0.289352 0.289352 0.144676 0.144676 0.144676 0.072338 0.289352 0.289352 0.289352 0.144676 0.144676 0.144676 0.072338 0.289352 0.289352 0.289352 0.144676 0.144676 0.144676 0.0723379 0.289352 0.289352 0.289352 0.144676 0.144676 0.144676 0.072338 0.289352 0.289352 0.289352 0.144676 0.144676 0.144676 0.0723379 0.289352 0.289352 0.289352 0.144676 0.144676 0.144676 0.072338 0.289352 0.289352 0.289352 0.144676 0.144676 0.144676 0.0723381 0.289352 0.289351 0.289352 0.144676 0.144676 0.144676 0.0723379 0.289352 0.289352 0.289351 0.144676 0.144676 0.144676 0.0723378 0.289352 0.289352 0.289352 0.144676 0.144676 0.144676 0.072338 0.289352 0.289352 0.289352 0.144676 0.144676 0.144676 0.0723379 0.144676 0.144676 0.289352 0.072338 0.144676 0.144676 0.072338 0.289352 0.144676 0.144676 0.144676 0.072338 0.144676 0.144676 0.072338 0.072338 0.072338 0.289352 0.144676 0.144676 0.144676 0.144676 0.072338 0.072338 0.289352 0.144676 0.144676 0.144676 0.144676 0.072338 0.072338 0.289352 0.144676 0.144676 0.144676 0.144676 0.0723379 0.0723379 0.289352 0.144676 0.144676 0.144676 0.144676 0.0723379 0.0723379 0.289352 0.144676 0.144676 0.144676 0.144676 0.072338 0.072338 0.289352 0.144676 0.144676 0.144676 0.144676 0.072338 0.072338 0.289352 0.144676 0.144676 0.144676 0.144676 0.0723379 0.0723379 0.289352 0.144676 0.144676 0.144676 0.144676 0.072338 0.072338 0.289352 0.144676 0.144676 0.144676 0.144676 0.0723379 0.0723379 0.289352 0.144676 0.144676 0.144676 0.144676 0.0723379 0.0723379 0.289352 0.144676 0.144676 0.144676 0.144676 0.0723379 0.0723379 0.289352 0.144676 0.144676 0.144676 0.144676 0.0723379 0.0723379 0.289352 0.144676 0.144676 0.144676 0.144676 0.072338 0.072338 0.289352 0.144676 0.144676 0.144676 0.144676 0.0723379 0.0723379 0.289352 0.144676 0.144676 0.144676 0.144676 0.072338 0.072338 0.289352 0.144676 0.144676 0.144676 0.144676 0.0723379 0.0723379 0.289352 0.144676 0.144676 0.144676 0.144676 0.0723379 0.0723379 0.289352 0.144676 0.144676 0.144676 0.144676 0.0723379 0.0723379 0.289352 0.144676 0.144676 0.144676 0.144676 0.0723379 0.0723379 0.289352 0.144676 0.144676 0.144676 0.144676 0.072338 0.072338 0.289352 0.144676 0.144676 0.144676 0.144676 0.0723379 0.0723379 0.289352 0.144676 0.144676 0.144676 0.144676 0.0723379 0.0723379 0.289352 0.144676 0.144676 0.144676 0.144676 0.072338 0.072338 0.289352 0.144676 0.144676 0.144676 0.144676 0.0723379 0.0723379 0.289352 0.144676 0.144676 0.144676 0.144676 0.0723379 0.0723379 0.289352 0.144676 0.144676 0.144676 0.144676 0.072338 0.072338 0.289352 0.144676 0.144676 0.144676 0.144676 0.0723379 0.0723379 0.289352 0.144676 0.144676 0.144676 0.144676 0.0723378 0.0723378 0.289352 0.144676 0.144676 0.144676 0.144676 0.072338 0.072338 0.289352 0.144676 0.144676 0.144676 0.144676 0.0723379 0.0723379 0.144676 0.072338 0.144676 0.072338 0.144676 0.072338 0.072338 0.144676 0.144676 0.072338 0.289352 0.144676 0.289352 0.289352 0.144676 0.072338 0.144676 0.144676 0.072338 0.144676 0.072338 0.144676 0.144676 0.289352 0.289352 0.289352 0.072338 0.144676 0.144676 0.144676 0.072338 0.144676 0.144676 0.289352 0.289352 0.289352 0.072338 0.144676 0.144676 0.144676 0.072338 0.144676 0.144676 0.289352 0.289352 0.289352 0.072338 0.144676 0.144676 0.144676 0.072338 0.144676 0.144676 0.289352 0.289352 0.289352 0.072338 0.144676 0.144676 0.144676 0.072338 0.144676 0.144676 0.289352 0.289352 0.289352 0.072338 0.144676 0.144676 0.144676 0.072338 0.144676 0.144676 0.289352 0.289352 0.289352 0.072338 0.144676 0.144676 0.144676 0.072338 0.144676 0.144676 0.289352 0.289352 0.289352 0.072338 0.144676 0.144676 0.144676 0.072338 0.144676 0.144676 0.289352 0.289352 0.289352 0.072338 0.144676 0.144676 0.144676 0.072338 0.144676 0.144676 0.289352 0.289352 0.289352 0.072338 0.144676 0.144676 0.144676 0.072338 0.144676 0.144676 0.289352 0.289352 0.289352 0.072338 0.144676 0.144676 0.144676 0.072338 0.144676 0.144676 0.289352 0.289352 0.289352 0.072338 0.144676 0.144676 0.144676 0.072338 0.144676 0.144676 0.289352 0.289352 0.289352 0.072338 0.144676 0.144676 0.144676 0.072338 0.144676 0.144676 0.289352 0.289352 0.289352 0.072338 0.144676 0.144676 0.144676 0.072338 0.144676 0.144676 0.289352 0.289352 0.289352 0.072338 0.144676 0.144676 0.144676 0.072338 0.144676 0.144676 0.289352 0.289352 0.289352 0.072338 0.144676 0.144676 0.144676 0.072338 0.144676 0.144676 0.289352 0.289352 0.289352 0.072338 0.144676 0.144676 0.144676 0.072338 0.144676 0.144676 0.289352 0.289352 0.289352 0.072338 0.144676 0.144676 0.144676 0.072338 0.144676 0.144676 0.289352 0.289352 0.289352 0.072338 0.144676 0.144676 0.144676 0.072338 0.144676 0.144676 0.289352 0.289352 0.289352 0.072338 0.144676 0.144676 0.144676 0.072338 0.144676 0.144676 0.289352 0.289352 0.289352 0.072338 0.144676 0.144676 0.144676 0.072338 0.144676 0.144676 0.289352 0.289352 0.289352 0.072338 0.144676 0.144676 0.144676 0.072338 0.144676 0.144676 0.289352 0.289352 0.289352 0.072338 0.144676 0.144676 0.144676 0.072338 0.144676 0.144676 0.289352 0.289352 0.289352 0.072338 0.144676 0.144676 0.144676 0.072338 0.144676 0.144676 0.289352 0.289352 0.289352 0.072338 0.144676 0.144676 0.144676 0.072338 0.144676 0.144676 0.289352 0.289352 0.289352 0.072338 0.144676 0.144676 0.144676 0.072338 0.144676 0.144676 0.289352 0.289352 0.289352 0.0723381 0.144676 0.144676 0.144676 0.0723381 0.144676 0.144676 0.289351 0.289352 0.289352 0.072338 0.144676 0.144676 0.144676 0.072338 0.144676 0.144676 0.289352 0.289352 0.289351 0.0723379 0.144676 0.144676 0.144676 0.0723379 0.144676 0.144676 0.289352 0.289352 0.289352 0.072338 0.144676 0.144676 0.144676 0.072338 0.144676 0.144676 0.289352 0.289352 0.289352 0.072338 0.144676 0.144676 0.144676 0.072338 0.072338 0.144676 0.144676 0.144676 0.289352 0.072338 0.072338 0.144676 0.144676 0.072338 0.289352 0.144676 0.289352 0.289352 0.144676 0.144676 0.144676 0.072338 0.144676 0.072338 0.289352 0.289352 0.289352 0.144676 0.144676 0.144676 0.072338 0.289352 0.289352 0.289352 0.144676 0.144676 0.144676 0.072338 0.289352 0.289352 0.289352 0.144676 0.144676 0.144676 0.072338 0.289352 0.289352 0.289352 0.144676 0.144676 0.144676 0.072338 0.289352 0.289352 0.289352 0.144676 0.144676 0.144676 0.072338 0.289352 0.289352 0.289352 0.144676 0.144676 0.144676 0.072338 0.289352 0.289352 0.289352 0.144676 0.144676 0.144676 0.072338 0.289352 0.289352 0.289352 0.144676 0.144676 0.144676 0.072338 0.289352 0.289352 0.289352 0.144676 0.144676 0.144676 0.072338 0.289352 0.289352 0.289352 0.144676 0.144676 0.144676 0.072338 0.289352 0.289352 0.289352 0.144676 0.144676 0.144676 0.072338 0.289352 0.289352 0.289352 0.144676 0.144676 0.144676 0.072338 0.289352 0.289352 0.289352 0.144676 0.144676 0.144676 0.072338 0.289352 0.289352 0.289352 0.144676 0.144676 0.144676 0.072338 0.289352 0.289352 0.289352 0.144676 0.144676 0.144676 0.072338 0.289352 0.289352 0.289352 0.144676 0.144676 0.144676 0.072338 0.289352 0.289352 0.289352 0.144676 0.144676 0.144676 0.072338 0.289352 0.289352 0.289352 0.144676 0.144676 0.144676 0.072338 0.289352 0.289352 0.289352 0.144676 0.144676 0.144676 0.072338 0.289352 0.289352 0.289352 0.144676 0.144676 0.144676 0.072338 0.289352 0.289352 0.289352 0.144676 0.144676 0.144676 0.072338 0.289352 0.289352 0.289352 0.144676 0.144676 0.144676 0.072338 0.289352 0.289352 0.289352 0.144676 0.144676 0.144676 0.072338 0.289352 0.289352 0.289352 0.144676 0.144676 0.144676 0.072338 0.289352 0.289352 0.289352 0.144676 0.144676 0.144676 0.072338 0.289352 0.289352 0.289352 0.144676 0.144676 0.144676 0.0723381 0.289351 0.289352 0.289352 0.144676 0.144676 0.144676 0.072338 0.289352 0.289352 0.289351 0.144676 0.144676 0.144676 0.0723379 0.289352 0.289352 0.289352 0.144676 0.144676 0.144676 0.072338 0.289352 0.289352 0.289352 0.144676 0.144676 0.144676 0.072338 0.144676 0.144676 0.289352 0.072338 0.144676 0.144676 0.072338 0.289352 0.144676 0.289352 0.289352 0.144676 0.144676 0.144676 0.072338 0.144676 0.072338 0.289352 0.289352 0.289352 0.144676 0.144676 0.144676 0.072338 0.289352 0.289352 0.289352 0.144676 0.144676 0.144676 0.072338 0.289352 0.289352 0.289352 0.144676 0.144676 0.144676 0.072338 0.289352 0.289352 0.289352 0.144676 0.144676 0.144676 0.072338 0.289352 0.289352 0.289352 0.144676 0.144676 0.144676 0.072338 0.289352 0.289352 0.289352 0.144676 0.144676 0.144676 0.072338 0.289352 0.289352 0.289352 0.144676 0.144676 0.144676 0.072338 0.289352 0.289352 0.289352 0.144676 0.144676 0.144676 0.072338 0.289352 0.289352 0.289352 0.144676 0.144676 0.144676 0.072338 0.289352 0.289352 0.289352 0.144676 0.144676 0.144676 0.072338 0.289352 0.289352 0.289352 0.144676 0.144676 0.144676 0.072338 0.289352 0.289352 0.289352 0.144676 0.144676 0.144676 0.072338 0.289352 0.289352 0.289352 0.144676 0.144676 0.144676 0.072338 0.289352 0.289352 0.289352 0.144676 0.144676 0.144676 0.072338 0.289352 0.289352 0.289352 0.144676 0.144676 0.144676 0.072338 0.289352 0.289352 0.289352 0.144676 0.144676 0.144676 0.072338 0.289352 0.289352 0.289352 0.144676 0.144676 0.144676 0.072338 0.289352 0.289352 0.289352 0.144676 0.144676 0.144676 0.072338 0.289352 0.289352 0.289352 0.144676 0.144676 0.144676 0.072338 0.289352 0.289352 0.289352 0.144676 0.144676 0.144676 0.072338 0.289352 0.289352 0.289352 0.144676 0.144676 0.144676 0.072338 0.289352 0.289352 0.289352 0.144676 0.144676 0.144676 0.072338 0.289352 0.289352 0.289352 0.144676 0.144676 0.144676 0.072338 0.289352 0.289352 0.289352 0.144676 0.144676 0.144676 0.072338 0.289352 0.289352 0.289352 0.144676 0.144676 0.144676 0.072338 0.289352 0.289352 0.289352 0.144676 0.144676 0.144676 0.0723381 0.289351 0.289352 0.289352 0.144676 0.144676 0.144676 0.072338 0.289352 0.289352 0.289351 0.144676 0.144676 0.144676 0.0723379 0.289352 0.289352 0.289352 0.144676 0.144676 0.144676 0.072338 0.289352 0.289352 0.289352 0.144676 0.144676 0.144676 0.072338 0.144676 0.144676 0.289352 0.072338 0.144676 0.144676 0.072338 0.289352 0.144676 0.289352 0.289352 0.144676 0.144676 0.144676 0.072338 0.144676 0.072338 0.289352 0.289352 0.289352 0.144676 0.144676 0.144676 0.072338 0.289352 0.289352 0.289352 0.144676 0.144676 0.144676 0.072338 0.289352 0.289352 0.289352 0.144676 0.144676 0.144676 0.072338 0.289352 0.289352 0.289352 0.144676 0.144676 0.144676 0.072338 0.289352 0.289352 0.289352 0.144676 0.144676 0.144676 0.072338 0.289352 0.289352 0.289352 0.144676 0.144676 0.144676 0.072338 0.289352 0.289352 0.289352 0.144676 0.144676 0.144676 0.072338 0.289352 0.289352 0.289352 0.144676 0.144676 0.144676 0.072338 0.289352 0.289352 0.289352 0.144676 0.144676 0.144676 0.072338 0.289352 0.289352 0.289352 0.144676 0.144676 0.144676 0.072338 0.289352 0.289352 0.289352 0.144676 0.144676 0.144676 0.072338 0.289352 0.289352 0.289352 0.144676 0.144676 0.144676 0.072338 0.289352 0.289352 0.289352 0.144676 0.144676 0.144676 0.072338 0.289352 0.289352 0.289352 0.144676 0.144676 0.144676 0.072338 0.289352 0.289352 0.289352 0.144676 0.144676 0.144676 0.072338 0.289352 0.289352 0.289352 0.144676 0.144676 0.144676 0.072338 0.289352 0.289352 0.289352 0.144676 0.144676 0.144676 0.072338 0.289352 0.289352 0.289352 0.144676 0.144676 0.144676 0.072338 0.289352 0.289352 0.289352 0.144676 0.144676 0.144676 0.0723379 0.289352 0.289352 0.289352 0.144676 0.144676 0.144676 0.072338 0.289352 0.289352 0.289352 0.144676 0.144676 0.144676 0.072338 0.289352 0.289352 0.289352 0.144676 0.144676 0.144676 0.072338 0.289352 0.289352 0.289352 0.144676 0.144676 0.144676 0.072338 0.289352 0.289352 0.289352 0.144676 0.144676 0.144676 0.072338 0.289352 0.289352 0.289352 0.144676 0.144676 0.144676 0.072338 0.289352 0.289352 0.289352 0.144676 0.144676 0.144676 0.0723381 0.289351 0.289352 0.289352 0.144676 0.144676 0.144676 0.072338 0.289352 0.289352 0.289351 0.144676 0.144676 0.144676 0.0723379 0.289352 0.289352 0.289352 0.144676 0.144676 0.144676 0.072338 0.289352 0.289352 0.289352 0.144676 0.144676 0.144676 0.072338 0.144676 0.144676 0.289352 0.072338 0.144676 0.144676 0.072338 0.289352 0.144676 0.289352 0.289352 0.144676 0.144676 0.144676 0.072338 0.144676 0.072338 0.289352 0.289352 0.289352 0.144676 0.144676 0.144676 0.072338 0.289352 0.289352 0.289352 0.144676 0.144676 0.144676 0.072338 0.289352 0.289352 0.289352 0.144676 0.144676 0.144676 0.072338 0.289352 0.289352 0.289352 0.144676 0.144676 0.144676 0.072338 0.289352 0.289352 0.289352 0.144676 0.144676 0.144676 0.072338 0.289352 0.289352 0.289352 0.144676 0.144676 0.144676 0.072338 0.289352 0.289352 0.289352 0.144676 0.144676 0.144676 0.072338 0.289352 0.289352 0.289352 0.144676 0.144676 0.144676 0.072338 0.289352 0.289352 0.289352 0.144676 0.144676 0.144676 0.072338 0.289352 0.289352 0.289352 0.144676 0.144676 0.144676 0.072338 0.289352 0.289352 0.289352 0.144676 0.144676 0.144676 0.072338 0.289352 0.289352 0.289352 0.144676 0.144676 0.144676 0.072338 0.289352 0.289352 0.289352 0.144676 0.144676 0.144676 0.072338 0.289352 0.289352 0.289352 0.144676 0.144676 0.144676 0.072338 0.289352 0.289352 0.289352 0.144676 0.144676 0.144676 0.072338 0.289352 0.289352 0.289352 0.144676 0.144676 0.144676 0.072338 0.289352 0.289352 0.289352 0.144676 0.144676 0.144676 0.072338 0.289352 0.289352 0.289352 0.144676 0.144676 0.144676 0.072338 0.289352 0.289352 0.289352 0.144676 0.144676 0.144676 0.0723379 0.289352 0.289352 0.289352 0.144676 0.144676 0.144676 0.072338 0.289352 0.289352 0.289352 0.144676 0.144676 0.144676 0.072338 0.289352 0.289352 0.289352 0.144676 0.144676 0.144676 0.072338 0.289352 0.289352 0.289352 0.144676 0.144676 0.144676 0.072338 0.289352 0.289352 0.289352 0.144676 0.144676 0.144676 0.0723379 0.289352 0.289352 0.289352 0.144676 0.144676 0.144676 0.072338 0.289352 0.289352 0.289352 0.144676 0.144676 0.144676 0.0723381 0.289351 0.289352 0.289352 0.144676 0.144676 0.144676 0.072338 0.289352 0.289352 0.289351 0.144676 0.144676 0.144676 0.0723379 0.289352 0.289352 0.289352 0.144676 0.144676 0.144676 0.072338 0.289352 0.289352 0.289352 0.144676 0.144676 0.144676 0.072338 0.144676 0.144676 0.289352 0.072338 0.144676 0.144676 0.072338 0.289352 0.144676 0.289352 0.289352 0.144676 0.144676 0.144676 0.072338 0.144676 0.072338 0.289352 0.289352 0.289352 0.144676 0.144676 0.144676 0.072338 0.289352 0.289352 0.289352 0.144676 0.144676 0.144676 0.072338 0.289352 0.289352 0.289352 0.144676 0.144676 0.144676 0.072338 0.289352 0.289352 0.289352 0.144676 0.144676 0.144676 0.072338 0.289352 0.289352 0.289352 0.144676 0.144676 0.144676 0.072338 0.289352 0.289352 0.289352 0.144676 0.144676 0.144676 0.072338 0.289352 0.289352 0.289352 0.144676 0.144676 0.144676 0.072338 0.289352 0.289352 0.289352 0.144676 0.144676 0.144676 0.072338 0.289352 0.289352 0.289352 0.144676 0.144676 0.144676 0.072338 0.289352 0.289352 0.289352 0.144676 0.144676 0.144676 0.072338 0.289352 0.289352 0.289352 0.144676 0.144676 0.144676 0.072338 0.289352 0.289352 0.289352 0.144676 0.144676 0.144676 0.072338 0.289352 0.289352 0.289352 0.144676 0.144676 0.144676 0.072338 0.289352 0.289352 0.289352 0.144676 0.144676 0.144676 0.072338 0.289352 0.289352 0.289352 0.144676 0.144676 0.144676 0.072338 0.289352 0.289352 0.289352 0.144676 0.144676 0.144676 0.072338 0.289352 0.289352 0.289352 0.144676 0.144676 0.144676 0.072338 0.289352 0.289352 0.289352 0.144676 0.144676 0.144676 0.072338 0.289352 0.289352 0.289352 0.144676 0.144676 0.144676 0.072338 0.289352 0.289352 0.289352 0.144676 0.144676 0.144676 0.072338 0.289352 0.289352 0.289352 0.144676 0.144676 0.144676 0.072338 0.289352 0.289352 0.289352 0.144676 0.144676 0.144676 0.072338 0.289352 0.289352 0.289352 0.144676 0.144676 0.144676 0.072338 0.289352 0.289352 0.289352 0.144676 0.144676 0.144676 0.072338 0.289352 0.289352 0.289352 0.144676 0.144676 0.144676 0.072338 0.289352 0.289352 0.289352 0.144676 0.144676 0.144676 0.0723381 0.289351 0.289352 0.289352 0.144676 0.144676 0.144676 0.072338 0.289352 0.289352 0.289351 0.144676 0.144676 0.144676 0.0723379 0.289352 0.289352 0.289352 0.144676 0.144676 0.144676 0.072338 0.289352 0.289352 0.289352 0.144676 0.144676 0.144676 0.072338 0.144676 0.144676 0.289352 0.072338 0.144676 0.144676 0.072338 0.289352 0.144676 0.289352 0.289352 0.144676 0.144676 0.144676 0.072338 0.144676 0.072338 0.289352 0.289352 0.289352 0.144676 0.144676 0.144676 0.072338 0.289352 0.289352 0.289352 0.144676 0.144676 0.144676 0.072338 0.289352 0.289352 0.289352 0.144676 0.144676 0.144676 0.072338 0.289352 0.289352 0.289352 0.144676 0.144676 0.144676 0.072338 0.289352 0.289352 0.289352 0.144676 0.144676 0.144676 0.072338 0.289352 0.289352 0.289352 0.144676 0.144676 0.144676 0.072338 0.289352 0.289352 0.289352 0.144676 0.144676 0.144676 0.072338 0.289352 0.289352 0.289352 0.144676 0.144676 0.144676 0.072338 0.289352 0.289352 0.289352 0.144676 0.144676 0.144676 0.072338 0.289352 0.289352 0.289352 0.144676 0.144676 0.144676 0.072338 0.289352 0.289352 0.289352 0.144676 0.144676 0.144676 0.072338 0.289352 0.289352 0.289352 0.144676 0.144676 0.144676 0.072338 0.289352 0.289352 0.289352 0.144676 0.144676 0.144676 0.072338 0.289352 0.289352 0.289352 0.144676 0.144676 0.144676 0.072338 0.289352 0.289352 0.289352 0.144676 0.144676 0.144676 0.072338 0.289352 0.289352 0.289352 0.144676 0.144676 0.144676 0.072338 0.289352 0.289352 0.289352 0.144676 0.144676 0.144676 0.072338 0.289352 0.289352 0.289352 0.144676 0.144676 0.144676 0.072338 0.289352 0.289352 0.289352 0.144676 0.144676 0.144676 0.072338 0.289352 0.289352 0.289352 0.144676 0.144676 0.144676 0.072338 0.289352 0.289352 0.289352 0.144676 0.144676 0.144676 0.072338 0.289352 0.289352 0.289352 0.144676 0.144676 0.144676 0.072338 0.289352 0.289352 0.289352 0.144676 0.144676 0.144676 0.072338 0.289352 0.289352 0.289352 0.144676 0.144676 0.144676 0.072338 0.289352 0.289352 0.289352 0.144676 0.144676 0.144676 0.072338 0.289352 0.289352 0.289352 0.144676 0.144676 0.144676 0.0723381 0.289351 0.289352 0.289352 0.144676 0.144676 0.144676 0.072338 0.289352 0.289352 0.289351 0.144676 0.144676 0.144676 0.0723379 0.289352 0.289352 0.289352 0.144676 0.144676 0.144676 0.072338 0.289352 0.289352 0.289352 0.144676 0.144676 0.144676 0.072338 0.144676 0.144676 0.289352 0.072338 0.144676 0.144676 0.072338 0.289352 0.144676 0.144676 0.144676 0.072338 0.144676 0.144676 0.072338 0.072338 0.072338 0.289352 0.144676 0.144676 0.144676 0.144676 0.072338 0.072338 0.289352 0.144676 0.144676 0.144676 0.144676 0.072338 0.072338 0.289352 0.144676 0.144676 0.144676 0.144676 0.072338 0.072338 0.289352 0.144676 0.144676 0.144676 0.144676 0.072338 0.072338 0.289352 0.144676 0.144676 0.144676 0.144676 0.072338 0.072338 0.289352 0.144676 0.144676 0.144676 0.144676 0.072338 0.072338 0.289352 0.144676 0.144676 0.144676 0.144676 0.072338 0.072338 0.289352 0.144676 0.144676 0.144676 0.144676 0.072338 0.072338 0.289352 0.144676 0.144676 0.144676 0.144676 0.072338 0.072338 0.289352 0.144676 0.144676 0.144676 0.144676 0.072338 0.072338 0.289352 0.144676 0.144676 0.144676 0.144676 0.072338 0.072338 0.289352 0.144676 0.144676 0.144676 0.144676 0.072338 0.072338 0.289352 0.144676 0.144676 0.144676 0.144676 0.072338 0.072338 0.289352 0.144676 0.144676 0.144676 0.144676 0.0723379 0.0723379 0.289352 0.144676 0.144676 0.144676 0.144676 0.072338 0.072338 0.289352 0.144676 0.144676 0.144676 0.144676 0.072338 0.072338 0.289352 0.144676 0.144676 0.144676 0.144676 0.072338 0.072338 0.289352 0.144676 0.144676 0.144676 0.144676 0.0723379 0.0723379 0.289352 0.144676 0.144676 0.144676 0.144676 0.0723379 0.0723379 0.289352 0.144676 0.144676 0.144676 0.144676 0.072338 0.072338 0.289352 0.144676 0.144676 0.144676 0.144676 0.072338 0.072338 0.289352 0.144676 0.144676 0.144676 0.144676 0.072338 0.072338 0.289352 0.144676 0.144676 0.144676 0.144676 0.072338 0.072338 0.289352 0.144676 0.144676 0.144676 0.144676 0.0723379 0.0723379 0.289352 0.144676 0.144676 0.144676 0.144676 0.072338 0.072338 0.289352 0.144676 0.144676 0.144676 0.144676 0.0723381 0.0723381 0.289351 0.144676 0.144676 0.144676 0.144676 0.0723379 0.0723379 0.289352 0.144676 0.144676 0.144676 0.144676 0.0723379 0.0723379 0.289352 0.144676 0.144676 0.144676 0.144676 0.072338 0.072338 0.289352 0.144676 0.144676 0.144676 0.144676 0.0723379 0.0723379 0.144676 0.072338 0.144676 0.072338 0.144676 0.072338 0.072338 0.144676 0.144676 0.0723379 0.289352 0.144676 0.289352 0.289352 0.144676 0.0723379 0.144676 0.144676 0.0723379 0.144676 0.0723379 0.144676 0.144676 0.289352 0.289352 0.289352 0.0723379 0.144676 0.144676 0.144676 0.0723379 0.144676 0.144676 0.289352 0.289352 0.289352 0.0723379 0.144676 0.144676 0.144676 0.0723379 0.144676 0.144676 0.289352 0.289352 0.289352 0.0723379 0.144676 0.144676 0.144676 0.0723379 0.144676 0.144676 0.289352 0.289352 0.289352 0.0723379 0.144676 0.144676 0.144676 0.0723379 0.144676 0.144676 0.289352 0.289352 0.289352 0.0723379 0.144676 0.144676 0.144676 0.0723379 0.144676 0.144676 0.289352 0.289352 0.289352 0.0723379 0.144676 0.144676 0.144676 0.0723379 0.144676 0.144676 0.289352 0.289352 0.289352 0.0723379 0.144676 0.144676 0.144676 0.0723379 0.144676 0.144676 0.289352 0.289352 0.289352 0.0723379 0.144676 0.144676 0.144676 0.0723379 0.144676 0.144676 0.289352 0.289351 0.289352 0.0723379 0.144676 0.144676 0.144676 0.0723379 0.144676 0.144676 0.289352 0.289352 0.289352 0.0723379 0.144676 0.144676 0.144676 0.0723379 0.144676 0.144676 0.289352 0.289352 0.289352 0.0723379 0.144676 0.144676 0.144676 0.0723379 0.144676 0.144676 0.289352 0.289352 0.289352 0.0723379 0.144676 0.144676 0.144676 0.0723379 0.144676 0.144676 0.289352 0.289352 0.289352 0.0723379 0.144676 0.144676 0.144676 0.0723379 0.144676 0.144676 0.289352 0.289352 0.289352 0.0723379 0.144676 0.144676 0.144676 0.0723379 0.144676 0.144676 0.289352 0.289352 0.289352 0.0723379 0.144676 0.144676 0.144676 0.0723379 0.144676 0.144676 0.289352 0.289352 0.289352 0.0723379 0.144676 0.144676 0.144676 0.0723379 0.144676 0.144676 0.289352 0.289351 0.289352 0.0723379 0.144676 0.144676 0.144676 0.0723379 0.144676 0.144676 0.289352 0.289351 0.289352 0.0723379 0.144676 0.144676 0.144676 0.0723379 0.144676 0.144676 0.289352 0.289351 0.289352 0.0723378 0.144676 0.144676 0.144676 0.0723378 0.144676 0.144676 0.289352 0.289352 0.289352 0.0723379 0.144676 0.144676 0.144676 0.0723379 0.144676 0.144676 0.289352 0.289351 0.289352 0.0723379 0.144676 0.144676 0.144676 0.0723379 0.144676 0.144676 0.289352 0.289352 0.289352 0.0723379 0.144676 0.144676 0.144676 0.0723379 0.144676 0.144676 0.289352 0.289351 0.289352 0.0723379 0.144676 0.144676 0.144676 0.0723379 0.144676 0.144676 0.289352 0.289351 0.289352 0.0723378 0.144676 0.144676 0.144676 0.0723378 0.144676 0.144676 0.289352 0.289352 0.289352 0.0723379 0.144676 0.144676 0.144676 0.0723379 0.144676 0.144676 0.289352 0.289352 0.289352 0.072338 0.144676 0.144676 0.144676 0.072338 0.144676 0.144676 0.289352 0.289351 0.289352 0.0723378 0.144676 0.144676 0.144676 0.0723378 0.144676 0.144676 0.289352 0.289351 0.289351 0.0723378 0.144676 0.144676 0.144676 0.0723378 0.144676 0.144676 0.289352 0.289351 0.289352 0.0723379 0.144676 0.144676 0.144676 0.0723379 0.144676 0.144676 0.289352 0.289352 0.289352 0.0723379 0.144676 0.144676 0.144676 0.0723379 0.0723379 0.144676 0.144676 0.144676 0.289352 0.0723379 0.0723379 0.144676 0.144676 0.0723379 0.289352 0.144676 0.289352 0.289352 0.144676 0.144676 0.144676 0.0723379 0.144676 0.0723379 0.289352 0.289352 0.289352 0.144676 0.144676 0.144676 0.0723379 0.289352 0.289352 0.289352 0.144676 0.144676 0.144676 0.0723379 0.289352 0.289352 0.289352 0.144676 0.144676 0.144676 0.0723379 0.289352 0.289352 0.289352 0.144676 0.144676 0.144676 0.0723379 0.289352 0.289352 0.289352 0.144676 0.144676 0.144676 0.0723379 0.289352 0.289352 0.289352 0.144676 0.144676 0.144676 0.0723379 0.289352 0.289352 0.289352 0.144676 0.144676 0.144676 0.0723379 0.289352 0.289352 0.289352 0.144676 0.144676 0.144676 0.0723379 0.289352 0.289351 0.289352 0.144676 0.144676 0.144676 0.0723379 0.289352 0.289352 0.289352 0.144676 0.144676 0.144676 0.0723379 0.289352 0.289352 0.289352 0.144676 0.144676 0.144676 0.0723379 0.289352 0.289352 0.289352 0.144676 0.144676 0.144676 0.0723379 0.289352 0.289352 0.289352 0.144676 0.144676 0.144676 0.0723379 0.289352 0.289352 0.289352 0.144676 0.144676 0.144676 0.0723379 0.289352 0.289352 0.289352 0.144676 0.144676 0.144676 0.0723379 0.289352 0.289352 0.289352 0.144676 0.144676 0.144676 0.0723379 0.289352 0.289351 0.289352 0.144676 0.144676 0.144676 0.0723379 0.289352 0.289351 0.289352 0.144676 0.144676 0.144676 0.0723379 0.289352 0.289351 0.289352 0.144676 0.144676 0.144676 0.0723378 0.289352 0.289352 0.289352 0.144676 0.144676 0.144676 0.0723379 0.289352 0.289351 0.289352 0.144676 0.144676 0.144676 0.0723379 0.289352 0.289352 0.289352 0.144676 0.144676 0.144676 0.0723379 0.289352 0.289351 0.289352 0.144676 0.144676 0.144676 0.0723379 0.289352 0.289351 0.289352 0.144676 0.144676 0.144676 0.0723378 0.289352 0.289352 0.289352 0.144676 0.144676 0.144676 0.0723379 0.289352 0.289352 0.289352 0.144676 0.144676 0.144676 0.072338 0.289352 0.289351 0.289352 0.144676 0.144676 0.144676 0.0723378 0.289352 0.289351 0.289351 0.144676 0.144676 0.144676 0.0723378 0.289352 0.289351 0.289352 0.144676 0.144676 0.144676 0.0723379 0.289352 0.289352 0.289352 0.144676 0.144676 0.144676 0.0723378 0.144676 0.144676 0.289352 0.0723379 0.144676 0.144676 0.0723379 0.289352 0.144676 0.289352 0.289352 0.144676 0.144676 0.144676 0.0723379 0.144676 0.0723379 0.289352 0.289352 0.289352 0.144676 0.144676 0.144676 0.0723379 0.289352 0.289352 0.289352 0.144676 0.144676 0.144676 0.0723379 0.289352 0.289352 0.289352 0.144676 0.144676 0.144676 0.0723379 0.289352 0.289352 0.289352 0.144676 0.144676 0.144676 0.0723379 0.289352 0.289352 0.289352 0.144676 0.144676 0.144676 0.0723379 0.289352 0.289352 0.289352 0.144676 0.144676 0.144676 0.0723379 0.289352 0.289352 0.289352 0.144676 0.144676 0.144676 0.0723379 0.289352 0.289352 0.289352 0.144676 0.144676 0.144676 0.0723379 0.289352 0.289351 0.289352 0.144676 0.144676 0.144676 0.0723379 0.289352 0.289352 0.289352 0.144676 0.144676 0.144676 0.0723379 0.289352 0.289352 0.289352 0.144676 0.144676 0.144676 0.0723379 0.289352 0.289352 0.289352 0.144676 0.144676 0.144676 0.0723379 0.289352 0.289351 0.289352 0.144676 0.144676 0.144676 0.0723379 0.289352 0.289351 0.289352 0.144676 0.144676 0.144676 0.0723378 0.289352 0.289352 0.289352 0.144676 0.144676 0.144676 0.0723379 0.289352 0.289352 0.289352 0.144676 0.144676 0.144676 0.0723379 0.289352 0.289351 0.289352 0.144676 0.144676 0.144676 0.0723379 0.289352 0.289351 0.289352 0.144676 0.144676 0.144676 0.0723379 0.289352 0.289351 0.289352 0.144676 0.144676 0.144676 0.0723378 0.289352 0.289352 0.289352 0.144676 0.144676 0.144676 0.0723379 0.289352 0.289351 0.289352 0.144676 0.144676 0.144676 0.0723379 0.289352 0.289351 0.289352 0.144676 0.144676 0.144676 0.0723379 0.289352 0.289351 0.289352 0.144676 0.144676 0.144676 0.0723379 0.289352 0.289351 0.289352 0.144676 0.144676 0.144676 0.0723378 0.289352 0.289352 0.289352 0.144676 0.144676 0.144676 0.0723379 0.289352 0.289352 0.289352 0.144676 0.144676 0.144676 0.072338 0.289352 0.289351 0.289352 0.144676 0.144676 0.144676 0.0723378 0.289352 0.289351 0.289351 0.144676 0.144676 0.144676 0.0723378 0.289352 0.289351 0.289352 0.144676 0.144676 0.144676 0.0723379 0.289352 0.289352 0.289352 0.144676 0.144676 0.144676 0.0723378 0.144676 0.144676 0.289352 0.0723379 0.144676 0.144676 0.0723379 0.289352 0.144676 0.289352 0.289352 0.144676 0.144676 0.144676 0.0723379 0.144676 0.0723379 0.289352 0.289352 0.289352 0.144676 0.144676 0.144676 0.0723379 0.289352 0.289352 0.289352 0.144676 0.144676 0.144676 0.0723379 0.289352 0.289352 0.289352 0.144676 0.144676 0.144676 0.0723379 0.289352 0.289352 0.289352 0.144676 0.144676 0.144676 0.0723379 0.289352 0.289352 0.289352 0.144676 0.144676 0.144676 0.0723379 0.289352 0.289352 0.289352 0.144676 0.144676 0.144676 0.0723379 0.289352 0.289352 0.289352 0.144676 0.144676 0.144676 0.0723379 0.289352 0.289352 0.289352 0.144676 0.144676 0.144676 0.0723379 0.289352 0.289351 0.289352 0.144676 0.144676 0.144676 0.0723379 0.289352 0.289351 0.289352 0.144676 0.144676 0.144676 0.0723379 0.289352 0.289352 0.289352 0.144676 0.144676 0.144676 0.0723379 0.289352 0.289352 0.289352 0.144676 0.144676 0.144676 0.0723379 0.289352 0.289351 0.289352 0.144676 0.144676 0.144676 0.0723379 0.289352 0.289351 0.289352 0.144676 0.144676 0.144676 0.0723378 0.289352 0.289352 0.289352 0.144676 0.144676 0.144676 0.0723379 0.289352 0.289351 0.289352 0.144676 0.144676 0.144676 0.0723379 0.289352 0.289351 0.289352 0.144676 0.144676 0.144676 0.0723379 0.289352 0.289351 0.289352 0.144676 0.144676 0.144676 0.0723379 0.289352 0.289351 0.289352 0.144676 0.144676 0.144676 0.0723378 0.289352 0.289352 0.289352 0.144676 0.144676 0.144676 0.0723379 0.289352 0.289351 0.289352 0.144676 0.144676 0.144676 0.0723379 0.289352 0.289351 0.289352 0.144676 0.144676 0.144676 0.0723378 0.289352 0.289351 0.289352 0.144676 0.144676 0.144676 0.0723379 0.289352 0.289351 0.289352 0.144676 0.144676 0.144676 0.0723378 0.289352 0.289352 0.289352 0.144676 0.144676 0.144676 0.0723379 0.289352 0.289352 0.289352 0.144676 0.144676 0.144676 0.072338 0.289352 0.289351 0.289352 0.144676 0.144676 0.144676 0.0723378 0.289352 0.289351 0.289351 0.144676 0.144676 0.144676 0.0723378 0.289352 0.289351 0.289352 0.144676 0.144676 0.144676 0.0723379 0.289352 0.289352 0.289352 0.144676 0.144676 0.144676 0.0723378 0.144676 0.144676 0.289352 0.0723379 0.144676 0.144676 0.0723379 0.289352 0.144676 0.289352 0.289352 0.144676 0.144676 0.144676 0.0723379 0.144676 0.0723379 0.289352 0.289352 0.289352 0.144676 0.144676 0.144676 0.0723379 0.289352 0.289352 0.289352 0.144676 0.144676 0.144676 0.0723379 0.289352 0.289352 0.289352 0.144676 0.144676 0.144676 0.0723379 0.289352 0.289352 0.289352 0.144676 0.144676 0.144676 0.0723379 0.289352 0.289352 0.289352 0.144676 0.144676 0.144676 0.0723379 0.289352 0.289352 0.289352 0.144676 0.144676 0.144676 0.0723379 0.289352 0.289352 0.289352 0.144676 0.144676 0.144676 0.0723379 0.289352 0.289352 0.289352 0.144676 0.144676 0.144676 0.0723379 0.289352 0.289351 0.289352 0.144676 0.144676 0.144676 0.0723379 0.289352 0.289352 0.289352 0.144676 0.144676 0.144676 0.0723379 0.289352 0.289352 0.289352 0.144676 0.144676 0.144676 0.0723379 0.289352 0.289352 0.289352 0.144676 0.144676 0.144676 0.0723379 0.289352 0.289352 0.289352 0.144676 0.144676 0.144676 0.0723379 0.289352 0.289351 0.289352 0.144676 0.144676 0.144676 0.0723378 0.289352 0.289352 0.289352 0.144676 0.144676 0.144676 0.0723379 0.289352 0.289351 0.289352 0.144676 0.144676 0.144676 0.0723379 0.289352 0.289351 0.289352 0.144676 0.144676 0.144676 0.0723379 0.289352 0.289351 0.289352 0.144676 0.144676 0.144676 0.0723379 0.289352 0.289351 0.289352 0.144676 0.144676 0.144676 0.0723378 0.289352 0.289352 0.289352 0.144676 0.144676 0.144676 0.0723379 0.289352 0.289351 0.289352 0.144676 0.144676 0.144676 0.0723379 0.289352 0.289352 0.289352 0.144676 0.144676 0.144676 0.0723378 0.289352 0.289351 0.289352 0.144676 0.144676 0.144676 0.0723379 0.289352 0.289351 0.289352 0.144676 0.144676 0.144676 0.0723378 0.289352 0.289352 0.289352 0.144676 0.144676 0.144676 0.0723379 0.289352 0.289352 0.289352 0.144676 0.144676 0.144676 0.072338 0.289352 0.289351 0.289352 0.144676 0.144676 0.144676 0.0723378 0.289352 0.289351 0.289351 0.144676 0.144676 0.144676 0.0723378 0.289352 0.289351 0.289352 0.144676 0.144676 0.144676 0.0723379 0.289352 0.289352 0.289352 0.144676 0.144676 0.144676 0.0723378 0.144676 0.144676 0.289352 0.0723379 0.144676 0.144676 0.0723379 0.289352 0.144676 0.289352 0.289352 0.144676 0.144676 0.144676 0.0723379 0.144676 0.0723379 0.289352 0.289352 0.289352 0.144676 0.144676 0.144676 0.0723379 0.289352 0.289352 0.289352 0.144676 0.144676 0.144676 0.0723379 0.289352 0.289352 0.289352 0.144676 0.144676 0.144676 0.0723379 0.289352 0.289352 0.289352 0.144676 0.144676 0.144676 0.0723379 0.289352 0.289352 0.289352 0.144676 0.144676 0.144676 0.0723379 0.289352 0.289352 0.289352 0.144676 0.144676 0.144676 0.0723379 0.289352 0.289352 0.289352 0.144676 0.144676 0.144676 0.0723379 0.289352 0.289352 0.289352 0.144676 0.144676 0.144676 0.0723379 0.289352 0.289351 0.289352 0.144676 0.144676 0.144676 0.0723379 0.289352 0.289352 0.289352 0.144676 0.144676 0.144676 0.0723379 0.289352 0.289352 0.289352 0.144676 0.144676 0.144676 0.0723379 0.289352 0.289352 0.289352 0.144676 0.144676 0.144676 0.0723379 0.289352 0.289352 0.289352 0.144676 0.144676 0.144676 0.0723379 0.289352 0.289352 0.289352 0.144676 0.144676 0.144676 0.0723379 0.289352 0.289352 0.289352 0.144676 0.144676 0.144676 0.0723379 0.289352 0.289352 0.289352 0.144676 0.144676 0.144676 0.0723379 0.289352 0.289351 0.289352 0.144676 0.144676 0.144676 0.0723379 0.289352 0.289351 0.289352 0.144676 0.144676 0.144676 0.0723379 0.289352 0.289352 0.289352 0.144676 0.144676 0.144676 0.0723378 0.289352 0.289352 0.289352 0.144676 0.144676 0.144676 0.0723379 0.289352 0.289351 0.289352 0.144676 0.144676 0.144676 0.0723379 0.289352 0.289352 0.289352 0.144676 0.144676 0.144676 0.0723379 0.289352 0.289352 0.289352 0.144676 0.144676 0.144676 0.0723379 0.289352 0.289351 0.289352 0.144676 0.144676 0.144676 0.0723378 0.289352 0.289352 0.289352 0.144676 0.144676 0.144676 0.0723379 0.289352 0.289352 0.289352 0.144676 0.144676 0.144676 0.072338 0.289352 0.289351 0.289352 0.144676 0.144676 0.144676 0.0723378 0.289352 0.289351 0.289351 0.144676 0.144676 0.144676 0.0723378 0.289352 0.289351 0.289352 0.144676 0.144676 0.144676 0.0723379 0.289352 0.289352 0.289352 0.144676 0.144676 0.144676 0.0723379 0.144676 0.144676 0.289352 0.0723379 0.144676 0.144676 0.0723379 0.289352 0.144676 0.289352 0.289352 0.144676 0.144676 0.144676 0.0723379 0.144676 0.0723379 0.289352 0.289352 0.289352 0.144676 0.144676 0.144676 0.0723379 0.289352 0.289352 0.289352 0.144676 0.144676 0.144676 0.0723379 0.289352 0.289352 0.289352 0.144676 0.144676 0.144676 0.0723379 0.289352 0.289352 0.289352 0.144676 0.144676 0.144676 0.0723379 0.289352 0.289352 0.289352 0.144676 0.144676 0.144676 0.0723379 0.289352 0.289352 0.289352 0.144676 0.144676 0.144676 0.0723379 0.289352 0.289352 0.289352 0.144676 0.144676 0.144676 0.0723379 0.289352 0.289352 0.289352 0.144676 0.144676 0.144676 0.0723379 0.289352 0.289351 0.289352 0.144676 0.144676 0.144676 0.0723379 0.289352 0.289352 0.289352 0.144676 0.144676 0.144676 0.0723379 0.289352 0.289352 0.289352 0.144676 0.144676 0.144676 0.0723379 0.289352 0.289352 0.289352 0.144676 0.144676 0.144676 0.0723379 0.289352 0.289352 0.289352 0.144676 0.144676 0.144676 0.0723379 0.289352 0.289351 0.289352 0.144676 0.144676 0.144676 0.0723379 0.289352 0.289352 0.289352 0.144676 0.144676 0.144676 0.0723379 0.289352 0.289351 0.289352 0.144676 0.144676 0.144676 0.0723379 0.289352 0.289351 0.289352 0.144676 0.144676 0.144676 0.0723379 0.289352 0.289351 0.289352 0.144676 0.144676 0.144676 0.0723379 0.289352 0.289351 0.289352 0.144676 0.144676 0.144676 0.0723378 0.289352 0.289352 0.289352 0.144676 0.144676 0.144676 0.0723379 0.289352 0.289351 0.289352 0.144676 0.144676 0.144676 0.0723379 0.289352 0.289352 0.289352 0.144676 0.144676 0.144676 0.0723379 0.289352 0.289351 0.289352 0.144676 0.144676 0.144676 0.0723379 0.289352 0.289351 0.289352 0.144676 0.144676 0.144676 0.0723378 0.289352 0.289352 0.289352 0.144676 0.144676 0.144676 0.0723379 0.289352 0.289352 0.289352 0.144676 0.144676 0.144676 0.072338 0.289352 0.289351 0.289352 0.144676 0.144676 0.144676 0.0723378 0.289352 0.289351 0.289351 0.144676 0.144676 0.144676 0.0723378 0.289352 0.289351 0.289352 0.144676 0.144676 0.144676 0.0723379 0.289352 0.289352 0.289352 0.144676 0.144676 0.144676 0.0723379 0.144676 0.144676 0.289352 0.0723379 0.144676 0.144676 0.0723379 0.289352 0.144676 0.144676 0.144676 0.0723379 0.144676 0.144676 0.0723379 0.0723379 0.0723379 0.289352 0.144676 0.144676 0.144676 0.144676 0.0723379 0.0723379 0.289352 0.144676 0.144676 0.144676 0.144676 0.0723379 0.0723379 0.289352 0.144676 0.144676 0.144676 0.144676 0.0723379 0.0723379 0.289352 0.144676 0.144676 0.144676 0.144676 0.0723379 0.0723379 0.289352 0.144676 0.144676 0.144676 0.144676 0.0723379 0.0723379 0.289352 0.144676 0.144676 0.144676 0.144676 0.0723379 0.0723379 0.289352 0.144676 0.144676 0.144676 0.144676 0.0723379 0.0723379 0.289352 0.144676 0.144676 0.144676 0.144676 0.0723379 0.0723379 0.289352 0.144676 0.144676 0.144676 0.144676 0.0723379 0.0723379 0.289352 0.144676 0.144676 0.144676 0.144676 0.0723379 0.0723379 0.289352 0.144676 0.144676 0.144676 0.144676 0.0723379 0.0723379 0.289352 0.144676 0.144676 0.144676 0.144676 0.0723379 0.0723379 0.289352 0.144676 0.144676 0.144676 0.144676 0.0723379 0.0723379 0.289352 0.144676 0.144676 0.144676 0.144676 0.0723378 0.0723378 0.289352 0.144676 0.144676 0.144676 0.144676 0.0723379 0.0723379 0.289352 0.144676 0.144676 0.144676 0.144676 0.0723379 0.0723379 0.289352 0.144676 0.144676 0.144676 0.144676 0.0723379 0.0723379 0.289352 0.144676 0.144676 0.144676 0.144676 0.0723378 0.0723378 0.289352 0.144676 0.144676 0.144676 0.144676 0.0723378 0.0723378 0.289352 0.144676 0.144676 0.144676 0.144676 0.0723379 0.0723379 0.289352 0.144676 0.144676 0.144676 0.144676 0.0723379 0.0723379 0.289352 0.144676 0.144676 0.144676 0.144676 0.0723378 0.0723378 0.289352 0.144676 0.144676 0.144676 0.144676 0.0723379 0.0723379 0.289352 0.144676 0.144676 0.144676 0.144676 0.0723378 0.0723378 0.289352 0.144676 0.144676 0.144676 0.144676 0.0723379 0.0723379 0.289352 0.144676 0.144676 0.144676 0.144676 0.072338 0.072338 0.289351 0.144676 0.144676 0.144676 0.144676 0.0723378 0.0723378 0.289352 0.144676 0.144676 0.144676 0.144676 0.0723378 0.0723378 0.289352 0.144676 0.144676 0.144676 0.144676 0.0723379 0.0723379 0.289352 0.144676 0.144676 0.144676 0.144676 0.0723378 0.0723378 0.144676 0.0723379 0.144676 0.0723379 0.144676 0.0723379 0.0723379 0.144676 0.144676 0.0723381 0.289352 0.144676 0.289352 0.289352 0.144676 0.0723381 0.144676 0.144676 0.0723381 0.144676 0.0723381 0.144676 0.144676 0.289352 0.289352 0.289352 0.0723381 0.144676 0.144676 0.144676 0.0723381 0.144676 0.144676 0.289352 0.289352 0.289352 0.0723381 0.144676 0.144676 0.144676 0.0723381 0.144676 0.144676 0.289352 0.289352 0.289352 0.0723381 0.144676 0.144676 0.144676 0.0723381 0.144676 0.144676 0.289352 0.289352 0.289352 0.0723381 0.144676 0.144676 0.144676 0.0723381 0.144676 0.144676 0.289352 0.289352 0.289352 0.0723381 0.144676 0.144676 0.144676 0.0723381 0.144676 0.144676 0.289352 0.289352 0.289352 0.0723381 0.144676 0.144676 0.144676 0.0723381 0.144676 0.144676 0.289352 0.289352 0.289352 0.0723381 0.144676 0.144676 0.144676 0.0723381 0.144676 0.144676 0.289352 0.289352 0.289352 0.0723381 0.144676 0.144676 0.144676 0.0723381 0.144676 0.144676 0.289352 0.289352 0.289352 0.072338 0.144676 0.144676 0.144676 0.072338 0.144676 0.144676 0.289352 0.289352 0.289352 0.072338 0.144676 0.144676 0.144676 0.072338 0.144676 0.144676 0.289352 0.289352 0.289352 0.0723381 0.144676 0.144676 0.144676 0.0723381 0.144676 0.144676 0.289352 0.289352 0.289352 0.0723381 0.144676 0.144676 0.144676 0.0723381 0.144676 0.144676 0.289352 0.289352 0.289352 0.0723381 0.144676 0.144676 0.144676 0.0723381 0.144676 0.144676 0.289352 0.289352 0.289352 0.072338 0.144676 0.144676 0.144676 0.072338 0.144676 0.144676 0.289352 0.289352 0.289352 0.0723381 0.144676 0.144676 0.144676 0.0723381 0.144676 0.144676 0.289352 0.289352 0.289352 0.0723381 0.144676 0.144676 0.144676 0.0723381 0.144676 0.144676 0.289352 0.289352 0.289352 0.072338 0.144676 0.144676 0.144676 0.072338 0.144676 0.144676 0.289352 0.289352 0.289352 0.072338 0.144676 0.144676 0.144676 0.072338 0.144676 0.144676 0.289352 0.289352 0.289352 0.072338 0.144676 0.144676 0.144676 0.072338 0.144676 0.144676 0.289352 0.289352 0.289352 0.0723381 0.144676 0.144676 0.144676 0.0723381 0.144676 0.144676 0.289352 0.289352 0.289352 0.0723381 0.144676 0.144676 0.144676 0.0723381 0.144676 0.144676 0.289352 0.289352 0.289352 0.072338 0.144676 0.144676 0.144676 0.072338 0.144676 0.144676 0.289352 0.289352 0.289352 0.0723381 0.144676 0.144676 0.144676 0.0723381 0.144676 0.144676 0.289352 0.289352 0.289352 0.072338 0.144676 0.144676 0.144676 0.072338 0.144676 0.144676 0.289352 0.289352 0.289352 0.0723381 0.144676 0.144676 0.144676 0.0723381 0.144676 0.144676 0.289352 0.289352 0.289352 0.0723382 0.144676 0.144676 0.144676 0.0723382 0.144676 0.144676 0.289352 0.289352 0.289352 0.072338 0.144676 0.144676 0.144676 0.072338 0.144676 0.144676 0.289352 0.289352 0.289351 0.0723379 0.144676 0.144676 0.144676 0.0723379 0.144676 0.144676 0.289352 0.289352 0.289352 0.0723381 0.144676 0.144676 0.144676 0.0723381 0.144676 0.144676 0.289352 0.289352 0.289352 0.072338 0.144676 0.144676 0.144676 0.072338 0.0723381 0.144676 0.144676 0.144676 0.289352 0.0723381 0.0723381 0.144676 0.144676 0.0723381 0.289352 0.144676 0.289352 0.289352 0.144676 0.144676 0.144676 0.0723381 0.144676 0.0723381 0.289352 0.289352 0.289352 0.144676 0.144676 0.144676 0.0723381 0.289352 0.289352 0.289352 0.144676 0.144676 0.144676 0.0723381 0.289352 0.289352 0.289352 0.144676 0.144676 0.144676 0.0723381 0.289352 0.289352 0.289352 0.144676 0.144676 0.144676 0.0723381 0.289352 0.289352 0.289352 0.144676 0.144676 0.144676 0.0723381 0.289352 0.289352 0.289352 0.144676 0.144676 0.144676 0.0723381 0.289352 0.289352 0.289352 0.144676 0.144676 0.144676 0.0723381 0.289352 0.289352 0.289352 0.144676 0.144676 0.144676 0.0723381 0.289352 0.289352 0.289352 0.144676 0.144676 0.144676 0.0723381 0.289352 0.289352 0.289352 0.144676 0.144676 0.144676 0.072338 0.289352 0.289352 0.289352 0.144676 0.144676 0.144676 0.0723381 0.289352 0.289352 0.289352 0.144676 0.144676 0.144676 0.0723381 0.289352 0.289352 0.289352 0.144676 0.144676 0.144676 0.0723381 0.289352 0.289352 0.289352 0.144676 0.144676 0.144676 0.072338 0.289352 0.289352 0.289352 0.144676 0.144676 0.144676 0.0723381 0.289352 0.289352 0.289352 0.144676 0.144676 0.144676 0.0723381 0.289352 0.289352 0.289352 0.144676 0.144676 0.144676 0.072338 0.289352 0.289352 0.289352 0.144676 0.144676 0.144676 0.072338 0.289352 0.289352 0.289352 0.144676 0.144676 0.144676 0.072338 0.289352 0.289352 0.289352 0.144676 0.144676 0.144676 0.0723381 0.289352 0.289352 0.289352 0.144676 0.144676 0.144676 0.072338 0.289352 0.289352 0.289352 0.144676 0.144676 0.144676 0.072338 0.289352 0.289352 0.289352 0.144676 0.144676 0.144676 0.0723381 0.289352 0.289352 0.289352 0.144676 0.144676 0.144676 0.072338 0.289352 0.289352 0.289352 0.144676 0.144676 0.144676 0.0723381 0.289352 0.289352 0.289352 0.144676 0.144676 0.144676 0.0723381 0.289352 0.289352 0.289352 0.144676 0.144676 0.144676 0.072338 0.289352 0.289352 0.289351 0.144676 0.144676 0.144676 0.0723379 0.289352 0.289352 0.289352 0.144676 0.144676 0.144676 0.0723381 0.289352 0.289352 0.289352 0.144676 0.144676 0.144676 0.072338 0.144676 0.144676 0.289352 0.0723381 0.144676 0.144676 0.0723381 0.289352 0.144676 0.289352 0.289352 0.144676 0.144676 0.144676 0.0723381 0.144676 0.0723381 0.289352 0.289352 0.289352 0.144676 0.144676 0.144676 0.0723381 0.289352 0.289352 0.289352 0.144676 0.144676 0.144676 0.0723381 0.289352 0.289352 0.289352 0.144676 0.144676 0.144676 0.0723381 0.289352 0.289352 0.289352 0.144676 0.144676 0.144676 0.0723381 0.289352 0.289352 0.289352 0.144676 0.144676 0.144676 0.0723381 0.289352 0.289352 0.289352 0.144676 0.144676 0.144676 0.0723381 0.289352 0.289352 0.289352 0.144676 0.144676 0.144676 0.0723381 0.289352 0.289352 0.289352 0.144676 0.144676 0.144676 0.0723381 0.289352 0.289352 0.289352 0.144676 0.144676 0.144676 0.072338 0.289352 0.289352 0.289352 0.144676 0.144676 0.144676 0.072338 0.289352 0.289352 0.289352 0.144676 0.144676 0.144676 0.0723381 0.289352 0.289352 0.289352 0.144676 0.144676 0.144676 0.0723381 0.289352 0.289352 0.289352 0.144676 0.144676 0.144676 0.0723381 0.289352 0.289352 0.289352 0.144676 0.144676 0.144676 0.072338 0.289352 0.289352 0.289352 0.144676 0.144676 0.144676 0.0723381 0.289352 0.289352 0.289352 0.144676 0.144676 0.144676 0.0723381 0.289352 0.289352 0.289352 0.144676 0.144676 0.144676 0.072338 0.289352 0.289352 0.289352 0.144676 0.144676 0.144676 0.072338 0.289352 0.289352 0.289352 0.144676 0.144676 0.144676 0.072338 0.289352 0.289352 0.289352 0.144676 0.144676 0.144676 0.0723381 0.289352 0.289352 0.289352 0.144676 0.144676 0.144676 0.0723381 0.289352 0.289352 0.289352 0.144676 0.144676 0.144676 0.072338 0.289352 0.289352 0.289352 0.144676 0.144676 0.144676 0.0723381 0.289352 0.289352 0.289352 0.144676 0.144676 0.144676 0.072338 0.289352 0.289352 0.289352 0.144676 0.144676 0.144676 0.0723381 0.289352 0.289352 0.289352 0.144676 0.144676 0.144676 0.0723382 0.289352 0.289352 0.289352 0.144676 0.144676 0.144676 0.072338 0.289352 0.289352 0.289351 0.144676 0.144676 0.144676 0.0723379 0.289352 0.289352 0.289352 0.144676 0.144676 0.144676 0.0723381 0.289352 0.289352 0.289352 0.144676 0.144676 0.144676 0.072338 0.144676 0.144676 0.289352 0.0723381 0.144676 0.144676 0.0723381 0.289352 0.144676 0.289352 0.289352 0.144676 0.144676 0.144676 0.0723381 0.144676 0.0723381 0.289352 0.289352 0.289352 0.144676 0.144676 0.144676 0.0723381 0.289352 0.289352 0.289352 0.144676 0.144676 0.144676 0.0723381 0.289352 0.289352 0.289352 0.144676 0.144676 0.144676 0.072338 0.289352 0.289352 0.289352 0.144676 0.144676 0.144676 0.072338 0.289352 0.289352 0.289352 0.144676 0.144676 0.144676 0.0723381 0.289352 0.289352 0.289352 0.144676 0.144676 0.144676 0.0723381 0.289352 0.289352 0.289352 0.144676 0.144676 0.144676 0.072338 0.289352 0.289352 0.289352 0.144676 0.144676 0.144676 0.0723381 0.289352 0.289352 0.289352 0.144676 0.144676 0.144676 0.072338 0.289352 0.289352 0.289352 0.144676 0.144676 0.144676 0.072338 0.289352 0.289352 0.289352 0.144676 0.144676 0.144676 0.0723381 0.289352 0.289352 0.289352 0.144676 0.144676 0.144676 0.0723381 0.289352 0.289352 0.289352 0.144676 0.144676 0.144676 0.0723381 0.289352 0.289352 0.289352 0.144676 0.144676 0.144676 0.072338 0.289352 0.289352 0.289352 0.144676 0.144676 0.144676 0.0723381 0.289352 0.289352 0.289352 0.144676 0.144676 0.144676 0.0723381 0.289352 0.289352 0.289352 0.144676 0.144676 0.144676 0.072338 0.289352 0.289352 0.289352 0.144676 0.144676 0.144676 0.072338 0.289352 0.289352 0.289352 0.144676 0.144676 0.144676 0.072338 0.289352 0.289352 0.289352 0.144676 0.144676 0.144676 0.0723381 0.289352 0.289352 0.289352 0.144676 0.144676 0.144676 0.072338 0.289352 0.289352 0.289352 0.144676 0.144676 0.144676 0.072338 0.289352 0.289352 0.289352 0.144676 0.144676 0.144676 0.0723381 0.289352 0.289352 0.289352 0.144676 0.144676 0.144676 0.072338 0.289352 0.289352 0.289352 0.144676 0.144676 0.144676 0.072338 0.289352 0.289352 0.289352 0.144676 0.144676 0.144676 0.0723381 0.289352 0.289352 0.289352 0.144676 0.144676 0.144676 0.072338 0.289352 0.289352 0.289351 0.144676 0.144676 0.144676 0.0723379 0.289352 0.289352 0.289352 0.144676 0.144676 0.144676 0.0723381 0.289352 0.289352 0.289352 0.144676 0.144676 0.144676 0.072338 0.144676 0.144676 0.289352 0.0723381 0.144676 0.144676 0.0723381 0.289352 0.144676 0.289352 0.289352 0.144676 0.144676 0.144676 0.0723381 0.144676 0.0723381 0.289352 0.289352 0.289352 0.144676 0.144676 0.144676 0.0723381 0.289352 0.289352 0.289352 0.144676 0.144676 0.144676 0.0723381 0.289352 0.289352 0.289352 0.144676 0.144676 0.144676 0.072338 0.289352 0.289352 0.289352 0.144676 0.144676 0.144676 0.0723381 0.289352 0.289352 0.289352 0.144676 0.144676 0.144676 0.0723381 0.289352 0.289352 0.289352 0.144676 0.144676 0.144676 0.0723381 0.289352 0.289352 0.289352 0.144676 0.144676 0.144676 0.0723381 0.289352 0.289352 0.289352 0.144676 0.144676 0.144676 0.0723381 0.289352 0.289352 0.289352 0.144676 0.144676 0.144676 0.072338 0.289352 0.289352 0.289352 0.144676 0.144676 0.144676 0.072338 0.289352 0.289352 0.289352 0.144676 0.144676 0.144676 0.0723381 0.289352 0.289352 0.289352 0.144676 0.144676 0.144676 0.0723381 0.289352 0.289352 0.289352 0.144676 0.144676 0.144676 0.0723381 0.289352 0.289352 0.289352 0.144676 0.144676 0.144676 0.072338 0.289352 0.289352 0.289352 0.144676 0.144676 0.144676 0.0723381 0.289352 0.289352 0.289352 0.144676 0.144676 0.144676 0.0723381 0.289352 0.289352 0.289352 0.144676 0.144676 0.144676 0.072338 0.289352 0.289352 0.289352 0.144676 0.144676 0.144676 0.072338 0.289352 0.289352 0.289352 0.144676 0.144676 0.144676 0.072338 0.289352 0.289352 0.289352 0.144676 0.144676 0.144676 0.0723381 0.289352 0.289352 0.289352 0.144676 0.144676 0.144676 0.072338 0.289352 0.289352 0.289352 0.144676 0.144676 0.144676 0.072338 0.289352 0.289352 0.289352 0.144676 0.144676 0.144676 0.0723381 0.289352 0.289352 0.289352 0.144676 0.144676 0.144676 0.072338 0.289352 0.289352 0.289352 0.144676 0.144676 0.144676 0.0723381 0.289352 0.289352 0.289352 0.144676 0.144676 0.144676 0.0723381 0.289352 0.289352 0.289352 0.144676 0.144676 0.144676 0.072338 0.289352 0.289352 0.289351 0.144676 0.144676 0.144676 0.0723379 0.289352 0.289352 0.289352 0.144676 0.144676 0.144676 0.0723381 0.289352 0.289352 0.289352 0.144676 0.144676 0.144676 0.072338 0.144676 0.144676 0.289352 0.0723381 0.144676 0.144676 0.0723381 0.289352 0.144676 0.289352 0.289352 0.144676 0.144676 0.144676 0.0723381 0.144676 0.0723381 0.289352 0.289352 0.289352 0.144676 0.144676 0.144676 0.0723381 0.289352 0.289352 0.289352 0.144676 0.144676 0.144676 0.0723381 0.289352 0.289352 0.289352 0.144676 0.144676 0.144676 0.0723381 0.289352 0.289352 0.289352 0.144676 0.144676 0.144676 0.0723381 0.289352 0.289352 0.289352 0.144676 0.144676 0.144676 0.0723381 0.289352 0.289352 0.289352 0.144676 0.144676 0.144676 0.0723381 0.289352 0.289352 0.289352 0.144676 0.144676 0.144676 0.0723381 0.289352 0.289352 0.289352 0.144676 0.144676 0.144676 0.0723381 0.289352 0.289352 0.289352 0.144676 0.144676 0.144676 0.072338 0.289352 0.289352 0.289352 0.144676 0.144676 0.144676 0.072338 0.289352 0.289352 0.289352 0.144676 0.144676 0.144676 0.0723381 0.289352 0.289352 0.289352 0.144676 0.144676 0.144676 0.0723381 0.289352 0.289352 0.289352 0.144676 0.144676 0.144676 0.0723381 0.289352 0.289352 0.289352 0.144676 0.144676 0.144676 0.072338 0.289352 0.289352 0.289352 0.144676 0.144676 0.144676 0.0723381 0.289352 0.289352 0.289352 0.144676 0.144676 0.144676 0.0723381 0.289352 0.289352 0.289352 0.144676 0.144676 0.144676 0.072338 0.289352 0.289352 0.289352 0.144676 0.144676 0.144676 0.072338 0.289352 0.289352 0.289352 0.144676 0.144676 0.144676 0.072338 0.289352 0.289352 0.289352 0.144676 0.144676 0.144676 0.0723381 0.289352 0.289352 0.289352 0.144676 0.144676 0.144676 0.0723381 0.289352 0.289352 0.289352 0.144676 0.144676 0.144676 0.072338 0.289352 0.289352 0.289352 0.144676 0.144676 0.144676 0.0723381 0.289352 0.289352 0.289352 0.144676 0.144676 0.144676 0.072338 0.289352 0.289352 0.289352 0.144676 0.144676 0.144676 0.0723381 0.289352 0.289352 0.289352 0.144676 0.144676 0.144676 0.0723382 0.289352 0.289352 0.289352 0.144676 0.144676 0.144676 0.072338 0.289352 0.289352 0.289351 0.144676 0.144676 0.144676 0.0723379 0.289352 0.289352 0.289352 0.144676 0.144676 0.144676 0.0723381 0.289352 0.289352 0.289352 0.144676 0.144676 0.144676 0.072338 0.144676 0.144676 0.289352 0.0723381 0.144676 0.144676 0.0723381 0.289352 0.144676 0.289352 0.289352 0.144676 0.144676 0.144676 0.0723381 0.144676 0.0723381 0.289352 0.289352 0.289352 0.144676 0.144676 0.144676 0.0723381 0.289352 0.289352 0.289352 0.144676 0.144676 0.144676 0.0723381 0.289352 0.289352 0.289352 0.144676 0.144676 0.144676 0.0723381 0.289352 0.289352 0.289352 0.144676 0.144676 0.144676 0.0723381 0.289352 0.289352 0.289352 0.144676 0.144676 0.144676 0.0723381 0.289352 0.289352 0.289352 0.144676 0.144676 0.144676 0.0723381 0.289352 0.289352 0.289352 0.144676 0.144676 0.144676 0.0723381 0.289352 0.289352 0.289352 0.144676 0.144676 0.144676 0.0723381 0.289352 0.289352 0.289352 0.144676 0.144676 0.144676 0.072338 0.289352 0.289352 0.289352 0.144676 0.144676 0.144676 0.0723381 0.289352 0.289352 0.289352 0.144676 0.144676 0.144676 0.0723381 0.289352 0.289352 0.289352 0.144676 0.144676 0.144676 0.0723381 0.289352 0.289352 0.289352 0.144676 0.144676 0.144676 0.0723381 0.289352 0.289352 0.289352 0.144676 0.144676 0.144676 0.072338 0.289352 0.289352 0.289352 0.144676 0.144676 0.144676 0.0723381 0.289352 0.289352 0.289352 0.144676 0.144676 0.144676 0.0723381 0.289352 0.289352 0.289352 0.144676 0.144676 0.144676 0.0723381 0.289352 0.289352 0.289352 0.144676 0.144676 0.144676 0.072338 0.289352 0.289352 0.289352 0.144676 0.144676 0.144676 0.072338 0.289352 0.289352 0.289352 0.144676 0.144676 0.144676 0.0723381 0.289352 0.289352 0.289352 0.144676 0.144676 0.144676 0.0723381 0.289352 0.289352 0.289352 0.144676 0.144676 0.144676 0.072338 0.289352 0.289352 0.289352 0.144676 0.144676 0.144676 0.0723381 0.289352 0.289352 0.289352 0.144676 0.144676 0.144676 0.072338 0.289352 0.289352 0.289352 0.144676 0.144676 0.144676 0.072338 0.289352 0.289352 0.289352 0.144676 0.144676 0.144676 0.0723382 0.289352 0.289352 0.289352 0.144676 0.144676 0.144676 0.072338 0.289352 0.289352 0.289351 0.144676 0.144676 0.144676 0.0723379 0.289352 0.289352 0.289352 0.144676 0.144676 0.144676 0.0723381 0.289352 0.289352 0.289352 0.144676 0.144676 0.144676 0.072338 0.144676 0.144676 0.289352 0.0723381 0.144676 0.144676 0.0723381 0.289352 0.144676 0.144676 0.144676 0.0723381 0.144676 0.144676 0.0723381 0.0723381 0.0723381 0.289352 0.144676 0.144676 0.144676 0.144676 0.0723381 0.0723381 0.289352 0.144676 0.144676 0.144676 0.144676 0.0723381 0.0723381 0.289352 0.144676 0.144676 0.144676 0.144676 0.072338 0.072338 0.289352 0.144676 0.144676 0.144676 0.144676 0.072338 0.072338 0.289352 0.144676 0.144676 0.144676 0.144676 0.0723381 0.0723381 0.289352 0.144676 0.144676 0.144676 0.144676 0.0723381 0.0723381 0.289352 0.144676 0.144676 0.144676 0.144676 0.072338 0.072338 0.289352 0.144676 0.144676 0.144676 0.144676 0.0723381 0.0723381 0.289352 0.144676 0.144676 0.144676 0.144676 0.072338 0.072338 0.289352 0.144676 0.144676 0.144676 0.144676 0.072338 0.072338 0.289352 0.144676 0.144676 0.144676 0.144676 0.0723381 0.0723381 0.289352 0.144676 0.144676 0.144676 0.144676 0.0723381 0.0723381 0.289352 0.144676 0.144676 0.144676 0.144676 0.0723381 0.0723381 0.289352 0.144676 0.144676 0.144676 0.144676 0.072338 0.072338 0.289352 0.144676 0.144676 0.144676 0.144676 0.0723381 0.0723381 0.289352 0.144676 0.144676 0.144676 0.144676 0.0723381 0.0723381 0.289352 0.144676 0.144676 0.144676 0.144676 0.072338 0.072338 0.289352 0.144676 0.144676 0.144676 0.144676 0.072338 0.072338 0.289352 0.144676 0.144676 0.144676 0.144676 0.072338 0.072338 0.289352 0.144676 0.144676 0.144676 0.144676 0.0723381 0.0723381 0.289352 0.144676 0.144676 0.144676 0.144676 0.072338 0.072338 0.289352 0.144676 0.144676 0.144676 0.144676 0.072338 0.072338 0.289352 0.144676 0.144676 0.144676 0.144676 0.0723381 0.0723381 0.289352 0.144676 0.144676 0.144676 0.144676 0.072338 0.072338 0.289352 0.144676 0.144676 0.144676 0.144676 0.072338 0.072338 0.289352 0.144676 0.144676 0.144676 0.144676 0.0723381 0.0723381 0.289352 0.144676 0.144676 0.144676 0.144676 0.072338 0.072338 0.289352 0.144676 0.144676 0.144676 0.144676 0.0723379 0.0723379 0.289352 0.144676 0.144676 0.144676 0.144676 0.0723381 0.0723381 0.289352 0.144676 0.144676 0.144676 0.144676 0.072338 0.072338 0.144676 0.0723381 0.144676 0.0723381 0.144676 0.0723381 0.0723381 0.144676 0.144676 0.0723379 0.289352 0.144676 0.289352 0.289352 0.144676 0.0723379 0.144676 0.144676 0.0723379 0.144676 0.0723379 0.144676 0.144676 0.289352 0.289352 0.289352 0.0723379 0.144676 0.144676 0.144676 0.0723379 0.144676 0.144676 0.289352 0.289352 0.289352 0.0723379 0.144676 0.144676 0.144676 0.0723379 0.144676 0.144676 0.289352 0.289352 0.289352 0.0723379 0.144676 0.144676 0.144676 0.0723379 0.144676 0.144676 0.289352 0.289352 0.289352 0.0723379 0.144676 0.144676 0.144676 0.0723379 0.144676 0.144676 0.289352 0.289352 0.289352 0.0723379 0.144676 0.144676 0.144676 0.0723379 0.144676 0.144676 0.289352 0.289352 0.289352 0.0723379 0.144676 0.144676 0.144676 0.0723379 0.144676 0.144676 0.289352 0.289352 0.289352 0.0723379 0.144676 0.144676 0.144676 0.0723379 0.144676 0.144676 0.289352 0.289352 0.289352 0.0723379 0.144676 0.144676 0.144676 0.0723379 0.144676 0.144676 0.289352 0.289352 0.289352 0.0723379 0.144676 0.144676 0.144676 0.0723379 0.144676 0.144676 0.289352 0.289352 0.289352 0.0723379 0.144676 0.144676 0.144676 0.0723379 0.144676 0.144676 0.289352 0.289352 0.289352 0.0723379 0.144676 0.144676 0.144676 0.0723379 0.144676 0.144676 0.289352 0.289352 0.289352 0.0723379 0.144676 0.144676 0.144676 0.0723379 0.144676 0.144676 0.289352 0.289352 0.289352 0.072338 0.144676 0.144676 0.144676 0.072338 0.144676 0.144676 0.289352 0.289352 0.289352 0.0723379 0.144676 0.144676 0.144676 0.0723379 0.144676 0.144676 0.289352 0.289352 0.289352 0.0723379 0.144676 0.144676 0.144676 0.0723379 0.144676 0.144676 0.289352 0.289352 0.289352 0.0723379 0.144676 0.144676 0.144676 0.0723379 0.144676 0.144676 0.289352 0.289352 0.289352 0.0723379 0.144676 0.144676 0.144676 0.0723379 0.144676 0.144676 0.289352 0.289352 0.289352 0.0723379 0.144676 0.144676 0.144676 0.0723379 0.144676 0.144676 0.289352 0.289352 0.289352 0.0723379 0.144676 0.144676 0.144676 0.0723379 0.144676 0.144676 0.289352 0.289352 0.289352 0.0723379 0.144676 0.144676 0.144676 0.0723379 0.144676 0.144676 0.289352 0.289352 0.289352 0.0723379 0.144676 0.144676 0.144676 0.0723379 0.144676 0.144676 0.289352 0.289352 0.289352 0.0723379 0.144676 0.144676 0.144676 0.0723379 0.144676 0.144676 0.289352 0.289352 0.289352 0.072338 0.144676 0.144676 0.144676 0.072338 0.144676 0.144676 0.289352 0.289352 0.289352 0.0723379 0.144676 0.144676 0.144676 0.0723379 0.144676 0.144676 0.289352 0.289352 0.289352 0.0723379 0.144676 0.144676 0.144676 0.0723379 0.144676 0.144676 0.289352 0.289352 0.289352 0.072338 0.144676 0.144676 0.144676 0.072338 0.144676 0.144676 0.289351 0.289351 0.289352 0.0723379 0.144676 0.144676 0.144676 0.0723379 0.144676 0.144676 0.289352 0.289352 0.289351 0.0723378 0.144676 0.144676 0.144676 0.0723378 0.144676 0.144676 0.289352 0.289352 0.289352 0.0723379 0.144676 0.144676 0.144676 0.0723379 0.144676 0.144676 0.289352 0.289352 0.289352 0.0723379 0.144676 0.144676 0.144676 0.0723379 0.072338 0.144676 0.144676 0.144676 0.289352 0.072338 0.072338 0.144676 0.144676 0.072338 0.289352 0.144676 0.289352 0.289352 0.144676 0.144676 0.144676 0.0723379 0.144676 0.0723379 0.289352 0.289352 0.289352 0.144676 0.144676 0.144676 0.0723379 0.289352 0.289352 0.289352 0.144676 0.144676 0.144676 0.0723379 0.289352 0.289352 0.289352 0.144676 0.144676 0.144676 0.0723379 0.289352 0.289352 0.289352 0.144676 0.144676 0.144676 0.0723379 0.289352 0.289352 0.289352 0.144676 0.144676 0.144676 0.0723379 0.289352 0.289352 0.289352 0.144676 0.144676 0.144676 0.0723379 0.289352 0.289352 0.289352 0.144676 0.144676 0.144676 0.0723379 0.289352 0.289352 0.289352 0.144676 0.144676 0.144676 0.0723379 0.289352 0.289352 0.289352 0.144676 0.144676 0.144676 0.0723379 0.289352 0.289352 0.289352 0.144676 0.144676 0.144676 0.0723379 0.289352 0.289352 0.289352 0.144676 0.144676 0.144676 0.0723379 0.289352 0.289352 0.289352 0.144676 0.144676 0.144676 0.0723379 0.289352 0.289352 0.289352 0.144676 0.144676 0.144676 0.072338 0.289352 0.289352 0.289352 0.144676 0.144676 0.144676 0.0723379 0.289352 0.289352 0.289352 0.144676 0.144676 0.144676 0.0723379 0.289352 0.289352 0.289352 0.144676 0.144676 0.144676 0.0723379 0.289352 0.289352 0.289352 0.144676 0.144676 0.144676 0.0723379 0.289352 0.289352 0.289352 0.144676 0.144676 0.144676 0.0723379 0.289352 0.289352 0.289352 0.144676 0.144676 0.144676 0.0723379 0.289352 0.289352 0.289352 0.144676 0.144676 0.144676 0.0723379 0.289352 0.289352 0.289352 0.144676 0.144676 0.144676 0.0723379 0.289352 0.289352 0.289352 0.144676 0.144676 0.144676 0.0723379 0.289352 0.289352 0.289352 0.144676 0.144676 0.144676 0.072338 0.289352 0.289352 0.289352 0.144676 0.144676 0.144676 0.0723379 0.289352 0.289352 0.289352 0.144676 0.144676 0.144676 0.0723379 0.289352 0.289352 0.289352 0.144676 0.144676 0.144676 0.072338 0.289351 0.289351 0.289352 0.144676 0.144676 0.144676 0.0723379 0.289352 0.289351 0.289351 0.144676 0.144676 0.144676 0.0723378 0.289352 0.289352 0.289352 0.144676 0.144676 0.144676 0.0723379 0.289352 0.289352 0.289352 0.144676 0.144676 0.144676 0.0723379 0.144676 0.144676 0.289352 0.072338 0.144676 0.144676 0.072338 0.289352 0.144676 0.289352 0.289352 0.144676 0.144676 0.144676 0.0723379 0.144676 0.0723379 0.289352 0.289352 0.289352 0.144676 0.144676 0.144676 0.0723379 0.289352 0.289352 0.289352 0.144676 0.144676 0.144676 0.072338 0.289352 0.289352 0.289352 0.144676 0.144676 0.144676 0.0723379 0.289352 0.289352 0.289352 0.144676 0.144676 0.144676 0.0723379 0.289352 0.289352 0.289352 0.144676 0.144676 0.144676 0.0723379 0.289352 0.289352 0.289352 0.144676 0.144676 0.144676 0.0723379 0.289352 0.289352 0.289352 0.144676 0.144676 0.144676 0.0723379 0.289352 0.289352 0.289352 0.144676 0.144676 0.144676 0.0723379 0.289352 0.289352 0.289352 0.144676 0.144676 0.144676 0.0723379 0.289352 0.289352 0.289352 0.144676 0.144676 0.144676 0.0723379 0.289352 0.289352 0.289352 0.144676 0.144676 0.144676 0.0723379 0.289352 0.289352 0.289352 0.144676 0.144676 0.144676 0.0723379 0.289352 0.289352 0.289352 0.144676 0.144676 0.144676 0.072338 0.289352 0.289352 0.289352 0.144676 0.144676 0.144676 0.0723379 0.289352 0.289352 0.289352 0.144676 0.144676 0.144676 0.072338 0.289352 0.289352 0.289352 0.144676 0.144676 0.144676 0.0723379 0.289352 0.289352 0.289352 0.144676 0.144676 0.144676 0.0723379 0.289352 0.289352 0.289352 0.144676 0.144676 0.144676 0.0723379 0.289352 0.289352 0.289352 0.144676 0.144676 0.144676 0.0723379 0.289352 0.289352 0.289352 0.144676 0.144676 0.144676 0.072338 0.289352 0.289352 0.289352 0.144676 0.144676 0.144676 0.0723379 0.289352 0.289352 0.289352 0.144676 0.144676 0.144676 0.0723379 0.289352 0.289352 0.289352 0.144676 0.144676 0.144676 0.072338 0.289352 0.289352 0.289352 0.144676 0.144676 0.144676 0.0723379 0.289352 0.289352 0.289352 0.144676 0.144676 0.144676 0.0723379 0.289352 0.289352 0.289352 0.144676 0.144676 0.144676 0.072338 0.289351 0.289351 0.289352 0.144676 0.144676 0.144676 0.0723379 0.289352 0.289351 0.289351 0.144676 0.144676 0.144676 0.0723378 0.289352 0.289352 0.289352 0.144676 0.144676 0.144676 0.0723379 0.289352 0.289352 0.289352 0.144676 0.144676 0.144676 0.0723379 0.144676 0.144676 0.289352 0.072338 0.144676 0.144676 0.072338 0.289352 0.144676 0.289352 0.289352 0.144676 0.144676 0.144676 0.0723379 0.144676 0.0723379 0.289352 0.289352 0.289352 0.144676 0.144676 0.144676 0.0723379 0.289352 0.289352 0.289352 0.144676 0.144676 0.144676 0.0723379 0.289352 0.289352 0.289352 0.144676 0.144676 0.144676 0.0723379 0.289352 0.289352 0.289352 0.144676 0.144676 0.144676 0.0723379 0.289352 0.289352 0.289352 0.144676 0.144676 0.144676 0.0723379 0.289352 0.289352 0.289352 0.144676 0.144676 0.144676 0.0723379 0.289352 0.289352 0.289352 0.144676 0.144676 0.144676 0.0723379 0.289352 0.289352 0.289352 0.144676 0.144676 0.144676 0.0723379 0.289352 0.289352 0.289352 0.144676 0.144676 0.144676 0.0723379 0.289352 0.289352 0.289352 0.144676 0.144676 0.144676 0.0723379 0.289352 0.289352 0.289352 0.144676 0.144676 0.144676 0.0723379 0.289352 0.289352 0.289352 0.144676 0.144676 0.144676 0.0723379 0.289352 0.289352 0.289352 0.144676 0.144676 0.144676 0.0723379 0.289352 0.289352 0.289352 0.144676 0.144676 0.144676 0.0723379 0.289352 0.289352 0.289352 0.144676 0.144676 0.144676 0.0723379 0.289352 0.289352 0.289352 0.144676 0.144676 0.144676 0.0723379 0.289352 0.289352 0.289352 0.144676 0.144676 0.144676 0.0723379 0.289352 0.289352 0.289352 0.144676 0.144676 0.144676 0.0723379 0.289352 0.289352 0.289352 0.144676 0.144676 0.144676 0.0723379 0.289352 0.289352 0.289352 0.144676 0.144676 0.144676 0.0723379 0.289352 0.289352 0.289352 0.144676 0.144676 0.144676 0.0723379 0.289352 0.289352 0.289352 0.144676 0.144676 0.144676 0.0723379 0.289352 0.289352 0.289352 0.144676 0.144676 0.144676 0.0723379 0.289352 0.289352 0.289352 0.144676 0.144676 0.144676 0.0723379 0.289352 0.289352 0.289352 0.144676 0.144676 0.144676 0.0723379 0.289352 0.289352 0.289352 0.144676 0.144676 0.144676 0.072338 0.289351 0.289351 0.289352 0.144676 0.144676 0.144676 0.0723379 0.289352 0.289351 0.289351 0.144676 0.144676 0.144676 0.0723378 0.289352 0.289352 0.289352 0.144676 0.144676 0.144676 0.0723379 0.289352 0.289352 0.289352 0.144676 0.144676 0.144676 0.0723379 0.144676 0.144676 0.289352 0.072338 0.144676 0.144676 0.072338 0.289352 0.144676 0.289352 0.289352 0.144676 0.144676 0.144676 0.0723379 0.144676 0.0723379 0.289352 0.289352 0.289352 0.144676 0.144676 0.144676 0.0723379 0.289352 0.289352 0.289352 0.144676 0.144676 0.144676 0.0723379 0.289352 0.289352 0.289352 0.144676 0.144676 0.144676 0.0723379 0.289352 0.289352 0.289352 0.144676 0.144676 0.144676 0.0723379 0.289352 0.289352 0.289352 0.144676 0.144676 0.144676 0.0723379 0.289352 0.289352 0.289352 0.144676 0.144676 0.144676 0.0723379 0.289352 0.289352 0.289352 0.144676 0.144676 0.144676 0.0723379 0.289352 0.289352 0.289352 0.144676 0.144676 0.144676 0.0723379 0.289352 0.289352 0.289352 0.144676 0.144676 0.144676 0.0723379 0.289352 0.289352 0.289352 0.144676 0.144676 0.144676 0.0723379 0.289352 0.289352 0.289352 0.144676 0.144676 0.144676 0.0723379 0.289352 0.289352 0.289352 0.144676 0.144676 0.144676 0.0723379 0.289352 0.289352 0.289352 0.144676 0.144676 0.144676 0.0723379 0.289352 0.289352 0.289352 0.144676 0.144676 0.144676 0.0723379 0.289352 0.289352 0.289352 0.144676 0.144676 0.144676 0.0723379 0.289352 0.289352 0.289352 0.144676 0.144676 0.144676 0.0723379 0.289352 0.289352 0.289352 0.144676 0.144676 0.144676 0.0723379 0.289352 0.289352 0.289352 0.144676 0.144676 0.144676 0.0723379 0.289352 0.289352 0.289352 0.144676 0.144676 0.144676 0.0723379 0.289352 0.289352 0.289352 0.144676 0.144676 0.144676 0.0723379 0.289352 0.289352 0.289352 0.144676 0.144676 0.144676 0.0723379 0.289352 0.289352 0.289352 0.144676 0.144676 0.144676 0.0723379 0.289352 0.289352 0.289352 0.144676 0.144676 0.144676 0.0723379 0.289352 0.289352 0.289352 0.144676 0.144676 0.144676 0.0723379 0.289352 0.289352 0.289352 0.144676 0.144676 0.144676 0.0723379 0.289352 0.289352 0.289352 0.144676 0.144676 0.144676 0.072338 0.289351 0.289351 0.289352 0.144676 0.144676 0.144676 0.0723379 0.289352 0.289351 0.289351 0.144676 0.144676 0.144676 0.0723378 0.289352 0.289352 0.289352 0.144676 0.144676 0.144676 0.0723379 0.289352 0.289352 0.289352 0.144676 0.144676 0.144676 0.0723379 0.144676 0.144676 0.289352 0.072338 0.144676 0.144676 0.072338 0.289352 0.144676 0.289352 0.289352 0.144676 0.144676 0.144676 0.0723379 0.144676 0.0723379 0.289352 0.289352 0.289352 0.144676 0.144676 0.144676 0.0723379 0.289352 0.289352 0.289352 0.144676 0.144676 0.144676 0.0723379 0.289352 0.289352 0.289352 0.144676 0.144676 0.144676 0.0723379 0.289352 0.289352 0.289352 0.144676 0.144676 0.144676 0.0723379 0.289352 0.289352 0.289352 0.144676 0.144676 0.144676 0.0723379 0.289352 0.289352 0.289352 0.144676 0.144676 0.144676 0.0723379 0.289352 0.289352 0.289352 0.144676 0.144676 0.144676 0.0723379 0.289352 0.289352 0.289352 0.144676 0.144676 0.144676 0.0723379 0.289352 0.289352 0.289352 0.144676 0.144676 0.144676 0.0723379 0.289352 0.289352 0.289352 0.144676 0.144676 0.144676 0.0723379 0.289352 0.289352 0.289352 0.144676 0.144676 0.144676 0.0723379 0.289352 0.289352 0.289352 0.144676 0.144676 0.144676 0.0723379 0.289352 0.289352 0.289352 0.144676 0.144676 0.144676 0.072338 0.289352 0.289352 0.289352 0.144676 0.144676 0.144676 0.0723379 0.289352 0.289352 0.289352 0.144676 0.144676 0.144676 0.0723379 0.289352 0.289352 0.289352 0.144676 0.144676 0.144676 0.0723379 0.289352 0.289352 0.289352 0.144676 0.144676 0.144676 0.0723379 0.289352 0.289352 0.289352 0.144676 0.144676 0.144676 0.0723379 0.289352 0.289352 0.289352 0.144676 0.144676 0.144676 0.0723379 0.289352 0.289352 0.289352 0.144676 0.144676 0.144676 0.0723379 0.289352 0.289352 0.289352 0.144676 0.144676 0.144676 0.0723379 0.289352 0.289352 0.289352 0.144676 0.144676 0.144676 0.0723379 0.289352 0.289352 0.289352 0.144676 0.144676 0.144676 0.0723379 0.289352 0.289352 0.289352 0.144676 0.144676 0.144676 0.0723379 0.289352 0.289352 0.289352 0.144676 0.144676 0.144676 0.0723379 0.289352 0.289352 0.289352 0.144676 0.144676 0.144676 0.072338 0.289351 0.289351 0.289352 0.144676 0.144676 0.144676 0.0723379 0.289352 0.289351 0.289351 0.144676 0.144676 0.144676 0.0723378 0.289352 0.289352 0.289352 0.144676 0.144676 0.144676 0.0723379 0.289352 0.289352 0.289352 0.144676 0.144676 0.144676 0.0723379 0.144676 0.144676 0.289352 0.072338 0.144676 0.144676 0.072338 0.289352 0.144676 0.289352 0.289352 0.144676 0.144676 0.144676 0.0723379 0.144676 0.0723379 0.289352 0.289352 0.289352 0.144676 0.144676 0.144676 0.0723379 0.289352 0.289352 0.289352 0.144676 0.144676 0.144676 0.0723379 0.289352 0.289352 0.289352 0.144676 0.144676 0.144676 0.0723379 0.289352 0.289352 0.289352 0.144676 0.144676 0.144676 0.0723379 0.289352 0.289352 0.289352 0.144676 0.144676 0.144676 0.0723379 0.289352 0.289352 0.289352 0.144676 0.144676 0.144676 0.0723379 0.289352 0.289352 0.289352 0.144676 0.144676 0.144676 0.0723379 0.289352 0.289352 0.289352 0.144676 0.144676 0.144676 0.0723379 0.289352 0.289352 0.289352 0.144676 0.144676 0.144676 0.0723379 0.289352 0.289352 0.289352 0.144676 0.144676 0.144676 0.0723379 0.289352 0.289352 0.289352 0.144676 0.144676 0.144676 0.0723379 0.289352 0.289352 0.289352 0.144676 0.144676 0.144676 0.0723379 0.289352 0.289352 0.289352 0.144676 0.144676 0.144676 0.072338 0.289352 0.289352 0.289352 0.144676 0.144676 0.144676 0.0723379 0.289352 0.289352 0.289352 0.144676 0.144676 0.144676 0.0723379 0.289352 0.289352 0.289352 0.144676 0.144676 0.144676 0.0723379 0.289352 0.289352 0.289352 0.144676 0.144676 0.144676 0.0723379 0.289352 0.289352 0.289352 0.144676 0.144676 0.144676 0.0723379 0.289352 0.289352 0.289352 0.144676 0.144676 0.144676 0.0723379 0.289352 0.289352 0.289352 0.144676 0.144676 0.144676 0.072338 0.289352 0.289352 0.289352 0.144676 0.144676 0.144676 0.0723379 0.289352 0.289352 0.289352 0.144676 0.144676 0.144676 0.0723379 0.289352 0.289352 0.289352 0.144676 0.144676 0.144676 0.072338 0.289352 0.289352 0.289352 0.144676 0.144676 0.144676 0.0723379 0.289352 0.289352 0.289352 0.144676 0.144676 0.144676 0.0723379 0.289352 0.289352 0.289352 0.144676 0.144676 0.144676 0.072338 0.289351 0.289351 0.289352 0.144676 0.144676 0.144676 0.0723379 0.289352 0.289351 0.289351 0.144676 0.144676 0.144676 0.0723378 0.289352 0.289352 0.289352 0.144676 0.144676 0.144676 0.0723379 0.289352 0.289352 0.289352 0.144676 0.144676 0.144676 0.0723379 0.144676 0.144676 0.289352 0.072338 0.144676 0.144676 0.072338 0.289352 0.144676 0.144676 0.144676 0.0723379 0.144676 0.144676 0.0723379 0.0723379 0.0723379 0.289352 0.144676 0.144676 0.144676 0.144676 0.0723379 0.0723379 0.289352 0.144676 0.144676 0.144676 0.144676 0.0723379 0.0723379 0.289352 0.144676 0.144676 0.144676 0.144676 0.0723379 0.0723379 0.289352 0.144676 0.144676 0.144676 0.144676 0.0723379 0.0723379 0.289352 0.144676 0.144676 0.144676 0.144676 0.0723379 0.0723379 0.289352 0.144676 0.144676 0.144676 0.144676 0.0723379 0.0723379 0.289352 0.144676 0.144676 0.144676 0.144676 0.0723379 0.0723379 0.289352 0.144676 0.144676 0.144676 0.144676 0.0723379 0.0723379 0.289352 0.144676 0.144676 0.144676 0.144676 0.0723379 0.0723379 0.289352 0.144676 0.144676 0.144676 0.144676 0.0723379 0.0723379 0.289352 0.144676 0.144676 0.144676 0.144676 0.0723379 0.0723379 0.289352 0.144676 0.144676 0.144676 0.144676 0.0723379 0.0723379 0.289352 0.144676 0.144676 0.144676 0.144676 0.0723379 0.0723379 0.289352 0.144676 0.144676 0.144676 0.144676 0.0723379 0.0723379 0.289352 0.144676 0.144676 0.144676 0.144676 0.0723379 0.0723379 0.289352 0.144676 0.144676 0.144676 0.144676 0.0723379 0.0723379 0.289352 0.144676 0.144676 0.144676 0.144676 0.0723379 0.0723379 0.289352 0.144676 0.144676 0.144676 0.144676 0.0723379 0.0723379 0.289352 0.144676 0.144676 0.144676 0.144676 0.0723379 0.0723379 0.289352 0.144676 0.144676 0.144676 0.144676 0.0723379 0.0723379 0.289352 0.144676 0.144676 0.144676 0.144676 0.0723379 0.0723379 0.289352 0.144676 0.144676 0.144676 0.144676 0.0723379 0.0723379 0.289352 0.144676 0.144676 0.144676 0.144676 0.0723379 0.0723379 0.289352 0.144676 0.144676 0.144676 0.144676 0.0723379 0.0723379 0.289352 0.144676 0.144676 0.144676 0.144676 0.0723379 0.0723379 0.289352 0.144676 0.144676 0.144676 0.144676 0.072338 0.072338 0.289351 0.144676 0.144676 0.144676 0.144676 0.0723379 0.0723379 0.289352 0.144676 0.144676 0.144676 0.144676 0.0723378 0.0723378 0.289352 0.144676 0.144676 0.144676 0.144676 0.0723379 0.0723379 0.289352 0.144676 0.144676 0.144676 0.144676 0.0723379 0.0723379 0.144676 0.0723379 0.144676 0.0723379 0.144676 0.0723379 0.0723379 0.144676 0.144676 0.072338 0.289352 0.144676 0.289352 0.289352 0.144676 0.072338 0.144676 0.144676 0.072338 0.144676 0.072338 0.144676 0.144676 0.289352 0.289352 0.289352 0.072338 0.144676 0.144676 0.144676 0.072338 0.144676 0.144676 0.289352 0.289352 0.289352 0.072338 0.144676 0.144676 0.144676 0.072338 0.144676 0.144676 0.289352 0.289352 0.289352 0.072338 0.144676 0.144676 0.144676 0.072338 0.144676 0.144676 0.289352 0.289352 0.289352 0.072338 0.144676 0.144676 0.144676 0.072338 0.144676 0.144676 0.289352 0.289352 0.289352 0.072338 0.144676 0.144676 0.144676 0.072338 0.144676 0.144676 0.289352 0.289352 0.289352 0.072338 0.144676 0.144676 0.144676 0.072338 0.144676 0.144676 0.289352 0.289352 0.289352 0.072338 0.144676 0.144676 0.144676 0.072338 0.144676 0.144676 0.289352 0.289352 0.289352 0.072338 0.144676 0.144676 0.144676 0.072338 0.144676 0.144676 0.289352 0.289352 0.289352 0.072338 0.144676 0.144676 0.144676 0.072338 0.144676 0.144676 0.289352 0.289352 0.289352 0.072338 0.144676 0.144676 0.144676 0.072338 0.144676 0.144676 0.289352 0.289352 0.289352 0.072338 0.144676 0.144676 0.144676 0.072338 0.144676 0.144676 0.289352 0.289352 0.289352 0.072338 0.144676 0.144676 0.144676 0.072338 0.144676 0.144676 0.289352 0.289352 0.289352 0.072338 0.144676 0.144676 0.144676 0.072338 0.144676 0.144676 0.289352 0.289352 0.289352 0.0723379 0.144676 0.144676 0.144676 0.0723379 0.144676 0.144676 0.289352 0.289352 0.289352 0.072338 0.144676 0.144676 0.144676 0.072338 0.144676 0.144676 0.289352 0.289352 0.289352 0.072338 0.144676 0.144676 0.144676 0.072338 0.144676 0.144676 0.289352 0.289352 0.289352 0.072338 0.144676 0.144676 0.144676 0.072338 0.144676 0.144676 0.289352 0.289352 0.289352 0.0723379 0.144676 0.144676 0.144676 0.0723379 0.144676 0.144676 0.289352 0.289352 0.289352 0.0723379 0.144676 0.144676 0.144676 0.0723379 0.144676 0.144676 0.289352 0.289352 0.289352 0.072338 0.144676 0.144676 0.144676 0.072338 0.144676 0.144676 0.289352 0.289352 0.289352 0.072338 0.144676 0.144676 0.144676 0.072338 0.144676 0.144676 0.289352 0.289352 0.289352 0.0723379 0.144676 0.144676 0.144676 0.0723379 0.144676 0.144676 0.289352 0.289352 0.289352 0.072338 0.144676 0.144676 0.144676 0.072338 0.144676 0.144676 0.289352 0.289352 0.289352 0.0723379 0.144676 0.144676 0.144676 0.0723379 0.144676 0.144676 0.289352 0.289352 0.289352 0.072338 0.144676 0.144676 0.144676 0.072338 0.144676 0.144676 0.289352 0.289352 0.289352 0.0723381 0.144676 0.144676 0.144676 0.0723381 0.144676 0.144676 0.289352 0.289352 0.289352 0.0723379 0.144676 0.144676 0.144676 0.0723379 0.144676 0.144676 0.289352 0.289352 0.289351 0.0723379 0.144676 0.144676 0.144676 0.0723379 0.144676 0.144676 0.289352 0.289352 0.289352 0.072338 0.144676 0.144676 0.144676 0.072338 0.144676 0.144676 0.289352 0.289352 0.289352 0.0723379 0.144676 0.144676 0.144676 0.0723379 0.072338 0.144676 0.144676 0.144676 0.289352 0.072338 0.072338 0.144676 0.144676 0.072338 0.289352 0.144676 0.289352 0.289352 0.144676 0.144676 0.144676 0.072338 0.144676 0.072338 0.289352 0.289352 0.289352 0.144676 0.144676 0.144676 0.072338 0.289352 0.289352 0.289352 0.144676 0.144676 0.144676 0.072338 0.289352 0.289352 0.289352 0.144676 0.144676 0.144676 0.072338 0.289352 0.289352 0.289352 0.144676 0.144676 0.144676 0.072338 0.289352 0.289352 0.289352 0.144676 0.144676 0.144676 0.072338 0.289352 0.289352 0.289352 0.144676 0.144676 0.144676 0.072338 0.289352 0.289352 0.289352 0.144676 0.144676 0.144676 0.072338 0.289352 0.289352 0.289352 0.144676 0.144676 0.144676 0.072338 0.289352 0.289352 0.289352 0.144676 0.144676 0.144676 0.072338 0.289352 0.289352 0.289352 0.144676 0.144676 0.144676 0.0723379 0.289352 0.289352 0.289352 0.144676 0.144676 0.144676 0.072338 0.289352 0.289352 0.289352 0.144676 0.144676 0.144676 0.072338 0.289352 0.289352 0.289352 0.144676 0.144676 0.144676 0.072338 0.289352 0.289352 0.289352 0.144676 0.144676 0.144676 0.0723379 0.289352 0.289352 0.289352 0.144676 0.144676 0.144676 0.072338 0.289352 0.289352 0.289352 0.144676 0.144676 0.144676 0.072338 0.289352 0.289352 0.289352 0.144676 0.144676 0.144676 0.0723379 0.289352 0.289352 0.289352 0.144676 0.144676 0.144676 0.0723379 0.289352 0.289352 0.289352 0.144676 0.144676 0.144676 0.0723379 0.289352 0.289352 0.289352 0.144676 0.144676 0.144676 0.072338 0.289352 0.289352 0.289352 0.144676 0.144676 0.144676 0.072338 0.289352 0.289352 0.289352 0.144676 0.144676 0.144676 0.0723379 0.289352 0.289352 0.289352 0.144676 0.144676 0.144676 0.072338 0.289352 0.289352 0.289352 0.144676 0.144676 0.144676 0.0723379 0.289352 0.289352 0.289352 0.144676 0.144676 0.144676 0.072338 0.289352 0.289352 0.289352 0.144676 0.144676 0.144676 0.0723381 0.289351 0.289352 0.289352 0.144676 0.144676 0.144676 0.0723379 0.289352 0.289352 0.289351 0.144676 0.144676 0.144676 0.0723378 0.289352 0.289352 0.289352 0.144676 0.144676 0.144676 0.072338 0.289352 0.289352 0.289352 0.144676 0.144676 0.144676 0.0723379 0.144676 0.144676 0.289352 0.072338 0.144676 0.144676 0.072338 0.289352 0.144676 0.289352 0.289352 0.144676 0.144676 0.144676 0.072338 0.144676 0.072338 0.289352 0.289352 0.289352 0.144676 0.144676 0.144676 0.072338 0.289352 0.289352 0.289352 0.144676 0.144676 0.144676 0.072338 0.289352 0.289352 0.289352 0.144676 0.144676 0.144676 0.072338 0.289352 0.289352 0.289352 0.144676 0.144676 0.144676 0.072338 0.289352 0.289352 0.289352 0.144676 0.144676 0.144676 0.072338 0.289352 0.289352 0.289352 0.144676 0.144676 0.144676 0.072338 0.289352 0.289352 0.289352 0.144676 0.144676 0.144676 0.072338 0.289352 0.289352 0.289352 0.144676 0.144676 0.144676 0.072338 0.289352 0.289352 0.289352 0.144676 0.144676 0.144676 0.072338 0.289352 0.289352 0.289352 0.144676 0.144676 0.144676 0.072338 0.289352 0.289352 0.289352 0.144676 0.144676 0.144676 0.072338 0.289352 0.289352 0.289352 0.144676 0.144676 0.144676 0.072338 0.289352 0.289352 0.289352 0.144676 0.144676 0.144676 0.072338 0.289352 0.289352 0.289352 0.144676 0.144676 0.144676 0.0723379 0.289352 0.289352 0.289352 0.144676 0.144676 0.144676 0.072338 0.289352 0.289352 0.289352 0.144676 0.144676 0.144676 0.072338 0.289352 0.289352 0.289352 0.144676 0.144676 0.144676 0.0723379 0.289352 0.289352 0.289352 0.144676 0.144676 0.144676 0.0723379 0.289352 0.289352 0.289352 0.144676 0.144676 0.144676 0.0723379 0.289352 0.289352 0.289352 0.144676 0.144676 0.144676 0.072338 0.289352 0.289352 0.289352 0.144676 0.144676 0.144676 0.072338 0.289352 0.289352 0.289352 0.144676 0.144676 0.144676 0.072338 0.289352 0.289352 0.289352 0.144676 0.144676 0.144676 0.072338 0.289352 0.289352 0.289352 0.144676 0.144676 0.144676 0.0723379 0.289352 0.289352 0.289352 0.144676 0.144676 0.144676 0.072338 0.289352 0.289352 0.289352 0.144676 0.144676 0.144676 0.0723381 0.289352 0.289352 0.289352 0.144676 0.144676 0.144676 0.0723379 0.289352 0.289352 0.289351 0.144676 0.144676 0.144676 0.0723378 0.289352 0.289352 0.289352 0.144676 0.144676 0.144676 0.072338 0.289352 0.289352 0.289352 0.144676 0.144676 0.144676 0.0723379 0.144676 0.144676 0.289352 0.072338 0.144676 0.144676 0.072338 0.289352 0.144676 0.289352 0.289352 0.144676 0.144676 0.144676 0.072338 0.144676 0.072338 0.289352 0.289352 0.289352 0.144676 0.144676 0.144676 0.072338 0.289352 0.289352 0.289352 0.144676 0.144676 0.144676 0.072338 0.289352 0.289352 0.289352 0.144676 0.144676 0.144676 0.072338 0.289352 0.289352 0.289352 0.144676 0.144676 0.144676 0.072338 0.289352 0.289352 0.289352 0.144676 0.144676 0.144676 0.072338 0.289352 0.289352 0.289352 0.144676 0.144676 0.144676 0.072338 0.289352 0.289352 0.289352 0.144676 0.144676 0.144676 0.072338 0.289352 0.289352 0.289352 0.144676 0.144676 0.144676 0.072338 0.289352 0.289352 0.289352 0.144676 0.144676 0.144676 0.0723379 0.289352 0.289352 0.289352 0.144676 0.144676 0.144676 0.0723379 0.289352 0.289352 0.289352 0.144676 0.144676 0.144676 0.072338 0.289352 0.289352 0.289352 0.144676 0.144676 0.144676 0.072338 0.289352 0.289352 0.289352 0.144676 0.144676 0.144676 0.072338 0.289352 0.289352 0.289352 0.144676 0.144676 0.144676 0.0723379 0.289352 0.289352 0.289352 0.144676 0.144676 0.144676 0.072338 0.289352 0.289352 0.289352 0.144676 0.144676 0.144676 0.072338 0.289352 0.289352 0.289352 0.144676 0.144676 0.144676 0.0723379 0.289352 0.289352 0.289352 0.144676 0.144676 0.144676 0.0723379 0.289352 0.289352 0.289352 0.144676 0.144676 0.144676 0.0723379 0.289352 0.289352 0.289352 0.144676 0.144676 0.144676 0.072338 0.289352 0.289352 0.289352 0.144676 0.144676 0.144676 0.072338 0.289352 0.289352 0.289352 0.144676 0.144676 0.144676 0.0723379 0.289352 0.289352 0.289352 0.144676 0.144676 0.144676 0.072338 0.289352 0.289352 0.289352 0.144676 0.144676 0.144676 0.0723379 0.289352 0.289352 0.289352 0.144676 0.144676 0.144676 0.072338 0.289352 0.289352 0.289352 0.144676 0.144676 0.144676 0.0723381 0.289351 0.289352 0.289352 0.144676 0.144676 0.144676 0.0723379 0.289352 0.289352 0.289351 0.144676 0.144676 0.144676 0.0723378 0.289352 0.289352 0.289352 0.144676 0.144676 0.144676 0.072338 0.289352 0.289352 0.289352 0.144676 0.144676 0.144676 0.0723379 0.144676 0.144676 0.289352 0.072338 0.144676 0.144676 0.072338 0.289352 0.144676 0.289352 0.289352 0.144676 0.144676 0.144676 0.072338 0.144676 0.072338 0.289352 0.289352 0.289352 0.144676 0.144676 0.144676 0.072338 0.289352 0.289352 0.289352 0.144676 0.144676 0.144676 0.072338 0.289352 0.289352 0.289352 0.144676 0.144676 0.144676 0.072338 0.289352 0.289352 0.289352 0.144676 0.144676 0.144676 0.072338 0.289352 0.289352 0.289352 0.144676 0.144676 0.144676 0.072338 0.289352 0.289352 0.289352 0.144676 0.144676 0.144676 0.072338 0.289352 0.289352 0.289352 0.144676 0.144676 0.144676 0.072338 0.289352 0.289352 0.289352 0.144676 0.144676 0.144676 0.072338 0.289352 0.289352 0.289352 0.144676 0.144676 0.144676 0.0723379 0.289352 0.289352 0.289352 0.144676 0.144676 0.144676 0.0723379 0.289352 0.289352 0.289352 0.144676 0.144676 0.144676 0.072338 0.289352 0.289352 0.289352 0.144676 0.144676 0.144676 0.072338 0.289352 0.289352 0.289352 0.144676 0.144676 0.144676 0.072338 0.289352 0.289352 0.289352 0.144676 0.144676 0.144676 0.0723379 0.289352 0.289352 0.289352 0.144676 0.144676 0.144676 0.072338 0.289352 0.289352 0.289352 0.144676 0.144676 0.144676 0.072338 0.289352 0.289352 0.289352 0.144676 0.144676 0.144676 0.0723379 0.289352 0.289352 0.289352 0.144676 0.144676 0.144676 0.0723379 0.289352 0.289352 0.289352 0.144676 0.144676 0.144676 0.0723379 0.289352 0.289352 0.289352 0.144676 0.144676 0.144676 0.072338 0.289352 0.289352 0.289352 0.144676 0.144676 0.144676 0.0723379 0.289352 0.289352 0.289352 0.144676 0.144676 0.144676 0.0723379 0.289352 0.289352 0.289352 0.144676 0.144676 0.144676 0.072338 0.289352 0.289352 0.289352 0.144676 0.144676 0.144676 0.0723379 0.289352 0.289352 0.289352 0.144676 0.144676 0.144676 0.072338 0.289352 0.289352 0.289352 0.144676 0.144676 0.144676 0.0723381 0.289351 0.289352 0.289352 0.144676 0.144676 0.144676 0.0723379 0.289352 0.289352 0.289351 0.144676 0.144676 0.144676 0.0723378 0.289352 0.289352 0.289352 0.144676 0.144676 0.144676 0.072338 0.289352 0.289352 0.289352 0.144676 0.144676 0.144676 0.0723379 0.144676 0.144676 0.289352 0.072338 0.144676 0.144676 0.072338 0.289352 0.144676 0.289352 0.289352 0.144676 0.144676 0.144676 0.072338 0.144676 0.072338 0.289352 0.289352 0.289352 0.144676 0.144676 0.144676 0.072338 0.289352 0.289352 0.289352 0.144676 0.144676 0.144676 0.072338 0.289352 0.289352 0.289352 0.144676 0.144676 0.144676 0.072338 0.289352 0.289352 0.289352 0.144676 0.144676 0.144676 0.072338 0.289352 0.289352 0.289352 0.144676 0.144676 0.144676 0.072338 0.289352 0.289352 0.289352 0.144676 0.144676 0.144676 0.072338 0.289352 0.289352 0.289352 0.144676 0.144676 0.144676 0.072338 0.289352 0.289352 0.289352 0.144676 0.144676 0.144676 0.072338 0.289352 0.289352 0.289352 0.144676 0.144676 0.144676 0.072338 0.289352 0.289352 0.289352 0.144676 0.144676 0.144676 0.072338 0.289352 0.289352 0.289352 0.144676 0.144676 0.144676 0.072338 0.289352 0.289352 0.289352 0.144676 0.144676 0.144676 0.072338 0.289352 0.289352 0.289352 0.144676 0.144676 0.144676 0.072338 0.289352 0.289352 0.289352 0.144676 0.144676 0.144676 0.0723379 0.289352 0.289352 0.289352 0.144676 0.144676 0.144676 0.072338 0.289352 0.289352 0.289352 0.144676 0.144676 0.144676 0.072338 0.289352 0.289352 0.289352 0.144676 0.144676 0.144676 0.0723379 0.289352 0.289352 0.289352 0.144676 0.144676 0.144676 0.0723379 0.289352 0.289352 0.289352 0.144676 0.144676 0.144676 0.0723379 0.289352 0.289352 0.289352 0.144676 0.144676 0.144676 0.072338 0.289352 0.289352 0.289352 0.144676 0.144676 0.144676 0.072338 0.289352 0.289352 0.289352 0.144676 0.144676 0.144676 0.072338 0.289352 0.289352 0.289352 0.144676 0.144676 0.144676 0.072338 0.289352 0.289352 0.289352 0.144676 0.144676 0.144676 0.0723379 0.289352 0.289352 0.289352 0.144676 0.144676 0.144676 0.072338 0.289352 0.289352 0.289352 0.144676 0.144676 0.144676 0.0723381 0.289352 0.289352 0.289352 0.144676 0.144676 0.144676 0.0723379 0.289352 0.289352 0.289351 0.144676 0.144676 0.144676 0.0723378 0.289352 0.289352 0.289352 0.144676 0.144676 0.144676 0.072338 0.289352 0.289352 0.289352 0.144676 0.144676 0.144676 0.0723379 0.144676 0.144676 0.289352 0.072338 0.144676 0.144676 0.072338 0.289352 0.144676 0.289352 0.289352 0.144676 0.144676 0.144676 0.072338 0.144676 0.072338 0.289352 0.289352 0.289352 0.144676 0.144676 0.144676 0.072338 0.289352 0.289352 0.289352 0.144676 0.144676 0.144676 0.072338 0.289352 0.289352 0.289352 0.144676 0.144676 0.144676 0.072338 0.289352 0.289352 0.289352 0.144676 0.144676 0.144676 0.072338 0.289352 0.289352 0.289352 0.144676 0.144676 0.144676 0.072338 0.289352 0.289352 0.289352 0.144676 0.144676 0.144676 0.072338 0.289352 0.289352 0.289352 0.144676 0.144676 0.144676 0.072338 0.289352 0.289352 0.289352 0.144676 0.144676 0.144676 0.072338 0.289352 0.289352 0.289352 0.144676 0.144676 0.144676 0.072338 0.289352 0.289352 0.289352 0.144676 0.144676 0.144676 0.072338 0.289352 0.289352 0.289352 0.144676 0.144676 0.144676 0.072338 0.289352 0.289352 0.289352 0.144676 0.144676 0.144676 0.072338 0.289352 0.289352 0.289352 0.144676 0.144676 0.144676 0.072338 0.289352 0.289352 0.289352 0.144676 0.144676 0.144676 0.0723379 0.289352 0.289352 0.289352 0.144676 0.144676 0.144676 0.072338 0.289352 0.289352 0.289352 0.144676 0.144676 0.144676 0.072338 0.289352 0.289352 0.289352 0.144676 0.144676 0.144676 0.072338 0.289352 0.289352 0.289352 0.144676 0.144676 0.144676 0.0723379 0.289352 0.289352 0.289352 0.144676 0.144676 0.144676 0.0723379 0.289352 0.289352 0.289352 0.144676 0.144676 0.144676 0.072338 0.289352 0.289352 0.289352 0.144676 0.144676 0.144676 0.072338 0.289352 0.289352 0.289352 0.144676 0.144676 0.144676 0.072338 0.289352 0.289352 0.289352 0.144676 0.144676 0.144676 0.072338 0.289352 0.289352 0.289352 0.144676 0.144676 0.144676 0.0723379 0.289352 0.289352 0.289352 0.144676 0.144676 0.144676 0.072338 0.289352 0.289352 0.289352 0.144676 0.144676 0.144676 0.0723381 0.289352 0.289352 0.289352 0.144676 0.144676 0.144676 0.0723379 0.289352 0.289352 0.289351 0.144676 0.144676 0.144676 0.0723379 0.289352 0.289352 0.289352 0.144676 0.144676 0.144676 0.072338 0.289352 0.289352 0.289352 0.144676 0.144676 0.144676 0.0723379 0.144676 0.144676 0.289352 0.072338 0.144676 0.144676 0.072338 0.289352 0.144676 0.144676 0.144676 0.072338 0.144676 0.144676 0.072338 0.072338 0.072338 0.289352 0.144676 0.144676 0.144676 0.144676 0.072338 0.072338 0.289352 0.144676 0.144676 0.144676 0.144676 0.072338 0.072338 0.289352 0.144676 0.144676 0.144676 0.144676 0.072338 0.072338 0.289352 0.144676 0.144676 0.144676 0.144676 0.072338 0.072338 0.289352 0.144676 0.144676 0.144676 0.144676 0.072338 0.072338 0.289352 0.144676 0.144676 0.144676 0.144676 0.072338 0.072338 0.289352 0.144676 0.144676 0.144676 0.144676 0.072338 0.072338 0.289352 0.144676 0.144676 0.144676 0.144676 0.072338 0.072338 0.289352 0.144676 0.144676 0.144676 0.144676 0.0723379 0.0723379 0.289352 0.144676 0.144676 0.144676 0.144676 0.0723379 0.0723379 0.289352 0.144676 0.144676 0.144676 0.144676 0.072338 0.072338 0.289352 0.144676 0.144676 0.144676 0.144676 0.072338 0.072338 0.289352 0.144676 0.144676 0.144676 0.144676 0.072338 0.072338 0.289352 0.144676 0.144676 0.144676 0.144676 0.0723379 0.0723379 0.289352 0.144676 0.144676 0.144676 0.144676 0.072338 0.072338 0.289352 0.144676 0.144676 0.144676 0.144676 0.072338 0.072338 0.289352 0.144676 0.144676 0.144676 0.144676 0.0723379 0.0723379 0.289352 0.144676 0.144676 0.144676 0.144676 0.0723379 0.0723379 0.289352 0.144676 0.144676 0.144676 0.144676 0.0723379 0.0723379 0.289352 0.144676 0.144676 0.144676 0.144676 0.072338 0.072338 0.289352 0.144676 0.144676 0.144676 0.144676 0.0723379 0.0723379 0.289352 0.144676 0.144676 0.144676 0.144676 0.0723379 0.0723379 0.289352 0.144676 0.144676 0.144676 0.144676 0.072338 0.072338 0.289352 0.144676 0.144676 0.144676 0.144676 0.0723379 0.0723379 0.289352 0.144676 0.144676 0.144676 0.144676 0.072338 0.072338 0.289352 0.144676 0.144676 0.144676 0.144676 0.0723381 0.0723381 0.289351 0.144676 0.144676 0.144676 0.144676 0.0723379 0.0723379 0.289352 0.144676 0.144676 0.144676 0.144676 0.0723378 0.0723378 0.289352 0.144676 0.144676 0.144676 0.144676 0.072338 0.072338 0.289352 0.144676 0.144676 0.144676 0.144676 0.0723379 0.0723379 0.144676 0.072338 0.144676 0.072338 0.144676 0.072338 0.072338 0.144676 0.072338 0.072338 0.144676 0.072338 0.289352 0.144676 0.144676 0.072338 0.144676 0.072338 0.072338 0.144676 0.072338 0.144676 0.072338 0.144676 0.289352 0.144676 0.072338 0.144676 0.072338 0.144676 0.072338 0.144676 0.072338 0.144676 0.289352 0.144676 0.072338 0.144676 0.072338 0.144676 0.072338 0.144676 0.0723379 0.144676 0.289352 0.144676 0.0723379 0.144676 0.0723379 0.144676 0.0723379 0.144676 0.072338 0.144676 0.289352 0.144676 0.072338 0.144676 0.072338 0.144676 0.072338 0.144676 0.072338 0.144676 0.289352 0.144676 0.072338 0.144676 0.072338 0.144676 0.072338 0.144676 0.072338 0.144676 0.289352 0.144676 0.072338 0.144676 0.072338 0.144676 0.072338 0.144676 0.072338 0.144676 0.289352 0.144676 0.072338 0.144676 0.072338 0.144676 0.072338 0.144676 0.072338 0.144676 0.289352 0.144676 0.072338 0.144676 0.072338 0.144676 0.072338 0.144676 0.0723379 0.144676 0.289352 0.144676 0.0723379 0.144676 0.0723379 0.144676 0.0723379 0.144676 0.0723379 0.144676 0.289352 0.144676 0.0723379 0.144676 0.0723379 0.144676 0.0723379 0.144676 0.072338 0.144676 0.289352 0.144676 0.072338 0.144676 0.072338 0.144676 0.072338 0.144676 0.072338 0.144676 0.289352 0.144676 0.072338 0.144676 0.072338 0.144676 0.072338 0.144676 0.072338 0.144676 0.289352 0.144676 0.072338 0.144676 0.072338 0.144676 0.072338 0.144676 0.0723379 0.144676 0.289352 0.144676 0.0723379 0.144676 0.0723379 0.144676 0.0723379 0.144676 0.072338 0.144676 0.289352 0.144676 0.072338 0.144676 0.072338 0.144676 0.072338 0.144676 0.072338 0.144676 0.289352 0.144676 0.072338 0.144676 0.072338 0.144676 0.072338 0.144676 0.0723379 0.144676 0.289352 0.144676 0.0723379 0.144676 0.0723379 0.144676 0.0723379 0.144676 0.0723379 0.144676 0.289352 0.144676 0.0723379 0.144676 0.0723379 0.144676 0.0723379 0.144676 0.0723379 0.144676 0.289352 0.144676 0.0723379 0.144676 0.0723379 0.144676 0.0723379 0.144676 0.072338 0.144676 0.289352 0.144676 0.072338 0.144676 0.072338 0.144676 0.072338 0.144676 0.072338 0.144676 0.289352 0.144676 0.072338 0.144676 0.072338 0.144676 0.072338 0.144676 0.0723379 0.144676 0.289352 0.144676 0.0723379 0.144676 0.0723379 0.144676 0.0723379 0.144676 0.072338 0.144676 0.289352 0.144676 0.072338 0.144676 0.072338 0.144676 0.072338 0.144676 0.0723379 0.144676 0.289352 0.144676 0.0723379 0.144676 0.0723379 0.144676 0.0723379 0.144676 0.0723379 0.144676 0.289352 0.144676 0.0723379 0.144676 0.0723379 0.144676 0.0723379 0.144676 0.0723381 0.144676 0.289352 0.144676 0.0723381 0.144676 0.0723381 0.144676 0.0723381 0.144676 0.0723379 0.144676 0.289351 0.144676 0.0723379 0.144676 0.0723379 0.144676 0.0723379 0.144676 0.0723378 0.144676 0.289352 0.144676 0.0723378 0.144676 0.0723378 0.144676 0.0723378 0.144676 0.072338 0.144676 0.289352 0.144676 0.072338 0.144676 0.072338 0.144676 0.072338 0.144676 0.0723379 0.144676 0.289352 0.144676 0.0723379 0.144676 0.0723379 0.144676 0.0723379 0.072338 0.072338 0.072338 0.144676 0.144676 0.072338 0.072338 0.072338 0.144676 0.072338 0.144676 0.072338 0.289352 0.144676 0.144676 0.144676 0.072338 0.072338 0.144676 0.072338 0.144676 0.289352 0.144676 0.144676 0.072338 0.144676 0.072338 0.144676 0.289352 0.144676 0.144676 0.072338 0.144676 0.072338 0.144676 0.289352 0.144676 0.144676 0.0723379 0.144676 0.0723379 0.144676 0.289352 0.144676 0.144676 0.072338 0.144676 0.072338 0.144676 0.289352 0.144676 0.144676 0.072338 0.144676 0.072338 0.144676 0.289352 0.144676 0.144676 0.072338 0.144676 0.072338 0.144676 0.289352 0.144676 0.144676 0.072338 0.144676 0.072338 0.144676 0.289352 0.144676 0.144676 0.072338 0.144676 0.072338 0.144676 0.289352 0.144676 0.144676 0.0723379 0.144676 0.0723379 0.144676 0.289352 0.144676 0.144676 0.0723379 0.144676 0.0723379 0.144676 0.289352 0.144676 0.144676 0.072338 0.144676 0.072338 0.144676 0.289352 0.144676 0.144676 0.072338 0.144676 0.072338 0.144676 0.289352 0.144676 0.144676 0.072338 0.144676 0.072338 0.144676 0.289352 0.144676 0.144676 0.0723379 0.144676 0.0723379 0.144676 0.289352 0.144676 0.144676 0.072338 0.144676 0.072338 0.144676 0.289352 0.144676 0.144676 0.072338 0.144676 0.072338 0.144676 0.289352 0.144676 0.144676 0.0723379 0.144676 0.0723379 0.144676 0.289352 0.144676 0.144676 0.0723379 0.144676 0.0723379 0.144676 0.289352 0.144676 0.144676 0.0723379 0.144676 0.0723379 0.144676 0.289352 0.144676 0.144676 0.072338 0.144676 0.072338 0.144676 0.289352 0.144676 0.144676 0.0723379 0.144676 0.0723379 0.144676 0.289352 0.144676 0.144676 0.0723379 0.144676 0.0723379 0.144676 0.289352 0.144676 0.144676 0.072338 0.144676 0.072338 0.144676 0.289352 0.144676 0.144676 0.0723379 0.144676 0.0723379 0.144676 0.289352 0.144676 0.144676 0.0723379 0.144676 0.0723379 0.144676 0.289352 0.144676 0.144676 0.0723381 0.144676 0.0723381 0.144676 0.289351 0.144676 0.144676 0.0723379 0.144676 0.0723379 0.144676 0.289352 0.144676 0.144676 0.0723378 0.144676 0.0723378 0.144676 0.289352 0.144676 0.144676 0.072338 0.144676 0.072338 0.144676 0.289352 0.144676 0.144676 0.0723379 0.144676 0.0723379 0.072338 0.144676 0.144676 0.072338 0.072338 0.144676 0.072338 0.144676 0.072338 0.289352 0.144676 0.144676 0.144676 0.072338 0.072338 0.144676 0.072338 0.144676 0.289352 0.144676 0.144676 0.072338 0.144676 0.072338 0.144676 0.289352 0.144676 0.144676 0.072338 0.144676 0.072338 0.144676 0.289352 0.144676 0.144676 0.072338 0.144676 0.072338 0.144676 0.289352 0.144676 0.144676 0.072338 0.144676 0.072338 0.144676 0.289352 0.144676 0.144676 0.072338 0.144676 0.072338 0.144676 0.289352 0.144676 0.144676 0.072338 0.144676 0.072338 0.144676 0.289352 0.144676 0.144676 0.072338 0.144676 0.072338 0.144676 0.289352 0.144676 0.144676 0.072338 0.144676 0.072338 0.144676 0.289352 0.144676 0.144676 0.0723379 0.144676 0.0723379 0.144676 0.289352 0.144676 0.144676 0.0723379 0.144676 0.0723379 0.144676 0.289352 0.144676 0.144676 0.072338 0.144676 0.072338 0.144676 0.289352 0.144676 0.144676 0.072338 0.144676 0.072338 0.144676 0.289352 0.144676 0.144676 0.072338 0.144676 0.072338 0.144676 0.289352 0.144676 0.144676 0.0723379 0.144676 0.0723379 0.144676 0.289352 0.144676 0.144676 0.072338 0.144676 0.072338 0.144676 0.289352 0.144676 0.144676 0.072338 0.144676 0.072338 0.144676 0.289352 0.144676 0.144676 0.0723379 0.144676 0.0723379 0.144676 0.289352 0.144676 0.144676 0.0723379 0.144676 0.0723379 0.144676 0.289352 0.144676 0.144676 0.0723379 0.144676 0.0723379 0.144676 0.289352 0.144676 0.144676 0.072338 0.144676 0.072338 0.144676 0.289352 0.144676 0.144676 0.0723379 0.144676 0.0723379 0.144676 0.289352 0.144676 0.144676 0.0723379 0.144676 0.0723379 0.144676 0.289352 0.144676 0.144676 0.072338 0.144676 0.072338 0.144676 0.289352 0.144676 0.144676 0.0723379 0.144676 0.0723379 0.144676 0.289352 0.144676 0.144676 0.0723379 0.144676 0.0723379 0.144676 0.289352 0.144676 0.144676 0.0723381 0.144676 0.0723381 0.144676 0.289351 0.144676 0.144676 0.0723379 0.144676 0.0723379 0.144676 0.289352 0.144676 0.144676 0.0723378 0.144676 0.0723378 0.144676 0.289352 0.144676 0.144676 0.072338 0.144676 0.072338 0.144676 0.289352 0.144676 0.144676 0.0723379 0.144676 0.0723379 0.072338 0.144676 0.144676 0.072338 0.072338 0.144676 0.072338 0.144676 0.072338 0.289352 0.144676 0.144676 0.144676 0.072338 0.072338 0.144676 0.072338 0.144676 0.289352 0.144676 0.144676 0.072338 0.144676 0.072338 0.144676 0.289352 0.144676 0.144676 0.072338 0.144676 0.072338 0.144676 0.289352 0.144676 0.144676 0.0723379 0.144676 0.0723379 0.144676 0.289352 0.144676 0.144676 0.0723379 0.144676 0.0723379 0.144676 0.289352 0.144676 0.144676 0.072338 0.144676 0.072338 0.144676 0.289352 0.144676 0.144676 0.072338 0.144676 0.072338 0.144676 0.289352 0.144676 0.144676 0.0723379 0.144676 0.0723379 0.144676 0.289352 0.144676 0.144676 0.0723379 0.144676 0.0723379 0.144676 0.289352 0.144676 0.144676 0.0723379 0.144676 0.0723379 0.144676 0.289352 0.144676 0.144676 0.0723379 0.144676 0.0723379 0.144676 0.289352 0.144676 0.144676 0.072338 0.144676 0.072338 0.144676 0.289352 0.144676 0.144676 0.072338 0.144676 0.072338 0.144676 0.289352 0.144676 0.144676 0.072338 0.144676 0.072338 0.144676 0.289352 0.144676 0.144676 0.0723379 0.144676 0.0723379 0.144676 0.289352 0.144676 0.144676 0.072338 0.144676 0.072338 0.144676 0.289352 0.144676 0.144676 0.072338 0.144676 0.072338 0.144676 0.289352 0.144676 0.144676 0.0723379 0.144676 0.0723379 0.144676 0.289352 0.144676 0.144676 0.0723379 0.144676 0.0723379 0.144676 0.289352 0.144676 0.144676 0.0723379 0.144676 0.0723379 0.144676 0.289352 0.144676 0.144676 0.072338 0.144676 0.072338 0.144676 0.289352 0.144676 0.144676 0.0723379 0.144676 0.0723379 0.144676 0.289352 0.144676 0.144676 0.0723379 0.144676 0.0723379 0.144676 0.289352 0.144676 0.144676 0.072338 0.144676 0.072338 0.144676 0.289352 0.144676 0.144676 0.0723379 0.144676 0.0723379 0.144676 0.289352 0.144676 0.144676 0.0723379 0.144676 0.0723379 0.144676 0.289352 0.144676 0.144676 0.072338 0.144676 0.072338 0.144676 0.289351 0.144676 0.144676 0.0723379 0.144676 0.0723379 0.144676 0.289352 0.144676 0.144676 0.0723378 0.144676 0.0723378 0.144676 0.289352 0.144676 0.144676 0.072338 0.144676 0.072338 0.144676 0.289352 0.144676 0.144676 0.0723379 0.144676 0.0723379 0.072338 0.144676 0.144676 0.072338 0.072338 0.144676 0.072338 0.144676 0.072338 0.289352 0.144676 0.144676 0.144676 0.072338 0.072338 0.144676 0.072338 0.144676 0.289352 0.144676 0.144676 0.072338 0.144676 0.072338 0.144676 0.289352 0.144676 0.144676 0.072338 0.144676 0.072338 0.144676 0.289352 0.144676 0.144676 0.0723379 0.144676 0.0723379 0.144676 0.289352 0.144676 0.144676 0.0723379 0.144676 0.0723379 0.144676 0.289352 0.144676 0.144676 0.072338 0.144676 0.072338 0.144676 0.289352 0.144676 0.144676 0.072338 0.144676 0.072338 0.144676 0.289352 0.144676 0.144676 0.0723379 0.144676 0.0723379 0.144676 0.289352 0.144676 0.144676 0.072338 0.144676 0.072338 0.144676 0.289352 0.144676 0.144676 0.0723379 0.144676 0.0723379 0.144676 0.289352 0.144676 0.144676 0.0723379 0.144676 0.0723379 0.144676 0.289352 0.144676 0.144676 0.072338 0.144676 0.072338 0.144676 0.289352 0.144676 0.144676 0.072338 0.144676 0.072338 0.144676 0.289352 0.144676 0.144676 0.072338 0.144676 0.072338 0.144676 0.289352 0.144676 0.144676 0.0723379 0.144676 0.0723379 0.144676 0.289352 0.144676 0.144676 0.072338 0.144676 0.072338 0.144676 0.289352 0.144676 0.144676 0.072338 0.144676 0.072338 0.144676 0.289352 0.144676 0.144676 0.0723379 0.144676 0.0723379 0.144676 0.289352 0.144676 0.144676 0.0723379 0.144676 0.0723379 0.144676 0.289352 0.144676 0.144676 0.0723379 0.144676 0.0723379 0.144676 0.289352 0.144676 0.144676 0.072338 0.144676 0.072338 0.144676 0.289352 0.144676 0.144676 0.0723379 0.144676 0.0723379 0.144676 0.289352 0.144676 0.144676 0.0723379 0.144676 0.0723379 0.144676 0.289352 0.144676 0.144676 0.072338 0.144676 0.072338 0.144676 0.289352 0.144676 0.144676 0.0723379 0.144676 0.0723379 0.144676 0.289352 0.144676 0.144676 0.0723379 0.144676 0.0723379 0.144676 0.289352 0.144676 0.144676 0.072338 0.144676 0.072338 0.144676 0.289351 0.144676 0.144676 0.0723379 0.144676 0.0723379 0.144676 0.289352 0.144676 0.144676 0.0723378 0.144676 0.0723378 0.144676 0.289352 0.144676 0.144676 0.072338 0.144676 0.072338 0.144676 0.289352 0.144676 0.144676 0.0723379 0.144676 0.0723379 0.072338 0.144676 0.144676 0.072338 0.072338 0.144676 0.072338 0.144676 0.072338 0.289352 0.144676 0.144676 0.144676 0.072338 0.072338 0.144676 0.072338 0.144676 0.289352 0.144676 0.144676 0.072338 0.144676 0.072338 0.144676 0.289352 0.144676 0.144676 0.072338 0.144676 0.072338 0.144676 0.289352 0.144676 0.144676 0.072338 0.144676 0.072338 0.144676 0.289352 0.144676 0.144676 0.072338 0.144676 0.072338 0.144676 0.289352 0.144676 0.144676 0.072338 0.144676 0.072338 0.144676 0.289352 0.144676 0.144676 0.072338 0.144676 0.072338 0.144676 0.289352 0.144676 0.144676 0.072338 0.144676 0.072338 0.144676 0.289352 0.144676 0.144676 0.072338 0.144676 0.072338 0.144676 0.289352 0.144676 0.144676 0.0723379 0.144676 0.0723379 0.144676 0.289352 0.144676 0.144676 0.072338 0.144676 0.072338 0.144676 0.289352 0.144676 0.144676 0.072338 0.144676 0.072338 0.144676 0.289352 0.144676 0.144676 0.072338 0.144676 0.072338 0.144676 0.289352 0.144676 0.144676 0.072338 0.144676 0.072338 0.144676 0.289352 0.144676 0.144676 0.0723379 0.144676 0.0723379 0.144676 0.289352 0.144676 0.144676 0.072338 0.144676 0.072338 0.144676 0.289352 0.144676 0.144676 0.072338 0.144676 0.072338 0.144676 0.289352 0.144676 0.144676 0.0723379 0.144676 0.0723379 0.144676 0.289352 0.144676 0.144676 0.0723379 0.144676 0.0723379 0.144676 0.289352 0.144676 0.144676 0.0723379 0.144676 0.0723379 0.144676 0.289352 0.144676 0.144676 0.072338 0.144676 0.072338 0.144676 0.289352 0.144676 0.144676 0.072338 0.144676 0.072338 0.144676 0.289352 0.144676 0.144676 0.0723379 0.144676 0.0723379 0.144676 0.289352 0.144676 0.144676 0.072338 0.144676 0.072338 0.144676 0.289352 0.144676 0.144676 0.0723379 0.144676 0.0723379 0.144676 0.289352 0.144676 0.144676 0.072338 0.144676 0.072338 0.144676 0.289352 0.144676 0.144676 0.0723381 0.144676 0.0723381 0.144676 0.289352 0.144676 0.144676 0.0723379 0.144676 0.0723379 0.144676 0.289352 0.144676 0.144676 0.0723378 0.144676 0.0723378 0.144676 0.289352 0.144676 0.144676 0.072338 0.144676 0.072338 0.144676 0.289352 0.144676 0.144676 0.0723379 0.144676 0.0723379 0.072338 0.144676 0.144676 0.072338 0.072338 0.144676 0.072338 0.144676 0.072338 0.289352 0.144676 0.144676 0.144676 0.072338 0.072338 0.144676 0.072338 0.144676 0.289352 0.144676 0.144676 0.072338 0.144676 0.072338 0.144676 0.289352 0.144676 0.144676 0.072338 0.144676 0.072338 0.144676 0.289352 0.144676 0.144676 0.072338 0.144676 0.072338 0.144676 0.289352 0.144676 0.144676 0.072338 0.144676 0.072338 0.144676 0.289352 0.144676 0.144676 0.072338 0.144676 0.072338 0.144676 0.289352 0.144676 0.144676 0.072338 0.144676 0.072338 0.144676 0.289352 0.144676 0.144676 0.072338 0.144676 0.072338 0.144676 0.289352 0.144676 0.144676 0.072338 0.144676 0.072338 0.144676 0.289352 0.144676 0.144676 0.0723379 0.144676 0.0723379 0.144676 0.289352 0.144676 0.144676 0.0723379 0.144676 0.0723379 0.144676 0.289352 0.144676 0.144676 0.072338 0.144676 0.072338 0.144676 0.289352 0.144676 0.144676 0.072338 0.144676 0.072338 0.144676 0.289352 0.144676 0.144676 0.072338 0.144676 0.072338 0.144676 0.289352 0.144676 0.144676 0.0723379 0.144676 0.0723379 0.144676 0.289352 0.144676 0.144676 0.072338 0.144676 0.072338 0.144676 0.289352 0.144676 0.144676 0.072338 0.144676 0.072338 0.144676 0.289352 0.144676 0.144676 0.072338 0.144676 0.072338 0.144676 0.289352 0.144676 0.144676 0.0723379 0.144676 0.0723379 0.144676 0.289352 0.144676 0.144676 0.0723379 0.144676 0.0723379 0.144676 0.289352 0.144676 0.144676 0.072338 0.144676 0.072338 0.144676 0.289352 0.144676 0.144676 0.072338 0.144676 0.072338 0.144676 0.289352 0.144676 0.144676 0.0723379 0.144676 0.0723379 0.144676 0.289352 0.144676 0.144676 0.072338 0.144676 0.072338 0.144676 0.289352 0.144676 0.144676 0.0723379 0.144676 0.0723379 0.144676 0.289352 0.144676 0.144676 0.072338 0.144676 0.072338 0.144676 0.289352 0.144676 0.144676 0.0723381 0.144676 0.0723381 0.144676 0.289351 0.144676 0.144676 0.0723379 0.144676 0.0723379 0.144676 0.289352 0.144676 0.144676 0.0723378 0.144676 0.0723378 0.144676 0.289352 0.144676 0.144676 0.072338 0.144676 0.072338 0.144676 0.289352 0.144676 0.144676 0.0723379 0.144676 0.0723379 0.072338 0.144676 0.144676 0.072338 0.072338 0.144676 0.072338 0.144676 0.0723379 0.144676 0.0723379 0.0723379 0.144676 0.0723379 0.0723379 0.0723379 0.0723379 0.144676 0.144676 0.0723379 0.144676 0.0723379 0.0723379 0.0723379 0.144676 0.144676 0.072338 0.144676 0.072338 0.072338 0.072338 0.144676 0.144676 0.0723379 0.144676 0.0723379 0.0723379 0.0723379 0.144676 0.144676 0.0723379 0.144676 0.0723379 0.0723379 0.0723379 0.144676 0.144676 0.072338 0.144676 0.072338 0.072338 0.072338 0.144676 0.144676 0.0723379 0.144676 0.0723379 0.0723379 0.0723379 0.144676 0.144676 0.0723379 0.144676 0.0723379 0.0723379 0.0723379 0.144676 0.144676 0.072338 0.144676 0.072338 0.072338 0.072338 0.144676 0.144676 0.0723379 0.144676 0.0723379 0.0723379 0.0723379 0.144676 0.144676 0.0723379 0.144676 0.0723379 0.0723379 0.0723379 0.144676 0.144676 0.0723379 0.144676 0.0723379 0.0723379 0.0723379 0.144676 0.144676 0.0723379 0.144676 0.0723379 0.0723379 0.0723379 0.144676 0.144676 0.072338 0.144676 0.072338 0.072338 0.072338 0.144676 0.144676 0.0723379 0.144676 0.0723379 0.0723379 0.0723379 0.144676 0.144676 0.072338 0.144676 0.072338 0.072338 0.072338 0.144676 0.144676 0.0723379 0.144676 0.0723379 0.0723379 0.0723379 0.144676 0.144676 0.0723379 0.144676 0.0723379 0.0723379 0.0723379 0.144676 0.144676 0.0723379 0.144676 0.0723379 0.0723379 0.0723379 0.144676 0.144676 0.0723379 0.144676 0.0723379 0.0723379 0.0723379 0.144676 0.144676 0.072338 0.144676 0.072338 0.072338 0.072338 0.144676 0.144676 0.0723379 0.144676 0.0723379 0.0723379 0.0723379 0.144676 0.144676 0.0723379 0.144676 0.0723379 0.0723379 0.0723379 0.144676 0.144676 0.072338 0.144676 0.072338 0.072338 0.072338 0.144676 0.144676 0.0723379 0.144676 0.0723379 0.0723379 0.0723379 0.144676 0.144676 0.0723379 0.144676 0.0723379 0.0723379 0.0723379 0.144676 0.144676 0.072338 0.144676 0.072338 0.072338 0.072338 0.144676 0.144676 0.0723379 0.144676 0.0723379 0.0723379 0.0723379 0.144676 0.144676 0.0723378 0.144676 0.0723378 0.0723378 0.0723378 0.144676 0.144676 0.072338 0.144676 0.072338 0.072338 0.072338 0.144676 0.144676 0.0723379 0.144676 0.0723379 0.0723379 0.0723379 0.072338 0.072338 0.072338 0.072338 0.072338 0.072338 0.072338 
VECTORS u float
0 0 0  -0.00486939 -0.00334089 -0.00630379  -0.00956444 -0.00510242 -0.00805116  -0.0136734 -0.0087452 -0.0086441  -0.017885 -0.0136206 -0.00852513  -0.0219957 -0.0196714 -0.00811529  -0.0259803 -0.0267448 -0.00757957  -0.0297911 -0.0347467 -0.0070169  -0.0334232 -0.0435828 -0.00645161  -0.0368599 -0.0531863 -0.00590062  -0.0401026 -0.0634778 -0.00537324  -0.0431643 -0.074417 -0.0048821  -0.0460424 -0.0859325 -0.00441766  -0.0487444 -0.0979668 -0.003968  -0.0512815 -0.110469 -0.00355411  -0.0536643 -0.123402 -0.00315523  -0.05589 -0.136704 -0.00278592  -0.0579696 -0.150329 -0.00243783  -0.0599184 -0.164233 -0.00211573  -0.0617342 -0.178378 -0.00181818  -0.0634239 -0.192727 -0.00154257  -0.0650008 -0.207233 -0.00128722  -0.0664651 -0.22189 -0.0010612  -0.0678339 -0.236642 -0.000850677  -0.0690987 -0.251463 -0.000655174  -0.0702965 -0.266339 -0.000497103  -0.0714149 -0.281242 -0.000358343  -0.072468 -0.296153 -0.00023818  -0.0734663 -0.311061 -0.000148535  -0.0744095 -0.325935 -7.9155e-05  -0.0753124 -0.340784 -2.12193e-05  -0.0761957 -0.355584 1.19209e-06  -0.0770712 -0.370354 2.36034e-05  0 0 0  -0.00301006 -0.000999302 -0.00491905  -0.00648266 -0.00342475 -0.00596285  -0.00953591 -0.00704642 -0.00636888  -0.0126128 -0.0120128 -0.00631905  -0.0156547 -0.0181669 -0.00604725  -0.0186462 -0.0253806 -0.00567174  -0.0215557 -0.0335311 -0.00525284  -0.02435 -0.0425311 -0.00483584  -0.0270351 -0.0522896 -0.00442767  -0.0295979 -0.062753 -0.00403714  -0.0320408 -0.0738421 -0.00366259  -0.0343574 -0.0855071 -0.00330949  -0.0365573 -0.0976806 -0.00297785  -0.0386519 -0.110325 -0.00266218  -0.0406399 -0.123379 -0.0023694  -0.0425196 -0.13679 -0.00209594  -0.0442998 -0.150526 -0.00182939  -0.0459862 -0.164531 -0.00159764  -0.0475795 -0.178764 -0.00136304  -0.0490899 -0.193193 -0.00115919  -0.0505159 -0.207781 -0.000968933  -0.0518627 -0.222492 -0.000798225  -0.0531411 -0.237306 -0.000646353  -0.0543458 -0.252172 -0.000499249  -0.0554998 -0.267092 -0.000386  -0.0565865 -0.282032 -0.000280857  -0.0576317 -0.296967 -0.000187159  -0.0586236 -0.311893 -0.000122547  -0.0595858 -0.326789 -6.8903e-05  -0.0605128 -0.341639 -2.38419e-05  -0.0614121 -0.356449 9.53674e-06  -0.062304 -0.37122 3.57628e-05  0 0 0  -0.00178742 0.000173211 -0.00335383  -0.0038866 -0.00206208 -0.00403881  -0.00589427 -0.00580551 -0.00426531  -0.0079529 -0.0108779 -0.0041995  -0.00999171 -0.0171345 -0.00401402  -0.0120197 -0.0244609 -0.00376248  -0.0140136 -0.0327243 -0.00348783  -0.0159692 -0.0418427 -0.00321102  -0.0178725 -0.0517251 -0.0029366  -0.0197212 -0.0623112 -0.00267649  -0.0215111 -0.0735208 -0.00242543  -0.0232396 -0.0853036 -0.00220108  -0.0249118 -0.0975958 -0.00197029  -0.0265298 -0.110345 -0.00176644  -0.0280933 -0.123497 -0.00156379  -0.0295891 -0.137006 -0.0013845  -0.0310457 -0.150827 -0.00120926  -0.0324414 -0.164906 -0.0010488  -0.0337915 -0.179219 -0.000902414  -0.0350864 -0.193713 -0.000766277  -0.0363295 -0.208363 -0.000642538  -0.0375388 -0.223123 -0.000529289  -0.038692 -0.23798 -0.0004251  -0.0398014 -0.252893 -0.000329256  -0.0408821 -0.267842 -0.000250816  -0.0419183 -0.282808 -0.000180483  -0.0429232 -0.297773 -0.000128746  -0.0438983 -0.312718 -7.72476e-05  -0.0448418 -0.327625 -4.14848e-05  -0.0457618 -0.342492 -1.23978e-05  -0.046663 -0.357311 1.28746e-05  -0.0475483 -0.372079 3.09944e-05  0 0 0  -0.000811838 0.000688463 -0.00165415  -0.00175531 -0.00132811 -0.00202155  -0.00270447 -0.00508851 -0.00212359  -0.00371581 -0.0102452 -0.00209236  -0.00475186 -0.0165936 -0.00199127  -0.00581521 -0.0239964 -0.00187302  -0.00689948 -0.0323442 -0.00172901  -0.00799799 -0.0415475 -0.00159144  -0.00911188 -0.0515266 -0.00144982  -0.010229 -0.0621948 -0.00132036  -0.0113547 -0.0734976 -0.00118828  -0.0124729 -0.0853637 -0.00107932  -0.013593 -0.0977454 -0.000963926  -0.0147184 -0.110571 -0.000857592  -0.0158335 -0.123799 -0.000767708  -0.0169467 -0.137378 -0.000668287  -0.0180418 -0.151263 -0.000582218  -0.0191388 -0.165408 -0.00050807  -0.0202179 -0.179773 -0.000433683  -0.0212789 -0.194318 -0.000365734  -0.0223372 -0.209007 -0.000302076  -0.0233727 -0.223814 -0.000247478  -0.0243893 -0.238701 -0.000204325  -0.0253911 -0.253644 -0.000150204  -0.0263762 -0.268627 -0.000120163  -0.0273499 -0.283609 -8.15392e-05  -0.0283017 -0.298589 -5.36442e-05  -0.0292401 -0.313545 -3.86238e-05  -0.030158 -0.328466 -2.14577e-05  -0.0310643 -0.343348 -3.09944e-06  -0.0319531 -0.358175 9.77516e-06  -0.0328336 -0.372927 1.97887e-05  0 0 0  6.21825e-05 0.000784695 5.55515e-05  0.000168651 -0.00117579 4.22001e-05  0.000248373 -0.00494856 2.83718e-05  0.000291228 -0.0101543 2.57492e-05  0.000264883 -0.0165507 2.38419e-05  0.000167668 -0.0240077 2.0504e-05  5.72205e-06 -0.0324051 3.02792e-05  -0.000236869 -0.0416612 2.95639e-05  -0.000553966 -0.0516886 4.1008e-05  -0.000934243 -0.062419 3.91006e-05  -0.00138712 -0.0737827 4.50611e-05  -0.00189471 -0.0857038 4.14848e-05  -0.00245392 -0.0981412 5.31673e-05  -0.00306726 -0.111023 5.24521e-05  -0.00373638 -0.124304 4.88758e-05  -0.0044421 -0.13793 5.57899e-05  -0.00518179 -0.151861 4.52995e-05  -0.00595784 -0.166044 4.57764e-05  -0.00676107 -0.180446 4.45843e-05  -0.007586 -0.195019 3.69549e-05  -0.00842881 -0.209743 3.62396e-05  -0.00929451 -0.224569 3.67165e-05  -0.0101693 -0.239481 3.12328e-05  -0.0110526 -0.254446 2.76566e-05  -0.0119376 -0.269436 2.74181e-05  -0.0128303 -0.284438 1.97887e-05  -0.013721 -0.29943 1.93119e-05  -0.0146129 -0.314394 1.21593e-05  -0.0155003 -0.329324 1.21593e-05  -0.0163865 -0.344209 2.86102e-06  -0.0172641 -0.359032 0  -0.0181413 -0.373783 7.15256e-07  0 0 0  0.000934064 0.000521958 0.00175738  0.00207552 -0.00158906 0.00209117  0.00319257 -0.005418 0.00216913  0.00428218 -0.0106238 0.0021174  0.00526363 -0.0170254 0.00202298  0.00613821 -0.0244912 0.00189877  0.00688028 -0.0329046 0.0017755  0.0074904 -0.0421799 0.00164795  0.00797081 -0.0522349 0.00151825  0.00832736 -0.0629923 0.00140285  0.00855219 -0.0743815 0.00127912  0.00866199 -0.0863389 0.00117064  0.00865626 -0.0987965 0.00105739  0.00854301 -0.11171 0.000957966  0.00834274 -0.125018 0.0008564  0.00804186 -0.138674 0.000768661  0.00766706 -0.152621 0.000679016  0.00720263 -0.166833 0.000594616  0.00668263 -0.181252 0.000516415  0.00609374 -0.195844 0.000446796  0.00545359 -0.210574 0.000380993  0.00476933 -0.22542 0.00032115  0.00404501 -0.240337 0.000260353  0.00328159 -0.255307 0.000221491  0.00249171 -0.270309 0.000159264  0.00167942 -0.285305 0.000129223  0.000853062 -0.300301 9.48906e-05  4.52995e-06 -0.315268 6.60419e-05  -0.000846863 -0.330198 3.83854e-05  -0.00171065 -0.345076 2.00272e-05  -0.00258136 -0.359904 -7.15256e-07  -0.00345016 -0.374659 -2.0504e-05  0 0 0  0.00188346 -0.000154376 0.00341344  0.00417653 -0.00257903 0.00404119  0.00635064 -0.00645143 0.00424147  0.00846773 -0.0116283 0.00417972  0.0104479 -0.0179971 0.00400615  0.0122688 -0.0254372 0.00377774  0.0139133 -0.0338448 0.00351548  0.0153737 -0.0431131 0.0032599  0.0166438 -0.053167 0.00300527  0.0177287 -0.063919 0.00275636  0.0186211 -0.0753145 0.00251174  0.0193391 -0.0872687 0.00228906  0.0198897 -0.0997366 0.00206566  0.0202781 -0.112657 0.00186253  0.0205226 -0.125964 0.00166011  0.0206239 -0.139621 0.00148153  0.0205998 -0.153572 0.00130391  0.0204551 -0.16778 0.00114489  0.0202024 -0.182194 0.000991583  0.01985 -0.196792 0.000845671  0.0194137 -0.211518 0.000718355  0.0188956 -0.226358 0.000598431  0.0183148 -0.241271 0.000488997  0.0176687 -0.256237 0.000393391  0.0169766 -0.271227 0.000302315  0.0162375 -0.286223 0.000225306  0.0154564 -0.301207 0.000166178  0.0146554 -0.316169 0.000104666  0.0138288 -0.331091 7.05719e-05  0.0129855 -0.345963 3.3617e-05  0.0121264 -0.360785 4.29153e-06  0.0112529 -0.375547 -3.09944e-05  0 0 0  0.00305007 -0.00145912 0.00488973  0.00670585 -0.00415891 0.00585985  0.00991035 -0.00797182 0.00625443  0.0130296 -0.013105 0.00621867  0.0159884 -0.0194351 0.00597072  0.0187548 -0.0268384 0.00562954  0.021296 -0.0352154 0.00524712  0.0235926 -0.044453 0.00485492  0.0256382 -0.0544791 0.00446987  0.0274376 -0.0652098 0.00409842  0.0289903 -0.0765783 0.00373483  0.0303062 -0.0885119 0.00339079  0.0313929 -0.100955 0.00307083  0.0322709 -0.113847 0.00276041  0.0329503 -0.127135 0.00246763  0.0334361 -0.140774 0.00218797  0.0337608 -0.154701 0.00192571  0.0339115 -0.168889 0.00168157  0.0339172 -0.183285 0.00145459  0.0337911 -0.197855 0.0012455  0.0335402 -0.212565 0.00104904  0.0331793 -0.227386 0.000867128  0.0327151 -0.242276 0.000708342  0.0321758 -0.257223 0.000558615  0.0315583 -0.272193 0.000432968  0.0308752 -0.287178 0.000320673  0.0301423 -0.302147 0.000233412  0.0293684 -0.317091 0.000150681  0.0285547 -0.331998 8.65459e-05  0.0277207 -0.346858 4.72069e-05  0.0268631 -0.361671 0  0.0259986 -0.376441 -2.83718e-05  0 0 0  0.00485472 -0.00384313 0.00612783  0.00971469 -0.00602007 0.00779033  0.0139036 -0.0099107 0.0083735  0.0181071 -0.0150246 0.00829601  0.0220973 -0.0213203 0.00795126  0.025825 -0.0286951 0.00747252  0.0292655 -0.0370153 0.0069561  0.0323856 -0.0462106 0.00642753  0.0351958 -0.0561655 0.00591922  0.0376846 -0.066855 0.00541377  0.0398723 -0.0781717 0.00493932  0.0417618 -0.090058 0.00448418  0.0433633 -0.102449 0.00404596  0.044708 -0.115295 0.00363779  0.0457963 -0.128542 0.00324988  0.0466428 -0.142125 0.00287914  0.0472798 -0.156023 0.00253749  0.0477154 -0.170161 0.00220633  0.0479541 -0.184516 0.00190496  0.0480208 -0.199054 0.00161886  0.0479372 -0.213723 0.00136209  0.047709 -0.228503 0.00112462  0.0473559 -0.243361 0.000911713  0.046886 -0.258272 0.000721455  0.0463195 -0.273214 0.000556231  0.0456767 -0.288165 0.000402451  0.0449555 -0.303109 0.000279188  0.0441809 -0.318031 0.000178814  0.0433609 -0.332919 9.77516e-05  0.0425091 -0.347762 3.98159e-05  0.0416355 -0.36256 1.07288e-05  0.0407705 -0.377328 -2.52724e-05  0 0 0  -0.00379617 -0.00491662 -0.00383925  -0.00879344 -0.00721097 -0.0058136  -0.01348 -0.0108194 -0.00642633  -0.0179951 -0.0155898 -0.00643063  -0.0222894 -0.0214956 -0.00614285  -0.0263603 -0.0284246 -0.00574923  -0.030211 -0.0362727 -0.00531173  -0.0338485 -0.0449813 -0.00487471  -0.0372803 -0.0544491 -0.00445533  -0.0405118 -0.0646347 -0.00405717  -0.0435464 -0.0754591 -0.00368071  -0.0464146 -0.0868741 -0.00332284  -0.0490906 -0.0988132 -0.00299191  -0.0516071 -0.111227 -0.00266767  -0.053967 -0.124069 -0.00237513  -0.0561736 -0.137286 -0.00210047  -0.0582287 -0.150833 -0.0018425  -0.0601559 -0.164668 -0.00159311  -0.0619509 -0.178753 -0.00137091  -0.063621 -0.193043 -0.00116515  -0.0651753 -0.2075 -0.000968933  -0.0666215 -0.222095 -0.00080061  -0.0679693 -0.236807 -0.000641346  -0.0692213 -0.251589 -0.000500917  -0.0704 -0.266434 -0.000385046  -0.0715053 -0.281303 -0.00027585  -0.0725338 -0.296198 -0.000189781  -0.0735133 -0.311071 -0.000116825  -0.0744445 -0.325944 -5.96046e-05  -0.075345 -0.340776 -2.93255e-05  -0.0762217 -0.355583 -4.52995e-06  -0.0770996 -0.370366 1.50204e-05  0 0 0  -0.00200575 -0.00213057 -0.00288773  -0.00572079 -0.00509384 -0.00438452  -0.00935143 -0.00889003 -0.004812  -0.0127165 -0.0138525 -0.0048089  -0.0159374 -0.0199279 -0.00459957  -0.019016 -0.0270271 -0.00430083  -0.0219564 -0.0350525 -0.0039742  -0.024769 -0.0439232 -0.00364828  -0.0274421 -0.0535673 -0.00333166  -0.0299928 -0.0639106 -0.00303364  -0.0324161 -0.0748943 -0.00275207  -0.0347142 -0.0864535 -0.0024879  -0.0368989 -0.0985369 -0.00223279  -0.0389695 -0.111086 -0.00200486  -0.0409338 -0.124054 -0.00177598  -0.0427934 -0.137388 -0.00157404  -0.0445547 -0.151045 -0.00137281  -0.0462179 -0.164983 -0.00119257  -0.047792 -0.179149 -0.00102663  -0.0492802 -0.193519 -0.000864744  -0.0506868 -0.208051 -0.000727654  -0.0520155 -0.222715 -0.000597239  -0.053273 -0.237475 -0.000481129  -0.0544651 -0.25231 -0.000376225  -0.055594 -0.267194 -0.000285864  -0.0566711 -0.282101 -0.000204086  -0.0576925 -0.297017 -0.000143528  -0.0586791 -0.311922 -8.74996e-05  -0.0596242 -0.326804 -4.79221e-05  -0.0605433 -0.341648 -2.6226e-05  -0.0614378 -0.356455 3.8147e-06  -0.0623205 -0.371231 2.47955e-05  0 0 0  -0.00113338 -0.000847921 -0.0019877  -0.00337419 -0.00355753 -0.00299144  -0.00577155 -0.00753218 -0.00325251  -0.00803959 -0.0126448 -0.0032258  -0.0102088 -0.0188562 -0.00307035  -0.012303 -0.0260855 -0.00287247  -0.0143285 -0.0342398 -0.0026474  -0.0162913 -0.0432443 -0.00242782  -0.0181907 -0.0530117 -0.00221872  -0.0200315 -0.063481 -0.00201488  -0.0218056 -0.0745858 -0.00182676  -0.0235183 -0.0862672 -0.0016489  -0.0251782 -0.0984646 -0.00148058  -0.0267776 -0.111117 -0.00132251  -0.0283216 -0.124187 -0.00117564  -0.0298074 -0.137617 -0.00103617  -0.0312395 -0.151361 -0.000910759  -0.0326247 -0.165373 -0.000788212  -0.0339508 -0.179617 -0.000673056  -0.0352323 -0.194054 -0.000576019  -0.0364654 -0.208645 -0.00047636  -0.0376532 -0.223358 -0.00039053  -0.038794 -0.238166 -0.000313282  -0.0398912 -0.253045 -0.000250101  -0.040956 -0.26796 -0.000184536  -0.04198 -0.282893 -0.000135183  -0.0429723 -0.29783 -9.41753e-05  -0.0439332 -0.312752 -6.24657e-05  -0.044873 -0.327648 -3.19481e-05  -0.0457902 -0.342505 -1.4782e-05  -0.0466888 -0.357315 3.33786e-06  -0.0475717 -0.372078 2.45571e-05  0 0 0  -0.000500031 -0.000316471 -0.00100231  -0.00151932 -0.00277776 -0.00151563  -0.00266555 -0.00676388 -0.00164437  -0.00379786 -0.011977 -0.00162244  -0.00490695 -0.0182906 -0.00153923  -0.00601047 -0.0256131 -0.00143456  -0.00710934 -0.0338628 -0.00131679  -0.0082162 -0.0429498 -0.00120664  -0.00932395 -0.0528133 -0.00109744  -0.0104405 -0.0633734 -0.000994921  -0.0115511 -0.0745711 -0.0008986  -0.0126661 -0.0863377 -0.000810146  -0.0137787 -0.098617 -0.000723839  -0.0148836 -0.111356 -0.000645876  -0.0159879 -0.1245 -0.000570774  -0.0170863 -0.137998 -0.000502825  -0.0181751 -0.151807 -0.000440598  -0.0192537 -0.165881 -0.00037837  -0.0203228 -0.18018 -0.000324965  -0.0213742 -0.194667 -0.00026989  -0.022419 -0.209303 -0.000226498  -0.023443 -0.224056 -0.000189066  -0.0244541 -0.238897 -0.000146151  -0.0254464 -0.253802 -0.000113487  -0.0264251 -0.268743 -8.36849e-05  -0.0273848 -0.283702 -6.1512e-05  -0.0283291 -0.298654 -4.12464e-05  -0.0292602 -0.31359 -2.6226e-05  -0.0301757 -0.328499 -9.29832e-06  -0.0310783 -0.343358 -8.34465e-06  -0.0319607 -0.358174 8.34465e-06  -0.0328467 -0.372926 1.40667e-05  0 0 0  4.74453e-05 -0.000208557 2.21729e-05  0.000130504 -0.00261408 1.50204e-05  0.000197053 -0.00661159 6.91414e-06  0.000210941 -0.0118721 -9.53674e-07  0.000174344 -0.0182409 -2.6226e-06  6.74725e-05 -0.0256161 2.38419e-07  -0.000103891 -0.0339185 7.15256e-06  -0.000350237 -0.043065 1.71661e-05  -0.000663996 -0.0529847 2.14577e-05  -0.00104547 -0.0636061 2.81334e-05  -0.00148845 -0.0748591 2.95639e-05  -0.00198841 -0.0866857 2.81334e-05  -0.00254881 -0.0990218 3.60012e-05  -0.0031563 -0.111817 3.33786e-05  -0.0038116 -0.125011 3.98159e-05  -0.00450683 -0.138559 3.6478e-05  -0.00524092 -0.152412 3.50475e-05  -0.00601435 -0.166527 3.48091e-05  -0.00680614 -0.180864 3.26633e-05  -0.00762439 -0.195378 2.7895e-05  -0.00846863 -0.210046 2.86102e-05  -0.00932026 -0.224823 2.38419e-05  -0.01019 -0.239686 2.52724e-05  -0.01107 -0.254609 2.16961e-05  -0.0119555 -0.269566 1.85966e-05  -0.0128391 -0.284535 1.23978e-05  -0.0137258 -0.299498 1.83582e-05  -0.014616 -0.314443 8.58307e-06  -0.0155032 -0.329354 8.10623e-06  -0.016387 -0.344223 4.05312e-06  -0.0172615 -0.359037 2.14577e-06  -0.0181332 -0.373782 4.29153e-06  0 0 0  0.000593439 -0.000451684 0.00103974  0.00177988 -0.00300908 0.00153375  0.00304571 -0.00706148 0.00162792  0.00421053 -0.0123346 0.0016048  0.00523257 -0.0187066 0.00152278  0.00612086 -0.0260932 0.00143218  0.00686979 -0.0344186 0.00133634  0.00748444 -0.0435867 0.00123334  0.00796652 -0.0535322 0.00114107  0.0083164 -0.0641829 0.00104451  0.00854647 -0.0754696 0.000958681  0.00865686 -0.0873205 0.000874043  0.00865388 -0.0996928 0.000792027  0.00854802 -0.112514 0.000714302  0.00834143 -0.125736 0.000640631  0.00804877 -0.139306 0.000574112  0.0076685 -0.153186 0.000506639  0.00721478 -0.167321 0.000445843  0.0066936 -0.181673 0.000388384  0.00611043 -0.196207 0.000335455  0.00547457 -0.21088 0.000281811  0.00478888 -0.225673 0.000239849  0.00406218 -0.240548 0.000190496  0.00330448 -0.255474 0.000156403  0.0025115 -0.270436 0.000122547  0.00170088 -0.285407 9.39369e-05  0.000873089 -0.300372 6.91414e-05  2.3365e-05 -0.315318 4.69685e-05  -0.000833988 -0.330226 2.71797e-05  -0.00169873 -0.345095 1.12057e-05  -0.00256562 -0.359908 1.43051e-06  -0.0034287 -0.374664 -1.35899e-05  0 0 0  0.00123151 -0.00111109 0.00200248  0.00362581 -0.00400221 0.00296307  0.0061197 -0.00810742 0.00319481  0.00839895 -0.0133438 0.00316262  0.0104659 -0.0196826 0.00303006  0.0123301 -0.0270489 0.00284791  0.0139962 -0.0353547 0.00264478  0.0154626 -0.0445213 0.00244021  0.0167347 -0.0544626 0.002249  0.0178105 -0.0651168 0.00205994  0.0187058 -0.0764028 0.00188327  0.0194216 -0.0882604 0.00170922  0.0199683 -0.100632 0.00154591  0.0203583 -0.113457 0.00139308  0.0206025 -0.126682 0.0012455  0.0207014 -0.140255 0.00110745  0.0206692 -0.154134 0.000977755  0.0205252 -0.168267 0.000855446  0.0202727 -0.18262 0.000738144  0.0199206 -0.197151 0.000633478  0.0194807 -0.211826 0.000534534  0.01896 -0.226612 0.000448704  0.0183728 -0.241476 0.00036335  0.0177245 -0.256401 0.000289202  0.0170188 -0.271352 0.000227451  0.0162823 -0.28632 0.000169277  0.0155013 -0.301278 0.000117302  0.0146925 -0.316216 8.10623e-05  0.0138605 -0.331118 4.95911e-05  0.0130119 -0.345977 2.40803e-05  0.0121479 -0.360794 -2.14577e-06  0.0112906 -0.375554 -2.28882e-05  0 0 0  0.00210649 -0.00249088 0.00284886  0.00594217 -0.00570267 0.00427151  0.00962043 -0.00970477 0.00468111  0.0129645 -0.01486 0.00468802  0.0160546 -0.021139 0.00450468  0.0188838 -0.0284584 0.00423956  0.0214562 -0.0367264 0.00394511  0.0237619 -0.0458594 0.00364351  0.0258098 -0.0557746 0.00335336  0.0276034 -0.0663966 0.00306749  0.0291489 -0.0776609 0.00280237  0.0304583 -0.0894948 0.0025456  0.0315434 -0.101844 0.00229406  0.0324161 -0.114648 0.00206685  0.0330882 -0.127852 0.0018456  0.0335693 -0.141405 0.00163674  0.0338814 -0.155261 0.00144124  0.0340364 -0.169376 0.00126171  0.034035 -0.183709 0.00108743  0.0338998 -0.198215 0.000931501  0.033649 -0.212871 0.000785589  0.0332761 -0.227635 0.000650644  0.0328133 -0.242483 0.000526428  0.0322621 -0.257385 0.000418901  0.031636 -0.272319 0.000322819  0.0309448 -0.287267 0.000245094  0.0302029 -0.302213 0.000172138  0.0294166 -0.317131 0.000112057  0.0285997 -0.332022 6.65188e-05  0.027755 -0.346875 2.90871e-05  0.0268943 -0.361683 7.86781e-06  0.0260305 -0.376452 -2.3365e-05  0 0 0  0.00385448 -0.00531244 0.00372005  0.00893334 -0.00790691 0.0055995  0.0136012 -0.0118044 0.00619245  0.0180361 -0.0168632 0.00622344  0.0221617 -0.0230666 0.00597167  0.0259638 -0.0303228 0.00562835  0.0294307 -0.0385262 0.00522852  0.0325741 -0.0475999 0.00483441  0.0353771 -0.0574596 0.00443387  0.0378628 -0.0680304 0.00407004  0.040043 -0.0792402 0.00370312  0.0419244 -0.0910249 0.00336647  0.0435269 -0.103326 0.00303841  0.0448562 -0.116085 0.00273085  0.0459461 -0.129241 0.00243807  0.0467911 -0.142757 0.00216317  0.0474188 -0.156571 0.00190711  0.0478415 -0.170641 0.00165939  0.0480769 -0.184932 0.0014348  0.0481389 -0.1994 0.00122714  0.0480504 -0.214015 0.00103283  0.0478122 -0.228742 0.000846386  0.0474513 -0.243555 0.000693083  0.046979 -0.258421 0.000547171  0.0464051 -0.273329 0.000418186  0.0457461 -0.288244 0.000305653  0.0450218 -0.303159 0.00021553  0.0442386 -0.318059 0.000142336  0.0434029 -0.332932 8.17776e-05  0.0425441 -0.347763 4.86374e-05  0.0416689 -0.362565 6.67572e-06  0.0407915 -0.377341 -1.85966e-05  0 0 0  -0.0038003 -0.00581313 -0.00228333  -0.00861222 -0.00852405 -0.00361276  -0.0132885 -0.0122407 -0.00418258  -0.0179122 -0.0169726 -0.00426865  -0.0223075 -0.0227972 -0.00411177  -0.026455 -0.0296257 -0.00385666  -0.0303523 -0.0373874 -0.00355768  -0.0340144 -0.0459925 -0.00326705  -0.0374551 -0.0553788 -0.00298285  -0.0406888 -0.0654743 -0.00271082  -0.0437288 -0.0762254 -0.00245976  -0.0465798 -0.0875549 -0.00222015  -0.0492516 -0.0994308 -0.0019989  -0.0517638 -0.111783 -0.00178933  -0.0541085 -0.124558 -0.00158668  -0.0562972 -0.13772 -0.00140476  -0.058351 -0.151215 -0.0012269  -0.0602639 -0.165002 -0.00107265  -0.0620477 -0.179032 -0.000916481  -0.0637083 -0.193282 -0.000776291  -0.065253 -0.207703 -0.000656605  -0.0666859 -0.222259 -0.000535965  -0.0680318 -0.236933 -0.000429153  -0.0692751 -0.251696 -0.000338078  -0.0704455 -0.266504 -0.000256777  -0.0715353 -0.281364 -0.000182152  -0.0725598 -0.296228 -0.000129461  -0.0735343 -0.311099 -8.01086e-05  -0.074466 -0.325954 -4.41074e-05  -0.0753593 -0.340789 -2.7895e-05  -0.076242 -0.355592 -5.72205e-06  -0.0771222 -0.370373 1.5974e-05  0 0 0  -0.00184381 -0.00274676 -0.00169015  -0.00539066 -0.00614846 -0.00272083  -0.00912279 -0.0101177 -0.00315571  -0.012653 -0.0151144 -0.00321126  -0.0159907 -0.0211596 -0.00309229  -0.0191525 -0.0281935 -0.00289512  -0.0221431 -0.0361383 -0.00267434  -0.0249725 -0.0449325 -0.00244713  -0.0276606 -0.0544892 -0.00223422  -0.0302068 -0.0647511 -0.00203323  -0.0326234 -0.075657 -0.00184131  -0.0349146 -0.0871459 -0.00165558  -0.0370893 -0.0991575 -0.00149345  -0.0391456 -0.111643 -0.00133419  -0.0410993 -0.12455 -0.00118756  -0.0429436 -0.137827 -0.00104761  -0.044692 -0.151426 -0.000916243  -0.0463457 -0.165307 -0.000792742  -0.047914 -0.179437 -0.000684023  -0.0493853 -0.19376 -0.000578165  -0.0507812 -0.208254 -0.000483751  -0.0521014 -0.222882 -0.000397205  -0.0533504 -0.237613 -0.000320196  -0.0545292 -0.252417 -0.000252962  -0.0556509 -0.267276 -0.000189781  -0.0567131 -0.282164 -0.000136375  -0.0577333 -0.297058 -9.53674e-05  -0.0587084 -0.311948 -5.96046e-05  -0.0596521 -0.326818 -3.33786e-05  -0.0605626 -0.341659 -1.33514e-05  -0.0614595 -0.356463 -5.24521e-06  -0.0623467 -0.371235 1.52588e-05  0 0 0  -0.00101341 -0.00133011 -0.00114441  -0.00311276 -0.0044097 -0.00185513  -0.00558269 -0.00860296 -0.00213456  -0.00799254 -0.0138095 -0.00216269  -0.0102662 -0.0200312 -0.00206947  -0.0124259 -0.0272211 -0.0019362  -0.0144917 -0.0353146 -0.00178337  -0.0164744 -0.0442388 -0.00162816  -0.0183797 -0.053934 -0.00148606  -0.0202181 -0.0643235 -0.00134873  -0.0219878 -0.0753551 -0.00122237  -0.0236973 -0.086963 -0.00109911  -0.0253415 -0.0990862 -0.000988722  -0.026932 -0.111683 -0.000882864  -0.0284617 -0.124689 -0.000783205  -0.0299406 -0.138059 -0.000687599  -0.0313616 -0.151749 -0.000609636  -0.0327337 -0.165713 -0.000522614  -0.0340524 -0.179912 -0.000451565  -0.0353243 -0.194303 -0.000384808  -0.036545 -0.208854 -0.000316858  -0.0377209 -0.223535 -0.000261784  -0.0388503 -0.23831 -0.000205755  -0.0399487 -0.253154 -0.000163078  -0.0409963 -0.268046 -0.000128984  -0.0420194 -0.28296 -8.72612e-05  -0.0430014 -0.297878 -6.29425e-05  -0.0439606 -0.312787 -3.91006e-05  -0.0448978 -0.327667 -2.38419e-05  -0.045804 -0.342515 -1.28746e-05  -0.0466983 -0.357326 3.09944e-06  -0.04758 -0.372089 7.39098e-06  0 0 0  -0.000438079 -0.000724286 -0.000582933  -0.00139518 -0.00352308 -0.000942707  -0.00257677 -0.00774378 -0.00108266  -0.00378883 -0.0130773 -0.00109434  -0.00496262 -0.0194265 -0.0010426  -0.00610697 -0.026728 -0.000966787  -0.00723022 -0.0349246 -0.000891209  -0.00834805 -0.0439494 -0.000813961  -0.00946367 -0.0537363 -0.000735521  -0.0105742 -0.0642194 -0.000668526  -0.0116855 -0.0753406 -0.000604391  -0.0127926 -0.0870373 -0.000540257  -0.0138956 -0.0992491 -0.000482321  -0.0149983 -0.111926 -0.000431538  -0.0160912 -0.125005 -0.000380993  -0.0171764 -0.138447 -0.000339985  -0.0182667 -0.152205 -0.000290871  -0.0193317 -0.16623 -0.000252962  -0.02039 -0.180479 -0.000217438  -0.0214376 -0.194922 -0.000182867  -0.0224719 -0.209517 -0.000149488  -0.02349 -0.224236 -0.000125647  -0.0244937 -0.239045 -0.000100136  -0.0254807 -0.25392 -7.86781e-05  -0.0264566 -0.268835 -5.4121e-05  -0.0274069 -0.28377 -3.91006e-05  -0.0283458 -0.298703 -2.16961e-05  -0.0292742 -0.313625 -1.71661e-05  -0.0301869 -0.32852 -6.4373e-06  -0.031085 -0.343374 7.15256e-07  -0.0319753 -0.35818 4.05312e-06  -0.0328486 -0.372934 1.21593e-05  0 0 0  3.62992e-05 -0.000592738 5.96046e-06  0.000106603 -0.00332135 1.43051e-06  0.000158072 -0.00755414 -5.24521e-06  0.000166059 -0.012947 -6.91414e-06  0.000112832 -0.0193576 -1.07288e-05  1.84774e-06 -0.0267189 -7.15256e-07  -0.000181794 -0.0349768 -3.57628e-06  -0.000424862 -0.044058 5.24521e-06  -0.00074017 -0.0539077 1.45435e-05  -0.00111997 -0.0644542 1.81198e-05  -0.00156164 -0.0756399 1.40667e-05  -0.00205672 -0.0873944 2.0504e-05  -0.00261128 -0.0996594 2.16961e-05  -0.00321448 -0.112391 2.0504e-05  -0.00386429 -0.125522 2.00272e-05  -0.00455785 -0.139015 2.24113e-05  -0.00528812 -0.15281 2.40803e-05  -0.00605059 -0.166876 1.93119e-05  -0.00684047 -0.181163 2.12193e-05  -0.00765681 -0.195641 1.43051e-05  -0.00848842 -0.210263 1.90735e-05  -0.00933957 -0.225007 1.93119e-05  -0.0102093 -0.239837 1.57356e-05  -0.0110795 -0.254733 1.71661e-05  -0.0119593 -0.269663 1.40667e-05  -0.0128434 -0.284608 1.07288e-05  -0.0137346 -0.299556 6.4373e-06  -0.014617 -0.314482 4.05312e-06  -0.0155025 -0.329379 6.4373e-06  -0.0163834 -0.344242 6.91414e-06  -0.0172639 -0.35905 3.57628e-06  -0.0181384 -0.3738 9.53674e-07  0 0 0  0.000516906 -0.00084269 0.000592709  0.00161025 -0.00373161 0.000937462  0.00288919 -0.00801861 0.00106525  0.00410235 -0.0134153 0.00106549  0.00516999 -0.0198267 0.00102067  0.00607687 -0.0272013 0.000951052  0.00684446 -0.0354747 0.000889301  0.00746548 -0.0445814 0.000818014  0.00794852 -0.0544597 0.000755548  0.00830114 -0.0650377 0.000696421  0.00853121 -0.076243 0.000637531  0.00864351 -0.0880324 0.000583172  0.00864589 -0.100332 0.000525475  0.00853956 -0.113087 0.000478506  0.00833678 -0.126253 0.0004251  0.00804281 -0.139766 0.000382423  0.00766492 -0.153586 0.000335693  0.00721979 -0.167674 0.000295877  0.00669479 -0.181978 0.000255823  0.00611567 -0.196467 0.000220299  0.00548267 -0.211104 0.000190735  0.00479555 -0.22586 0.000156641  0.00407004 -0.240699 0.000127077  0.00331235 -0.255596 0.000101089  0.00252581 -0.270529 8.41618e-05  0.00171089 -0.285485 6.60419e-05  0.00088048 -0.300423 4.55379e-05  3.74317e-05 -0.315356 3.05176e-05  -0.000826597 -0.330253 1.93119e-05  -0.00168729 -0.345112 1.19209e-05  -0.00255775 -0.359922 0  -0.00341773 -0.374679 -1.0252e-05  0 0 0  0.00109284 -0.00156486 0.00113821  0.00332013 -0.00480884 0.00183129  0.00586805 -0.00913221 0.00208688  0.00825489 -0.0144641 0.0021081  0.0104014 -0.0208217 0.00202632  0.0123142 -0.0281602 0.00190067  0.0140079 -0.0364128 0.00176454  0.0154871 -0.0455133 0.00163245  0.0167648 -0.0553868 0.00150061  0.0178469 -0.0659641 0.00136995  0.0187422 -0.0771788 0.00125027  0.0194591 -0.088966 0.00113678  0.0200049 -0.101276 0.00102735  0.0203964 -0.114036 0.000923157  0.0206339 -0.1272 0.000825644  0.0207362 -0.140716 0.000736237  0.0207098 -0.154537 0.000653267  0.0205636 -0.168623 0.000567675  0.0203066 -0.182928 0.000489473  0.0199561 -0.197413 0.000426531  0.0195167 -0.212046 0.000354528  0.0189946 -0.226797 0.000292301  0.0184064 -0.24163 0.000241756  0.0177577 -0.256522 0.000191212  0.0170562 -0.271449 0.000146866  0.016305 -0.286392 0.000114918  0.0155253 -0.301331 7.89165e-05  0.0147123 -0.316254 5.36442e-05  0.0138776 -0.331148 3.09944e-05  0.0130284 -0.345994 1.52588e-05  0.0121682 -0.360804 4.76837e-07  0.0113096 -0.375567 -8.10623e-06  0 0 0  0.00192539 -0.00307995 0.00164747  0.0055674 -0.00668597 0.00264645  0.00932539 -0.0108528 0.00306129  0.0128005 -0.0160547 0.00311804  0.0159829 -0.0223156 0.00300932  0.0188782 -0.0295879 0.00283742  0.0214835 -0.0377929 0.00263906  0.0238105 -0.0468522 0.00243545  0.0258667 -0.0566934 0.0022347  0.0276636 -0.0672444 0.00204659  0.0292085 -0.0784345 0.00186634  0.0305192 -0.0902001 0.00169325  0.0316056 -0.102482 0.00152802  0.0324724 -0.11522 0.00137353  0.0331444 -0.128361 0.00123358  0.0336268 -0.141859 0.00108814  0.0339375 -0.155664 0.000959635  0.0340841 -0.169727 0.000839949  0.0340874 -0.184011 0.000724554  0.0339491 -0.19848 0.000615358  0.0336924 -0.213092 0.00052309  0.0333238 -0.227817 0.000433445  0.032856 -0.242633 0.000355482  0.0323043 -0.257506 0.000279903  0.0316727 -0.272415 0.000214577  0.0309815 -0.287335 0.000161886  0.0302379 -0.302264 0.000111818  0.0294449 -0.317168 7.79629e-05  0.028625 -0.332049 4.74453e-05  0.027776 -0.346889 1.97887e-05  0.026917 -0.361692 6.91414e-06  0.0260487 -0.376464 -9.05991e-06  0 0 0  0.00379536 -0.00616401 0.00219369  0.00867131 -0.00912136 0.00347948  0.0133251 -0.0131034 0.00402808  0.0178487 -0.0181354 0.0041132  0.0220508 -0.024285 0.00398088  0.0259211 -0.0314611 0.00375485  0.029424 -0.0395926 0.00348949  0.0325813 -0.048588 0.0032239  0.035403 -0.0583687 0.0029633  0.0378928 -0.0688629 0.00270867  0.0400758 -0.0800024 0.00247645  0.0419612 -0.0917177 0.00223827  0.0435594 -0.103953 0.0020287  0.0448947 -0.116646 0.00182176  0.045975 -0.129746 0.00162625  0.0468311 -0.143195 0.00144482  0.0474534 -0.156958 0.00127101  0.047879 -0.170984 0.00110984  0.0481119 -0.185227 0.000958443  0.0481734 -0.199651 0.000819445  0.0480807 -0.214226 0.00068593  0.0478485 -0.228917 0.000571966  0.0474806 -0.243696 0.000457525  0.0470135 -0.258535 0.000370264  0.0464342 -0.273414 0.000283718  0.0457742 -0.28831 0.000211477  0.0450454 -0.303203 0.000152111  0.0442526 -0.318086 9.5129e-05  0.0434263 -0.332946 5.65052e-05  0.0425677 -0.34778 2.67029e-05  0.0416968 -0.362575 1.12057e-05  0.0408125 -0.377353 -1.23978e-05  0 0 0  -0.00386035 -0.00625717 -0.00107145  -0.00860949 -0.00919768 -0.00172567  -0.0132074 -0.0130346 -0.0020411  -0.0178355 -0.0177807 -0.00211382  -0.0222681 -0.0235685 -0.00205636  -0.0264552 -0.0303509 -0.00193262  -0.03039 -0.0380566 -0.00178361  -0.034072 -0.0466074 -0.00163984  -0.0375253 -0.0559409 -0.00149703  -0.0407617 -0.0659923 -0.00136113  -0.0438007 -0.0766855 -0.00123286  -0.0466514 -0.087985 -0.00110745  -0.0493218 -0.0998101 -0.00100231  -0.0518196 -0.112116 -0.000895023  -0.0541654 -0.12486 -0.000792742  -0.0563552 -0.137985 -0.000700712  -0.0584028 -0.151449 -0.000612974  -0.0603118 -0.1652 -0.000534058  -0.0620875 -0.179205 -0.00045681  -0.063745 -0.193425 -0.000389338  -0.0652831 -0.207822 -0.000327349  -0.0667198 -0.222364 -0.000267267  -0.0680521 -0.237016 -0.000211954  -0.0693023 -0.251757 -0.00017333  -0.0704653 -0.266554 -0.000128746  -0.071548 -0.281398 -9.58443e-05  -0.0725753 -0.296253 -6.60419e-05  -0.0735502 -0.311118 -4.55379e-05  -0.0744758 -0.325962 -2.5034e-05  -0.0753772 -0.340794 -1.26362e-05  -0.076257 -0.355595 -3.8147e-06  -0.0771372 -0.370384 5.24521e-06  0 0 0  -0.00179217 -0.00304481 -0.00079298  -0.00528654 -0.0067049 -0.00130296  -0.00900578 -0.0108075 -0.00154567  -0.0125816 -0.0158455 -0.00159979  -0.0159795 -0.0218859 -0.00154853  -0.0191853 -0.0288916 -0.00145483  -0.0222095 -0.036795 -0.00134134  -0.025061 -0.0455381 -0.00123191  -0.0277582 -0.0550482 -0.00111794  -0.0303099 -0.0652613 -0.0010159  -0.0327249 -0.0761218 -0.00092411  -0.0350137 -0.0875622 -0.000832319  -0.0371801 -0.0995363 -0.000747919  -0.0392331 -0.111981 -0.000664473  -0.0411783 -0.124851 -0.000595093  -0.0430199 -0.138093 -0.000525236  -0.0447645 -0.15166 -0.000457048  -0.0464146 -0.165517 -0.000402451  -0.0479674 -0.179611 -0.000339985  -0.0494385 -0.193915 -0.000290394  -0.050828 -0.208382 -0.000242472  -0.0521414 -0.222986 -0.000196934  -0.0533841 -0.237697 -0.000161171  -0.0545599 -0.252486 -0.000125647  -0.0556746 -0.26733 -9.53674e-05  -0.0567358 -0.2822 -6.65188e-05  -0.0577512 -0.297087 -4.60148e-05  -0.0587254 -0.311971 -2.88486e-05  -0.0596626 -0.326832 -1.81198e-05  -0.060576 -0.341666 -5.48363e-06  -0.0614724 -0.356468 2.38419e-07  -0.0623555 -0.371242 7.86781e-06  0 0 0  -0.000971138 -0.00156686 -0.000533581  -0.00301409 -0.00485198 -0.000883579  -0.00548345 -0.00918874 -0.00104403  -0.00793773 -0.0144653 -0.00107908  -0.010267 -0.020712 -0.00104523  -0.0124699 -0.0278921 -0.000972271  -0.0145615 -0.0359552 -0.000897884  -0.0165621 -0.044839 -0.000820398  -0.0184782 -0.0544872 -0.000745058  -0.0203129 -0.064836 -0.000678778  -0.0220846 -0.075822 -0.000609636  -0.0237908 -0.0873839 -0.000554323  -0.0254302 -0.0994707 -0.000490665  -0.0270158 -0.112024 -0.000441074  -0.0285405 -0.124993 -0.000391722  -0.0300158 -0.138328 -0.000345469  -0.0314281 -0.151984 -0.000302315  -0.032794 -0.165917 -0.000264168  -0.034107 -0.180088 -0.00022459  -0.0353713 -0.194454 -0.000191927  -0.036586 -0.208984 -0.000159979  -0.0377593 -0.22364 -0.000130892  -0.0388899 -0.238397 -0.000104189  -0.0399728 -0.253225 -8.41618e-05  -0.0410252 -0.268103 -6.10352e-05  -0.0420384 -0.283003 -4.72069e-05  -0.0430238 -0.29791 -3.05176e-05  -0.0439754 -0.312804 -2.43187e-05  -0.0449042 -0.327685 -8.34465e-06  -0.0458152 -0.342527 -6.91414e-06  -0.0467088 -0.357331 3.33786e-06  -0.0475974 -0.372098 1.0252e-05  0 0 0  -0.000418067 -0.000912488 -0.000266075  -0.00134508 -0.00389594 -0.000449657  -0.00253057 -0.00825861 -0.00052762  -0.00376749 -0.013687 -0.000543356  -0.00497746 -0.0200736 -0.000527859  -0.0061475 -0.0273769 -0.000488281  -0.00729078 -0.0355489 -0.000451326  -0.00841784 -0.0445401 -0.000412464  -0.00953543 -0.0542874 -0.000368595  -0.0106503 -0.0647295 -0.000330448  -0.0117544 -0.075808 -0.000305176  -0.0128615 -0.0874626 -0.000273466  -0.0139617 -0.0996347 -0.000244856  -0.0150619 -0.112268 -0.000213146  -0.0161504 -0.125316 -0.000191927  -0.0172329 -0.138723 -0.000169039  -0.0183084 -0.152445 -0.000142336  -0.0193772 -0.16644 -0.000125885  -0.0204353 -0.180661 -0.000106096  -0.0214753 -0.195078 -9.39369e-05  -0.0225034 -0.209652 -7.77245e-05  -0.0235195 -0.224346 -6.1512e-05  -0.0245154 -0.239134 -5.26905e-05  -0.0255001 -0.253996 -3.71933e-05  -0.0264671 -0.268892 -2.67029e-05  -0.0274239 -0.283812 -1.83582e-05  -0.028357 -0.298738 -9.29832e-06  -0.0292842 -0.31365 -9.77516e-06  -0.0301907 -0.328534 -2.14577e-06  -0.0310895 -0.343386 -9.53674e-07  -0.0319762 -0.358197 1.90735e-06  -0.0328629 -0.372952 1.66893e-06  0 0 0  3.40492e-05 -0.000763893 4.05312e-06  9.20892e-05 -0.00366688 1.43051e-06  0.000138432 -0.00804684 -3.09944e-06  0.000140429 -0.0135355 -6.67572e-06  8.14795e-05 -0.0199896 -5.96046e-06  -3.95775e-05 -0.0273596 -6.19888e-06  -0.000220001 -0.0355966 0  -0.000473857 -0.0446508 1.19209e-06  -0.000787139 -0.0544619 1.66893e-06  -0.00116217 -0.0649632 5.00679e-06  -0.0016036 -0.0761005 7.39098e-06  -0.00209653 -0.0878167 9.77516e-06  -0.0026505 -0.100046 9.05991e-06  -0.00324881 -0.112736 1.35899e-05  -0.00389659 -0.125833 1.21593e-05  -0.00458586 -0.139287 1.52588e-05  -0.00531292 -0.153056 9.53674e-06  -0.0060761 -0.167088 1.33514e-05  -0.00685716 -0.181348 1.12057e-05  -0.00767231 -0.195799 1.23978e-05  -0.0085032 -0.210398 7.62939e-06  -0.00935626 -0.225121 1.12057e-05  -0.0102167 -0.239933 8.34465e-06  -0.0110867 -0.254808 7.39098e-06  -0.0119653 -0.26972 3.57628e-06  -0.01285 -0.284652 2.86102e-06  -0.0137346 -0.299588 9.29832e-06  -0.0146177 -0.314508 5.24521e-06  -0.0155072 -0.329396 4.76837e-06  -0.0163894 -0.344248 -1.19209e-06  -0.0172577 -0.35906 4.76837e-07  -0.0181327 -0.373816 -1.90735e-06  0 0 0  0.000485137 -0.00102842 0.000269175  0.00153181 -0.00409389 0.000444174  0.00280067 -0.00852066 0.000516176  0.00403118 -0.0140098 0.000527143  0.00511694 -0.0204668 0.000508547  0.00604182 -0.0278419 0.000479937  0.00681669 -0.0360962 0.000445604  0.00744295 -0.0451715 0.000409842  0.0079354 -0.0550084 0.000380039  0.0082866 -0.0655452 0.000347853  0.00852013 -0.0767142 0.000319004  0.00863183 -0.0884598 0.000285864  0.00863338 -0.100719 0.000261068  0.00853169 -0.113437 0.000236988  0.00832999 -0.12656 0.000208139  0.00803757 -0.140042 0.000190973  0.00766754 -0.153831 0.00016737  0.00721407 -0.167886 0.000145674  0.00669408 -0.182164 0.000126123  0.00611615 -0.196627 0.000113249  0.00548077 -0.211245 9.56059e-05  0.00480032 -0.225973 7.7486e-05  0.00407577 -0.240793 6.53267e-05  0.00331926 -0.255673 5.126e-05  0.00252867 -0.270595 3.91006e-05  0.0017159 -0.285528 3.09944e-05  0.000886679 -0.300463 2.19345e-05  4.12464e-05 -0.315381 1.43051e-05  -0.000818014 -0.330272 8.82149e-06  -0.00168276 -0.345125 8.34465e-06  -0.00254869 -0.359934 4.76837e-07  -0.00341702 -0.37469 -2.38419e-06  0 0 0  0.00104026 -0.00178856 0.000527859  0.00319636 -0.00523072 0.000866652  0.00572401 -0.00968724 0.00101852  0.00814444 -0.015098 0.00104928  0.0103322 -0.0214772 0.00101399  0.0122801 -0.0288103 0.000952005  0.0139942 -0.0370397 0.000886202  0.0154867 -0.0461069 0.000816584  0.0167696 -0.0559387 0.000753164  0.0178545 -0.0664729 0.000685453  0.0187502 -0.0776466 0.000623703  0.0194675 -0.0893932 0.000570059  0.0200158 -0.101654 0.000514746  0.0204074 -0.114381 0.000463963  0.0206466 -0.12751 0.000412941  0.0207479 -0.140991 0.000366926  0.0207233 -0.154782 0.000323772  0.0205755 -0.168833 0.000282764  0.0203235 -0.183113 0.000244856  0.0199697 -0.197574 0.000209808  0.0195289 -0.212183 0.00017643  0.0190084 -0.226911 0.000146627  0.0184183 -0.241723 0.000121117  0.0177701 -0.2566 9.82285e-05  0.0170646 -0.27151 7.43866e-05  0.0163145 -0.286436 5.38826e-05  0.0155368 -0.30137 4.17233e-05  0.0147219 -0.316278 2.64645e-05  0.0138857 -0.331162 1.5974e-05  0.0130408 -0.346009 6.67572e-06  0.0121756 -0.360816 -2.38419e-06  0.011313 -0.375578 -8.58307e-06  0 0 0  0.00186148 -0.00336581 0.00077033  0.00543532 -0.00721049 0.00126386  0.00916332 -0.0114928 0.00149751  0.0126693 -0.0167361 0.00155091  0.0159009 -0.0230014 0.00150442  0.0188321 -0.0302503 0.00142026  0.0214669 -0.0384236 0.00132036  0.0238117 -0.0474453 0.00122142  0.0258741 -0.0572448 0.0011189  0.0276761 -0.0677459 0.00102615  0.0292249 -0.0788928 0.000930071  0.0305362 -0.0906192 0.000844955  0.0316187 -0.102861 0.000762939  0.0324923 -0.115563 0.000691652  0.0331633 -0.128672 0.000613451  0.0336475 -0.142135 0.000550747  0.0339561 -0.155904 0.000478029  0.034101 -0.16994 0.000418425  0.034102 -0.184197 0.000363827  0.0339673 -0.198636 0.000306845  0.033711 -0.21322 0.000258684  0.0333433 -0.22793 0.000216007  0.0328734 -0.242723 0.000177383  0.0323162 -0.257576 0.000139475  0.0316877 -0.272472 0.00010705  0.0309958 -0.287385 8.60691e-05  0.030247 -0.302296 5.8651e-05  0.0294588 -0.317194 3.69549e-05  0.0286319 -0.332062 2.24113e-05  0.0277915 -0.3469 1.40667e-05  0.0269279 -0.361702 5.00679e-06  0.0260649 -0.376475 -5.00679e-06  0 0 0  0.00382982 -0.00657558 0.00102949  0.00862306 -0.00975621 0.0016582  0.0131809 -0.0138402 0.00196624  0.0177063 -0.0188846 0.00203872  0.0219511 -0.0250003 0.00199103  0.0258462 -0.0321461 0.00187302  0.0293814 -0.0402264 0.00175023  0.0325508 -0.0491791 0.00161791  0.035383 -0.0589128 0.00148463  0.0378853 -0.0693641 0.00135779  0.0400642 -0.0804591 0.00123906  0.0419483 -0.0921372 0.00111842  0.0435574 -0.10433 0.00101423  0.0448959 -0.116986 0.000911951  0.0459729 -0.130043 0.000816584  0.0468302 -0.143465 0.000721693  0.0474548 -0.157196 0.000633955  0.0478826 -0.171188 0.00055933  0.0481153 -0.185401 0.000481367  0.0481782 -0.199807 0.000408411  0.0480917 -0.214353 0.000349522  0.047853 -0.229019 0.000286818  0.0474906 -0.243782 0.00022769  0.0470133 -0.258603 0.000189066  0.0464418 -0.27346 0.00014329  0.0457835 -0.288349 0.000106573  0.0450506 -0.303236 7.36713e-05  0.0442669 -0.318109 5.10216e-05  0.0434375 -0.332959 3.12328e-05  0.0425799 -0.347789 1.35899e-05  0.0417132 -0.362586 -7.15256e-07  0.0408373 -0.377362 -1.26362e-05  0 0 0  -0.00388477 -0.00638337 -4.76837e-06  -0.00861585 -0.00940594 -5.24521e-06  -0.0131869 -0.0132858 -4.76837e-06  -0.0178082 -0.0180435 -4.05312e-06  -0.0222486 -0.0238243 5.24521e-06  -0.0264515 -0.0305887 -1.90735e-06  -0.0303943 -0.0382758 -1.19209e-06  -0.0340852 -0.0468111 2.14577e-06  -0.0375412 -0.0561284 7.15256e-07  -0.040785 -0.0661592 4.76837e-07  -0.0438205 -0.0768403 -2.86102e-06  -0.0466672 -0.0881146 -1.66893e-06  -0.0493389 -0.0999335 -2.14577e-06  -0.0518403 -0.112232 5.48363e-06  -0.0541857 -0.124962 1.19209e-06  -0.056371 -0.138078 -2.6226e-06  -0.0584154 -0.151524 2.6226e-06  -0.0603232 -0.165273 -3.33786e-06  -0.0620959 -0.179266 -4.29153e-06  -0.063751 -0.193478 -3.8147e-06  -0.0652921 -0.207865 -1.66893e-06  -0.0667298 -0.222401 -2.38419e-07  -0.0680585 -0.237047 -2.38419e-07  -0.0693035 -0.251783 6.19888e-06  -0.0704677 -0.266577 -2.38419e-07  -0.0715532 -0.281412 1.90735e-06  -0.0725849 -0.296264 -1.66893e-06  -0.0735495 -0.311124 -1.66893e-06  -0.0744777 -0.325973 -7.15256e-07  -0.0753765 -0.340798 -3.33786e-06  -0.0762591 -0.355593 9.53674e-07  -0.0771377 -0.370381 -2.38419e-07  0 0 0  -0.00178111 -0.00313535 1.90735e-06  -0.00525697 -0.0068756 4.29153e-06  -0.00897434 -0.0110232 0  -0.0125562 -0.0160816 -1.43051e-06  -0.0159685 -0.0221224 -4.76837e-07  -0.0191879 -0.029116 -1.43051e-06  -0.022224 -0.0370104 -2.6226e-06  -0.0250866 -0.0457355 -4.76837e-07  -0.0277854 -0.0552312 -1.19209e-06  -0.0303386 -0.0654329 -1.90735e-06  -0.0327533 -0.076275 -2.38419e-07  -0.0350388 -0.0877061 1.66893e-06  -0.0372092 -0.0996629 -4.52995e-06  -0.0392616 -0.112094 2.38419e-07  -0.0412056 -0.124951 0  -0.0430433 -0.138181 -1.19209e-06  -0.0447855 -0.151743 1.19209e-06  -0.046428 -0.165581 2.38419e-07  -0.0479856 -0.179669 1.90735e-06  -0.049454 -0.193963 -1.66893e-06  -0.0508428 -0.208423 2.38419e-07  -0.0521557 -0.223022 -2.14577e-06  -0.0533926 -0.237726 -9.53674e-07  -0.0545678 -0.252512 -9.53674e-07  -0.05568 -0.267347 -7.15256e-07  -0.0567462 -0.282215 9.53674e-07  -0.057755 -0.297098 -1.43051e-06  -0.0587296 -0.311974 2.38419e-06  -0.0596657 -0.326836 0  -0.0605795 -0.341668 9.53674e-07  -0.0614741 -0.356472 0  -0.062361 -0.371247 -9.53674e-07  0 0 0  -0.000959262 -0.00163287 -2.38419e-06  -0.00298986 -0.00499061 9.53674e-07  -0.00544971 -0.00937815 3.57628e-06  -0.00792086 -0.0146791 -4.76837e-06  -0.0102609 -0.0209319 2.86102e-06  -0.0124789 -0.02811 4.76837e-07  -0.0145835 -0.0361649 0  -0.0165849 -0.0450419 3.57628e-06  -0.0185031 -0.0546758 -4.29153e-06  -0.0203462 -0.065004 5.00679e-06  -0.0221157 -0.0759769 -4.76837e-06  -0.0238175 -0.0875249 -7.15256e-07  -0.0254626 -0.0995981 -2.6226e-06  -0.0270396 -0.112139 -1.43051e-06  -0.0285634 -0.125093 0  -0.0300326 -0.138419 -1.43051e-06  -0.0314474 -0.152064 -1.66893e-06  -0.0328138 -0.165988 2.38419e-06  -0.0341275 -0.18015 0  -0.0353847 -0.194506 2.38419e-06  -0.0365996 -0.209027 1.90735e-06  -0.0377736 -0.223677 -2.38419e-07  -0.0389018 -0.238425 2.38419e-07  -0.0399814 -0.253245 2.38419e-07  -0.041029 -0.268119 6.67572e-06  -0.0420437 -0.283018 -7.15256e-07  -0.0430255 -0.297919 1.66893e-06  -0.0439792 -0.312814 4.76837e-07  -0.0449116 -0.327688 4.76837e-07  -0.0458212 -0.342533 -1.19209e-06  -0.0467157 -0.357332 2.38419e-07  -0.0476007 -0.372104 -4.76837e-06  0 0 0  -0.000412412 -0.000968546 -1.43051e-06  -0.00133404 -0.00400794 1.90735e-06  -0.00251526 -0.00841784 -1.66893e-06  -0.00375962 -0.0138803 4.76837e-07  -0.00497997 -0.0202818 -1.19209e-06  -0.0061571 -0.0275881 1.66893e-06  -0.00730658 -0.0357579 -4.52995e-06  -0.00843918 -0.0447372 1.90735e-06  -0.00955856 -0.0544761 -2.38419e-06  -0.0106748 -0.0649014 -2.38419e-07  -0.0117817 -0.0759619 -9.53674e-07  -0.0128834 -0.0876054 -9.53674e-07  -0.013984 -0.0997615 -5.00679e-06  -0.0150799 -0.112383 1.43051e-06  -0.0161687 -0.125418 -3.09944e-06  -0.0172527 -0.138808 4.76837e-07  -0.0183232 -0.152523 2.38419e-06  -0.0193937 -0.166506 -1.43051e-06  -0.0204451 -0.180722 1.43051e-06  -0.0214865 -0.195129 1.66893e-06  -0.0225143 -0.209693 -7.15256e-07  -0.0235233 -0.224381 -3.8147e-06  -0.0245249 -0.239164 1.66893e-06  -0.025507 -0.254016 9.53674e-07  -0.0264738 -0.268912 -4.76837e-07  -0.027426 -0.283829 7.15256e-07  -0.0283644 -0.29875 3.09944e-06  -0.0292811 -0.313659 -4.05312e-06  -0.0301912 -0.32854 1.66893e-06  -0.0310938 -0.343388 7.15256e-07  -0.0319819 -0.3582 1.66893e-06  -0.0328631 -0.372953 -4.05312e-06  0 0 0  2.87741e-05 -0.000811458 -4.52995e-06  9.05991e-05 -0.00377333 -1.66893e-06  0.000132084 -0.00819868 0  0.000129163 -0.0137187 1.43051e-06  6.9499e-05 -0.0201959 3.09944e-06  -4.8697e-05 -0.0275697 -3.33786e-06  -0.000237107 -0.0358026 -1.43051e-06  -0.00049001 -0.0448459 2.14577e-06  -0.000800014 -0.0546406 -5.48363e-06  -0.0011797 -0.0651322 -1.43051e-06  -0.00161564 -0.0762578 -7.15256e-07  -0.00211394 -0.087956 -4.76837e-06  -0.00266147 -0.100173 -2.14577e-06  -0.00326252 -0.112851 -4.76837e-07  -0.00390542 -0.125935 1.43051e-06  -0.00459754 -0.139379 7.15256e-07  -0.00532341 -0.153137 3.09944e-06  -0.00607991 -0.16716 4.76837e-07  -0.00686598 -0.181411 9.53674e-07  -0.00767732 -0.19585 -2.38419e-07  -0.00850964 -0.210443 -4.76837e-07  -0.00935864 -0.225157 0  -0.0102215 -0.239963 -7.15256e-07  -0.0110898 -0.25483 -4.76837e-07  -0.0119689 -0.26974 -7.15256e-07  -0.012851 -0.284667 -1.19209e-06  -0.013736 -0.299596 -1.19209e-06  -0.0146208 -0.314515 -2.38419e-07  -0.0155036 -0.329401 -3.8147e-06  -0.0163851 -0.344253 -2.86102e-06  -0.0172637 -0.359063 5.96046e-06  -0.0181379 -0.373817 3.57628e-06  0 0 0  0.00047572 -0.00107974 2.38419e-06  0.00151229 -0.00420463 9.53674e-07  0.00277457 -0.00867653 9.53674e-07  0.0040046 -0.0142009 -2.38419e-07  0.00509775 -0.0206696 4.29153e-06  0.0060302 -0.0280501 -7.15256e-07  0.0068025 -0.0362992 -2.14577e-06  0.00743711 -0.0453691 4.76837e-07  0.0079205 -0.0551913 -1.43051e-06  0.00828099 -0.0657124 -3.09944e-06  0.00851536 -0.0768695 -1.66893e-06  0.00863051 -0.0885999 -4.05312e-06  0.00863028 -0.100846 2.38419e-06  0.00852907 -0.113552 -4.76837e-06  0.00832641 -0.126664 1.43051e-06  0.00803733 -0.140137 -2.38419e-06  0.00766039 -0.153914 7.15256e-07  0.00721192 -0.167958 2.86102e-06  0.00669575 -0.182228 -3.57628e-06  0.00611329 -0.196683 1.19209e-06  0.00548363 -0.211285 -2.14577e-06  0.00479865 -0.226013 -2.38419e-07  0.00407553 -0.240826 3.8147e-06  0.00331998 -0.255698 -9.53674e-07  0.00252867 -0.270613 1.19209e-06  0.00171852 -0.285543 -3.09944e-06  0.00088501 -0.300479 0  4.05312e-05 -0.315391 -1.43051e-06  -0.000818968 -0.33028 2.38419e-06  -0.00167966 -0.345129 2.86102e-06  -0.00255322 -0.359937 7.15256e-07  -0.00340962 -0.374695 -5.24521e-06  0 0 0  0.00102325 -0.00185299 -2.86102e-06  0.00316381 -0.00535738 3.57628e-06  0.00567913 -0.00986463 -1.90735e-06  0.00810581 -0.0152956 2.86102e-06  0.0103095 -0.0216943 -7.15256e-07  0.0122639 -0.0290253 7.15256e-07  0.0139818 -0.0372465 1.66893e-06  0.015481 -0.0463015 -1.19209e-06  0.0167682 -0.0561187 -4.76837e-07  0.0178547 -0.0666414 4.76837e-07  0.0187532 -0.0778022 3.8147e-06  0.0194703 -0.0895358 -1.90735e-06  0.0200181 -0.101787 1.19209e-06  0.0204092 -0.114494 1.43051e-06  0.0206493 -0.127609 7.15256e-07  0.0207505 -0.141083 1.19209e-06  0.020725 -0.154863 3.09944e-06  0.0205789 -0.168908 -2.38419e-07  0.0203288 -0.183173 4.29153e-06  0.0199697 -0.19763 1.66893e-06  0.0195339 -0.212229 -1.90735e-06  0.0190122 -0.226948 2.38419e-06  0.0184259 -0.241754 -4.76837e-07  0.0177712 -0.256624 1.90735e-06  0.0170736 -0.271531 -4.76837e-07  0.0163236 -0.286455 7.15256e-07  0.0155394 -0.301378 1.43051e-06  0.0147257 -0.316287 7.15256e-07  0.0138905 -0.331168 2.86102e-06  0.0130417 -0.346015 -4.29153e-06  0.0121806 -0.36082 -1.90735e-06  0.0113215 -0.375583 1.19209e-06  0 0 0  0.00184813 -0.00344956 7.15256e-07  0.0053958 -0.00736797 -1.19209e-06  0.00911465 -0.0116959 -2.86102e-06  0.0126243 -0.0169594 1.43051e-06  0.0158676 -0.023224 3.57628e-06  0.0188109 -0.0304703 -9.53674e-07  0.0214579 -0.0386319 7.15256e-07  0.0238056 -0.0476379 -9.53674e-07  0.0258725 -0.0574225 -2.38419e-07  0.0276772 -0.0679166 1.19209e-06  0.0292244 -0.079049 -2.38419e-06  0.030538 -0.0907608 3.33786e-06  0.0316222 -0.102989 -7.15256e-07  0.0324962 -0.115678 -4.05312e-06  0.0331645 -0.128777 3.57628e-06  0.0336497 -0.142226 -3.8147e-06  0.033958 -0.155985 1.19209e-06  0.0341082 -0.17001 -1.43051e-06  0.0341077 -0.184256 -2.14577e-06  0.0339682 -0.198686 -1.90735e-06  0.0337133 -0.213268 1.43051e-06  0.033344 -0.227964 -4.76837e-06  0.0328786 -0.242755 1.90735e-06  0.0323219 -0.257604 1.66893e-06  0.0316949 -0.272491 -1.90735e-06  0.0309978 -0.287398 -5.48363e-06  0.0302484 -0.302301 -2.14577e-06  0.0294626 -0.317201 1.43051e-06  0.0286398 -0.332069 1.66893e-06  0.0277913 -0.346906 2.14577e-06  0.0269337 -0.361707 5.72205e-06  0.0260739 -0.376479 -2.14577e-06  0 0 0  0.00384951 -0.00670624 1.90735e-06  0.00861442 -0.00995553 -1.90735e-06  0.0131471 -0.0140764 -3.09944e-06  0.0176581 -0.0191233 -1.19209e-06  0.0219113 -0.0252396 9.53674e-07  0.0258138 -0.032369 -2.14577e-06  0.0293529 -0.0404376 -6.4373e-06  0.0325395 -0.0493724 2.38419e-07  0.0353696 -0.0590959 4.76837e-07  0.0378737 -0.0695308 -1.19209e-06  0.0400573 -0.0806089 -4.76837e-06  0.041947 -0.0922704 -1.43051e-06  0.043552 -0.104451 2.38419e-07  0.0448867 -0.117095 -3.8147e-06  0.045974 -0.130145 -2.86102e-06  0.0468175 -0.14356 1.66893e-06  0.0474486 -0.157275 -2.86102e-06  0.0478797 -0.171253 2.38419e-07  0.0481191 -0.185464 -1.19209e-06  0.0481787 -0.199852 3.57628e-06  0.0480855 -0.214395 -6.67572e-06  0.0478535 -0.22906 3.57628e-06  0.0474873 -0.243813 -4.05312e-06  0.0470173 -0.258623 2.86102e-06  0.0464416 -0.273478 0  0.0457823 -0.288363 1.19209e-06  0.0450535 -0.303244 4.52995e-06  0.0442672 -0.318114 9.53674e-07  0.0434422 -0.332963 2.38419e-07  0.0425849 -0.347789 -5.24521e-06  0.041712 -0.362586 -2.38419e-07  0.040844 -0.377366 3.33786e-06  0 0 0  -0.00385828 -0.00624422 0.00107384  -0.00860636 -0.00919892 0.0017271  -0.0132101 -0.0130352 0.00204563  -0.0178319 -0.0177785 0.00212049  -0.0222683 -0.0235722 0.00205994  -0.026462 -0.0303506 0.0019331  -0.030388 -0.0380529 0.00178909  -0.034071 -0.0466051 0.00164032  -0.037527 -0.0559384 0.00150251  -0.0407617 -0.0659906 0.00135899  -0.043803 -0.0766843 0.00123358  -0.0466515 -0.0879784 0.00111437  -0.0493168 -0.0998137 0.000996113  -0.0518208 -0.112116 0.000898838  -0.0541675 -0.124864 0.000795841  -0.0563546 -0.137983 0.000703812  -0.0584028 -0.151447 0.000623226  -0.0603113 -0.165204 0.000532627  -0.0620899 -0.17921 0.000463963  -0.0637431 -0.193428 0.000389576  -0.0652866 -0.207827 0.000328541  -0.0667181 -0.222361 0.000265598  -0.0680559 -0.237017 0.0002141  -0.0692995 -0.251752 0.000172138  -0.0704591 -0.266558 0.000123978  -0.0715485 -0.281401 0.000100136  -0.0725791 -0.296252 6.86646e-05  -0.0735457 -0.311112 3.8147e-05  -0.0744748 -0.325963 2.86102e-05  -0.0753751 -0.340793 5.24521e-06  -0.0762522 -0.355592 3.8147e-06  -0.077136 -0.370375 -7.62939e-06  0 0 0  -0.0017912 -0.00304434 0.000793934  -0.00528517 -0.00670438 0.00130463  -0.00900933 -0.0108045 0.00154114  -0.0125819 -0.0158465 0.0016017  -0.015977 -0.0218812 0.00154972  -0.0191857 -0.0288841 0.00145674  -0.0222112 -0.0367952 0.00134563  -0.0250631 -0.045536 0.00122356  -0.0277599 -0.0550481 0.00112152  -0.0303088 -0.0652618 0.00101709  -0.0327233 -0.0761232 0.000919342  -0.0350124 -0.0875657 0.000828266  -0.0371813 -0.0995371 0.000747681  -0.0392355 -0.111983 0.000664711  -0.0411779 -0.124849 0.000589371  -0.0430206 -0.138092 0.000522614  -0.0447652 -0.151664 0.000459671  -0.0464103 -0.165513 0.000393867  -0.0479677 -0.17961 0.000339508  -0.0494359 -0.193913 0.000290394  -0.0508301 -0.208381 0.000244141  -0.0521426 -0.222988 0.000202656  -0.0533855 -0.237699 0.000163555  -0.0545633 -0.252487 0.000128269  -0.0556724 -0.26733 9.82285e-05  -0.0567367 -0.2822 6.86646e-05  -0.0577497 -0.297087 4.86374e-05  -0.0587256 -0.311969 3.52859e-05  -0.0596638 -0.326833 1.71661e-05  -0.0605776 -0.341668 6.67572e-06  -0.0614712 -0.356468 -6.19888e-06  -0.0623517 -0.371244 -8.10623e-06  0 0 0  -0.00096982 -0.00156441 0.000533104  -0.0030157 -0.00485067 0.000881672  -0.00548238 -0.00918868 0.00104952  -0.00793675 -0.0144675 0.00107622  -0.0102654 -0.0207134 0.00104427  -0.0124699 -0.0278907 0.000971794  -0.0145628 -0.0359557 0.000894547  -0.0165616 -0.0448396 0.000821114  -0.0184751 -0.0544894 0.000740051  -0.0203161 -0.0648365 0.000674248  -0.022087 -0.0758218 0.000606537  -0.023791 -0.0873846 0.000551701  -0.0254312 -0.0994696 0.00049305  -0.0270123 -0.112022 0.000443459  -0.02854 -0.124992 0.000391006  -0.0300121 -0.13833 0.000346661  -0.0314293 -0.151987 0.000300407  -0.0327959 -0.165919 0.000261307  -0.0341094 -0.18009 0.000226974  -0.0353708 -0.194453 0.000188351  -0.0365894 -0.208983 0.00015974  -0.0377584 -0.22364 0.000133991  -0.0388892 -0.238397 0.000103474  -0.0399778 -0.253223 8.4877e-05  -0.0410242 -0.268103 6.58035e-05  -0.0420389 -0.283003 4.3869e-05  -0.0430202 -0.297911 3.05176e-05  -0.0439744 -0.312809 1.66893e-05  -0.0449102 -0.327686 9.05991e-06  -0.0458121 -0.342527 3.33786e-06  -0.0467083 -0.357332 -2.38419e-06  -0.0476003 -0.3721 -6.19888e-06  0 0 0  -0.000419095 -0.000916213 0.000265598  -0.00134537 -0.00389698 0.000447273  -0.00252765 -0.00825819 0.000531673  -0.0037708 -0.0136907 0.000549316  -0.00497699 -0.0200744 0.000524521  -0.0061481 -0.0273758 0.000487328  -0.0072906 -0.0355506 0.000445366  -0.00841779 -0.0445415 0.000413418  -0.00953805 -0.0542876 0.000367165  -0.0106493 -0.064732 0.000336647  -0.0117564 -0.0758122 0.000301361  -0.0128613 -0.0874644 0.000267029  -0.0139645 -0.0996325 0.000243187  -0.0150595 -0.112268 0.000210285  -0.016149 -0.125313 0.000191689  -0.0172368 -0.138722 0.000163078  -0.0183136 -0.152443 0.000147343  -0.0193765 -0.166439 0.000124931  -0.0204308 -0.180661 0.000107765  -0.021476 -0.195078 8.58307e-05  -0.0225 -0.20965 6.96182e-05  -0.02352 -0.224346 6.05583e-05  -0.0245197 -0.239136 4.48227e-05  -0.0254993 -0.253994 3.67165e-05  -0.0264683 -0.268895 2.71797e-05  -0.027422 -0.283813 1.7643e-05  -0.0283589 -0.298739 1.81198e-05  -0.0292814 -0.313649 6.19888e-06  -0.0301919 -0.328533 4.76837e-07  -0.0310886 -0.343386 2.86102e-06  -0.0319784 -0.358193 -3.33786e-06  -0.0328569 -0.372946 -4.76837e-07  0 0 0  3.32296e-05 -0.00076282 -4.76837e-07  9.50694e-05 -0.00366795 -4.29153e-06  0.00013572 -0.0080412 1.90735e-06  0.000140548 -0.0135311 2.86102e-06  8.27312e-05 -0.0199895 3.8147e-06  -3.82066e-05 -0.0273619 4.76837e-06  -0.000224888 -0.0355942 4.76837e-07  -0.000471652 -0.0446482 9.53674e-07  -0.000785947 -0.0544623 -6.67572e-06  -0.0011636 -0.0649651 -7.15256e-06  -0.00160074 -0.0760992 -7.62939e-06  -0.00209606 -0.0878164 -8.10623e-06  -0.0026499 -0.100044 -1.14441e-05  -0.00325072 -0.112735 -1.09673e-05  -0.00389779 -0.125832 -1.14441e-05  -0.00458598 -0.139291 -1.33514e-05  -0.0053134 -0.153053 -1.33514e-05  -0.00607181 -0.167087 -1.4782e-05  -0.00686097 -0.181347 -1.52588e-05  -0.00767112 -0.195798 -7.62939e-06  -0.00850415 -0.210397 -1.23978e-05  -0.00935102 -0.225119 -6.19888e-06  -0.0102172 -0.239931 -1.09673e-05  -0.0110884 -0.254804 -1.23978e-05  -0.0119681 -0.269719 -2.86102e-06  -0.0128491 -0.284653 -5.72205e-06  -0.0137353 -0.299588 -2.38419e-06  -0.0146179 -0.314506 1.43051e-06  -0.0155039 -0.329398 -2.86102e-06  -0.0163851 -0.344252 -4.76837e-06  -0.0172641 -0.359061 4.76837e-07  -0.018136 -0.373813 -1.43051e-06  0 0 0  0.000482664 -0.00102758 -0.000270367  0.00153321 -0.0040943 -0.000448227  0.00280133 -0.00852096 -0.000520706  0.00403011 -0.0140071 -0.000531197  0.00511634 -0.0204644 -0.000509262  0.00604355 -0.0278428 -0.00048542  0.00681573 -0.0360957 -0.000444412  0.00744104 -0.0451692 -0.000417233  0.00793254 -0.0550086 -0.000374317  0.00829232 -0.0655412 -0.000349045  0.00851893 -0.0767121 -0.000313759  0.00863004 -0.088459 -0.000295162  0.00863492 -0.100718 -0.000263214  0.00853193 -0.113436 -0.000236511  0.00833273 -0.126563 -0.000217438  0.008039 -0.140044 -0.000184059  0.00766659 -0.153832 -0.00016737  0.00721264 -0.167886 -0.000143528  0.0066967 -0.182166 -0.000128269  0.00611567 -0.196631 -0.000108242  0.0054841 -0.211245 -9.77516e-05  0.00479698 -0.225975 -7.48634e-05  0.00407887 -0.240792 -6.67572e-05  0.00331521 -0.255676 -4.95911e-05  0.00253201 -0.270589 -4.29153e-05  0.00171494 -0.285529 -2.90871e-05  0.00088501 -0.30046 -2.67029e-05  3.91006e-05 -0.315382 -1.85966e-05  -0.000818253 -0.330269 -7.15256e-06  -0.00168324 -0.345121 -9.53674e-07  -0.00255013 -0.359932 -3.33786e-06  -0.00341535 -0.374689 -4.76837e-07  0 0 0  0.00104105 -0.00178725 -0.000524521  0.00319809 -0.00522852 -0.000866413  0.00572181 -0.00968891 -0.00101948  0.00814557 -0.015092 -0.00104809  0.0103331 -0.0214775 -0.00101471  0.0122815 -0.0288103 -0.000953674  0.0139925 -0.0370416 -0.000885487  0.0154858 -0.0461034 -0.000814915  0.0167701 -0.0559363 -0.000749588  0.0178566 -0.0664725 -0.000686169  0.0187501 -0.0776441 -0.000631332  0.0194696 -0.0893921 -0.000569344  0.020018 -0.101656 -0.000510693  0.0204034 -0.11438 -0.000463486  0.0206505 -0.12751 -0.000418663  0.0207498 -0.140995 -0.000363827  0.0207229 -0.154783 -0.00032568  0.0205765 -0.168837 -0.000283718  0.0203195 -0.183113 -0.000249386  0.0199707 -0.197573 -0.000212669  0.0195303 -0.212184 -0.000174046  0.0190084 -0.226911 -0.000146866  0.0184195 -0.241726 -0.000121117  0.0177672 -0.256597 -9.34601e-05  0.0170653 -0.271511 -7.48634e-05  0.0163164 -0.28644 -5.43594e-05  0.0155346 -0.301366 -3.76701e-05  0.0147214 -0.31628 -2.28882e-05  0.0138893 -0.331163 -1.7643e-05  0.0130394 -0.346011 -1.00136e-05  0.0121806 -0.360818 0  0.0113196 -0.375579 1.23978e-05  0 0 0  0.00186455 -0.00336438 -0.000771523  0.00543195 -0.0072093 -0.00126791  0.0091655 -0.0114945 -0.00149727  0.0126677 -0.0167397 -0.00154829  0.0159009 -0.0229999 -0.00150871  0.0188338 -0.030252 -0.00142193  0.0214658 -0.0384235 -0.00132275  0.0238098 -0.0474452 -0.00121784  0.0258764 -0.0572417 -0.00111818  0.027675 -0.0677484 -0.00102806  0.0292242 -0.078895 -0.000927925  0.030535 -0.0906232 -0.000845909  0.0316194 -0.102859 -0.000763416  0.0324934 -0.115564 -0.000690937  0.0331615 -0.128673 -0.000613689  0.0336449 -0.142136 -0.000546932  0.0339577 -0.155906 -0.000481606  0.0341032 -0.169941 -0.000419617  0.0341012 -0.184194 -0.000360966  0.0339658 -0.198632 -0.000308514  0.0337093 -0.213224 -0.000261307  0.0333357 -0.227932 -0.000217915  0.0328717 -0.242721 -0.000175476  0.0323188 -0.257578 -0.000142574  0.0316875 -0.272468 -0.000105381  0.030993 -0.287382 -8.34465e-05  0.0302489 -0.302296 -5.67436e-05  0.0294576 -0.317191 -3.57628e-05  0.0286341 -0.332064 -2.28882e-05  0.0277908 -0.346901 -1.14441e-05  0.0269287 -0.361705 -4.76837e-06  0.0260682 -0.376475 6.67572e-06  0 0 0  0.00383185 -0.00657743 -0.00102472  0.0086202 -0.00975651 -0.0016551  0.0131805 -0.0138427 -0.00196886  0.0177082 -0.018877 -0.002038  0.0219484 -0.0250044 -0.00198698  0.0258471 -0.0321396 -0.00187778  0.0293787 -0.0402316 -0.00174856  0.032552 -0.0491774 -0.00161076  0.0353791 -0.0589169 -0.00148535  0.037883 -0.0693625 -0.00136089  0.0400662 -0.0804572 -0.0012331  0.0419536 -0.0921337 -0.00112629  0.0435547 -0.104327 -0.0010128  0.044893 -0.116981 -0.00091362  0.0459772 -0.130048 -0.000815392  0.0468245 -0.143463 -0.000718117  0.0474541 -0.157196 -0.000641346  0.0478814 -0.171188 -0.000551701  0.0481169 -0.185401 -0.000479698  0.0481832 -0.199802 -0.000410557  0.0480826 -0.214352 -0.000342369  0.0478551 -0.229026 -0.000284672  0.0474958 -0.243783 -0.00023222  0.0470109 -0.258605 -0.000192642  0.0464365 -0.273463 -0.000142574  0.0457773 -0.288342 -0.000101089  0.0450563 -0.30323 -7.58171e-05  0.0442662 -0.318112 -4.95911e-05  0.0434384 -0.332965 -2.3365e-05  0.0425818 -0.347791 -1.85966e-05  0.0417097 -0.362586 -5.24521e-06  0.0408325 -0.377366 3.33786e-06  0 0 0  -0.00379627 -0.00581784 0.002285  -0.00861114 -0.0085197 0.00360966  -0.0132874 -0.0122396 0.00419092  -0.0179156 -0.0169744 0.00426483  -0.0223075 -0.0227929 0.00411367  -0.0264549 -0.0296277 0.00384855  -0.0303537 -0.0373855 0.00356388  -0.0340173 -0.0459928 0.0032649  -0.0374576 -0.0553797 0.00298786  -0.0406923 -0.0654779 0.00271606  -0.043725 -0.0762209 0.00245476  -0.0465785 -0.0875585 0.0022192  -0.049253 -0.0994323 0.00199556  -0.0517539 -0.111782 0.00178432  -0.0541017 -0.124563 0.00159216  -0.0562979 -0.137715 0.00140667  -0.0583525 -0.151212 0.00122786  -0.060261 -0.164994 0.00105906  -0.062047 -0.179032 0.000916481  -0.0637109 -0.193277 0.000777245  -0.0652525 -0.207701 0.000653744  -0.0666864 -0.222262 0.000528812  -0.0680313 -0.236934 0.000429153  -0.0692759 -0.251694 0.000342369  -0.0704463 -0.266504 0.000253201  -0.0715368 -0.281363 0.000187874  -0.0725617 -0.296226 0.000127792  -0.0735338 -0.311098 8.29697e-05  -0.0744665 -0.325955 4.91142e-05  -0.0753598 -0.340783 1.85966e-05  -0.0762413 -0.355589 9.05991e-06  -0.0771158 -0.370375 -1.04904e-05  0 0 0  -0.001842 -0.00274449 0.00168753  -0.00539364 -0.00614666 0.00272274  -0.00912312 -0.0101177 0.00315619  -0.0126513 -0.0151159 0.00321341  -0.0159932 -0.021163 0.00308752  -0.0191504 -0.0281942 0.00289631  -0.0221397 -0.03614 0.00267029  -0.0249753 -0.0449318 0.00244904  -0.0276606 -0.0544929 0.00222778  -0.0302072 -0.0647521 0.00202513  -0.0326201 -0.075658 0.00183773  -0.0349152 -0.0871485 0.00166607  -0.0370853 -0.0991589 0.00149393  -0.0391439 -0.111645 0.00133324  -0.0410982 -0.124548 0.00118637  -0.0429456 -0.137826 0.00104475  -0.0446947 -0.151424 0.000918865  -0.0463505 -0.165315 0.000794888  -0.0479097 -0.179439 0.000685692  -0.0493872 -0.193763 0.000580788  -0.0507815 -0.208256 0.000486851  -0.0521014 -0.222886 0.000396252  -0.0533466 -0.237611 0.000321388  -0.0545304 -0.252416 0.00025034  -0.0556536 -0.267276 0.000192642  -0.0567133 -0.282163 0.000135422  -0.0577312 -0.297062 9.15527e-05  -0.0587089 -0.311951 5.8651e-05  -0.0596497 -0.326819 3.62396e-05  -0.060564 -0.341657 1.33514e-05  -0.0614581 -0.356462 5.72205e-06  -0.0623419 -0.371235 -1.33514e-05  0 0 0  -0.00101296 -0.00133252 0.00114679  -0.00311141 -0.00440776 0.00184965  -0.00558427 -0.00860278 0.00213957  -0.00799373 -0.0138093 0.00215483  -0.0102687 -0.0200316 0.002069  -0.0124273 -0.0272207 0.00193691  -0.0144932 -0.0353137 0.00178194  -0.016473 -0.0442414 0.00162935  -0.0183817 -0.0539346 0.00149059  -0.020218 -0.0643279 0.00134945  -0.0219901 -0.0753539 0.00122166  -0.0236968 -0.086962 0.0011034  -0.0253417 -0.0990898 0.000988007  -0.0269284 -0.111683 0.000882149  -0.0284611 -0.12469 0.000785351  -0.0299388 -0.13806 0.000692368  -0.0313671 -0.151751 0.000607491  -0.0327315 -0.165712 0.000521183  -0.0340502 -0.179909 0.000451565  -0.0353239 -0.194305 0.000380993  -0.0365458 -0.208853 0.000321865  -0.0377188 -0.223534 0.000260353  -0.0388541 -0.238309 0.000210285  -0.0399475 -0.253155 0.000164986  -0.0409997 -0.268043 0.000127792  -0.0420158 -0.28296 9.01222e-05  -0.0430031 -0.297877 6.19888e-05  -0.0439603 -0.312784 3.71933e-05  -0.044894 -0.327666 2.24113e-05  -0.0458083 -0.342516 1.23978e-05  -0.0467019 -0.357323 -1.43051e-06  -0.0475848 -0.372087 -1.71661e-05  0 0 0  -0.000439063 -0.000724286 0.000578403  -0.00139478 -0.00352454 0.000945568  -0.0025804 -0.00774461 0.00108624  -0.00378779 -0.0130753 0.00109529  -0.00496328 -0.0194255 0.00104237  -0.00610608 -0.0267292 0.000971794  -0.00723284 -0.0349247 0.000892639  -0.00834775 -0.0439479 0.000812054  -0.00946355 -0.0537324 0.00073576  -0.0105739 -0.0642242 0.000666142  -0.0116843 -0.0753427 0.000596523  -0.0127918 -0.0870391 0.000538826  -0.0138952 -0.09925 0.000485897  -0.0149951 -0.111923 0.000427246  -0.0160939 -0.125008 0.000386238  -0.0171806 -0.138452 0.000331879  -0.0182648 -0.152205 0.000294685  -0.0193331 -0.166227 0.000254631  -0.0203946 -0.180482 0.000215054  -0.0214405 -0.194922 0.000181675  -0.0224745 -0.209517 0.000151157  -0.0234916 -0.224236 0.00012064  -0.024492 -0.239051 9.87053e-05  -0.0254812 -0.253918 7.72476e-05  -0.0264511 -0.268835 5.62668e-05  -0.0274076 -0.283771 3.95775e-05  -0.0283496 -0.298703 2.76566e-05  -0.0292778 -0.313629 1.7643e-05  -0.0301881 -0.328518 3.33786e-06  -0.0310845 -0.343379 9.53674e-07  -0.0319729 -0.358189 -4.76837e-06  -0.0328524 -0.372944 -1.28746e-05  0 0 0  3.82811e-05 -0.000591725 -9.53674e-06  0.000106663 -0.00332543 -5.72205e-06  0.000159562 -0.00755629 6.19888e-06  0.000165522 -0.0129468 1.09673e-05  0.000116289 -0.0193574 1.00136e-05  5.36442e-07 -0.0267182 7.62939e-06  -0.000178814 -0.0349743 -2.86102e-06  -0.000426292 -0.0440566 -5.72205e-06  -0.00074017 -0.053908 -7.15256e-06  -0.00112033 -0.0644552 -1.85966e-05  -0.00155711 -0.0756371 -1.66893e-05  -0.00205696 -0.0873893 -1.7643e-05  -0.00260973 -0.0996622 -2.0504e-05  -0.00321507 -0.112391 -2.24113e-05  -0.00386536 -0.125523 -2.38419e-05  -0.00455666 -0.139011 -1.90735e-05  -0.00528646 -0.152814 -2.28882e-05  -0.0060463 -0.166877 -2.0504e-05  -0.00683904 -0.181163 -2.24113e-05  -0.00765467 -0.195641 -1.19209e-05  -0.00849009 -0.210265 -2.19345e-05  -0.00934172 -0.225006 -1.66893e-05  -0.0102065 -0.239837 -1.38283e-05  -0.0110776 -0.254732 -1.14441e-05  -0.0119627 -0.269659 -1.19209e-05  -0.0128458 -0.284609 -1.19209e-05  -0.0137324 -0.299552 -6.19888e-06  -0.0146198 -0.31448 -1.09673e-05  -0.0155013 -0.329377 -3.8147e-06  -0.0163858 -0.344234 -9.53674e-07  -0.0172617 -0.35905 2.38419e-06  -0.0181355 -0.373801 -3.33786e-06  0 0 0  0.000515759 -0.000844061 -0.000592232  0.00160888 -0.00373214 -0.000945091  0.00289184 -0.00801837 -0.00106287  0.00410241 -0.0134143 -0.00106859  0.00517052 -0.0198258 -0.00101471  0.00607771 -0.0272009 -0.000957489  0.006841 -0.0354734 -0.000889778  0.00745904 -0.0445805 -0.000823498  0.0079509 -0.0544555 -0.000755787  0.00830138 -0.0650312 -0.000696659  0.0085355 -0.0762479 -0.000635147  0.00864792 -0.0880317 -0.000582695  0.00864422 -0.100334 -0.000524521  0.00853908 -0.113092 -0.000471592  0.00833571 -0.126252 -0.000425339  0.00804925 -0.139764 -0.000381947  0.00766468 -0.153588 -0.000338078  0.00721741 -0.167673 -0.000293255  0.00669408 -0.181976 -0.000256062  0.0061121 -0.196469 -0.000220299  0.00547838 -0.211105 -0.000189304  0.0047977 -0.225859 -0.000157833  0.00407314 -0.240698 -0.0001297  0.00331497 -0.255598 -0.00010252  0.00252032 -0.270531 -8.2016e-05  0.00171232 -0.285481 -6.7234e-05  0.000880957 -0.30043 -4.05312e-05  3.31402e-05 -0.315356 -2.71797e-05  -0.000826836 -0.330253 -1.85966e-05  -0.0016892 -0.345113 -1.04904e-05  -0.0025568 -0.359922 -1.43051e-06  -0.00341964 -0.374678 7.15256e-06  0 0 0  0.00109173 -0.00156456 -0.00114298  0.00332254 -0.00481045 -0.00182533  0.00586507 -0.00913435 -0.0020895  0.00825322 -0.0144658 -0.00211  0.0104007 -0.0208212 -0.00202417  0.0123127 -0.0281634 -0.0019021  0.014008 -0.0364172 -0.00176811  0.0154868 -0.0455141 -0.00162506  0.0167657 -0.0553847 -0.00150204  0.0178475 -0.0659631 -0.00137377  0.0187414 -0.0771801 -0.00125074  0.0194603 -0.0889719 -0.0011363  0.0200061 -0.101269 -0.00102854  0.0203952 -0.114031 -0.000923157  0.0206352 -0.127196 -0.000832081  0.0207369 -0.140716 -0.000739098  0.0207112 -0.154536 -0.000651836  0.0205607 -0.168622 -0.000567913  0.0203087 -0.18293 -0.000491619  0.0199561 -0.197414 -0.000420094  0.0195203 -0.212051 -0.000356197  0.018997 -0.226797 -0.000294685  0.0184047 -0.24163 -0.000240326  0.0177565 -0.256523 -0.000193119  0.0170548 -0.271453 -0.000151157  0.016305 -0.286394 -0.000110149  0.0155244 -0.301332 -8.10623e-05  0.0147123 -0.316254 -5.38826e-05  0.0138788 -0.331146 -3.24249e-05  0.0130293 -0.345996 -1.66893e-05  0.0121655 -0.360807 1.43051e-06  0.0113058 -0.375569 1.4782e-05  0 0 0  0.00192462 -0.00308222 -0.00164652  0.00556672 -0.00668752 -0.00265121  0.00932875 -0.0108518 -0.00306082  0.0127984 -0.0160556 -0.00311661  0.0159816 -0.0223196 -0.00301123  0.0188762 -0.0295852 -0.00283575  0.0214825 -0.0377902 -0.00263357  0.0238101 -0.0468528 -0.00243235  0.0258673 -0.056693 -0.00223351  0.027662 -0.0672407 -0.00204706  0.0292096 -0.0784332 -0.00186777  0.0305191 -0.0901979 -0.00168991  0.0316026 -0.102481 -0.00153351  0.0324763 -0.115219 -0.00137472  0.0331473 -0.128364 -0.00122929  0.0336311 -0.141862 -0.00108862  0.0339377 -0.155664 -0.000961781  0.0340841 -0.169728 -0.000837326  0.0340855 -0.184011 -0.0007267  0.0339539 -0.19848 -0.00061512  0.0336907 -0.21309 -0.000522137  0.03332 -0.227821 -0.000436783  0.0328572 -0.242634 -0.000352383  0.0323043 -0.257506 -0.000279427  0.031671 -0.272415 -0.000218391  0.0309806 -0.287338 -0.000162601  0.0302331 -0.302262 -0.00011301  0.0294423 -0.31717 -7.53403e-05  0.028621 -0.332047 -4.33922e-05  0.0277805 -0.34689 -2.3365e-05  0.026916 -0.361694 -3.33786e-06  0.026051 -0.376466 2.09808e-05  0 0 0  0.0037929 -0.00616616 -0.00219059  0.00867346 -0.00911945 -0.00347996  0.0133217 -0.0131026 -0.00402689  0.017847 -0.0181408 -0.00411177  0.0220521 -0.0242869 -0.00398064  0.0259165 -0.0314664 -0.00375366  0.0294255 -0.0395971 -0.00349712  0.032586 -0.0485899 -0.00322151  0.0354054 -0.0583693 -0.00296545  0.0378932 -0.068864 -0.00271559  0.0400766 -0.0800045 -0.0024662  0.0419555 -0.0917222 -0.00225353  0.0435628 -0.103956 -0.00202847  0.0448939 -0.116649 -0.00182295  0.04598 -0.129744 -0.00162458  0.0468318 -0.143201 -0.00144434  0.0474529 -0.15696 -0.00127172  0.0478773 -0.170981 -0.00111198  0.0481141 -0.185224 -0.000957966  0.0481768 -0.19965 -0.000823498  0.0480814 -0.214226 -0.000688076  0.047847 -0.228918 -0.000568867  0.047483 -0.243693 -0.000457764  0.0470033 -0.258533 -0.000367641  0.0464325 -0.273415 -0.000279427  0.0457706 -0.288308 -0.000207901  0.0450432 -0.303204 -0.000144482  0.0442655 -0.31809 -9.29832e-05  0.0434275 -0.332951 -5.62668e-05  0.0425684 -0.34778 -2.90871e-05  0.0416965 -0.362578 -1.28746e-05  0.0408192 -0.377363 2.00272e-05  0 0 0  -0.00379839 -0.00491772 0.00383854  -0.00878908 -0.00720969 0.00581455  -0.0134798 -0.010817 0.00643206  -0.0179951 -0.0155921 0.0064249  -0.0222912 -0.0214935 0.00614691  -0.0263644 -0.0284178 0.00574446  -0.0302114 -0.0362748 0.00531197  -0.0338502 -0.0449715 0.00487041  -0.0372812 -0.0544512 0.00445986  -0.0405089 -0.0646304 0.00405407  -0.0435519 -0.0754571 0.00367212  -0.0464067 -0.0868728 0.00332069  -0.0490916 -0.0988076 0.00299072  -0.0516083 -0.111226 0.00267649  -0.0539618 -0.124061 0.00237703  -0.0561732 -0.137286 0.0021019  -0.0582314 -0.150837 0.00184059  -0.0601544 -0.16467 0.00159454  -0.0619471 -0.178747 0.001369  -0.0636182 -0.193037 0.0011611  -0.0651729 -0.207501 0.000973701  -0.066627 -0.222097 0.000796318  -0.06797 -0.236808 0.000640392  -0.0692294 -0.251586 0.000500202  -0.0704021 -0.266434 0.00037384  -0.0715024 -0.2813 0.000276089  -0.0725336 -0.296193 0.000190735  -0.073513 -0.311078 0.000115395  -0.0744433 -0.325944 6.67572e-05  -0.0753417 -0.340778 2.81334e-05  -0.0762198 -0.355582 6.19888e-06  -0.0770962 -0.370372 -2.28882e-05  0 0 0  -0.00200526 -0.00212972 0.00288677  -0.00571911 -0.00509214 0.00438356  -0.00934824 -0.0088911 0.00481081  -0.0127164 -0.0138506 0.00481176  -0.0159375 -0.0199273 0.00460196  -0.0190173 -0.027026 0.00430298  -0.0219588 -0.0350551 0.00397301  -0.0247674 -0.0439254 0.00365114  -0.027444 -0.0535638 0.003335  -0.029992 -0.0639103 0.00303793  -0.0324165 -0.0748924 0.00275135  -0.0347135 -0.0864552 0.00248718  -0.0369024 -0.0985363 0.00223875  -0.0389693 -0.111086 0.00199604  -0.0409284 -0.124051 0.00177813  -0.0427909 -0.137387 0.00156307  -0.0445528 -0.151045 0.00137806  -0.046217 -0.164977 0.00119305  -0.0477948 -0.179147 0.00102568  -0.0492833 -0.193519 0.000870705  -0.0506864 -0.208053 0.000727654  -0.0520139 -0.222713 0.000598431  -0.0532734 -0.237475 0.000480652  -0.0544655 -0.25231 0.000379086  -0.0555947 -0.267197 0.000288486  -0.0566661 -0.282101 0.00020647  -0.0576985 -0.297012 0.000143528  -0.0586779 -0.311919 9.05991e-05  -0.059624 -0.326801 5.14984e-05  -0.0605392 -0.341647 2.19345e-05  -0.0614388 -0.356458 1.43051e-06  -0.0623188 -0.371228 -1.90735e-05  0 0 0  -0.00112943 -0.000848413 0.00198412  -0.00337245 -0.00355759 0.00299406  -0.00576785 -0.0075309 0.00325298  -0.00804177 -0.0126469 0.00322342  -0.010212 -0.0188582 0.00306654  -0.0123036 -0.0260853 0.00286865  -0.0143249 -0.0342396 0.00265074  -0.0162894 -0.0432431 0.00242805  -0.0181921 -0.0530141 0.00221205  -0.0200291 -0.0634826 0.00201702  -0.0218052 -0.0745922 0.00182915  -0.0235213 -0.0862693 0.00165176  -0.0251778 -0.0984615 0.00148296  -0.0267752 -0.111123 0.00132847  -0.0283189 -0.12419 0.00117588  -0.0298064 -0.137616 0.00103807  -0.0312388 -0.151359 0.000911713  -0.0326195 -0.165373 0.000786781  -0.0339537 -0.179619 0.000675201  -0.0352347 -0.194052 0.000574589  -0.0364654 -0.208643 0.000480175  -0.0376489 -0.223359 0.000388145  -0.0387919 -0.238166 0.000317574  -0.0398934 -0.253039 0.000251293  -0.0409501 -0.267956 0.000184059  -0.0419798 -0.282893 0.000140667  -0.042973 -0.297827 8.96454e-05  -0.0439343 -0.312754 5.72205e-05  -0.0448756 -0.327648 3.48091e-05  -0.045785 -0.342507 1.23978e-05  -0.0466857 -0.357315 -3.8147e-06  -0.0475676 -0.372079 -2.3365e-05  0 0 0  -0.000495672 -0.000314385 0.00100279  -0.00151767 -0.00277615 0.00151682  -0.00266799 -0.00676125 0.00164461  -0.00379646 -0.0119761 0.00162315  -0.0049051 -0.0182903 0.0015378  -0.00601077 -0.0256131 0.0014329  -0.00711101 -0.0338567 0.00131989  -0.00821269 -0.0429496 0.00120783  -0.00932527 -0.0528141 0.00109768  -0.010435 -0.0633774 0.00100136  -0.0115526 -0.0745664 0.000897884  -0.0126642 -0.0863365 0.000810146  -0.0137732 -0.0986173 0.000720501  -0.0148861 -0.111353 0.000647545  -0.0159879 -0.124497 0.000573158  -0.0170852 -0.137997 0.000500202  -0.0181768 -0.151804 0.000439644  -0.0192544 -0.165882 0.000374794  -0.0203204 -0.180177 0.000322342  -0.0213771 -0.194666 0.000273228  -0.0224197 -0.209305 0.000228405  -0.0234478 -0.224058 0.000180721  -0.0244529 -0.2389 0.000146389  -0.0254474 -0.2538 0.000113487  -0.026423 -0.268742 8.58307e-05  -0.0273831 -0.283702 5.96046e-05  -0.0283239 -0.298654 4.91142e-05  -0.0292623 -0.313591 2.76566e-05  -0.0301714 -0.328497 1.62125e-05  -0.0310767 -0.343356 4.76837e-06  -0.0319626 -0.358175 -5.24521e-06  -0.0328436 -0.372925 -1.23978e-05  0 0 0  5.24968e-05 -0.000206977 -2.0504e-05  0.00013411 -0.00261644 -1.7643e-05  0.000195831 -0.00661159 0  0.000212371 -0.0118698 3.33786e-06  0.000169992 -0.0182392 -4.76837e-07  6.87838e-05 -0.0256175 -2.38419e-06  -0.0001055 -0.0339169 -8.10623e-06  -0.000349939 -0.0430642 -1.33514e-05  -0.000664592 -0.0529829 -2.24113e-05  -0.00103879 -0.0636045 -2.76566e-05  -0.00148523 -0.074864 -2.57492e-05  -0.00198722 -0.0866863 -3.24249e-05  -0.00254488 -0.0990219 -3.00407e-05  -0.00315773 -0.111815 -3.52859e-05  -0.00381172 -0.12501 -3.24249e-05  -0.0045079 -0.138559 -3.24249e-05  -0.00524139 -0.15241 -3.57628e-05  -0.00601029 -0.166529 -3.09944e-05  -0.00680757 -0.180863 -3.24249e-05  -0.00762796 -0.195379 -2.86102e-05  -0.00846505 -0.210047 -3.00407e-05  -0.0093236 -0.224822 -2.09808e-05  -0.0101883 -0.239689 -2.09808e-05  -0.0110676 -0.25461 -2.28882e-05  -0.0119507 -0.269567 -1.7643e-05  -0.0128365 -0.284534 -1.95503e-05  -0.0137267 -0.2995 -1.43051e-05  -0.0146122 -0.314441 -1.19209e-05  -0.015501 -0.329351 -5.24521e-06  -0.0163836 -0.344223 -6.67572e-06  -0.0172663 -0.359036 4.76837e-07  -0.0181303 -0.373783 9.53674e-07  0 0 0  0.000595957 -0.000452399 -0.00104141  0.00177985 -0.00300843 -0.00152826  0.00304776 -0.0070644 -0.00163269  0.00420588 -0.0123374 -0.00160456  0.00523359 -0.0187092 -0.00152731  0.00611657 -0.0260947 -0.00143099  0.00687015 -0.0344173 -0.00133324  0.00748551 -0.0435884 -0.00123739  0.00796545 -0.053534 -0.00113678  0.00832045 -0.0641832 -0.00104237  0.00854838 -0.0754681 -0.000956535  0.00866079 -0.0873219 -0.000874996  0.00865281 -0.0996921 -0.000792027  0.0085479 -0.112512 -0.000716686  0.00834322 -0.125736 -0.000641823  0.00804663 -0.139309 -0.000571728  0.00767112 -0.153187 -0.000503063  0.00721335 -0.167321 -0.000442505  0.00669432 -0.181675 -0.000386715  0.00611234 -0.196205 -0.000334263  0.00547099 -0.210882 -0.000282288  0.00478888 -0.225675 -0.00023365  0.00406265 -0.240544 -0.000197887  0.00330305 -0.255477 -0.000162601  0.0025146 -0.270436 -0.000122547  0.00170398 -0.285408 -9.91821e-05  0.000869036 -0.300368 -6.81877e-05  2.38419e-05 -0.315316 -5.00679e-05  -0.000835419 -0.330228 -2.95639e-05  -0.00169921 -0.345095 -1.43051e-05  -0.00256419 -0.359909 -4.76837e-06  -0.00343084 -0.374659 9.05991e-06  0 0 0  0.00123169 -0.00111091 -0.00200081  0.00362369 -0.00400418 -0.00296164  0.00612137 -0.00810617 -0.00319767  0.00839764 -0.0133417 -0.00316668  0.0104657 -0.0196815 -0.00302744  0.0123324 -0.0270472 -0.00284433  0.0139949 -0.0353532 -0.00264931  0.0154625 -0.0445203 -0.0024457  0.0167358 -0.054463 -0.00224638  0.0178126 -0.0651143 -0.00205898  0.0187092 -0.0764019 -0.00187731  0.0194224 -0.0882595 -0.00171185  0.0199682 -0.100633 -0.00154829  0.0203592 -0.113459 -0.00139189  0.0205989 -0.12668 -0.00124741  0.0206981 -0.140256 -0.00110817  0.0206704 -0.154135 -0.000979424  0.0205283 -0.168268 -0.000853539  0.020272 -0.182622 -0.000743866  0.019917 -0.197151 -0.000629902  0.0194793 -0.211823 -0.000536442  0.0189657 -0.226609 -0.00044632  0.018374 -0.241479 -0.000367165  0.0177238 -0.2564 -0.00028944  0.0170276 -0.271354 -0.000227451  0.016283 -0.286317 -0.000171185  0.0155015 -0.301277 -0.000118732  0.014693 -0.316216 -8.29697e-05  0.0138581 -0.331118 -4.673e-05  0.0130103 -0.345979 -2.57492e-05  0.012151 -0.36079 0  0.0112929 -0.375553 1.57356e-05  0 0 0  0.00210333 -0.00249302 -0.00284719  0.00594422 -0.00569844 -0.00427198  0.00962031 -0.00970536 -0.00467777  0.0129651 -0.0148593 -0.00468826  0.0160542 -0.0211377 -0.00450325  0.0188844 -0.0284573 -0.00423813  0.0214589 -0.0367256 -0.00394344  0.0237628 -0.0458557 -0.00364304  0.0258111 -0.0557749 -0.0033555  0.0276037 -0.0663972 -0.00306559  0.0291499 -0.0776606 -0.00279903  0.0304607 -0.0894953 -0.00254297  0.0315442 -0.101842 -0.00229645  0.0324132 -0.114649 -0.00206232  0.033089 -0.127849 -0.00184584  0.0335748 -0.141406 -0.00163555  0.0338857 -0.155261 -0.00144625  0.0340297 -0.169375 -0.00125837  0.0340359 -0.183706 -0.0010891  0.0338993 -0.198217 -0.00093174  0.0336423 -0.212874 -0.000781059  0.0332744 -0.227634 -0.00065279  0.0328112 -0.242482 -0.00053215  0.0322621 -0.257385 -0.000415802  0.0316367 -0.272319 -0.000324726  0.0309484 -0.287271 -0.000239372  0.0302022 -0.302214 -0.0001688  0.0294209 -0.317134 -0.000109196  0.0285976 -0.332023 -6.86646e-05  0.0277548 -0.346877 -3.09944e-05  0.0268953 -0.361683 -9.05991e-06  0.0260339 -0.376453 2.3365e-05  0 0 0  0.00385006 -0.0053122 -0.00371552  0.00892994 -0.00790417 -0.00559759  0.0135998 -0.0118019 -0.00619507  0.0180331 -0.0168613 -0.00621605  0.0221581 -0.0230707 -0.00597668  0.0259622 -0.0303194 -0.00562668  0.0294349 -0.038523 -0.00523138  0.0325695 -0.0475976 -0.00482798  0.0353795 -0.0574538 -0.00444412  0.0378667 -0.0680263 -0.00406981  0.0400445 -0.0792333 -0.00370693  0.0419279 -0.0910199 -0.00336361  0.0435286 -0.103327 -0.00303984  0.0448625 -0.116087 -0.00273132  0.0459433 -0.129242 -0.0024395  0.0467935 -0.142753 -0.00216198  0.0474191 -0.156568 -0.00190401  0.0478415 -0.170641 -0.00165606  0.0480835 -0.184932 -0.00143194  0.0481415 -0.199396 -0.00122595  0.0480521 -0.214021 -0.00102234  0.0478146 -0.228741 -0.000852585  0.0474513 -0.243553 -0.000689983  0.0469742 -0.258421 -0.000544071  0.0464036 -0.273326 -0.000413895  0.0457449 -0.288247 -0.000301838  0.0450201 -0.303161 -0.000212669  0.0442288 -0.318062 -0.000136852  0.0434043 -0.332932 -8.29697e-05  0.0425434 -0.347765 -4.33922e-05  0.0416722 -0.362567 -8.10623e-06  0.0407996 -0.377338 1.57356e-05  0 0 0  -0.00487269 -0.00334987 0.00630045  -0.00956537 -0.00510761 0.00804377  -0.0136663 -0.00875209 0.00863743  -0.0178849 -0.0136135 0.00852346  -0.0219996 -0.0196725 0.00811863  -0.0259812 -0.0267455 0.00758314  -0.0297984 -0.0347428 0.00702381  -0.0334165 -0.0435721 0.00645351  -0.0368562 -0.053187 0.00589561  -0.0401061 -0.0634831 0.00537729  -0.0431551 -0.0744129 0.00488234  -0.0460409 -0.085925 0.0044055  -0.0487455 -0.0979669 0.00397158  -0.0512825 -0.110477 0.00355625  -0.0536624 -0.123409 0.00315762  -0.0558883 -0.13671 0.00277853  -0.0579755 -0.150327 0.00243616  -0.0599124 -0.164231 0.0021224  -0.0617325 -0.178372 0.00182438  -0.0634248 -0.192728 0.00154352  -0.0650029 -0.207245 0.00128031  -0.0664608 -0.221887 0.0010581  -0.067826 -0.236632 0.000842571  -0.0691073 -0.251471 0.000658035  -0.0703032 -0.266347 0.000505447  -0.0714159 -0.281244 0.000362873  -0.0724707 -0.296156 0.000240803  -0.0734525 -0.311055 0.000145435  -0.0743997 -0.325942 6.77109e-05  -0.0753081 -0.340779 1.81198e-05  -0.076194 -0.355585 -1.43051e-06  -0.0770805 -0.370363 -2.47955e-05  0 0 0  -0.0030081 -0.000997297 0.00491905  -0.00648361 -0.00343432 0.00596237  -0.00953901 -0.00704351 0.00636959  -0.0126098 -0.0120136 0.00631857  -0.0156541 -0.0181672 0.00604486  -0.018648 -0.025379 0.00566912  -0.0215536 -0.0335291 0.00524902  -0.0243514 -0.0425271 0.00483608  -0.0270343 -0.0522926 0.004426  -0.029599 -0.0627485 0.00402975  -0.0320444 -0.0738398 0.00366211  -0.0343602 -0.0855038 0.00331163  -0.0365584 -0.0976805 0.00297737  -0.0386515 -0.110326 0.00266027  -0.0406358 -0.123376 0.0023694  -0.042521 -0.136797 0.00209045  -0.0443022 -0.150525 0.00183821  -0.0459857 -0.164525 0.00159788  -0.0475769 -0.178762 0.00136805  -0.0490875 -0.19319 0.00115585  -0.0505185 -0.207778 0.000975132  -0.051867 -0.222488 0.00080061  -0.0531433 -0.237296 0.00064373  -0.0543473 -0.252177 0.000501633  -0.0554948 -0.26709 0.000385284  -0.0565848 -0.282032 0.000276089  -0.0576317 -0.296965 0.000187874  -0.0586286 -0.311892 0.000118256  -0.0595813 -0.326786 6.67572e-05  -0.0605149 -0.341639 2.38419e-05  -0.0614157 -0.35645 -5.24521e-06  -0.0623 -0.371222 -3.8147e-05  0 0 0  -0.00179064 0.000175714 0.00335979  -0.00388674 -0.00206414 0.00404263  -0.00589681 -0.00580652 0.00425673  -0.00795007 -0.010872 0.00419474  -0.00999236 -0.0171376 0.00401735  -0.0120189 -0.0244591 0.00376225  -0.0140163 -0.0327267 0.00348949  -0.0159686 -0.0418411 0.00320673  -0.0178725 -0.0517275 0.00293779  -0.0197171 -0.0623119 0.00267887  -0.0215114 -0.0735204 0.00243568  -0.0232359 -0.0853009 0.00219679  -0.0249201 -0.0975977 0.00197172  -0.0265297 -0.110347 0.00175953  -0.0280842 -0.123499 0.0015707  -0.0295962 -0.137006 0.00137949  -0.0310428 -0.150826 0.00121355  -0.0324426 -0.164908 0.00104904  -0.0337896 -0.179217 0.000908375  -0.0350821 -0.193716 0.000762463  -0.0363319 -0.208362 0.000638962  -0.0375342 -0.223126 0.000528336  -0.0386884 -0.23798 0.000425816  -0.0398009 -0.25289 0.000331402  -0.0408816 -0.267844 0.000254154  -0.0419185 -0.282812 0.000186443  -0.0429206 -0.297775 0.000127316  -0.0438986 -0.312716 7.86781e-05  -0.0448463 -0.327622 4.72069e-05  -0.0457671 -0.342494 1.43051e-05  -0.0466638 -0.35731 -1.52588e-05  -0.0475523 -0.372077 -3.38554e-05  0 0 0  -0.000815861 0.000690907 0.00165606  -0.00175734 -0.00132343 0.00202036  -0.00270101 -0.0050844 0.00213051  -0.00371638 -0.0102472 0.00209141  -0.00475186 -0.0165957 0.00198698  -0.00581867 -0.0239946 0.00187111  -0.00689709 -0.0323463 0.00172901  -0.00799644 -0.0415462 0.00159645  -0.00911415 -0.0515186 0.00144529  -0.0102285 -0.0621935 0.00132179  -0.0113499 -0.0734956 0.00119543  -0.01248 -0.0853664 0.00108051  -0.0135994 -0.0977401 0.000964642  -0.0147136 -0.110568 0.000861168  -0.0158329 -0.1238 0.000761509  -0.0169442 -0.137382 0.000675678  -0.0180416 -0.151265 0.000584602  -0.0191352 -0.165408 0.000507355  -0.0202162 -0.179775 0.00042963  -0.0212774 -0.194319 0.000369549  -0.0223315 -0.209006 0.000295162  -0.0233707 -0.223811 0.000244617  -0.0243847 -0.238699 0.000196934  -0.0253961 -0.253645 0.000151634  -0.0263793 -0.268619 0.000113964  -0.027348 -0.283606 8.10623e-05  -0.0283034 -0.298585 6.19888e-05  -0.0292368 -0.313547 2.90871e-05  -0.0301604 -0.328468 2.28882e-05  -0.0310671 -0.343347 2.86102e-06  -0.0319557 -0.358171 -8.10623e-06  -0.032831 -0.37292 -2.52724e-05  0 0 0  6.81877e-05 0.000781476 -5.05447e-05  0.0001674 -0.00117439 -4.76837e-05  0.000249237 -0.00495207 -3.29018e-05  0.000290215 -0.0101568 -1.71661e-05  0.000266671 -0.0165541 -2.71797e-05  0.000168502 -0.0240065 -2.52724e-05  1.13249e-06 -0.0324043 -2.28882e-05  -0.000238419 -0.0416584 -3.14713e-05  -0.000550866 -0.0516925 -4.05312e-05  -0.000936508 -0.0624215 -4.3869e-05  -0.00138164 -0.0737779 -4.43459e-05  -0.00189257 -0.0857025 -5.38826e-05  -0.00245452 -0.0981344 -4.76837e-05  -0.00306797 -0.111016 -5.14984e-05  -0.0037353 -0.124303 -4.86374e-05  -0.00444019 -0.137932 -4.52995e-05  -0.00517392 -0.151857 -4.91142e-05  -0.00595856 -0.166039 -4.24385e-05  -0.00676227 -0.180447 -4.57764e-05  -0.0075829 -0.195022 -4.33922e-05  -0.00843763 -0.209739 -4.14848e-05  -0.0092907 -0.224573 -2.71797e-05  -0.0101709 -0.239483 -2.90871e-05  -0.0110495 -0.254448 -2.90871e-05  -0.0119438 -0.269439 -3.14713e-05  -0.0128343 -0.284437 -1.81198e-05  -0.0137248 -0.299432 -2.09808e-05  -0.014611 -0.314395 -2.71797e-05  -0.015506 -0.329329 -7.15256e-06  -0.0163896 -0.34421 -9.53674e-06  -0.0172629 -0.359031 -3.33786e-06  -0.0181382 -0.373783 1.43051e-06  0 0 0  0.000934735 0.000520706 -0.00176716  0.00207826 -0.00158876 -0.00209093  0.0031898 -0.00541484 -0.00217247  0.00427884 -0.0106255 -0.00212431  0.00526363 -0.017027 -0.00202608  0.0061422 -0.0244853 -0.00190067  0.00688422 -0.0329021 -0.00177813  0.00749099 -0.0421831 -0.00164938  0.00797606 -0.0522336 -0.00152349  0.00832188 -0.0629919 -0.00140095  0.00855839 -0.0743831 -0.00128651  0.00865722 -0.0863389 -0.00116825  0.00865698 -0.0988026 -0.00105286  0.00854945 -0.111713 -0.000957966  0.00833631 -0.125021 -0.000856876  0.00804353 -0.138671 -0.000760555  0.0076623 -0.152622 -0.000676632  0.00720668 -0.166833 -0.000598431  0.00667882 -0.181248 -0.000520706  0.00610042 -0.195849 -0.00044632  0.00545311 -0.210584 -0.000377178  0.00477076 -0.22542 -0.000318527  0.00404167 -0.240337 -0.000264168  0.00328279 -0.255308 -0.000211239  0.00249481 -0.270308 -0.000163555  0.00168157 -0.285316 -0.000127792  0.000857115 -0.300302 -9.53674e-05  2.86102e-06 -0.315269 -5.91278e-05  -0.000842333 -0.330198 -3.76701e-05  -0.0017097 -0.345078 -2.3365e-05  -0.0025804 -0.359903 -2.86102e-06  -0.00344157 -0.374659 2.14577e-05  0 0 0  0.00187521 -0.00015378 -0.00340986  0.00417531 -0.00257909 -0.00404549  0.00634724 -0.00645238 -0.0042429  0.00846732 -0.0116268 -0.004179  0.0104495 -0.0179937 -0.00400543  0.0122699 -0.0254356 -0.00376654  0.0139175 -0.0338354 -0.00351524  0.0153707 -0.0431131 -0.00325823  0.0166426 -0.0531672 -0.00299835  0.0177273 -0.0639254 -0.00274801  0.0186234 -0.0753126 -0.00251341  0.0193398 -0.0872736 -0.00228834  0.0198907 -0.0997383 -0.00206566  0.0202792 -0.112658 -0.00185585  0.0205238 -0.125965 -0.00166845  0.0206268 -0.13962 -0.00148153  0.0206041 -0.153573 -0.0013113  0.0204554 -0.167782 -0.00114489  0.0202065 -0.182196 -0.000995159  0.0198505 -0.196789 -0.000848293  0.0194159 -0.211517 -0.000724316  0.0188992 -0.226355 -0.000594616  0.0183098 -0.241269 -0.000484467  0.0176716 -0.256234 -0.000391483  0.016973 -0.271224 -0.000308037  0.0162349 -0.286223 -0.000223637  0.0154624 -0.301211 -0.000165462  0.0146539 -0.316165 -0.000111103  0.0138257 -0.331086 -7.00951e-05  0.0129883 -0.345961 -3.00407e-05  0.0121238 -0.360781 -4.76837e-06  0.0112548 -0.375547 4.1008e-05  0 0 0  0.0030508 -0.00145549 -0.00488853  0.00670287 -0.00415581 -0.00586176  0.00991124 -0.00796956 -0.00626659  0.0130265 -0.0131049 -0.00621414  0.0159855 -0.0194339 -0.00597668  0.0187571 -0.02684 -0.00562763  0.0212956 -0.0352143 -0.00524759  0.0235883 -0.0444558 -0.00485182  0.0256393 -0.0544761 -0.00447607  0.0274382 -0.0652081 -0.00409126  0.0289873 -0.076579 -0.00374365  0.0303025 -0.0885089 -0.00339556  0.0313939 -0.100956 -0.00306559  0.0322747 -0.113846 -0.00276089  0.0329535 -0.127134 -0.00246191  0.0334384 -0.140768 -0.00218964  0.0337563 -0.154702 -0.00192404  0.0339062 -0.168885 -0.0016861  0.0339167 -0.183289 -0.00144768  0.0337918 -0.197853 -0.00124931  0.0335391 -0.212562 -0.00104475  0.0331762 -0.227387 -0.000869274  0.0327191 -0.242278 -0.000712395  0.0321817 -0.257222 -0.000567436  0.0315597 -0.272196 -0.000432968  0.0308759 -0.287177 -0.000316143  0.0301418 -0.302144 -0.000231743  0.0293705 -0.317091 -0.000149727  0.0285513 -0.331998 -8.67844e-05  0.0277233 -0.346858 -4.62532e-05  0.0268588 -0.361674 -1.43051e-06  0.0260019 -0.376436 3.33786e-05  0 0 0  0.00484926 -0.00383669 -0.00612926  0.00971571 -0.00602937 -0.00778961  0.0139029 -0.00991225 -0.00837278  0.0181049 -0.0150211 -0.00830221  0.0220965 -0.0213366 -0.0079484  0.025827 -0.0286964 -0.00747347  0.0292635 -0.0370192 -0.00695705  0.0323831 -0.0462075 -0.00643635  0.0351965 -0.0561813 -0.00590897  0.0376905 -0.0668528 -0.00541496  0.0398729 -0.0781749 -0.00493526  0.0417584 -0.0900626 -0.00448418  0.0433689 -0.102449 -0.00405025  0.0447056 -0.11529 -0.00363731  0.045796 -0.128534 -0.00324821  0.0466535 -0.142131 -0.00287819  0.0472817 -0.156021 -0.0025301  0.0477076 -0.170158 -0.00220919  0.0479567 -0.184514 -0.00190449  0.0480266 -0.19906 -0.00162077  0.0479295 -0.21372 -0.00136375  0.0477118 -0.228498 -0.00113201  0.0473521 -0.243362 -0.000912666  0.0468929 -0.258267 -0.000716686  0.0463209 -0.273214 -0.000552177  0.0456719 -0.288159 -0.000406742  0.0449567 -0.303105 -0.000273228  0.0441806 -0.31803 -0.000174522  0.0433595 -0.332919 -8.96454e-05  0.0425081 -0.347762 -4.24385e-05  0.0416377 -0.362561 -7.62939e-06  0.0407658 -0.377326 1.19209e-05  -0.00188752 -0.00222453 -0.00381875  -0.00399093 -0.00435901 -0.00493097  -0.00134632 -0.00296349 -0.00216436  0 0 0  0 0 0  -0.00387138 -0.00200645 -0.00570798  -0.0027477 -0.00330725 -0.00335073  0 0 0  -0.0011105 -0.000352487 -0.00303698  -0.00234249 -0.0016502 -0.00378942  -0.000626173 -0.00100488 -0.00163889  0 0 0  -0.00133811 -0.00241278 -0.00280619  -0.0013889 -0.00106416 -0.00328922  -0.00303786 -0.00278013 -0.00436902  -0.000842109 -0.00174928 -0.00182581  0 0 0  -0.000713125 -0.000733793 -0.00217462  -0.000891618 -0.00138391 -0.00238919  -0.00746591 -0.00401899 -0.00739813  -0.00907961 -0.006323 -0.00698018  -0.00637278 -0.00585662 -0.00503659  -0.00800298 -0.00425802 -0.00693774  -0.00716828 -0.0061131 -0.00508642  -0.0048732 -0.00205472 -0.00550723  -0.00604346 -0.00434382 -0.0052433  -0.00380889 -0.00350001 -0.00378036  -0.00671883 -0.00515822 -0.00620294  -0.00616942 -0.00297981 -0.00645757  -0.00750999 -0.00529324 -0.0060823  -0.00498267 -0.00459064 -0.0043962  -0.00423849 -0.00286875 -0.00465226  -0.00542058 -0.00391502 -0.00542021  -0.0115671 -0.0067601 -0.0084734  -0.0135888 -0.00989975 -0.00755191  -0.011149 -0.00885724 -0.00622988  -0.0115322 -0.0078399 -0.00747824  -0.0113345 -0.00978144 -0.00560904  -0.00800005 -0.00506129 -0.00625038  -0.00944608 -0.00804972 -0.00562191  -0.00758481 -0.00684057 -0.00466847  -0.0113288 -0.00795677 -0.00738573  -0.00973031 -0.00586874 -0.00731707  -0.0114397 -0.0089033 -0.00656271  -0.00928566 -0.00779367 -0.00543737  -0.00777408 -0.00603937 -0.00550222  -0.0094837 -0.00693997 -0.00641942  -0.0157838 -0.011022 -0.00863147  -0.0179874 -0.0146883 -0.0074985  -0.0157705 -0.0130521 -0.00647759  -0.0151464 -0.0127497 -0.00740027  -0.0152696 -0.0146608 -0.00561404  -0.0110755 -0.00936442 -0.00638676  -0.0126919 -0.0130017 -0.00558591  -0.011054 -0.0112194 -0.00484705  -0.0158129 -0.0121408 -0.00757194  -0.0133453 -0.0101313 -0.00748086  -0.0152468 -0.0137806 -0.00652504  -0.0133244 -0.0120669 -0.00565529  -0.0110819 -0.0103753 -0.00563741  -0.013363 -0.01119 -0.00659204  -0.0199552 -0.0164991 -0.00834632  -0.0222016 -0.0206436 -0.00714231  -0.0201713 -0.0184039 -0.00631452  -0.018714 -0.0188524 -0.00707197  -0.0190225 -0.0206498 -0.00536871  -0.0141308 -0.0149427 -0.00619912  -0.0158329 -0.0191067 -0.00533247  -0.0143439 -0.0167499 -0.00472093  -0.0201139 -0.0175287 -0.00734138  -0.0169363 -0.0156612 -0.00725746  -0.018917 -0.019815 -0.00622988  -0.017167 -0.0175106 -0.00551033  -0.0142754 -0.0159195 -0.00547409  -0.0170977 -0.0166587 -0.00639939  -0.024013 -0.0230747 -0.00785971  -0.0262315 -0.0276318 -0.00667596  -0.0243556 -0.0248293 -0.00595307  -0.0222006 -0.0260035 -0.00662065  -0.0225961 -0.0276675 -0.00502276  -0.0171602 -0.0216408 -0.00586319  -0.0188684 -0.0262546 -0.00499034  -0.0174949 -0.0233473 -0.00445747  -0.0242414 -0.0240143 -0.00691485  -0.0204689 -0.0223037 -0.00685573  -0.0224444 -0.0268881 -0.005826  -0.0208309 -0.0240293 -0.00520396  -0.017364 -0.0225594 -0.00517082  -0.0207007 -0.0232272 -0.00603676  -0.0279083 -0.0306224 -0.00730968  -0.0300583 -0.0355518 -0.00616837  -0.0283129 -0.0322306 -0.00553131  -0.0255566 -0.034087 -0.00613546  -0.0259937 -0.0356146 -0.00464082  -0.0201132 -0.0293325 -0.00546241  -0.0217898 -0.0343372 -0.0046165  -0.0205038 -0.0309214 -0.00413918  -0.028169 -0.0314782 -0.00642252  -0.0238958 -0.0299273 -0.00638151  -0.0258225 -0.0348936 -0.00539374  -0.0243161 -0.0315237 -0.00483489  -0.0203429 -0.0301847 -0.00480151  -0.0241522 -0.0307771 -0.0056138  -0.0316281 -0.03906 -0.00673318  -0.0336868 -0.044317 -0.00566411  -0.0320594 -0.0405201 -0.00509071  -0.0287783 -0.0430135 -0.00564504  -0.0292225 -0.0444063 -0.00426078  -0.0229669 -0.0379194 -0.00504231  -0.0245926 -0.0432684 -0.00424337  -0.0233777 -0.0393812 -0.00381041  -0.0318971 -0.0398338 -0.00591588  -0.0271859 -0.0384413 -0.00589061  -0.02904 -0.0437463 -0.00495458  -0.027627 -0.0399028 -0.00444889  -0.0232058 -0.0387002 -0.00443101  -0.0274517 -0.0392208 -0.00517321  -0.0351682 -0.0482767 -0.00617528  -0.0371169 -0.0538478 -0.00518513  -0.0355924 -0.0496148 -0.0046618  -0.0318409 -0.0526957 -0.00516486  -0.0322794 -0.0539695 -0.00389338  -0.0257086 -0.0473097 -0.00462532  -0.0272682 -0.0529634 -0.00387788  -0.0261203 -0.0486481 -0.00348926  -0.0354275 -0.0489887 -0.00542021  -0.0303277 -0.0477568 -0.00540304  -0.0320976 -0.0533659 -0.00452733  -0.0307703 -0.0490887 -0.00407457  -0.0259466 -0.0480229 -0.00406027  -0.030589 -0.0484631 -0.00474143  -0.0385096 -0.0582362 -0.00564146  -0.0403529 -0.0640835 -0.00471807  -0.0389156 -0.0594534 -0.00425124  -0.0347497 -0.0630749 -0.00470996  -0.0351707 -0.0642388 -0.00354481  -0.0283347 -0.0574288 -0.00422502  -0.0298227 -0.0633602 -0.00353909  -0.0287347 -0.0586488 -0.00318098  -0.0387592 -0.0588832 -0.00494838  -0.0333139 -0.0578001 -0.00493622  -0.0349965 -0.0636875 -0.00412607  -0.0337459 -0.0590151 -0.00371647  -0.0285596 -0.0580782 -0.00370431  -0.0335673 -0.0584428 -0.00432682  -0.0416576 -0.068863 -0.00513244  -0.0433996 -0.0749617 -0.00428271  -0.0420538 -0.0699639 -0.00386214  -0.0375032 -0.0740957 -0.00427723  -0.0379051 -0.0751427 -0.00321531  -0.0308284 -0.0682115 -0.00384402  -0.0322506 -0.0743925 -0.00320554  -0.03122 -0.0693202 -0.00289202  -0.0418988 -0.069444 -0.00449634  -0.0361456 -0.0685051 -0.00448918  -0.0377389 -0.0746468 -0.00374699  -0.0365576 -0.0696099 -0.00337577  -0.0310513 -0.0688007 -0.00336695  -0.0363859 -0.0690904 -0.00393605  -0.0446206 -0.0801022 -0.00464678  -0.046263 -0.0864201 -0.00386524  -0.0450019 -0.0810903 -0.00349903  -0.0401069 -0.0856859 -0.00386596  -0.0404903 -0.0866346 -0.00290656  -0.0332094 -0.0795963 -0.00348401  -0.0345603 -0.0859999 -0.00290012  -0.0335768 -0.0805975 -0.00261712  -0.0448536 -0.0806221 -0.00407624  -0.0388241 -0.0798207 -0.00406837  -0.0403295 -0.0861863 -0.00338411  -0.0392157 -0.0808133 -0.0030582  -0.0334209 -0.0801274 -0.00305343  -0.0390525 -0.080345 -0.00356245  -0.047415 -0.0918873 -0.0041852  -0.0489513 -0.0984078 -0.00348163  -0.0477757 -0.0927677 -0.00315309  -0.0425695 -0.0978028 -0.00347996  -0.0429279 -0.0986491 -0.00261378  -0.0354737 -0.0915268 -0.00314093  -0.036752 -0.098129 -0.00260448  -0.0358211 -0.0924252 -0.00235844  -0.0476305 -0.0923549 -0.00366759  -0.0413541 -0.0916855 -0.00366902  -0.0427758 -0.0982443 -0.00304341  -0.0417279 -0.0925706 -0.0027585  -0.0356698 -0.0920054 -0.00275207  -0.0415705 -0.0921556 -0.00321388  -0.050032 -0.104158 -0.00376058  -0.051477 -0.110867 -0.00311112  -0.0503658 -0.104956 -0.00283098  -0.0448878 -0.11038 -0.00311422  -0.0452256 -0.111136 -0.00233889  -0.0376245 -0.103941 -0.00281954  -0.0388334 -0.110722 -0.00232768  -0.0379503 -0.104749 -0.00211477  -0.0502336 -0.104579 -0.00329232  -0.0437456 -0.104033 -0.00329447  -0.045084 -0.110775 -0.00272465  -0.0440955 -0.104832 -0.00247502  -0.0378058 -0.104373 -0.00246739  -0.0439476 -0.104453 -0.00288439  -0.0524888 -0.116886 -0.00335646  -0.0538454 -0.12375 -0.00277162  -0.0528073 -0.117592 -0.00251985  -0.0470742 -0.123376 -0.00276899  -0.0473895 -0.124044 -0.0020802  -0.0396566 -0.116798 -0.00251365  -0.0408026 -0.12373 -0.00206971  -0.0399673 -0.117514 -0.00188899  -0.0526823 -0.117256 -0.00293207  -0.0459979 -0.116825 -0.00293827  -0.0472561 -0.123724 -0.0024271  -0.0463208 -0.117533 -0.00220513  -0.0398308 -0.117178 -0.00220299  -0.0461855 -0.1172 -0.00257111  -0.0548005 -0.130003 -0.00296974  -0.0560569 -0.137007 -0.00244617  -0.0550878 -0.130628 -0.00223494  -0.0491335 -0.136734 -0.00244498  -0.0494242 -0.137325 -0.00183702  -0.04159 -0.130036 -0.00223327  -0.0426723 -0.137102 -0.00183201  -0.0418702 -0.130672 -0.00167418  -0.0549679 -0.130331 -0.00260234  -0.0481147 -0.130004 -0.00260687  -0.0493021 -0.137041 -0.00214052  -0.0484227 -0.130633 -0.00195599  -0.0417508 -0.130373 -0.00195169  -0.0482945 -0.130337 -0.00227928  -0.056951 -0.143469 -0.00261259  -0.0581279 -0.150587 -0.00214314  -0.0572212 -0.144013 -0.00196528  -0.0510705 -0.150412 -0.00214434  -0.0513389 -0.150925 -0.00160646  -0.0434203 -0.143614 -0.00196218  -0.0444427 -0.150793 -0.00160146  -0.0436823 -0.144172 -0.00147009  -0.0571096 -0.143756 -0.0022881  -0.0501139 -0.143532 -0.0022912  -0.0512266 -0.15068 -0.00187802  -0.0503969 -0.144082 -0.00171876  -0.04357 -0.143909 -0.00171852  -0.0502801 -0.14382 -0.00200391  -0.0589545 -0.157234 -0.00228405  -0.0600624 -0.164456 -0.00186157  -0.0592043 -0.157713 -0.00171423  -0.0528905 -0.16437 -0.00186014  -0.0531385 -0.164814 -0.00139284  -0.0451572 -0.157484 -0.00171113  -0.046119 -0.164759 -0.00139618  -0.0453935 -0.157973 -0.00128222  -0.0591111 -0.157487 -0.00199914  -0.0519917 -0.157356 -0.00200009  -0.0530343 -0.164598 -0.00162601  -0.0522537 -0.157833 -0.00149941  -0.0452905 -0.157744 -0.00149775  -0.0521455 -0.157604 -0.00174952  -0.060842 -0.171263 -0.00196648  -0.061866 -0.178565 -0.00159359  -0.0610662 -0.171676 -0.00147915  -0.054599 -0.178558 -0.00160003  -0.054826 -0.178946 -0.00119901  -0.0467975 -0.171611 -0.00147724  -0.0477004 -0.17896 -0.00119567  -0.0470123 -0.17203 -0.00110769  -0.0609796 -0.171481 -0.00171828  -0.0537589 -0.171431 -0.00172591  -0.0547299 -0.178758 -0.00139976  -0.0539954 -0.171845 -0.00129485  -0.0469208 -0.171834 -0.00129104  -0.0538962 -0.17165 -0.00150871  -0.0625968 -0.18552 -0.00168157  -0.0635428 -0.192882 -0.00135398  -0.0627992 -0.185866 -0.001266  -0.0562074 -0.192957 -0.0013535  -0.0564079 -0.193275 -0.00101542  -0.0483406 -0.18595 -0.00126195  -0.0491982 -0.193359 -0.00101519  -0.0485437 -0.186305 -0.000946522  -0.0627179 -0.185703 -0.00146818  -0.0554156 -0.185731 -0.00147414  -0.0563223 -0.193117 -0.00118423  -0.0556295 -0.186077 -0.00110555  -0.0484591 -0.186137 -0.00110054  -0.0555391 -0.185915 -0.00128961  -0.064229 -0.199956 -0.00141406  -0.0651059 -0.207367 -0.00113153  -0.0644097 -0.200245 -0.00106621  -0.0577092 -0.207502 -0.00113273  -0.0578947 -0.207774 -0.000848055  -0.049814 -0.20046 -0.00106359  -0.0506108 -0.207916 -0.000848055  -0.0499918 -0.20076 -0.000795364  -0.0643411 -0.200106 -0.00123739  -0.0569687 -0.200205 -0.00124192  -0.0578163 -0.20764 -0.000988483  -0.0571623 -0.200498 -0.000929356  -0.049916 -0.200619 -0.000929594  -0.0570829 -0.200358 -0.00108576  -0.0657377 -0.214542 -0.00116682  -0.06656 -0.221987 -0.000934839  -0.0659077 -0.214776 -0.000882626  -0.0591197 -0.222184 -0.000930786  -0.0592828 -0.222401 -0.000698805  -0.0511935 -0.215118 -0.000880718  -0.0519485 -0.222601 -0.000695944  -0.0513592 -0.215362 -0.000657082  -0.0658479 -0.214664 -0.00102496  -0.0584228 -0.214827 -0.00102687  -0.0592175 -0.222295 -0.000814676  -0.0586023 -0.215066 -0.000772715  -0.0512893 -0.215243 -0.000770807  -0.0585279 -0.21495 -0.000899553  -0.0671651 -0.229246 -0.000949621  -0.0679152 -0.236716 -0.000747919  -0.0673053 -0.229434 -0.000719309  -0.0604484 -0.236973 -0.000750065  -0.0605931 -0.237141 -0.000562429  -0.052511 -0.229879 -0.000720263  -0.0532179 -0.237383 -0.000560522  -0.0526524 -0.230076 -0.000537157  -0.0672481 -0.229341 -0.00083518  -0.059792 -0.229559 -0.000837803  -0.0605316 -0.237048 -0.000653982  -0.0599465 -0.229754 -0.00063014  -0.0525911 -0.229983 -0.000630379  -0.0598838 -0.229661 -0.000735998  -0.0684726 -0.244031 -0.000752926  -0.0691829 -0.25152 -0.000576973  -0.0686114 -0.244179 -0.000568628  -0.0616977 -0.251816 -0.000585079  -0.0618186 -0.251949 -0.000438213  -0.0537488 -0.244721 -0.000572205  -0.0544167 -0.252236 -0.000437021  -0.053879 -0.244879 -0.000425577  -0.0685577 -0.244109 -0.000658035  -0.0610819 -0.244379 -0.00066781  -0.0617659 -0.251878 -0.000510931  -0.0612152 -0.244529 -0.000498533  -0.0538287 -0.244803 -0.000499964  -0.0611603 -0.244456 -0.000584126  -0.0697117 -0.258886 -0.000581264  -0.0703621 -0.26638 -0.000438452  -0.0698197 -0.259004 -0.000436783  -0.0628669 -0.266714 -0.000445604  -0.062974 -0.266814 -0.000335455  -0.0549309 -0.259622 -0.000443459  -0.055552 -0.267135 -0.000334263  -0.0550394 -0.259741 -0.000330448  -0.0697803 -0.258944 -0.000510693  -0.062289 -0.259256 -0.000514269  -0.0629289 -0.266759 -0.000388384  -0.0624056 -0.25937 -0.000385523  -0.0549912 -0.25968 -0.000385761  -0.0623553 -0.259315 -0.000449657  -0.0708628 -0.273786 -0.000427723  -0.0714641 -0.281267 -0.000314951  -0.0709593 -0.273858 -0.00032258  -0.0639758 -0.281635 -0.000319958  -0.0640647 -0.281708 -0.000240326  -0.0560498 -0.274551 -0.000325203  -0.0566339 -0.282057 -0.00024128  -0.0561366 -0.27464 -0.000245094  -0.0709205 -0.273818 -0.000375509  -0.063427 -0.274171 -0.000380754  -0.0640283 -0.281664 -0.000278711  -0.0635271 -0.274251 -0.000283957  -0.0560992 -0.274596 -0.00028491  -0.0634861 -0.27421 -0.000334024  -0.0719504 -0.288695 -0.000293255  -0.0725055 -0.296166 -0.000221014  -0.0720224 -0.288738 -0.000226974  -0.0650263 -0.296565 -0.00021863  -0.065098 -0.296606 -0.000167131  -0.0571122 -0.289494 -0.000230074  -0.0576663 -0.296984 -0.000161409  -0.0571861 -0.289551 -0.000172377  -0.0719919 -0.288714 -0.000257969  -0.0645068 -0.289098 -0.000266552  -0.0650678 -0.296577 -0.000189543  -0.0645854 -0.289148 -0.000200987  -0.0571575 -0.289522 -0.000200272  -0.0645552 -0.28912 -0.000234604  -0.0729671 -0.303598 -0.000193834  -0.073489 -0.311057 -0.000131369  -0.0730269 -0.303631 -0.000149488  -0.0660267 -0.311478 -0.00013876  -0.0660815 -0.311504 -0.000103951  -0.0581319 -0.304426 -0.000152349  -0.0586545 -0.311897 -0.000102282  -0.0581908 -0.304463 -0.00011611  -0.0730014 -0.303611 -0.000172615  -0.0655313 -0.304014 -0.00017643  -0.0660572 -0.311479 -0.000123262  -0.0655968 -0.30405 -0.000133514  -0.0581629 -0.304442 -0.00013566  -0.0655689 -0.30403 -0.000153065  -0.0739388 -0.318494 -0.00010705  -0.0744252 -0.325925 -6.69956e-05  -0.0739806 -0.318504 -8.89301e-05  -0.0669806 -0.326363 -7.4625e-05  -0.0670254 -0.326376 -5.84126e-05  -0.059109 -0.319336 -9.20296e-05  -0.059607 -0.326787 -5.48363e-05  -0.0591562 -0.319358 -6.77109e-05  -0.0739625 -0.318496 -0.000100136  -0.0665076 -0.318916 -0.000104666  -0.0670056 -0.326361 -7.08103e-05  -0.0665586 -0.318933 -7.9155e-05  -0.0591354 -0.319346 -7.84397e-05  -0.0665395 -0.318924 -9.32217e-05  -0.0748651 -0.333358 -4.14848e-05  -0.0753267 -0.340772 -3.12328e-05  -0.0748937 -0.333358 -4.29153e-05  -0.0679049 -0.341212 -3.05176e-05  -0.0679355 -0.341214 -2.59876e-05  -0.0600569 -0.334214 -4.673e-05  -0.0605285 -0.341638 -2.7895e-05  -0.0600858 -0.334223 -3.33786e-05  -0.0748792 -0.333354 -4.45843e-05  -0.0674462 -0.333785 -5.24521e-05  -0.0679235 -0.341208 -3.0756e-05  -0.0674846 -0.333792 -4.05312e-05  -0.0600712 -0.334214 -3.88622e-05  -0.0674653 -0.333785 -4.55379e-05  -0.0757532 -0.348182 -7.62939e-06  -0.0762069 -0.355575 -6.4373e-06  -0.0757809 -0.348178 -1.52588e-05  -0.0688021 -0.35602 2.38419e-06  -0.0688245 -0.356018 0  -0.0609648 -0.349046 -1.26362e-05  -0.0614264 -0.356446 4.76837e-06  -0.0609922 -0.349049 -1.12057e-05  -0.0757675 -0.348179 -1.50204e-05  -0.0683515 -0.348615 -1.52588e-05  -0.0688121 -0.356014 9.53674e-07  -0.0683851 -0.348616 -1.43051e-05  -0.0609791 -0.349045 -1.21593e-05  -0.0683696 -0.348613 -1.33514e-05  -0.0766346 -0.362971 1.74046e-05  -0.0770822 -0.370356 2.16961e-05  -0.0766568 -0.362969 6.4373e-06  -0.0696824 -0.370791 2.59876e-05  -0.0697091 -0.370797 2.19345e-05  -0.0618606 -0.363833 1.38283e-05  -0.0623128 -0.371216 2.64645e-05  -0.0618758 -0.363837 1.07288e-05  -0.0766456 -0.362964 1.16825e-05  -0.0692422 -0.363404 1.14441e-05  -0.0696945 -0.370789 2.14577e-05  -0.0692682 -0.363403 9.53674e-06  -0.0618718 -0.363833 1.50204e-05  -0.069252 -0.363401 1.21593e-05  0 0 0  -0.00235758 -0.000303343 -0.00413847  -0.0015348 -0.00135946 -0.00243974  0 0 0  -0.000664882 0.000390291 -0.00206232  -0.00136624 -0.000421897 -0.00260282  -0.000351157 -0.000212193 -0.00113082  0 0 0  -0.000861797 8.70824e-05 -0.0025115  -0.00181837 -0.000917435 -0.00320101  -0.000468064 -0.000528917 -0.00137305  0 0 0  -0.000418268 -1.38283e-05 -0.00149798  -0.000544958 -0.000305727 -0.00181723  -0.00511694 -0.00266945 -0.00500035  -0.00448285 -0.00422588 -0.0036931  -0.00289223 -0.000715628 -0.00374699  -0.00360301 -0.00289896 -0.00357604  -0.00218375 -0.00203581 -0.00258422  -0.00382207 -0.00128549 -0.00461221  -0.00475855 -0.00352672 -0.00441265  -0.00294301 -0.00265025 -0.00317645  -0.00248238 -0.00146389 -0.0031774  -0.00330593 -0.00205302 -0.00390697  -0.00765705 -0.0063636 -0.00531626  -0.00749591 -0.00814256 -0.00403571  -0.00487402 -0.00375602 -0.00419283  -0.00584087 -0.00675173 -0.0037787  -0.0045912 -0.0053903 -0.00316691  -0.00637195 -0.00434425 -0.0052247  -0.00757936 -0.00733197 -0.00470448  -0.00602046 -0.00603145 -0.00392008  -0.00472561 -0.00466177 -0.00372028  -0.00618297 -0.00527646 -0.0046134  -0.0102154 -0.0113833 -0.00525188  -0.0103105 -0.0131818 -0.0040164  -0.00693014 -0.00817993 -0.00425243  -0.00801605 -0.0118339 -0.00372791  -0.00691923 -0.00993845 -0.00325561  -0.00893679 -0.00871307 -0.00531888  -0.010291 -0.0123537 -0.00465417  -0.00891927 -0.0105099 -0.00405216  -0.00693694 -0.00914051 -0.00377369  -0.0089474 -0.00969234 -0.00470543  -0.012758 -0.0175962 -0.00502634  -0.0130067 -0.019327 -0.00383615  -0.00897425 -0.0138621 -0.00411725  -0.0101254 -0.0180629 -0.00355005  -0.00913399 -0.0156129 -0.00315809  -0.0114914 -0.0143425 -0.00515628  -0.0129146 -0.0185252 -0.00444031  -0.011676 -0.0161144 -0.00394011  -0.00907707 -0.0148098 -0.0036509  -0.0116114 -0.015303 -0.00456047  -0.0152667 -0.0248606 -0.00471354  -0.0155946 -0.0264971 -0.00358295  -0.0110078 -0.0206691 -0.00389552  -0.0121861 -0.0253273 -0.00332522  -0.011264 -0.0223425 -0.00297451  -0.014017 -0.0210966 -0.00487542  -0.0154585 -0.0257354 -0.00415301  -0.0143122 -0.0227873 -0.00371718  -0.0111628 -0.0215703 -0.0034411  -0.014195 -0.0220063 -0.00430489  -0.0177187 -0.0330794 -0.00437236  -0.0180795 -0.0345928 -0.00331259  -0.0130239 -0.0284723 -0.00363016  -0.0141938 -0.0335323 -0.00306821  -0.0133246 -0.030045 -0.00276208  -0.0164993 -0.02885 -0.00454354  -0.0179253 -0.0338815 -0.00384283  -0.0168488 -0.0304285 -0.00345016  -0.0131957 -0.0293189 -0.00319719  -0.0167037 -0.0296977 -0.00400114  -0.0200953 -0.0421387 -0.00402355  -0.0204678 -0.0435354 -0.00304079  -0.0149961 -0.0371779 -0.00334835  -0.0161501 -0.0425853 -0.00282407  -0.0153131 -0.0386352 -0.00253844  -0.018915 -0.0374986 -0.00419545  -0.0203056 -0.0428802 -0.00353193  -0.0192845 -0.0389576 -0.00317645  -0.0151793 -0.0379577 -0.00294685  -0.0191261 -0.0382798 -0.00369096  -0.0223876 -0.0519628 -0.00368094  -0.0227593 -0.0532471 -0.00277519  -0.016927 -0.0466862 -0.00307345  -0.0180513 -0.0524068 -0.00257921  -0.0172499 -0.0480298 -0.00232267  -0.0212537 -0.0469534 -0.00385213  -0.0225971 -0.0526441 -0.00322962  -0.0216247 -0.048293 -0.00290775  -0.017107 -0.0474046 -0.00269747  -0.0214618 -0.0476688 -0.00337934  -0.0245997 -0.0624864 -0.00335574  -0.0249528 -0.0636544 -0.00252652  -0.0188055 -0.0569273 -0.00280666  -0.0198905 -0.0629288 -0.00235033  -0.0191193 -0.0581576 -0.00211668  -0.0235068 -0.0571387 -0.00351882  -0.0247971 -0.0631075 -0.00294113  -0.0238649 -0.0583601 -0.00264859  -0.0189757 -0.0575852 -0.00246239  -0.023707 -0.0577913 -0.00308251  -0.0267143 -0.0736444 -0.00304651  -0.0270541 -0.074706 -0.00229168  -0.0206211 -0.0678357 -0.00254822  -0.0216702 -0.0740851 -0.0021286  -0.0209284 -0.0689524 -0.00191975  -0.0256666 -0.0679857 -0.00319862  -0.0269065 -0.0742046 -0.00266409  -0.0260161 -0.0690989 -0.00240564  -0.020789 -0.0684311 -0.00223351  -0.0258632 -0.0685787 -0.00280166  -0.0287454 -0.0853718 -0.00275683  -0.029067 -0.0863293 -0.00206828  -0.0223774 -0.0793386 -0.00231314  -0.0233961 -0.0858103 -0.00192571  -0.0226679 -0.0803528 -0.00173688  -0.0277404 -0.0794329 -0.00290155  -0.0289218 -0.0858746 -0.00241375  -0.0280697 -0.0804429 -0.00217795  -0.0225383 -0.079879 -0.00202441  -0.0279247 -0.0799721 -0.00254059  -0.0306885 -0.0976169 -0.00247741  -0.0309899 -0.0984718 -0.00186014  -0.0240852 -0.0913847 -0.00208211  -0.0250601 -0.0980506 -0.00172734  -0.0243585 -0.0922971 -0.0015645  -0.0297272 -0.091426 -0.00261664  -0.030854 -0.0980635 -0.00216722  -0.0300398 -0.0923327 -0.00196362  -0.0242357 -0.0918684 -0.00182557  -0.0298988 -0.0919087 -0.00228858  -0.03254 -0.110308 -0.00221825  -0.0328279 -0.111078 -0.00166368  -0.0257298 -0.10391 -0.00187087  -0.0266663 -0.110751 -0.00154519  -0.0259842 -0.10473 -0.00140119  -0.0316255 -0.103898 -0.00234461  -0.0327001 -0.110713 -0.00194049  -0.0319157 -0.104714 -0.0017612  -0.0258694 -0.104345 -0.00163555  -0.0317883 -0.104334 -0.00205135  -0.0343164 -0.123418 -0.00196934  -0.0345839 -0.124099 -0.00147772  -0.0273173 -0.116866 -0.00166559  -0.0282165 -0.12386 -0.00136971  -0.0275549 -0.117599 -0.00124884  -0.0334452 -0.116808 -0.00209332  -0.0344641 -0.123775 -0.00172496  -0.0337142 -0.117534 -0.00156927  -0.0274514 -0.117256 -0.00145578  -0.0335922 -0.117195 -0.00183034  -0.0360134 -0.13688 -0.00174308  -0.0362594 -0.137483 -0.00130367  -0.0288397 -0.130207 -0.00147319  -0.0297087 -0.137325 -0.0012095  -0.0290705 -0.130855 -0.00110626  -0.0351734 -0.130104 -0.00185537  -0.0361481 -0.137196 -0.00152588  -0.0354285 -0.130742 -0.00139046  -0.0289707 -0.130549 -0.00129199  -0.0353148 -0.130443 -0.0016222  -0.0376282 -0.150655 -0.00152278  -0.0378582 -0.15119 -0.00114083  -0.0303218 -0.143872 -0.00130081  -0.0311499 -0.151101 -0.00105906  -0.03053 -0.144444 -0.000971317  -0.0368276 -0.143728 -0.0016315  -0.0377564 -0.15093 -0.00133038  -0.0370657 -0.14429 -0.0012219  -0.0304358 -0.144177 -0.00113344  -0.0369616 -0.144026 -0.00142741  -0.039176 -0.164711 -0.00132298  -0.0393834 -0.165164 -0.000992298  -0.0317509 -0.15783 -0.00113153  -0.0325415 -0.165151 -0.000919342  -0.0319381 -0.158328 -0.00084734  -0.038408 -0.157646 -0.00142169  -0.0392919 -0.164942 -0.00115323  -0.0386276 -0.158138 -0.00106382  -0.0318501 -0.158094 -0.000988722  -0.0385349 -0.157906 -0.00124431  -0.0406504 -0.178976 -0.00113773  -0.0408387 -0.179371 -0.000849009  -0.0331218 -0.172032 -0.000977516  -0.0338781 -0.179423 -0.000783682  -0.0332952 -0.172461 -0.000730753  -0.0399227 -0.17181 -0.00122929  -0.0407555 -0.179181 -0.000994205  -0.0401182 -0.172234 -0.00091958  -0.0332146 -0.172261 -0.000850677  -0.040031 -0.172035 -0.00107527  -0.042052 -0.193443 -0.000965118  -0.0422275 -0.193778 -0.000721693  -0.0344434 -0.186436 -0.000833273  -0.0351655 -0.193887 -0.000666618  -0.0345984 -0.186805 -0.000624418  -0.0413647 -0.186183 -0.00105238  -0.0421505 -0.193614 -0.000842333  -0.0415399 -0.186546 -0.000784159  -0.0345278 -0.186632 -0.000729561  -0.0414608 -0.186373 -0.000917435  -0.043391 -0.208065 -0.000807285  -0.0435472 -0.208341 -0.000600576  -0.0357132 -0.201017 -0.000701904  -0.0364041 -0.208504 -0.000558615  -0.0358562 -0.201324 -0.000525475  -0.0427332 -0.200732 -0.000885725  -0.0434804 -0.208202 -0.000703573  -0.0428941 -0.201035 -0.000663757  -0.0357902 -0.201177 -0.000613451  -0.0428238 -0.200891 -0.000774145  -0.0446706 -0.222798 -0.000666618  -0.0448084 -0.223031 -0.000494957  -0.0369401 -0.215722 -0.000583887  -0.0375969 -0.223239 -0.000462294  -0.0370591 -0.215981 -0.000435591  -0.0440421 -0.215416 -0.000735998  -0.0447471 -0.222915 -0.000576019  -0.0441873 -0.215664 -0.000546932  -0.0370078 -0.215859 -0.000509024  -0.0441189 -0.215545 -0.000641823  -0.0458918 -0.237634 -0.000535965  -0.0460105 -0.237814 -0.000399351  -0.0381117 -0.230536 -0.000475407  -0.0387456 -0.23807 -0.000369549  -0.0382254 -0.230745 -0.000352144  -0.0452909 -0.230203 -0.0006001  -0.0459578 -0.237724 -0.000467777  -0.0454161 -0.230407 -0.000446081  -0.0381751 -0.230645 -0.000411987  -0.0453601 -0.230307 -0.000523806  -0.0470574 -0.252531 -0.000421524  -0.0471604 -0.252674 -0.00031209  -0.0392451 -0.245424 -0.000380516  -0.039854 -0.252965 -0.000293016  -0.0393448 -0.245591 -0.000278711  -0.0464816 -0.245067 -0.000477552  -0.0471134 -0.252599 -0.00036788  -0.046592 -0.245232 -0.000354767  -0.039309 -0.24551 -0.000327826  -0.0465407 -0.245152 -0.000414848  -0.0481691 -0.267461 -0.000319481  -0.0482593 -0.267568 -0.000237703  -0.0403435 -0.260357 -0.000294924  -0.0409219 -0.267897 -0.000222206  -0.0404274 -0.260488 -0.000214338  -0.0476165 -0.259987 -0.000368834  -0.0482185 -0.267517 -0.000277281  -0.0477157 -0.260114 -0.000272751  -0.0403934 -0.260426 -0.000252247  -0.047672 -0.26005 -0.000319242  -0.049237 -0.282416 -0.000232697  -0.0493104 -0.282499 -0.000171423  -0.0414064 -0.275321 -0.000213623  -0.04195 -0.282847 -0.000158787  -0.0414715 -0.275418 -0.000160933  -0.0487108 -0.274934 -0.000275612  -0.0492814 -0.282452 -0.000199795  -0.0487897 -0.275028 -0.000202894  -0.0414405 -0.275369 -0.000185966  -0.0487542 -0.274982 -0.000240326  -0.050262 -0.297368 -0.000163794  -0.0503213 -0.297423 -0.000119686  -0.0424235 -0.290288 -0.000157118  -0.0429516 -0.297795 -0.000111818  -0.0424798 -0.290356 -0.00011301  -0.0497568 -0.289886 -0.00019455  -0.0502951 -0.29739 -0.000140905  -0.0498197 -0.289954 -0.000145912  -0.0424557 -0.290321 -0.000134706  -0.0497921 -0.289921 -0.000168562  -0.051249 -0.312301 -0.000104427  -0.0512974 -0.312333 -7.20024e-05  -0.0434113 -0.305241 -0.000103235  -0.0439181 -0.312729 -6.79493e-05  -0.0434566 -0.305286 -7.53403e-05  -0.0507612 -0.304835 -0.000131607  -0.0512781 -0.312314 -9.17912e-05  -0.0508134 -0.304875 -9.77516e-05  -0.0434391 -0.305263 -8.9407e-05  -0.0507917 -0.304852 -0.000113249  -0.0522084 -0.327202 -5.48363e-05  -0.0522428 -0.327226 -4.17233e-05  -0.0443742 -0.320167 -6.17504e-05  -0.0448613 -0.327627 -3.69549e-05  -0.0444069 -0.320197 -4.50611e-05  -0.0517349 -0.319752 -8.03471e-05  -0.0522265 -0.327209 -4.673e-05  -0.051774 -0.319779 -5.6982e-05  -0.0443926 -0.320183 -5.43594e-05  -0.0517552 -0.319766 -6.81877e-05  -0.0531301 -0.342063 -2.64645e-05  -0.0531607 -0.342078 -1.64509e-05  -0.0453119 -0.335059 -2.45571e-05  -0.0457778 -0.342491 -1.40667e-05  -0.0453331 -0.335075 -2.0504e-05  -0.0526736 -0.334635 -3.8147e-05  -0.0531452 -0.342063 -1.83582e-05  -0.0527053 -0.334649 -2.90871e-05  -0.0453234 -0.335066 -2.40803e-05  -0.0526896 -0.334642 -3.3617e-05  -0.0540302 -0.356879 1.43051e-06  -0.0540569 -0.356883 7.15256e-07  -0.0462148 -0.349903 -3.8147e-06  -0.0466745 -0.357305 9.05991e-06  -0.0462363 -0.34991 -2.86102e-06  -0.053586 -0.349474 -8.34465e-06  -0.0540464 -0.356876 4.05312e-06  -0.0536151 -0.349479 -6.91414e-06  -0.0462275 -0.349902 -2.38419e-06  -0.0535975 -0.349475 -7.15256e-06  -0.0549159 -0.371655 3.74317e-05  -0.0549438 -0.371654 2.26498e-05  -0.0471025 -0.364693 1.97887e-05  -0.0475593 -0.372068 3.38554e-05  -0.0471299 -0.364696 1.26362e-05  -0.0544753 -0.364264 1.7643e-05  -0.0549321 -0.371644 3.05176e-05  -0.0545001 -0.364268 1.4782e-05  -0.0471172 -0.364692 1.52588e-05  -0.0544903 -0.364264 1.52588e-05  0 0 0  -0.00128031 0.0004915 -0.00249815  -0.000795864 -0.000516474 -0.00149655  0 0 0  -0.000308055 0.000700891 -0.00103188  -0.00061132 9.87053e-05 -0.00129962  -0.00015723 0.000108212 -0.000571489  0 0 0  -0.000476588 0.000588 -0.00153542  -0.000969686 -0.000101894 -0.00195289  -0.000242446 -1.3411e-05 -0.000851393  0 0 0  -0.000185188 0.000288129 -0.000754595  -0.000292394 0.000174463 -0.001122  -0.00278452 -0.00161612 -0.00302911  -0.0024126 -0.00308517 -0.00225878  -0.00130653 -4.4018e-05 -0.00186348  -0.00162645 -0.00214526 -0.00179982  -0.000973567 -0.00134254 -0.00130272  -0.00206819 -0.000307769 -0.00279737  -0.00257893 -0.0024423 -0.0026927  -0.00155194 -0.00161159 -0.0019455  -0.0011124 -0.00079456 -0.00159335  -0.00176969 -0.00105414 -0.00238991  -0.00425264 -0.00537926 -0.00319719  -0.00417709 -0.00707188 -0.00244975  -0.00221547 -0.00300843 -0.00209832  -0.00268906 -0.00601336 -0.0019002  -0.00209126 -0.00460649 -0.00160003  -0.00350103 -0.00330481 -0.00314617  -0.00422367 -0.00630808 -0.00284505  -0.00330165 -0.00491694 -0.00238848  -0.00215372 -0.00390556 -0.00187206  -0.00339943 -0.00420588 -0.0028019  -0.00578889 -0.0104962 -0.00314641  -0.00587741 -0.0122429 -0.00242376  -0.00320029 -0.00749901 -0.00212002  -0.0037657 -0.0111908 -0.00186491  -0.00323594 -0.00922066 -0.00164509  -0.00502273 -0.00777167 -0.00318742  -0.00585124 -0.0114459 -0.00279832  -0.00503501 -0.00950617 -0.00245309  -0.00322673 -0.00844958 -0.00189543  -0.00504389 -0.00872445 -0.0028398  -0.00733453 -0.0168025 -0.00300646  -0.00751871 -0.0185102 -0.00230646  -0.00422794 -0.0132726 -0.00204849  -0.00484508 -0.0175114 -0.00176907  -0.00435543 -0.0149958 -0.00158668  -0.00656384 -0.0135041 -0.00308323  -0.00744474 -0.0177226 -0.00266051  -0.00670469 -0.0152361 -0.00237489  -0.0043084 -0.0142134 -0.00182557  -0.00665092 -0.0144485 -0.0027411  -0.0088768 -0.024165 -0.00281715  -0.00911754 -0.0257903 -0.00214958  -0.0052799 -0.0201642 -0.00193548  -0.00592661 -0.0248638 -0.00165892  -0.0054574 -0.0218254 -0.00148869  -0.00810874 -0.0203544 -0.00291371  -0.00901586 -0.0250362 -0.00249147  -0.008322 -0.0220202 -0.00223231  -0.00538296 -0.021062 -0.00171685  -0.008232 -0.0212575 -0.00258017  -0.0104192 -0.0324786 -0.00260997  -0.0106806 -0.0339954 -0.0019846  -0.00635636 -0.0280519 -0.00180197  -0.00701863 -0.0331528 -0.00152016  -0.00655997 -0.0296192 -0.00137711  -0.00965083 -0.0282058 -0.00271535  -0.0105665 -0.0332885 -0.00230098  -0.00990313 -0.0297748 -0.00206947  -0.00646943 -0.0288961 -0.00159073  -0.00979275 -0.0290513 -0.00239396  -0.0119466 -0.0416429 -0.0024004  -0.0122179 -0.043047 -0.00181937  -0.00744879 -0.0368401 -0.00166011  -0.0081197 -0.0422935 -0.00139928  -0.00766122 -0.0382968 -0.00126147  -0.0111852 -0.036955 -0.00250363  -0.0120965 -0.0423892 -0.00210977  -0.0114524 -0.0384149 -0.00189948  -0.00756806 -0.0376219 -0.00146103  -0.0113339 -0.0377381 -0.00220418  -0.013454 -0.0515716 -0.00219798  -0.013723 -0.0528676 -0.00165749  -0.00855601 -0.0464387 -0.00152063  -0.00922763 -0.0522072 -0.00127482  -0.00876415 -0.0477838 -0.00115418  -0.0127033 -0.046515 -0.00229549  -0.0136009 -0.0522623 -0.00192904  -0.0129741 -0.0478556 -0.0017395  -0.00867343 -0.0471579 -0.00133562  -0.0128529 -0.0472329 -0.0020175  -0.0149392 -0.0622098 -0.00200081  -0.015197 -0.0633862 -0.001508  -0.00966489 -0.0567687 -0.00138831  -0.0103415 -0.0628183 -0.00116277  -0.0098784 -0.0580034 -0.00104761  -0.0141991 -0.0568071 -0.00209737  -0.0150826 -0.0628325 -0.00175381  -0.0144628 -0.0580372 -0.00158143  -0.00978482 -0.0574285 -0.00121665  -0.0143459 -0.0574614 -0.00183988  -0.0163968 -0.0734716 -0.0018177  -0.0166444 -0.074538 -0.00136471  -0.0107912 -0.0677633 -0.00125647  -0.0114592 -0.0740622 -0.00104547  -0.0109934 -0.0688882 -0.00094676  -0.0156685 -0.0677603 -0.00190425  -0.0165322 -0.0740356 -0.00158978  -0.0159249 -0.0688809 -0.00143409  -0.0109019 -0.0683653 -0.00109887  -0.0158099 -0.0683592 -0.00167036  -0.0178269 -0.0852963 -0.00163913  -0.0180619 -0.0862695 -0.00123072  -0.011911 -0.0793561 -0.00113606  -0.0125778 -0.0858781 -0.000944614  -0.0121042 -0.0803806 -0.000855923  -0.0171162 -0.0793112 -0.001724  -0.0179555 -0.0858108 -0.00143647  -0.0173563 -0.0803315 -0.00129533  -0.0120188 -0.0799029 -0.00099659  -0.0172472 -0.079856 -0.00151134  -0.0192251 -0.0976369 -0.00147295  -0.0194483 -0.0985118 -0.00110316  -0.0130398 -0.0914865 -0.00102139  -0.0136944 -0.0982037 -0.000842094  -0.0132198 -0.0924129 -0.000767469  -0.0185274 -0.0913999 -0.00155354  -0.0193446 -0.0980987 -0.00128555  -0.0187563 -0.0923215 -0.00116706  -0.0131363 -0.0919789 -0.000897169  -0.0186528 -0.0918917 -0.00135946  -0.0205957 -0.110432 -0.00131631  -0.0208007 -0.111207 -0.000987291  -0.0141581 -0.104093 -0.000912428  -0.0148094 -0.110983 -0.000749588  -0.0143318 -0.104926 -0.0006845  -0.0199114 -0.103972 -0.00138998  -0.0207065 -0.110839 -0.00115061  -0.0201284 -0.104798 -0.0010457  -0.0142537 -0.104539 -0.000798225  -0.0200289 -0.104413 -0.00121689  -0.0219336 -0.123625 -0.00116825  -0.022127 -0.12432 -0.000875235  -0.0152799 -0.11713 -0.000808239  -0.0159181 -0.124166 -0.000669956  -0.0154343 -0.117874 -0.000608683  -0.0212646 -0.116974 -0.00123978  -0.0220391 -0.123989 -0.00102067  -0.0214665 -0.11771 -0.000929832  -0.0153619 -0.117527 -0.000709057  -0.0213771 -0.117366 -0.00108361  -0.0232394 -0.137168 -0.00102592  -0.0234228 -0.13779 -0.000770569  -0.0163914 -0.130542 -0.000716686  -0.0170211 -0.137702 -0.000586033  -0.0165391 -0.131203 -0.000535488  -0.0225927 -0.13035 -0.00109768  -0.0233403 -0.137492 -0.000898838  -0.0227742 -0.131005 -0.000823259  -0.0164715 -0.130892 -0.000627041  -0.022694 -0.130698 -0.000959158  -0.0245214 -0.151026 -0.000900269  -0.0246835 -0.151563 -0.000673056  -0.0174973 -0.14428 -0.000626802  -0.0181143 -0.151548 -0.000513792  -0.0176306 -0.144861 -0.0004704  -0.0238855 -0.144057 -0.000965834  -0.0246077 -0.151305 -0.000785589  -0.0240533 -0.144632 -0.00072217  -0.0175703 -0.144589 -0.000547647  -0.0239782 -0.144364 -0.00084424  -0.025768 -0.16514 -0.000784397  -0.0259149 -0.165606 -0.000584126  -0.0185857 -0.1583 -0.000547647  -0.0191996 -0.165655 -0.000441551  -0.0187171 -0.158807 -0.000409842  -0.0251486 -0.158047 -0.000838757  -0.0258501 -0.165387 -0.000682116  -0.0253043 -0.158549 -0.000626564  -0.0186582 -0.158569 -0.000477314  -0.0252314 -0.158313 -0.000734329  -0.0269804 -0.179479 -0.000670195  -0.0271173 -0.179883 -0.000500202  -0.0196781 -0.172558 -0.000471592  -0.020272 -0.179984 -0.000379801  -0.0197885 -0.173002 -0.000351429  -0.0263782 -0.17228 -0.000724554  -0.0270545 -0.17969 -0.000583887  -0.0265181 -0.172717 -0.000541687  -0.0197394 -0.172791 -0.000413895  -0.0264568 -0.172511 -0.000636339  -0.0281656 -0.194008 -0.000564575  -0.028286 -0.19435 -0.000422955  -0.0207469 -0.187019 -0.000396252  -0.0213339 -0.194495 -0.000314951  -0.0208485 -0.187396 -0.000299215  -0.0275748 -0.186717 -0.000618696  -0.0282292 -0.194181 -0.000494003  -0.0277042 -0.187088 -0.00046134  -0.0208054 -0.187217 -0.000347853  -0.0276456 -0.186913 -0.000541687  -0.0293152 -0.208674 -0.000472784  -0.0294254 -0.208962 -0.000354052  -0.0218143 -0.201638 -0.000332117  -0.0223813 -0.209158 -0.000268698  -0.021899 -0.201961 -0.000246763  -0.0287437 -0.201315 -0.000518322  -0.0293756 -0.20882 -0.000411987  -0.0288572 -0.201632 -0.000386238  -0.0218577 -0.201809 -0.000290155  -0.0288074 -0.201484 -0.000454187  -0.0304365 -0.223461 -0.000390053  -0.0305336 -0.223699 -0.000289679  -0.0228546 -0.216392 -0.000273705  -0.0234079 -0.223938 -0.000215054  -0.0229261 -0.216659 -0.00020504  -0.0298793 -0.216047 -0.000432014  -0.030488 -0.22358 -0.000338316  -0.0299823 -0.216312 -0.00032258  -0.0228968 -0.216533 -0.000238895  -0.0299358 -0.216188 -0.000375271  -0.0315239 -0.238329 -0.000312805  -0.0316093 -0.238527 -0.000228643  -0.0238814 -0.231244 -0.000223398  -0.0244238 -0.2388 -0.000171661  -0.0239496 -0.231462 -0.00016427  -0.0309849 -0.230883 -0.000350952  -0.0315711 -0.238427 -0.000271797  -0.0310745 -0.2311 -0.000259638  -0.0239167 -0.231356 -0.00019455  -0.0310323 -0.230993 -0.000304937  -0.0325875 -0.253268 -0.000246048  -0.0326583 -0.253418 -0.000180006  -0.0248961 -0.246161 -0.000174046  -0.0254211 -0.253724 -0.000131845  -0.0249517 -0.246338 -0.000131369  -0.0320606 -0.245788 -0.000278234  -0.0326254 -0.253335 -0.000211954  -0.0321386 -0.245959 -0.000205755  -0.0249283 -0.246254 -0.000150919  -0.0321012 -0.245877 -0.000241041  -0.0336177 -0.268227 -0.000187159  -0.0336812 -0.268346 -0.000136137  -0.0258896 -0.26112 -0.000133276  -0.0264025 -0.268678 -0.000100136  -0.025933 -0.261263 -9.84669e-05  -0.0331066 -0.260736 -0.0002141  -0.0336514 -0.268283 -0.000159502  -0.0331705 -0.260871 -0.000159979  -0.0259142 -0.261196 -0.000116825  -0.0331416 -0.260807 -0.000187635  -0.0346258 -0.283201 -0.000138521  -0.0346744 -0.283292 -9.75132e-05  -0.0268674 -0.276109 -0.000100136  -0.0273674 -0.283649 -7.43866e-05  -0.0269055 -0.276214 -7.05719e-05  -0.0341239 -0.275713 -0.000159025  -0.0346506 -0.283246 -0.00011754  -0.0341783 -0.27581 -0.000116348  -0.0268893 -0.276162 -8.63075e-05  -0.0341544 -0.275763 -0.000136852  -0.0356052 -0.298176 -9.70364e-05  -0.0356441 -0.298238 -6.79493e-05  -0.0278187 -0.291091 -7.1764e-05  -0.0283146 -0.298614 -4.52995e-05  -0.0278609 -0.291173 -5.19753e-05  -0.0351207 -0.290688 -0.000113249  -0.0356255 -0.298201 -8.32081e-05  -0.0351589 -0.290762 -8.4877e-05  -0.0278449 -0.291132 -5.67436e-05  -0.0351396 -0.290725 -9.9659e-05  -0.0365624 -0.313131 -5.98431e-05  -0.036592 -0.313169 -4.36306e-05  -0.028774 -0.306062 -4.76837e-05  -0.0292487 -0.313563 -2.90871e-05  -0.0287931 -0.30612 -3.3617e-05  -0.0360861 -0.30565 -7.70092e-05  -0.0365798 -0.313143 -5.07832e-05  -0.0361223 -0.305701 -5.55515e-05  -0.0287836 -0.306092 -3.95775e-05  -0.0361066 -0.305677 -6.60419e-05  -0.0374973 -0.328041 -3.0756e-05  -0.0375202 -0.328067 -2.09808e-05  -0.0296967 -0.321007 -2.57492e-05  -0.0301671 -0.328474 -1.35899e-05  -0.029716 -0.32104 -1.85966e-05  -0.0370324 -0.320585 -4.43459e-05  -0.0375106 -0.328049 -2.59876e-05  -0.0370574 -0.320617 -3.12328e-05  -0.0297101 -0.321021 -2.40803e-05  -0.0370476 -0.3206 -3.93391e-05  -0.0384092 -0.342912 -1.19209e-05  -0.0384283 -0.342928 -9.53674e-06  -0.0306103 -0.335906 -9.05991e-06  -0.0310698 -0.343345 -4.29153e-06  -0.0306268 -0.335926 -7.15256e-06  -0.0379562 -0.335483 -2.00272e-05  -0.0384204 -0.342918 -7.86781e-06  -0.0379758 -0.335498 -1.33514e-05  -0.0306222 -0.335915 -1.04904e-05  -0.0379684 -0.335488 -1.83582e-05  -0.0393045 -0.357745 7.39098e-06  -0.039324 -0.357744 5.48363e-06  -0.0315051 -0.350755 2.86102e-06  -0.0319574 -0.358162 7.86781e-06  -0.0315199 -0.350766 1.43051e-06  -0.0388618 -0.350327 -2.86102e-06  -0.0393097 -0.357734 5.96046e-06  -0.0388744 -0.350335 -7.15256e-07  -0.0315139 -0.350764 3.57628e-06  -0.0388675 -0.350332 -1.66893e-06  -0.0401893 -0.372504 2.95639e-05  -0.0402076 -0.372501 1.78814e-05  -0.0323939 -0.365551 1.33514e-05  -0.0328412 -0.372911 1.85966e-05  -0.0324039 -0.365551 1.04904e-05  -0.0397451 -0.365123 1.50204e-05  -0.0401967 -0.37249 2.09808e-05  -0.0397635 -0.365125 1.35899e-05  -0.0323994 -0.365548 8.82149e-06  -0.0397549 -0.36512 1.54972e-05  0 0 0  -0.000365242 0.000788003 -0.00079751  -0.000220194 -0.000216901 -0.000489712  0 0 0  1.78292e-05 0.000758171 2.98023e-05  5.40465e-05 0.000197887 3.83854e-05  1.49533e-05 0.000171602 1.4782e-05  0 0 0  -0.000138842 0.000753224 -0.000496864  -0.000272408 0.000193655 -0.000632763  -6.75954e-05 0.000165761 -0.000278473  0 0 0  1.60038e-05 0.00034368 2.0504e-05  -8.32044e-05 0.000341237 -0.000366688  -0.000782236 -0.00117919 -0.000985146  -0.000681654 -0.00262502 -0.000748634  0.000116125 8.87513e-05 4.93526e-05  0.000148475 -0.0019933 2.7895e-05  8.54135e-05 -0.0011977 1.93119e-05  -0.000581563 8.09431e-05 -0.000904799  -0.000730291 -0.00200057 -0.000884056  -0.000433326 -0.00120845 -0.000641584  0.000102252 -0.000658154 3.14713e-05  -0.000498384 -0.000665754 -0.000780106  -0.00121096 -0.0049448 -0.00104833  -0.001221 -0.00661045 -0.000818968  0.00021109 -0.0028632 3.50475e-05  0.000218213 -0.00587392 1.23978e-05  0.000166565 -0.0044449 8.34465e-06  -0.000987947 -0.00286126 -0.00102878  -0.00121981 -0.00586939 -0.000944614  -0.000951022 -0.00444981 -0.000797033  0.000189185 -0.00375637 2.28882e-05  -0.000968874 -0.00375721 -0.000927448  -0.00169879 -0.0101265 -0.00103426  -0.00177714 -0.0118543 -0.000808716  0.000278145 -0.00738674 2.3365e-05  0.000249386 -0.0110962 9.77516e-06  0.000207335 -0.00909233 -1.19209e-06  -0.00144646 -0.00736639 -0.0010469  -0.00174487 -0.0110722 -0.000927925  -0.00149724 -0.00908273 -0.000823259  0.000240177 -0.00832978 1.04904e-05  -0.00147915 -0.00831831 -0.000943184  -0.00223202 -0.0165104 -0.000983238  -0.00235212 -0.0182005 -0.000769615  0.000287354 -0.0132103 2.09808e-05  0.000212908 -0.0174664 1.09673e-05  0.000199497 -0.0149187 -1.19209e-06  -0.00196016 -0.0131736 -0.00101542  -0.00229871 -0.0174248 -0.000884295  -0.00206184 -0.0148898 -0.00079298  0.000238657 -0.0141432 7.62939e-06  -0.00201821 -0.0141111 -0.000907898  -0.00280786 -0.0239357 -0.000921011  -0.00295681 -0.0255517 -0.000716448  0.000224769 -0.0201465 2.28882e-05  0.000114679 -0.0248708 4.52995e-06  0.000132024 -0.0218009 0  -0.00251383 -0.0200932 -0.000957251  -0.00289029 -0.0248087 -0.000820637  -0.00264853 -0.0217503 -0.000742912  0.000172496 -0.0210441 9.77516e-06  -0.0025894 -0.0209923 -0.000852346  -0.00343198 -0.0323206 -0.000849485  -0.00359601 -0.0338318 -0.000653982  9.80496e-05 -0.0280823 2.36034e-05  -5.41806e-05 -0.0332124 1.35899e-05  -1.01924e-05 -0.029651 1.19209e-06  -0.00311303 -0.0280094 -0.000886679  -0.00352103 -0.03313 -0.000752449  -0.00327021 -0.0295765 -0.000686407  3.99947e-05 -0.028928 1.33514e-05  -0.00320017 -0.0288546 -0.000790834  -0.00410348 -0.0415537 -0.000775099  -0.00426722 -0.0429552 -0.000597954  -0.000104308 -0.0369216 2.83718e-05  -0.000298321 -0.0424083 2.12193e-05  -0.000216722 -0.0383838 1.09673e-05  -0.00376117 -0.0368295 -0.000812531  -0.00419503 -0.0423003 -0.000687599  -0.00392789 -0.0382883 -0.000625372  -0.000166416 -0.0377064 1.85966e-05  -0.00385255 -0.0376111 -0.000722885  -0.00481641 -0.0515595 -0.00070858  -0.00498009 -0.0528511 -0.000539541  -0.000387073 -0.0465748 3.52859e-05  -0.00061202 -0.0523764 2.90871e-05  -0.00049901 -0.0479251 1.78814e-05  -0.00445545 -0.0464564 -0.000742197  -0.00490594 -0.0522448 -0.000624418  -0.00461793 -0.047805 -0.000567913  -0.000447631 -0.0472988 2.69413e-05  -0.00454426 -0.0471791 -0.000657797  -0.00556886 -0.062261 -0.000641346  -0.00572801 -0.0634437 -0.000486612  -0.000736594 -0.0569628 4.05312e-05  -0.000993848 -0.0630472 3.21865e-05  -0.000843287 -0.0582041 2.3365e-05  -0.0051868 -0.0568226 -0.000675201  -0.00565505 -0.06289 -0.000561953  -0.0053519 -0.0580573 -0.000511646  -0.000794768 -0.0576276 2.98023e-05  -0.00527692 -0.0574825 -0.000596762  -0.00635338 -0.0736006 -0.00057292  -0.00650573 -0.0746767 -0.000433683  -0.0011518 -0.0680161 4.07696e-05  -0.00144124 -0.0743498 3.86238e-05  -0.0012573 -0.0691509 2.71797e-05  -0.00595832 -0.067849 -0.000605822  -0.00643659 -0.0741674 -0.000502348  -0.00611293 -0.0689783 -0.000459194  -0.00120938 -0.0686217 3.3617e-05  -0.006042 -0.0684527 -0.000536203  -0.00716949 -0.0854892 -0.000517368  -0.00731504 -0.0864753 -0.000390053  -0.00163281 -0.0796663 4.79221e-05  -0.00194418 -0.0862218 3.69549e-05  -0.00172889 -0.0806977 3.17097e-05  -0.00675833 -0.0794741 -0.000544548  -0.00724959 -0.0860155 -0.00045228  -0.00690579 -0.0805021 -0.000413179  -0.00168502 -0.0802178 3.93391e-05  -0.00683832 -0.0800219 -0.000480413  -0.00801742 -0.0979114 -0.000458002  -0.00815129 -0.098788 -0.000346422  -0.0021683 -0.0918556 4.64916e-05  -0.00250447 -0.0986053 4.64916e-05  -0.00226402 -0.0927886 3.21865e-05  -0.00758958 -0.0916372 -0.000485897  -0.00808775 -0.0983728 -0.000404119  -0.00772822 -0.0925657 -0.000366926  -0.00221658 -0.0923544 3.79086e-05  -0.00766528 -0.092131 -0.000427961  -0.00888383 -0.110767 -0.000407219  -0.0090071 -0.111558 -0.000309229  -0.0027616 -0.104521 4.72069e-05  -0.00311494 -0.111442 4.26769e-05  -0.00284469 -0.105359 3.29018e-05  -0.00844383 -0.104277 -0.000429869  -0.00894821 -0.111183 -0.000358582  -0.00857759 -0.105111 -0.00032568  -0.00280404 -0.104968 4.12464e-05  -0.00851572 -0.104722 -0.000375986  -0.00977075 -0.124021 -0.000357866  -0.00988781 -0.124728 -0.00026536  -0.00339723 -0.11761 4.72069e-05  -0.00377357 -0.124675 4.55379e-05  -0.00347877 -0.118359 3.52859e-05  -0.00932336 -0.117341 -0.000383854  -0.00983477 -0.124394 -0.000314713  -0.00944269 -0.118091 -0.000287056  -0.00343943 -0.118008 4.12464e-05  -0.00938916 -0.11774 -0.000335693  -0.0106819 -0.137634 -0.00031209  -0.0107869 -0.138253 -0.000237465  -0.00407755 -0.131067 4.95911e-05  -0.0044769 -0.138258 4.17233e-05  -0.00415671 -0.131735 3.62396e-05  -0.0102264 -0.130783 -0.000334263  -0.0107394 -0.137957 -0.000273466  -0.0103358 -0.131445 -0.000250578  -0.00412035 -0.131424 4.3869e-05  -0.0102848 -0.131134 -0.000290871  -0.0116055 -0.15154 -0.000269175  -0.0116997 -0.152086 -0.000201941  -0.00480819 -0.144854 4.93526e-05  -0.00521493 -0.152148 3.76701e-05  -0.00486851 -0.145444 3.48091e-05  -0.0111418 -0.144543 -0.000293255  -0.0116551 -0.151828 -0.000235081  -0.0112383 -0.145129 -0.000218153  -0.00483942 -0.145167 4.22001e-05  -0.0111938 -0.144856 -0.000257015  -0.0125363 -0.165702 -0.000230312  -0.0126243 -0.166188 -0.000172138  -0.00556326 -0.158914 4.45843e-05  -0.00598574 -0.166294 4.14848e-05  -0.00562263 -0.159433 3.43323e-05  -0.012069 -0.158587 -0.000251293  -0.0125823 -0.165956 -0.000203609  -0.0121603 -0.159102 -0.000186205  -0.00559616 -0.159191 3.88622e-05  -0.0121174 -0.158861 -0.000217438  -0.0134809 -0.180092 -0.00019598  -0.0135579 -0.180509 -0.000146627  -0.00635433 -0.173213 4.76837e-05  -0.00678515 -0.180662 3.91006e-05  -0.00640225 -0.173663 3.40939e-05  -0.0130064 -0.172869 -0.000216007  -0.0135217 -0.180306 -0.000171185  -0.013088 -0.173313 -0.000159025  -0.0063839 -0.173452 4.05312e-05  -0.0130508 -0.173106 -0.000184059  -0.0144269 -0.194652 -0.000161886  -0.0144951 -0.195009 -0.000120878  -0.00716734 -0.187708 4.41074e-05  -0.00760651 -0.195207 3.24249e-05  -0.0072093 -0.188094 3.09944e-05  -0.0139544 -0.187347 -0.000179768  -0.0144637 -0.194836 -0.000142336  -0.0140245 -0.187733 -0.000131845  -0.00719285 -0.187914 3.57628e-05  -0.0139909 -0.18755 -0.000155926  -0.0153773 -0.209363 -0.000134468  -0.0154371 -0.209664 -9.98974e-05  -0.00800586 -0.202361 3.86238e-05  -0.00845098 -0.209896 2.67029e-05  -0.0080421 -0.20269 2.86102e-05  -0.0149 -0.201989 -0.000146866  -0.0154095 -0.209514 -0.00011754  -0.0149653 -0.202312 -0.000109911  -0.00802732 -0.202533 3.21865e-05  -0.0149341 -0.202158 -0.000128984  -0.0163255 -0.224184 -0.000104904  -0.0163791 -0.224428 -8.03471e-05  -0.00886035 -0.21714 3.95775e-05  -0.00930786 -0.224702 3.05176e-05  -0.00889063 -0.217416 2.7895e-05  -0.0158484 -0.216756 -0.000119686  -0.0163543 -0.224309 -9.10759e-05  -0.0159099 -0.217026 -8.89301e-05  -0.00887966 -0.217285 3.50475e-05  -0.0158815 -0.216901 -0.000104427  -0.0172749 -0.239082 -8.51154e-05  -0.017319 -0.239281 -6.17504e-05  -0.00973153 -0.232014 3.43323e-05  -0.0101817 -0.239586 2.90871e-05  -0.00975275 -0.232239 2.52724e-05  -0.0168023 -0.231618 -9.65595e-05  -0.0172982 -0.239186 -7.4625e-05  -0.0168455 -0.231845 -7.00951e-05  -0.00974298 -0.232133 2.74181e-05  -0.0168254 -0.231737 -8.27312e-05  -0.0182176 -0.254038 -6.12736e-05  -0.0182536 -0.254197 -4.69685e-05  -0.0106101 -0.246954 2.90871e-05  -0.0110595 -0.254526 2.5034e-05  -0.0106285 -0.247138 2.31266e-05  -0.0177467 -0.246552 -7.34329e-05  -0.0182357 -0.254117 -5.10216e-05  -0.0177875 -0.24673 -5.55515e-05  -0.0106192 -0.24705 2.40803e-05  -0.017767 -0.246643 -6.38962e-05  -0.0191541 -0.269024 -4.69685e-05  -0.0191834 -0.269149 -3.48091e-05  -0.0114994 -0.261933 2.7895e-05  -0.0119452 -0.269498 2.14577e-05  -0.011507 -0.262077 2.0504e-05  -0.0186825 -0.261521 -5.45979e-05  -0.0191715 -0.269084 -4.07696e-05  -0.0187149 -0.261665 -3.8147e-05  -0.0115008 -0.262008 2.19345e-05  -0.0187061 -0.261595 -4.52995e-05  -0.0200863 -0.284018 -2.95639e-05  -0.0201087 -0.284114 -2.24113e-05  -0.0123868 -0.276933 2.45571e-05  -0.0128357 -0.284483 1.95503e-05  -0.0123963 -0.277042 1.62125e-05  -0.0196228 -0.276515 -3.83854e-05  -0.0200956 -0.284062 -2.3365e-05  -0.0196476 -0.276624 -2.93255e-05  -0.0123892 -0.27699 1.85966e-05  -0.0196342 -0.276572 -3.29018e-05  -0.0210049 -0.299 -2.16961e-05  -0.0210285 -0.299071 -1.3113e-05  -0.0132754 -0.291929 1.83582e-05  -0.0137277 -0.299459 1.81198e-05  -0.0132811 -0.292013 1.45435e-05  -0.0205495 -0.291507 -2.55108e-05  -0.0210171 -0.299035 -1.54972e-05  -0.0205698 -0.29159 -1.81198e-05  -0.0132809 -0.291972 1.66893e-05  -0.0205581 -0.29155 -2.12193e-05  -0.0219219 -0.313964 -8.10623e-06  -0.0219352 -0.314012 -8.10623e-06  -0.0141709 -0.30691 1.45435e-05  -0.0146141 -0.314412 1.35899e-05  -0.0141733 -0.306967 1.26362e-05  -0.0214684 -0.306484 -1.4782e-05  -0.0219305 -0.313985 -1.09673e-05  -0.0214815 -0.30654 -1.14441e-05  -0.014169 -0.306937 1.74046e-05  -0.0214748 -0.306509 -1.26362e-05  -0.0228274 -0.328896 1.43051e-06  -0.0228369 -0.328922 -1.66893e-06  -0.0150549 -0.321858 1.19209e-05  -0.0155005 -0.329333 1.43051e-05  -0.0150554 -0.321895 1.0252e-05  -0.0223784 -0.32143 -9.29832e-06  -0.0228348 -0.328902 -1.66893e-06  -0.0223877 -0.321466 -3.09944e-06  -0.0150578 -0.321876 7.86781e-06  -0.0223842 -0.321447 -7.62939e-06  -0.0237205 -0.343773 3.8147e-06  -0.0237312 -0.343792 2.38419e-07  -0.015944 -0.336763 9.29832e-06  -0.0163846 -0.344206 3.8147e-06  -0.0159459 -0.336785 7.62939e-06  -0.0232751 -0.336336 1.43051e-06  -0.023725 -0.343774 4.76837e-07  -0.0232875 -0.336355 -2.38419e-07  -0.0159438 -0.336774 8.82149e-06  -0.0232821 -0.336343 -7.15256e-07  -0.0246081 -0.358601 5.24521e-06  -0.0246124 -0.358604 6.19888e-06  -0.0168223 -0.351622 7.39098e-06  -0.0172622 -0.359026 2.6226e-06  -0.0168273 -0.351629 3.57628e-06  -0.0241654 -0.35119 1.66893e-06  -0.0246096 -0.358593 6.4373e-06  -0.0241697 -0.351198 1.43051e-06  -0.0168264 -0.351621 5.24521e-06  -0.024169 -0.351191 2.86102e-06  -0.0254855 -0.373348 1.09673e-05  -0.0254877 -0.37335 6.4373e-06  -0.0177031 -0.366413 -7.15256e-07  -0.0181384 -0.373771 4.76837e-07  -0.0176983 -0.366413 4.76837e-06  -0.0250468 -0.36598 5.96046e-06  -0.0254853 -0.37334 6.4373e-06  -0.0250509 -0.365979 5.00679e-06  -0.0177011 -0.36641 1.19209e-06  -0.0250494 -0.365976 5.48363e-06  0 0 0  0.000493929 0.000695288 0.00090766  0.000314549 -0.000285149 0.000535011  0 0 0  0.000336885 0.000605881 0.0010891  0.000717834 -5.25713e-05 0.00136542  0.000184953 3.11732e-05 0.000601768  0 0 0  0.000179991 0.000707746 0.000559568  0.000381812 0.000116289 0.000701427  9.68203e-05 0.000129104 0.000308514  0 0 0  0.000216693 0.000205994 0.000794172  0.000114076 0.000299275 0.000407696  0.00111297 -0.00131178 0.00107312  0.000947088 -0.00274438 0.000780582  0.00152594 -0.000264466 0.00194812  0.00191763 -0.00239307 0.00183988  0.00115101 -0.00152856 0.00133348  0.000816524 -2.72393e-05 0.000996113  0.00102115 -0.00212306 0.000939131  0.000612244 -0.00130326 0.000681162  0.00131457 -0.000995338 0.0016458  0.00070034 -0.000768423 0.000842094  0.00170639 -0.00510693 0.00110722  0.00160962 -0.00676161 0.000823736  0.00262991 -0.00330484 0.00214744  0.00311965 -0.00632519 0.0019083  0.00242212 -0.00487053 0.00160336  0.00140527 -0.00300843 0.00109482  0.00165883 -0.00602609 0.000968456  0.00128403 -0.00458372 0.000810385  0.00252083 -0.00418675 0.00189185  0.0013437 -0.0038982 0.000959635  0.00227094 -0.0103211 0.00107646  0.00219762 -0.0120317 0.000804424  0.00374839 -0.00785583 0.00214624  0.00424957 -0.0115573 0.00186443  0.00363994 -0.00954854 0.00162649  0.0019998 -0.00754982 0.00109243  0.00223565 -0.0112572 0.000942707  0.00191471 -0.00924671 0.000818729  0.00370088 -0.00879055 0.00189257  0.00195879 -0.0084883 0.000956535  0.00275409 -0.0167273 0.00102544  0.00269139 -0.01841 0.000762701  0.00478351 -0.0136786 0.0020721  0.00525498 -0.0179338 0.00177598  0.00473619 -0.0153831 0.00156736  0.00252122 -0.0133803 0.00105143  0.00272429 -0.0176368 0.0008955  0.00245816 -0.0150835 0.000786781  0.00476968 -0.0146095 0.00182295  0.00249141 -0.0143081 0.000919819  0.00314599 -0.024188 0.000967741  0.00308508 -0.0257946 0.000717402  0.0057168 -0.0206241 0.00196481  0.00613207 -0.0253496 0.00166321  0.00569683 -0.0222739 0.00147772  0.00296265 -0.0203232 0.000994682  0.00311422 -0.0250508 0.000842571  0.00289994 -0.0219768 0.000743151  0.00571018 -0.0215172 0.00172353  0.00293189 -0.0212205 0.000869274  0.0034337 -0.0325942 0.000905514  0.00337434 -0.0341105 0.000671148  0.00652832 -0.0285729 0.00184441  0.00687873 -0.0337097 0.0015521  0.006513 -0.03014 0.00138235  0.00330234 -0.0282734 0.000935316  0.00340414 -0.0334044 0.000787973  0.00324285 -0.029837 0.000694036  0.00652128 -0.0294167 0.00161362  0.00327247 -0.0291155 0.000813723  0.00361776 -0.0418673 0.000843287  0.00355935 -0.0432727 0.000623941  0.0072028 -0.0374315 0.00171256  0.00749135 -0.0429277 0.00143981  0.00719726 -0.038892 0.00128365  0.00354069 -0.0371213 0.000875235  0.00358927 -0.0426158 0.000734329  0.0034765 -0.0385863 0.000646591  0.00720197 -0.0382156 0.00150037  0.00351059 -0.0379079 0.000758648  0.00370347 -0.0519118 0.000782251  0.00364399 -0.0532104 0.000579357  0.00775051 -0.0471085 0.00158262  0.00797272 -0.0529237 0.00133133  0.0077455 -0.0484614 0.00118494  0.00367522 -0.0467914 0.000813246  0.00367141 -0.0526009 0.0006814  0.00361276 -0.0481403 0.000602722  0.00775003 -0.0478335 0.00138259  0.00364208 -0.0475159 0.00070715  0.00368667 -0.0626573 0.000721693  0.00363111 -0.0638486 0.000535488  0.00816751 -0.0575247 0.00146127  0.00832415 -0.0636251 0.00122285  0.00815666 -0.0587705 0.00109053  0.00370681 -0.0572001 0.000751495  0.00365901 -0.0632933 0.000627518  0.003649 -0.0584413 0.000557184  0.00816262 -0.0581896 0.00127363  0.00367725 -0.0578633 0.000653744  0.00357819 -0.0740419 0.000665665  0.00352585 -0.07512 0.000495195  0.00845814 -0.0686046 0.00133896  0.00855255 -0.0749567 0.00111294  0.00844586 -0.0697445 0.0010004  0.00364435 -0.0682688 0.00069356  0.00354981 -0.0746139 0.000581026  0.00358832 -0.069405 0.000513315  0.00845361 -0.0692164 0.00116658  0.003618 -0.0688772 0.000602484  0.00337827 -0.0859819 0.000611544  0.00332904 -0.0869683 0.000453234  0.00862348 -0.0802861 0.00122547  0.00866008 -0.0868601 0.00102091  0.0086199 -0.0813239 0.000914574  0.00348759 -0.0799395 0.000636816  0.00335288 -0.0865051 0.000530243  0.00343931 -0.0809699 0.000474215  0.00861883 -0.0808396 0.00106931  0.00346172 -0.0804907 0.000555038  0.00309682 -0.09843 0.000555277  0.00304866 -0.0993239 0.000412941  0.00867295 -0.0925028 0.00111461  0.00865793 -0.0992721 0.000924826  0.00867164 -0.0934418 0.000832319  0.00324714 -0.0921433 0.000583172  0.00307083 -0.0989052 0.00048399  0.00320041 -0.0930781 0.000431538  0.00867665 -0.0930036 0.000974894  0.00322068 -0.0926425 0.00050807  0.0027324 -0.111335 0.000504017  0.00268984 -0.112134 0.00037384  0.00861537 -0.105199 0.0010078  0.0085485 -0.112135 0.000832558  0.00861442 -0.106042 0.00075078  0.00292587 -0.104828 0.000530005  0.00271177 -0.111756 0.000440836  0.00287974 -0.105668 0.000394583  0.0086174 -0.105647 0.000881195  0.00290012 -0.105277 0.000461102  0.002298 -0.124635 0.000456572  0.00225997 -0.125341 0.00033927  0.00845671 -0.118314 0.000909567  0.00834262 -0.125395 0.000752211  0.00845587 -0.11907 0.000673771  0.00252545 -0.117932 0.000477791  0.00227726 -0.125008 0.000397444  0.00248289 -0.118688 0.000357151  0.00845933 -0.118718 0.000790596  0.00250411 -0.118335 0.000417471  0.00179577 -0.138277 0.000407934  0.00176358 -0.138908 0.000303984  0.0081948 -0.131798 0.000810385  0.00804567 -0.139008 0.000666618  0.00820637 -0.132472 0.000605106  0.00205493 -0.131404 0.000429392  0.00178123 -0.138607 0.000355959  0.00202107 -0.132079 0.000322104  0.00820649 -0.132157 0.000705481  0.002038 -0.131765 0.000375748  0.00123239 -0.15222 0.00036335  0.00120807 -0.152778 0.000272751  0.00786448 -0.14561 0.000724077  0.00766563 -0.152919 0.000589848  0.0078702 -0.146206 0.00053668  0.0015285 -0.145208 0.000385046  0.0012207 -0.152511 0.000314951  0.00149345 -0.145803 0.000288963  0.00786543 -0.145926 0.000627756  0.00150752 -0.145524 0.000335217  0.000616789 -0.166422 0.000323772  0.000599623 -0.166904 0.000239372  0.00744319 -0.159691 0.000638008  0.00721121 -0.167085 0.000519514  0.0074544 -0.160216 0.000473976  0.000933409 -0.159283 0.000342846  0.000607252 -0.166669 0.000283003  0.000907183 -0.159802 0.0002563  0.00744867 -0.159972 0.000557184  0.000920057 -0.159562 0.000297308  -4.3869e-05 -0.180827 0.000282288  -6.12736e-05 -0.181249 0.000209332  0.00695038 -0.174009 0.000555515  0.00668812 -0.18147 0.000452518  0.00696588 -0.174465 0.000413179  0.000292778 -0.173593 0.000300884  -5.14984e-05 -0.181047 0.00024581  0.000274897 -0.174048 0.000225544  0.00695801 -0.174251 0.000482082  0.000284433 -0.173834 0.000264406  -0.000751257 -0.195415 0.000246048  -0.000761986 -0.195777 0.000182629  0.00639582 -0.188521 0.000479698  0.00610137 -0.19603 0.000393867  0.00640988 -0.188912 0.000357628  -0.000394344 -0.188099 0.000261307  -0.000756264 -0.195603 0.000214338  -0.000407934 -0.188488 0.000195742  0.00640273 -0.188727 0.000418663  -0.000397682 -0.188304 0.00022912  -0.00149345 -0.210145 0.000209093  -0.00150013 -0.210452 0.000154734  0.00578165 -0.20319 0.000410795  0.00546575 -0.210736 0.000329733  0.00580072 -0.203523 0.000304699  -0.0011158 -0.202762 0.000226259  -0.00149465 -0.210304 0.000180721  -0.00112557 -0.203092 0.000168324  0.00579023 -0.203366 0.000357628  -0.00112152 -0.202935 0.000198126  -0.00226545 -0.224979 0.00017643  -0.00227118 -0.225236 0.000134468  0.00511765 -0.217982 0.000341654  0.00478172 -0.225547 0.000276566  0.00513887 -0.21826 0.000260115  -0.00187206 -0.217546 0.000190973  -0.00226641 -0.225113 0.000154495  -0.00188351 -0.217827 0.00014329  0.00512838 -0.218129 0.000303507  -0.0018754 -0.217695 0.00016737  -0.00306511 -0.2399 0.000146866  -0.00306726 -0.240108 0.000108242  0.00441241 -0.232861 0.00028801  0.00405478 -0.240443 0.000225782  0.00443268 -0.233095 0.000216246  -0.00265932 -0.232427 0.000162125  -0.00306678 -0.240005 0.000127316  -0.00266647 -0.232655 0.000119448  0.00442266 -0.232986 0.000254393  -0.00266528 -0.232549 0.000137806  -0.00388932 -0.254865 0.000119448  -0.00388718 -0.255037 9.08375e-05  0.00366378 -0.24781 0.000236511  0.00329471 -0.25539 0.000187874  0.00368667 -0.247999 0.000176191  -0.00346994 -0.247375 0.000134706  -0.0038867 -0.254953 0.00010848  -0.00347137 -0.247562 9.89437e-05  0.00367785 -0.247909 0.000208616  -0.00347495 -0.247472 0.000118971  -0.00472856 -0.269866 9.82285e-05  -0.00472164 -0.269993 7.20024e-05  0.00289631 -0.262798 0.000187159  0.00250483 -0.270367 0.000144958  0.00291038 -0.262947 0.000141144  -0.00430512 -0.262356 0.000109196  -0.00472283 -0.269927 8.36849e-05  -0.00430202 -0.262505 8.22544e-05  0.00290537 -0.262874 0.000163794  -0.00430346 -0.262433 9.72748e-05  -0.00557661 -0.284868 7.62939e-05  -0.00557184 -0.284962 5.36442e-05  0.00208426 -0.277797 0.000147581  0.0016911 -0.285354 0.000107765  0.00210929 -0.277915 0.000107288  -0.00514889 -0.27736 8.44002e-05  -0.00557399 -0.284913 6.74725e-05  -0.00514364 -0.277473 6.31809e-05  0.00209928 -0.27786 0.000124931  -0.00514722 -0.277419 7.27177e-05  -0.00644016 -0.299863 5.31673e-05  -0.00643158 -0.299928 4.22001e-05  0.00126672 -0.292801 0.000108957  0.000859976 -0.300332 8.10623e-05  0.00128841 -0.292885 8.03471e-05  -0.00600648 -0.292361 6.27041e-05  -0.0064342 -0.299892 4.79221e-05  -0.00600219 -0.292443 5.00679e-05  0.00127864 -0.292843 9.15527e-05  -0.00600171 -0.292402 5.65052e-05  -0.00730538 -0.314828 3.98159e-05  -0.0072968 -0.314876 2.71797e-05  0.000427008 -0.307785 7.9155e-05  1.62125e-05 -0.315287 5.62668e-05  0.00045085 -0.307842 5.76973e-05  -0.00687122 -0.307341 4.76837e-05  -0.00730443 -0.314847 3.55244e-05  -0.00686312 -0.3074 3.52859e-05  0.00044179 -0.307813 6.69956e-05  -0.00686789 -0.307373 4.07696e-05  -0.00817752 -0.329755 2.28882e-05  -0.00816798 -0.329788 1.71661e-05  -0.000421524 -0.32273 4.8399e-05  -0.000841856 -0.330207 3.26633e-05  -0.000404358 -0.32277 3.98159e-05  -0.00774145 -0.32229 3.3617e-05  -0.00817204 -0.329766 2.19345e-05  -0.00773191 -0.32233 2.24113e-05  -0.000408649 -0.32275 4.29153e-05  -0.00773716 -0.322309 2.52724e-05  -0.00905013 -0.344643 1.09673e-05  -0.00904202 -0.344655 1.16825e-05  -0.00127864 -0.337637 2.88486e-05  -0.00170279 -0.34508 1.52588e-05  -0.00126386 -0.337662 2.19345e-05  -0.00861168 -0.337201 2.12193e-05  -0.00904584 -0.344642 9.53674e-06  -0.00860548 -0.33722 1.43051e-05  -0.00127125 -0.337648 2.31266e-05  -0.00860834 -0.337209 1.64509e-05  -0.00992298 -0.359468 3.09944e-06  -0.00991702 -0.359472 4.52995e-06  -0.00214648 -0.352494 1.21593e-05  -0.0025723 -0.359901 1.43051e-06  -0.00212884 -0.352504 9.77516e-06  -0.00948787 -0.352054 7.39098e-06  -0.00992155 -0.359464 1.19209e-06  -0.00947928 -0.352063 5.24521e-06  -0.00213552 -0.352493 7.15256e-06  -0.0094831 -0.352056 6.19888e-06  -0.010792 -0.374215 -1.04904e-05  -0.0107839 -0.374218 -5.96046e-06  -0.003016 -0.367287 -1.3113e-05  -0.003438 -0.37465 -1.62125e-05  -0.0029974 -0.367289 -2.86102e-06  -0.0103631 -0.366845 -5.00679e-06  -0.0107853 -0.374208 -1.07288e-05  -0.0103505 -0.36685 -2.86102e-06  -0.00300813 -0.367283 -7.86781e-06  -0.0103543 -0.366844 -2.14577e-06  0 0 0  0.00139001 0.000239372 0.00258517  0.000895068 -0.00072211 0.00152636  0 0 0  0.000680692 0.000199795 0.00209713  0.00146866 -0.000711679 0.00263882  0.000381097 -0.00036478 0.00114846  0 0 0  0.000507355 0.000442266 0.00158763  0.00107804 -0.000322044 0.00200677  0.000270881 -0.000126481 0.00087738  0 0 0  0.000444837 -0.000179172 0.00152588  0.000323497 5.14984e-05 0.00115681  0.00309011 -0.00200993 0.00307631  0.00267348 -0.00342429 0.00225854  0.00307998 -0.00114483 0.00376987  0.0038754 -0.00337392 0.00354815  0.00236934 -0.00239414 0.00257373  0.00228095 -0.000631869 0.00285578  0.00286251 -0.0028041 0.00270319  0.00173551 -0.00188684 0.00196004  0.00267191 -0.00185555 0.00318217  0.00196795 -0.00135481 0.00242138  0.00472924 -0.00585967 0.00321937  0.0045456 -0.0075106 0.00242043  0.00525647 -0.00433648 0.00418115  0.00623703 -0.00735736 0.00373983  0.00489521 -0.00590199 0.00312161  0.00389978 -0.00374675 0.00316906  0.00463876 -0.00677121 0.00283265  0.00362617 -0.0053072 0.00237131  0.0050706 -0.00520808 0.00367928  0.00375554 -0.00462151 0.00279617  0.00633693 -0.0110573 0.00315475  0.0062657 -0.0127741 0.00239134  0.00742659 -0.00887626 0.00422955  0.00844699 -0.0125567 0.00368214  0.00728807 -0.0105739 0.00319982  0.00554779 -0.00830239 0.00319886  0.00631171 -0.0119938 0.00278187  0.00542754 -0.00999272 0.00241947  0.0073646 -0.00980538 0.00373006  0.00549418 -0.00923109 0.00282001  0.00782406 -0.0174502 0.00301838  0.0078159 -0.019131 0.00228119  0.0094766 -0.0146613 0.00410151  0.0104715 -0.0189025 0.00351906  0.00946063 -0.0163726 0.00310755  0.00709468 -0.0141076 0.00309396  0.00782961 -0.018358 0.00265145  0.00706327 -0.0158125 0.00234437  0.00948244 -0.0155914 0.00361204  0.00709045 -0.0150373 0.00272274  0.00917095 -0.0249019 0.00284338  0.00919402 -0.0265141 0.00214052  0.011385 -0.0215813 0.00389433  0.0123132 -0.0262997 0.00331116  0.0114242 -0.023236 0.00293851  0.0085175 -0.0210454 0.00293255  0.00919163 -0.0257689 0.00249338  0.00852692 -0.0226937 0.00221443  0.0114157 -0.0224738 0.00341892  0.0085308 -0.0219364 0.00257444  0.010366 -0.0333192 0.00265145  0.010403 -0.03483 0.00199008  0.0131134 -0.0295193 0.00364661  0.0139676 -0.0346481 0.00308275  0.0131918 -0.0310819 0.00274634  0.00979263 -0.0289921 0.00274777  0.0103908 -0.0341251 0.00232196  0.00981772 -0.0305532 0.00206923  0.0131636 -0.0303598 0.00319624  0.00981057 -0.0298321 0.0024066  0.011399 -0.0425976 0.00245714  0.0114459 -0.0439989 0.00184107  0.0146691 -0.0383666 0.00338602  0.0154285 -0.0438617 0.00285149  0.0147586 -0.0398284 0.00254536  0.0109004 -0.0378452 0.00255299  0.0114312 -0.0433459 0.00214815  0.0109426 -0.0393071 0.00191426  0.0147191 -0.0391514 0.00296569  0.0109314 -0.0386295 0.00223494  0.0122803 -0.0526541 0.00226307  0.0123222 -0.0539501 0.00169349  0.0160366 -0.0480387 0.00312972  0.016699 -0.0538575 0.00262809  0.0161235 -0.0493925 0.00234532  0.0118607 -0.0475224 0.00236082  0.012307 -0.0533448 0.00197601  0.0119051 -0.0488804 0.0017662  0.0160888 -0.0487643 0.00273681  0.0118896 -0.0482491 0.00206065  0.0129986 -0.0634094 0.00208211  0.0130372 -0.0646094 0.00155425  0.0172081 -0.0584542 0.00287628  0.0177755 -0.0645548 0.00240707  0.0172989 -0.0596988 0.00215483  0.0126626 -0.057941 0.00217104  0.0130223 -0.0640466 0.00181651  0.0126976 -0.0591888 0.00162649  0.0172619 -0.0591204 0.00251102  0.0126836 -0.0586096 0.00189853  0.0135609 -0.0748029 0.00189924  0.0136011 -0.0758929 0.00141835  0.0181975 -0.069537 0.00263047  0.0186707 -0.0758903 0.00219989  0.0182813 -0.0706767 0.0019691  0.0132978 -0.069032 0.00199032  0.0135858 -0.0753826 0.00165868  0.0133387 -0.0701689 0.0014863  0.0182452 -0.0701444 0.0023005  0.0133241 -0.0696372 0.00173688  0.0139771 -0.0867654 0.0017345  0.0140146 -0.0877573 0.00129247  0.0190024 -0.0812192 0.00239921  0.0193864 -0.0877954 0.00200319  0.0190872 -0.0822554 0.00179505  0.0137877 -0.0807108 0.00181174  0.0139987 -0.0872898 0.00151324  0.0138252 -0.0817503 0.00135589  0.0190489 -0.0817713 0.00209665  0.0138111 -0.0812677 0.00158429  0.0142479 -0.0992345 0.00156856  0.0142894 -0.100125 0.00117087  0.0196333 -0.0934402 0.00217938  0.0199379 -0.100212 0.00181079  0.0197152 -0.0943785 0.0016284  0.0141281 -0.0929341 0.00164795  0.0142722 -0.0997064 0.00136781  0.0141686 -0.0938742 0.00123096  0.0196838 -0.0939385 0.00189877  0.0141524 -0.0934363 0.00144124  0.0143902 -0.112152 0.00141072  0.0144325 -0.112952 0.00105381  0.0201025 -0.106133 0.00196409  0.0203269 -0.113075 0.00162625  0.0201832 -0.106984 0.0014677  0.0143371 -0.10563 0.00148797  0.0144156 -0.112575 0.00123525  0.0143765 -0.106483 0.00111246  0.0201533 -0.106588 0.00171542  0.0143611 -0.106084 0.00130033  0.014408 -0.125463 0.0012641  0.0144498 -0.126181 0.000943661  0.0204183 -0.119254 0.00176358  0.0205684 -0.126339 0.0014503  0.0204971 -0.120014 0.00131893  0.0144202 -0.118754 0.00133657  0.0144334 -0.125837 0.00110245  0.0144582 -0.119514 0.00100017  0.020466 -0.119661 0.00154233  0.0144392 -0.119158 0.00116754  0.0143127 -0.139121 0.001127  0.0143514 -0.139756 0.000840187  0.0205946 -0.132743 0.00156903  0.0206683 -0.139953 0.00129318  0.0206658 -0.13342 0.00117421  0.0143734 -0.132241 0.001194  0.0143366 -0.139454 0.000983477  0.0144163 -0.132919 0.000891685  0.0206323 -0.133106 0.00137591  0.0143983 -0.132606 0.0010407  0.0141096 -0.153075 0.000993967  0.0141497 -0.15364 0.000742674  0.0206285 -0.146555 0.00139284  0.020642 -0.153865 0.00114083  0.0207031 -0.147154 0.00103927  0.0142281 -0.146057 0.00105762  0.0141349 -0.153367 0.00086832  0.0142653 -0.146658 0.000791788  0.0206718 -0.146874 0.00121856  0.0142488 -0.146378 0.000925779  0.0138125 -0.167279 0.000870705  0.0138533 -0.167775 0.000649929  0.0205395 -0.160639 0.00122356  0.0204973 -0.168033 0.00100279  0.0206172 -0.161164 0.000914335  0.0139742 -0.160145 0.000933886  0.0138354 -0.167541 0.000760555  0.0140164 -0.160671 0.000695705  0.0205834 -0.160918 0.00106955  0.0139945 -0.160422 0.000815392  0.0134246 -0.181702 0.000756502  0.0134661 -0.182128 0.000562429  0.0203462 -0.174956 0.00106573  0.0202456 -0.182416 0.000865221  0.0204146 -0.175413 0.000798225  0.0136278 -0.174465 0.000813961  0.0134497 -0.181927 0.000658035  0.0136702 -0.17492 0.000605106  0.0203819 -0.175201 0.000931263  0.0136535 -0.174705 0.000709772  0.0129566 -0.196303 0.000643015  0.0129979 -0.196665 0.000484228  0.0200431 -0.189464 0.000916719  0.0198927 -0.196974 0.000742435  0.0201106 -0.189861 0.00068593  0.0132024 -0.188977 0.000702381  0.0129833 -0.196486 0.000567436  0.0132456 -0.189369 0.00052309  0.0200796 -0.189675 0.000800133  0.0132267 -0.189185 0.000611305  0.0124242 -0.211036 0.000550508  0.0124645 -0.21134 0.000406981  0.0196445 -0.204127 0.000779867  0.0194514 -0.211674 0.000630379  0.0197124 -0.204467 0.000581026  0.0126979 -0.203645 0.000594616  0.012445 -0.211191 0.000475645  0.0127409 -0.20398 0.000446558  0.019681 -0.20431 0.00067997  0.0127227 -0.203823 0.000520945  0.0118213 -0.225872 0.000458717  0.0118618 -0.226128 0.000340939  0.0191667 -0.218918 0.000656128  0.0189347 -0.226483 0.000524759  0.019232 -0.2192 0.000487328  0.0121305 -0.218438 0.000502586  0.0118454 -0.226004 0.00039959  0.0121722 -0.218722 0.000374794  0.0192008 -0.219064 0.000570297  0.0121524 -0.218587 0.000437975  0.0111682 -0.240791 0.000376463  0.0112083 -0.241001 0.000278473  0.0186167 -0.233796 0.000542402  0.0183482 -0.241372 0.000426531  0.0186801 -0.234029 0.00040102  0.011502 -0.233323 0.000416279  0.0111902 -0.240897 0.000329494  0.0115426 -0.233552 0.000309944  0.0186467 -0.23392 0.000472307  0.0115232 -0.233442 0.000360727  0.0104692 -0.255763 0.000303984  0.0105045 -0.255929 0.000227451  0.0180011 -0.248738 0.000439167  0.0177014 -0.256314 0.000341415  0.0180595 -0.248926 0.000328302  0.010824 -0.248265 0.000341654  0.0104885 -0.255844 0.00026536  0.0108614 -0.248454 0.000251532  0.0180318 -0.248837 0.000381231  0.0108459 -0.248365 0.000294924  0.00972605 -0.270758 0.000232458  0.0097611 -0.270886 0.000176668  0.0173295 -0.263718 0.000344992  0.0170033 -0.271287 0.000262499  0.0173793 -0.263868 0.000256062  0.0101027 -0.26325 0.000268459  0.00974417 -0.27082 0.000206709  0.0101364 -0.263401 0.000203133  0.017359 -0.263799 0.0002985  0.0101221 -0.26333 0.000235081  0.00894928 -0.285759 0.000179052  0.00898314 -0.285859 0.000132084  0.0166121 -0.278717 0.000265598  0.0162616 -0.286266 0.000199795  0.0166559 -0.27883 0.000195503  0.00934124 -0.278247 0.00020504  0.00896716 -0.285805 0.000154972  0.00937462 -0.278366 0.000153065  0.0166364 -0.278775 0.00023222  0.00936007 -0.278312 0.000181437  0.0081501 -0.300747 0.000127554  0.00817704 -0.30082 9.5129e-05  0.0158572 -0.293711 0.000193119  0.0154824 -0.301238 0.000145435  0.0158932 -0.293794 0.000143528  0.00855184 -0.293252 0.000153542  0.00816512 -0.300782 0.000112295  0.00858331 -0.293336 0.000113964  0.0158727 -0.293753 0.000169516  0.00856948 -0.293293 0.000133753  0.00732541 -0.315713 8.65459e-05  0.00735044 -0.315764 6.1512e-05  0.0150621 -0.308683 0.000134945  0.0146744 -0.316185 9.82285e-05  0.0151005 -0.308744 9.77516e-05  0.00774384 -0.308229 0.000107527  0.00734067 -0.315734 7.48634e-05  0.00776649 -0.308289 7.98702e-05  0.0150836 -0.308715 0.000114441  0.00775504 -0.30826 9.29832e-05  0.00648522 -0.330638 5.29289e-05  0.00651073 -0.33067 4.00543e-05  0.014246 -0.323629 8.72612e-05  0.0138426 -0.331098 5.93662e-05  0.0142794 -0.323667 6.58035e-05  0.00690746 -0.323178 6.91414e-05  0.00649786 -0.330652 4.72069e-05  0.00693274 -0.323216 5.22137e-05  0.0142615 -0.323645 7.82013e-05  0.00692153 -0.323194 6.07967e-05  0.00562882 -0.345515 2.67029e-05  0.00565124 -0.345535 1.85966e-05  0.0134091 -0.338523 5.00679e-05  0.0129979 -0.345963 2.67029e-05  0.0134406 -0.338549 3.71933e-05  0.00605631 -0.338079 4.26769e-05  0.00564432 -0.345521 2.52724e-05  0.00608325 -0.338104 2.76566e-05  0.0134242 -0.338534 4.31538e-05  0.00607204 -0.338088 3.52859e-05  0.00476789 -0.360339 7.15256e-07  0.00478697 -0.36035 4.76837e-07  0.0125542 -0.353374 1.57356e-05  0.0121384 -0.360779 1.19209e-06  0.0125818 -0.353385 1.09673e-05  0.00520158 -0.35293 1.14441e-05  0.00478053 -0.36034 -9.53674e-07  0.00522137 -0.352943 9.53674e-06  0.0125692 -0.353378 1.23978e-05  0.00521255 -0.352935 1.00136e-05  0.00389433 -0.375095 -3.33786e-05  0.00392437 -0.375108 -1.57356e-05  0.0116897 -0.368163 -1.3113e-05  0.0112791 -0.375543 -2.7895e-05  0.0117192 -0.368174 -9.05991e-06  0.00433183 -0.367725 -1.33514e-05  0.00391102 -0.375095 -2.00272e-05  0.00435567 -0.367731 -9.05991e-06  0.0117095 -0.368167 -9.05991e-06  0.00434542 -0.367726 -1.00136e-05  0 0 0  0.00242966 -0.000706434 0.00415826  0.00164163 -0.00167984 0.00243425  0 0 0  0.00108565 -0.000626326 0.00302982  0.00243188 -0.0020529 0.00375509  0.000650331 -0.00122207 0.00163221  0 0 0  0.000871405 -0.000146985 0.00253129  0.00191478 -0.00126714 0.00320745  0.000498153 -0.000715911 0.00138187  0 0 0  0.000734277 -0.000972092 0.00217581  0.000568517 -0.000510097 0.00183487  0.00537893 -0.00329685 0.00495934  0.00472119 -0.00476038 0.00362659  0.00500846 -0.00265354 0.00543857  0.00627425 -0.00500751 0.00511646  0.00398369 -0.00398928 0.0037024  0.00399253 -0.00180691 0.00459766  0.00501391 -0.0041067 0.00434566  0.00312249 -0.00308132 0.00313997  0.00440501 -0.00341064 0.00457597  0.00348675 -0.00252968 0.00387502  0.00807506 -0.00716078 0.00526261  0.00781003 -0.00884092 0.00394487  0.00831106 -0.0058893 0.00613713  0.00976601 -0.00891548 0.00548434  0.00783706 -0.0075525 0.00454116  0.00672558 -0.00505835 0.00516629  0.00794265 -0.00807631 0.0046196  0.00630805 -0.00665557 0.00384164  0.00805646 -0.00680804 0.00537157  0.00650063 -0.00594074 0.00453448  0.0106908 -0.0123089 0.00519943  0.0106217 -0.0140382 0.00393248  0.0114866 -0.010375 0.00627303  0.0130134 -0.0140519 0.00546265  0.0113211 -0.0121318 0.00471854  0.00939935 -0.00956726 0.00525594  0.0106722 -0.013244 0.00457621  0.00924519 -0.0112889 0.00396657  0.0114127 -0.0113315 0.0055089  0.0093331 -0.0105103 0.00462365  0.013159 -0.0186549 0.00499392  0.0132039 -0.0203538 0.00377083  0.0145268 -0.0161213 0.00611019  0.0160438 -0.0203474 0.00524402  0.0145394 -0.0178584 0.00461221  0.011946 -0.0153354 0.00510716  0.0132019 -0.0195675 0.00438666  0.0119404 -0.017055 0.00386429  0.0145581 -0.0170608 0.00536919  0.0119621 -0.0162662 0.00449324  0.0154539 -0.0260825 0.00470352  0.0155531 -0.0276955 0.0035429  0.0173967 -0.0230008 0.00580812  0.0188442 -0.0277044 0.00493336  0.0175033 -0.0246685 0.00437975  0.0143318 -0.0222334 0.00485134  0.0155231 -0.0269454 0.00412703  0.0144092 -0.0238925 0.00366521  0.0174724 -0.0238983 0.00509667  0.01439 -0.023129 0.00426197  0.0175501 -0.0344694 0.00438786  0.0176724 -0.0359864 0.00329638  0.0200573 -0.0309066 0.00543976  0.0213999 -0.0360191 0.00459766  0.0202038 -0.032473 0.0040946  0.0165273 -0.0301574 0.00454712  0.0176269 -0.0352812 0.00384283  0.0166415 -0.031722 0.00342464  0.0201527 -0.0317478 0.00476909  0.0166022 -0.0309993 0.00398517  0.0194288 -0.0437306 0.00405908  0.0195631 -0.0451406 0.00304413  0.0224787 -0.0397233 0.00505137  0.0236998 -0.0452008 0.00424838  0.0226431 -0.0411831 0.0037961  0.0185168 -0.038994 0.00422359  0.0195105 -0.0444782 0.00355339  0.0186465 -0.0404518 0.00316882  0.0225804 -0.0405061 0.0044241  0.0185975 -0.0397793 0.00369501  0.0210885 -0.0537689 0.00373745  0.0212218 -0.0550711 0.00279951  0.0246451 -0.049368 0.00466061  0.0257465 -0.0551665 0.00391054  0.0248202 -0.0507171 0.00349832  0.0202856 -0.0486532 0.00389767  0.0211691 -0.054463 0.00326943  0.0204192 -0.0500053 0.00292277  0.024755 -0.0500909 0.0040791  0.0203688 -0.0493778 0.00340986  0.0225277 -0.0645164 0.00342345  0.0226601 -0.0657167 0.00256538  0.0265694 -0.0597529 0.00428033  0.0275365 -0.0658368 0.00358343  0.0267342 -0.0609936 0.00320888  0.0218368 -0.0590609 0.00357962  0.0226072 -0.0651529 0.00299668  0.0219693 -0.0603006 0.00268316  0.0266737 -0.060419 0.00374317  0.0219148 -0.0597239 0.00312972  0.0237572 -0.0759009 0.00312829  0.0238814 -0.0769883 0.00234079  0.0282433 -0.0708092 0.00391555  0.029085 -0.077149 0.00326705  0.028411 -0.0719447 0.00293136  0.0231686 -0.0701298 0.00327969  0.0238291 -0.0764786 0.00273466  0.0232975 -0.0712643 0.00245261  0.0283417 -0.0714152 0.00342083  0.0232445 -0.0707392 0.00286102  0.0247759 -0.0878527 0.00284123  0.0248961 -0.0888405 0.0021286  0.0296791 -0.0824688 0.0035634  0.0303967 -0.0890316 0.0029695  0.0298338 -0.0835025 0.0026679  0.0242888 -0.0818037 0.00298476  0.0248463 -0.0883757 0.00248575  0.0244111 -0.0828391 0.0022347  0.0297703 -0.0830217 0.00311518  0.024363 -0.0823579 0.00260806  0.0255979 -0.100311 0.00257111  0.0257154 -0.101202 0.00192332  0.0308707 -0.0946642 0.00322914  0.0314848 -0.101423 0.00268292  0.031032 -0.0956022 0.00241733  0.0252125 -0.0940163 0.00270605  0.0256668 -0.100784 0.0022459  0.0253303 -0.0949544 0.00202489  0.030968 -0.0951669 0.00282383  0.0252801 -0.0945174 0.00236607  0.0262327 -0.113218 0.00231242  0.0263506 -0.11402 0.0017314  0.0318565 -0.10734 0.00291348  0.032361 -0.114268 0.00240993  0.0320039 -0.108185 0.00218177  0.0259423 -0.106706 0.00244331  0.0263027 -0.113642 0.00202274  0.0260562 -0.10755 0.00182557  0.0319498 -0.107793 0.00254679  0.0260072 -0.107157 0.00213337  0.0266941 -0.126519 0.0020659  0.0268047 -0.12724 0.00154686  0.0326335 -0.120438 0.00260949  0.0330318 -0.127511 0.0021553  0.032777 -0.121197 0.00195336  0.0264869 -0.119819 0.00219083  0.0267597 -0.126897 0.00180817  0.0266001 -0.120574 0.00163865  0.032721 -0.120841 0.00228167  0.0265515 -0.120221 0.00191259  0.0269928 -0.14017 0.00183558  0.0271013 -0.140808 0.00137258  0.0332136 -0.133906 0.00232673  0.0335188 -0.141103 0.0019083  0.0333503 -0.134581 0.00174046  0.0268656 -0.133296 0.00195146  0.0270548 -0.140502 0.00160503  0.0269737 -0.133976 0.00146198  0.0332977 -0.134266 0.00203562  0.0269283 -0.133659 0.00170493  0.0271406 -0.154116 0.00162148  0.0272424 -0.154673 0.00121164  0.0336218 -0.147694 0.00205708  0.0338309 -0.154994 0.00168681  0.0337484 -0.148291 0.00153828  0.0270853 -0.147102 0.00172544  0.0272 -0.154407 0.0014174  0.0271912 -0.147698 0.00129175  0.033694 -0.148012 0.00179505  0.0271466 -0.147419 0.00150728  0.0271485 -0.16831 0.00141525  0.0272477 -0.168802 0.00105691  0.0338559 -0.161761 0.00180316  0.0339794 -0.169141 0.00146866  0.0339773 -0.162282 0.00134993  0.0271604 -0.161174 0.00151753  0.0272069 -0.168568 0.00123405  0.027262 -0.161702 0.00113225  0.0339262 -0.162039 0.00157499  0.0272217 -0.161457 0.00132513  0.0270302 -0.182721 0.00122476  0.0271237 -0.183149 0.00091362  0.0339286 -0.176056 0.00156665  0.0339863 -0.183503 0.00126982  0.0340559 -0.17651 0.00117159  0.0271044 -0.175491 0.00131989  0.027086 -0.182941 0.00106692  0.0272017 -0.175943 0.000984669  0.0340018 -0.176299 0.00136805  0.0271633 -0.17573 0.00115085  0.0267925 -0.19731 0.00104737  0.0268865 -0.19767 0.000781536  0.0338702 -0.190542 0.00134468  0.0338526 -0.19804 0.0010848  0.0339866 -0.190935 0.00100803  0.0269289 -0.189986 0.0011375  0.026845 -0.197492 0.000912428  0.0270185 -0.190382 0.00084734  0.0339384 -0.190751 0.00117564  0.0269806 -0.190197 0.000991583  0.0264499 -0.212026 0.000884056  0.0265372 -0.212332 0.000661373  0.033679 -0.20519 0.00114703  0.0335999 -0.212721 0.000914574  0.0337887 -0.205521 0.000858545  0.0266347 -0.204645 0.000966311  0.0265009 -0.212186 0.000771999  0.0267251 -0.20498 0.000720739  0.0337441 -0.205365 0.00100112  0.0266855 -0.204822 0.000843287  0.026016 -0.226856 0.00073266  0.0260947 -0.227116 0.000548363  0.0333736 -0.219958 0.000952005  0.0332355 -0.227511 0.000761986  0.0334785 -0.220234 0.000716925  0.0262406 -0.219426 0.000808239  0.0260601 -0.226988 0.0006423  0.0263252 -0.219706 0.000602961  0.0334303 -0.220103 0.000834942  0.0262933 -0.219571 0.000705481  0.0254936 -0.241765 0.000603199  0.0255704 -0.241969 0.000448942  0.032958 -0.234814 0.000784874  0.0327756 -0.242377 0.000617266  0.0330548 -0.23504 0.000588894  0.0257626 -0.234294 0.000665903  0.0255401 -0.241865 0.000522614  0.0258422 -0.234527 0.000495672  0.0330148 -0.234935 0.000688076  0.0258093 -0.234416 0.000583649  0.0249021 -0.256717 0.000478029  0.0249753 -0.256886 0.000358343  0.0324583 -0.249739 0.00063014  0.0322251 -0.257302 0.000488043  0.032553 -0.24992 0.000473738  0.0252082 -0.249232 0.000537634  0.0249443 -0.256801 0.000416517  0.0252817 -0.249414 0.000401974  0.0325115 -0.249832 0.000552654  0.0252523 -0.249326 0.000470161  0.0242498 -0.2717 0.000371456  0.0243115 -0.271832 0.000276566  0.031873 -0.264703 0.000493765  0.0316038 -0.272256 0.000382185  0.0319591 -0.264843 0.000370026  0.0245862 -0.264207 0.000425339  0.024287 -0.271765 0.000323772  0.0246511 -0.264348 0.000313759  0.0319235 -0.264776 0.000432491  0.0246232 -0.26428 0.000370502  0.0235381 -0.286695 0.000275135  0.0235991 -0.286788 0.000205278  0.0312297 -0.279679 0.000374794  0.0309172 -0.287218 0.000280619  0.0312998 -0.279788 0.000282288  0.0239036 -0.279192 0.000319958  0.0235729 -0.28674 0.000239372  0.023963 -0.279303 0.000241995  0.0312684 -0.279736 0.000327826  0.0239375 -0.27925 0.000281334  0.0227907 -0.30167 0.000201225  0.0228403 -0.301743 0.000146389  0.0305121 -0.294658 0.000272274  0.0301759 -0.302172 0.000205517  0.0305791 -0.294734 0.00020504  0.0231709 -0.294181 0.00023675  0.0228167 -0.301701 0.000171661  0.0232239 -0.294258 0.000177145  0.030551 -0.294698 0.000241756  0.0232027 -0.294223 0.000203609  0.0220029 -0.31663 0.000133514  0.0220468 -0.316671 9.77516e-05  0.0297563 -0.309615 0.000189066  0.0293944 -0.317105 0.000126839  0.0298142 -0.309668 0.000137806  0.0224023 -0.309146 0.000161648  0.0220253 -0.316644 0.000114918  0.0224476 -0.309205 0.000122309  0.0297923 -0.309641 0.000165939  0.0224261 -0.309174 0.000140905  0.0211821 -0.331542 7.96318e-05  0.0212207 -0.331568 5.98431e-05  0.028966 -0.324542 0.000115633  0.0285778 -0.332003 7.84397e-05  0.029012 -0.324577 8.60691e-05  0.0215967 -0.324086 0.000105143  0.0212052 -0.331549 7.15256e-05  0.0216348 -0.324123 7.89165e-05  0.0289919 -0.324559 9.9659e-05  0.0216167 -0.324101 9.15527e-05  0.0203466 -0.346408 3.33786e-05  0.0203776 -0.346428 2.64645e-05  0.0281384 -0.339424 6.34193e-05  0.0277405 -0.346858 3.29018e-05  0.0281782 -0.339446 4.8399e-05  0.0207672 -0.338973 5.62668e-05  0.0203617 -0.34641 2.90871e-05  0.0208027 -0.338998 4.33922e-05  0.0281618 -0.339435 5.4121e-05  0.0207858 -0.338983 4.88758e-05  0.01949 -0.361222 2.6226e-06  0.0195191 -0.361237 3.57628e-06  0.0272961 -0.354261 2.12193e-05  0.0268812 -0.361668 4.76837e-07  0.0273266 -0.354276 1.90735e-05  0.0199196 -0.353816 2.16961e-05  0.0195057 -0.361223 4.52995e-06  0.0199506 -0.353829 1.4782e-05  0.0273128 -0.354268 2.02656e-05  0.0199358 -0.353822 1.35899e-05  0.0186205 -0.375985 -4.26769e-05  0.0186567 -0.376002 -2.0504e-05  0.0264313 -0.36905 -1.33514e-05  0.0260158 -0.376436 -2.59876e-05  0.0264637 -0.369063 -7.62939e-06  0.0190597 -0.36861 -1.35899e-05  0.0186396 -0.37599 -2.88486e-05  0.019088 -0.368618 -9.29832e-06  0.0264494 -0.369054 -1.09673e-05  0.019074 -0.36861 -1.09673e-05  0 0 0  0.00385922 -0.00249422 0.0056119  0.00283399 -0.00369549 0.00327921  0 0 0  0.00181594 -0.0024575 0.00380135  0.00405371 -0.00476182 0.00477266  0.00133985 -0.00317991 0.00212312  0 0 0  0.00134898 -0.00133675 0.00327659  0.0031139 -0.00320119 0.00429153  0.000856355 -0.00198132 0.00180697  0 0 0  0.00134471 -0.00266987 0.00278091  0.000907488 -0.00164163 0.00237823  0.00818318 -0.00508231 0.00677848  0.00735462 -0.00677985 0.0049262  0.00754499 -0.0047493 0.0071857  0.00924125 -0.0070942 0.00672483  0.00650422 -0.00640672 0.00486422  0.00625511 -0.0036571 0.00633192  0.00770566 -0.0060271 0.00590634  0.00513981 -0.0051226 0.00427651  0.00685036 -0.00576001 0.00599957  0.00556621 -0.00450182 0.00528574  0.0118424 -0.0088895 0.00730443  0.0115397 -0.0106916 0.00543189  0.0117707 -0.00780165 0.00820184  0.0137549 -0.0109591 0.00728822  0.0112825 -0.00970036 0.00599885  0.00999016 -0.00681418 0.00713611  0.0116932 -0.00987363 0.00637579  0.00948989 -0.00858194 0.00526261  0.0114937 -0.00887495 0.00711703  0.00971293 -0.00779384 0.00622702  0.0154853 -0.014011 0.00724697  0.0154229 -0.015801 0.00545168  0.0160364 -0.0123076 0.00838566  0.0181029 -0.0160197 0.00726914  0.0158499 -0.0141771 0.0062499  0.0136862 -0.0112814 0.00731397  0.0154831 -0.0149773 0.00635648  0.0135158 -0.0130948 0.00548363  0.0159677 -0.0133333 0.00732684  0.0136203 -0.0122743 0.00641084  0.0189468 -0.0203208 0.00695705  0.0190324 -0.0220427 0.00524235  0.0201276 -0.018029 0.00814152  0.0221673 -0.0222571 0.00695944  0.0201413 -0.0198182 0.00611997  0.0172437 -0.0170146 0.00712156  0.0190221 -0.0212427 0.00610614  0.0172648 -0.0187806 0.00536513  0.0201715 -0.0189964 0.00713706  0.017283 -0.01797 0.00625229  0.0221969 -0.0277058 0.00655222  0.0223448 -0.0293342 0.00493431  0.0240015 -0.0248751 0.00772285  0.0259385 -0.02956 0.00655603  0.0240993 -0.0265601 0.00580788  0.0205975 -0.0238835 0.00676346  0.0223041 -0.0285732 0.00574756  0.0207284 -0.0255557 0.00509524  0.0240925 -0.0257831 0.00676847  0.0206975 -0.024784 0.00593257  0.0251872 -0.0360581 0.00610733  0.0253665 -0.0375719 0.00459075  0.0275818 -0.0327318 0.00721931  0.0293915 -0.037821 0.00608635  0.0277423 -0.0343001 0.00542593  0.0237238 -0.0317618 0.00633407  0.0253109 -0.0368665 0.00534916  0.0238927 -0.0333329 0.00476289  0.0277052 -0.0335727 0.00632572  0.0238416 -0.0326048 0.00554633  0.027897 -0.045278 0.0056479  0.0280955 -0.04668 0.0042429  0.0308729 -0.0414973 0.00669932  0.0325181 -0.0469461 0.00563788  0.0310418 -0.042952 0.00503111  0.0265752 -0.0405597 0.00588083  0.0280263 -0.0460224 0.00494385  0.0267689 -0.0420162 0.00441575  0.0309965 -0.0422758 0.0058639  0.0267057 -0.0413396 0.00514698  0.0303309 -0.055281 0.00519609  0.0305228 -0.0565743 0.00389767  0.0338271 -0.0510948 0.00617099  0.0353209 -0.0568573 0.00517249  0.0340184 -0.0524288 0.00463295  0.0291501 -0.0501803 0.00542045  0.030452 -0.0559639 0.0045445  0.0293448 -0.0515253 0.00406885  0.0339568 -0.0518067 0.00540328  0.0292764 -0.0509012 0.00474381  0.0324751 -0.0659857 0.00476074  0.0326656 -0.0671688 0.00356936  0.0364846 -0.0614244 0.00566268  0.0378077 -0.0674724 0.00474906  0.0366617 -0.0626534 0.00425172  0.0314366 -0.0605431 0.00497627  0.0325947 -0.0666112 0.00416756  0.0316277 -0.0617802 0.00373101  0.0366042 -0.0620794 0.00495696  0.0315578 -0.0612031 0.00435305  0.034346 -0.0773262 0.00434279  0.0345302 -0.0784116 0.00325418  0.038817 -0.0724236 0.00518346  0.0399879 -0.0787371 0.00432277  0.0389949 -0.0735509 0.00388384  0.0334446 -0.0715722 0.00455117  0.0344608 -0.0779029 0.00379896  0.0336313 -0.0727058 0.00341296  0.0389307 -0.0730289 0.0045352  0.0335618 -0.0721802 0.00397849  0.0359499 -0.0892426 0.00394392  0.0361297 -0.0902257 0.00295663  0.0408471 -0.0840298 0.00471711  0.041871 -0.0905681 0.00392723  0.0410264 -0.0850585 0.00353336  0.0351844 -0.0832114 0.00414085  0.0360645 -0.0897623 0.00344944  0.0353599 -0.0842393 0.00310278  0.0409664 -0.0845829 0.00412178  0.0352949 -0.0837637 0.00362182  0.0373023 -0.101662 0.00356674  0.0374752 -0.102551 0.00267172  0.0425916 -0.0961818 0.00426579  0.0434769 -0.10291 0.00353885  0.0427654 -0.0971091 0.00320005  0.0366627 -0.095386 0.0037539  0.0374117 -0.10213 0.00311852  0.0368314 -0.0963203 0.00281072  0.042707 -0.0966795 0.00373459  0.0367699 -0.0958883 0.00328159  0.0384163 -0.114534 0.00320458  0.0385826 -0.115336 0.00239992  0.0440719 -0.10881 0.00384331  0.044813 -0.11571 0.00318241  0.044227 -0.109643 0.00288105  0.03789 -0.108043 0.00338197  0.0385196 -0.114958 0.00280285  0.0380563 -0.108883 0.00253224  0.0441757 -0.109257 0.00335884  0.0379952 -0.108492 0.00295806  0.0393039 -0.127803 0.00286341  0.0394621 -0.128522 0.00214267  0.0452744 -0.121865 0.00343871  0.0458963 -0.128906 0.00284004  0.0454355 -0.12261 0.0025835  0.0388925 -0.121117 0.00302911  0.0394028 -0.12818 0.00250196  0.0390477 -0.121872 0.00226974  0.0453845 -0.122263 0.00301385  0.0389893 -0.121522 0.00265026  0.0399783 -0.141421 0.00253868  0.0401301 -0.142056 0.00190258  0.0462502 -0.13529 0.00306249  0.0467443 -0.142454 0.00252461  0.0463998 -0.13595 0.00230002  0.0396709 -0.134566 0.00269794  0.0400736 -0.141752 0.00222015  0.0398227 -0.135241 0.00202227  0.0463496 -0.135642 0.00268316  0.0397637 -0.134926 0.00236154  0.0404541 -0.15533 0.00223732  0.0406044 -0.155895 0.00167727  0.046988 -0.149031 0.00270677  0.0473721 -0.156303 0.00222039  0.0471323 -0.149619 0.00203061  0.0402393 -0.148341 0.0023849  0.0405459 -0.155628 0.00195551  0.0403917 -0.148932 0.00178528  0.0470831 -0.149345 0.0023675  0.0403345 -0.148655 0.0020864  0.0407515 -0.1695 0.0019474  0.0408907 -0.169989 0.00146055  0.0475264 -0.163054 0.00237036  0.0477972 -0.170411 0.00193501  0.0476632 -0.16357 0.00178194  0.0406287 -0.162381 0.00209045  0.0408404 -0.169758 0.00170398  0.0407715 -0.162905 0.00156593  0.0476043 -0.163329 0.00207782  0.0407159 -0.162662 0.00182843  0.0408809 -0.183883 0.00168014  0.0410137 -0.184304 0.00126314  0.0478532 -0.177305 0.00205779  0.0480382 -0.184731 0.00167418  0.0479901 -0.177755 0.00154424  0.0408406 -0.176661 0.00181556  0.0409634 -0.1841 0.00147414  0.0409744 -0.177116 0.00136042  0.0479388 -0.177542 0.00180125  0.0409231 -0.176902 0.0015862  0.0408559 -0.198437 0.0014379  0.0409811 -0.198793 0.00107694  0.0480022 -0.191753 0.00176287  0.0481012 -0.199231 0.00141931  0.0481329 -0.192134 0.00132751  0.0408869 -0.191132 0.00155759  0.0409346 -0.198619 0.00126028  0.0410182 -0.191517 0.00117016  0.0480924 -0.191959 0.00154305  0.0409667 -0.191339 0.00136423  0.0406916 -0.21313 0.00120783  0.0408111 -0.213427 0.000908613  0.0479999 -0.20637 0.00149059  0.0480084 -0.213871 0.00119758  0.0481184 -0.206687 0.00112247  0.0407877 -0.205762 0.00132298  0.0407631 -0.213282 0.00105906  0.0409138 -0.206089 0.000992298  0.0480704 -0.206537 0.00130701  0.0408673 -0.205937 0.00115657  0.0403998 -0.227933 0.00100136  0.0405118 -0.228176 0.00075078  0.0478363 -0.221096 0.00124407  0.0477748 -0.22862 0.000986814  0.0479484 -0.221358 0.0009377  0.0405614 -0.220516 0.00110507  0.0404689 -0.228056 0.000874281  0.0406799 -0.220785 0.000825882  0.0479062 -0.221231 0.00108743  0.0406313 -0.220657 0.000967741  0.0399971 -0.242809 0.000814199  0.0401042 -0.24301 0.000612497  0.0475471 -0.235917 0.00102305  0.0474191 -0.243457 0.000798941  0.0476501 -0.236133 0.000768661  0.0402131 -0.235353 0.000906944  0.0400615 -0.242909 0.000712872  0.0403218 -0.235578 0.000680923  0.0476131 -0.236028 0.000893831  0.040278 -0.235473 0.000794411  0.0395005 -0.257737 0.000643969  0.039592 -0.257893 0.000485897  0.0471311 -0.250803 0.000809193  0.0469429 -0.258343 0.000635862  0.0472283 -0.250974 0.000615597  0.0397606 -0.250262 0.000725985  0.0395567 -0.257813 0.000563622  0.0398631 -0.250441 0.000547409  0.0471966 -0.250895 0.000712395  0.0398202 -0.250356 0.000636816  0.0389132 -0.272701 0.000495672  0.0389972 -0.272821 0.00037241  0.0466096 -0.265737 0.000630617  0.0463738 -0.273264 0.000485897  0.0467062 -0.265866 0.000482798  0.0392125 -0.265211 0.000568628  0.0389624 -0.272757 0.000434875  0.0393047 -0.265348 0.000427961  0.046669 -0.265803 0.000558615  0.0392709 -0.265282 0.000495911  0.0382507 -0.287661 0.000367403  0.0383272 -0.287753 0.000275135  0.0460086 -0.280678 0.000480652  0.045722 -0.2882 0.000356197  0.0460863 -0.280778 0.000357866  0.03859 -0.280173 0.000427961  0.0382967 -0.287705 0.000322104  0.0386713 -0.280279 0.00032115  0.0460606 -0.280728 0.000415802  0.0386386 -0.280229 0.000376701  0.0375271 -0.302628 0.000259638  0.0375957 -0.302681 0.000193119  0.045325 -0.295626 0.000342846  0.0449955 -0.303128 0.000244856  0.0453935 -0.295699 0.000259638  0.0379009 -0.295141 0.000313759  0.037569 -0.302651 0.000224829  0.0379677 -0.295213 0.000231743  0.0453684 -0.295663 0.000305414  0.0379376 -0.295179 0.000271082  0.0367572 -0.317555 0.00016737  0.0368135 -0.317595 0.0001266  0.0445747 -0.310561 0.000228405  0.0442138 -0.318037 0.000163078  0.0446353 -0.310609 0.000177622  0.0371485 -0.310085 0.000210047  0.0367887 -0.317569 0.000145912  0.0372105 -0.310138 0.000159502  0.044611 -0.310586 0.000201464  0.0371861 -0.310111 0.000185251  0.0359442 -0.332456 9.67979e-05  0.0359919 -0.332474 7.41482e-05  0.0437801 -0.32547 0.000137806  0.0433841 -0.332915 9.20296e-05  0.0438247 -0.325495 0.000110388  0.0363538 -0.325007 0.0001297  0.0359709 -0.332458 8.41618e-05  0.0364065 -0.325035 9.87053e-05  0.0438063 -0.325478 0.000121593  0.0363839 -0.325017 0.000114918  0.0351059 -0.347309 4.62532e-05  0.0351422 -0.347323 3.74317e-05  0.0429397 -0.340334 7.43866e-05  0.0425313 -0.347753 4.12464e-05  0.0429811 -0.340345 6.03199e-05  0.0355277 -0.339879 7.00951e-05  0.0351269 -0.347306 4.31538e-05  0.0355709 -0.339897 5.48363e-05  0.0429609 -0.340339 6.24657e-05  0.0355515 -0.339888 6.27041e-05  0.0342505 -0.362114 3.57628e-06  0.0342791 -0.362122 7.39098e-06  0.0420799 -0.355156 1.81198e-05  0.0416536 -0.362553 1.14441e-05  0.0421128 -0.355166 2.28882e-05  0.0346787 -0.354708 2.47955e-05  0.0342631 -0.36211 7.15256e-06  0.0347123 -0.35472 2.14577e-05  0.0420926 -0.355156 2.09808e-05  0.0346985 -0.354714 2.28882e-05  0.0333843 -0.37688 -2.36034e-05  0.033412 -0.376896 -2.09808e-05  0.0412023 -0.369937 -6.4373e-06  0.0407805 -0.377323 -2.07424e-05  0.0412328 -0.369946 -1.43051e-06  0.033814 -0.369498 -7.62939e-06  0.0333962 -0.376879 -1.78814e-05  0.0338445 -0.369507 -2.86102e-06  0.0412159 -0.369942 -5.24521e-06  0.0338304 -0.3695 -4.76837e-06  -0.00376242 -0.00543244 -0.00299764  -0.00137061 -0.00340087 -0.00127769  0 0 0  -0.00262499 -0.00404057 -0.00197506  0 0 0  -0.00190486 -0.00248137 -0.00222707  -0.000574134 -0.00134026 -0.000941992  0 0 0  -0.00132804 -0.00316742 -0.00169706  -0.00265569 -0.00372428 -0.00259948  -0.000797145 -0.00212508 -0.00107145  0 0 0  -0.000586782 -0.00119816 -0.00125265  -0.000796661 -0.00194992 -0.00142074  -0.00866741 -0.00795042 -0.00466633  -0.00629009 -0.00700404 -0.00305915  -0.00688356 -0.00730232 -0.00316334  -0.00552453 -0.00568757 -0.00351572  -0.00353001 -0.00436227 -0.00229216  -0.00629409 -0.00650078 -0.00398183  -0.00698954 -0.006783 -0.00408196  -0.00476149 -0.00558193 -0.00266671  -0.00363815 -0.00399137 -0.00298524  -0.0048358 -0.00514856 -0.00347233  -0.0133733 -0.0116154 -0.00529766  -0.0109331 -0.0102402 -0.00397158  -0.0111117 -0.011106 -0.00366807  -0.00922582 -0.0095737 -0.00398374  -0.0072785 -0.0080043 -0.0029943  -0.0110167 -0.00964421 -0.00507498  -0.0112112 -0.0105218 -0.00463533  -0.00900242 -0.00906876 -0.00348163  -0.00741273 -0.00749698 -0.00381637  -0.00911891 -0.00851487 -0.00443864  -0.0179598 -0.0163586 -0.00535178  -0.0156297 -0.0144535 -0.00427222  -0.0151974 -0.0159798 -0.00373697  -0.0126916 -0.0145517 -0.00401688  -0.0109113 -0.0124795 -0.00321221  -0.0156952 -0.0138401 -0.00537109  -0.0152403 -0.0153857 -0.0046823  -0.0131784 -0.013399 -0.00373793  -0.0109801 -0.0119224 -0.00403476  -0.0132526 -0.0128109 -0.00469875  -0.0223162 -0.0222097 -0.00513363  -0.0201366 -0.0197476 -0.0042119  -0.0190673 -0.0219148 -0.00359797  -0.0159789 -0.0206052 -0.00384712  -0.0143475 -0.018004 -0.00316453  -0.0201678 -0.0191515 -0.00526452  -0.0190596 -0.0213431 -0.00448871  -0.0171594 -0.018811 -0.00368595  -0.0143569 -0.0174436 -0.00394964  -0.0171761 -0.0182329 -0.00460315  -0.026426 -0.0290767 -0.00480962  -0.0244148 -0.0260849 -0.00398827  -0.0227206 -0.0288506 -0.00337338  -0.0191025 -0.0276645 -0.00360584  -0.0175928 -0.0245534 -0.00299597  -0.0244023 -0.0255208 -0.00497866  -0.0226797 -0.028315 -0.0042038  -0.0209184 -0.025258 -0.0034945  -0.0175583 -0.0240117 -0.00373363  -0.0208949 -0.024707 -0.00435376  -0.030303 -0.0368762 -0.00443578  -0.028431 -0.0333865 -0.0037117  -0.0261693 -0.0367147 -0.00311756  -0.0220691 -0.0356462 -0.00332832  -0.0206679 -0.032051 -0.00278497  -0.0283934 -0.0328688 -0.00462294  -0.0261009 -0.0362116 -0.00387955  -0.0244702 -0.0326652 -0.00324917  -0.0206039 -0.0315429 -0.0034647  -0.0244139 -0.0321533 -0.00404739  -0.0339531 -0.0455274 -0.00407267  -0.0322123 -0.0415827 -0.00341606  -0.02942 -0.0454139 -0.0028584  -0.0248911 -0.0444721 -0.00305009  -0.023578 -0.0404291 -0.00255895  -0.0321544 -0.0411021 -0.00425506  -0.0293405 -0.0449559 -0.00356269  -0.0278152 -0.0409572 -0.00298691  -0.0234991 -0.039957 -0.00318694  -0.0277446 -0.0404818 -0.00372314  -0.0373853 -0.0549527 -0.00372291  -0.0357617 -0.0505884 -0.00312543  -0.0324851 -0.0548923 -0.00260568  -0.0275705 -0.0540677 -0.00278187  -0.0263339 -0.0496131 -0.00234008  -0.0356964 -0.050149 -0.00389767  -0.0324012 -0.0544713 -0.00325012  -0.0309719 -0.0500567 -0.00273156  -0.0262471 -0.0491758 -0.00291848  -0.0308923 -0.0496211 -0.00340605  -0.0406187 -0.0650885 -0.00338387  -0.0391021 -0.0603334 -0.00284767  -0.0353792 -0.0650763 -0.00237298  -0.0301172 -0.0643658 -0.00253534  -0.0289469 -0.0595296 -0.00212884  -0.0390249 -0.0599351 -0.0035522  -0.0352939 -0.0646933 -0.00296378  -0.0339522 -0.0598944 -0.00248861  -0.0288602 -0.0591334 -0.00265455  -0.0338677 -0.0594966 -0.00310421  -0.0436572 -0.075871 -0.00307178  -0.0422361 -0.0707656 -0.00258446  -0.0381099 -0.0759068 -0.00214934  -0.0325358 -0.0753047 -0.00229812  -0.0314306 -0.0701223 -0.00193429  -0.0421591 -0.0704055 -0.00322294  -0.0380254 -0.0755586 -0.00268269  -0.0367645 -0.0704097 -0.00225997  -0.0313412 -0.0697589 -0.0024159  -0.0366791 -0.0700494 -0.00281787  -0.0465108 -0.0872421 -0.00276971  -0.0451757 -0.0818158 -0.00233722  -0.0406833 -0.0873264 -0.0019412  -0.0348302 -0.086825 -0.00207162  -0.0337822 -0.0813268 -0.00174856  -0.0451047 -0.0814864 -0.00291991  -0.0406033 -0.0870061 -0.00242662  -0.0394139 -0.0815412 -0.00204611  -0.033698 -0.0809973 -0.00218511  -0.0393331 -0.0812129 -0.00255179  -0.0491905 -0.0991404 -0.00249314  -0.0479331 -0.093425 -0.00210881  -0.0431091 -0.0992681 -0.00174665  -0.0370085 -0.0988696 -0.0018611  -0.0360144 -0.0930825 -0.00157428  -0.047873 -0.093129 -0.00263309  -0.0430348 -0.0989833 -0.00218368  -0.0419164 -0.0932291 -0.00184059  -0.0359378 -0.0927839 -0.00196767  -0.0418373 -0.0929317 -0.00229907  -0.0516988 -0.111521 -0.00222516  -0.0505222 -0.105541 -0.00189257  -0.0453987 -0.111687 -0.00156403  -0.0390728 -0.111384 -0.00166965  -0.0381265 -0.105339 -0.00141358  -0.0504639 -0.105276 -0.0023632  -0.0453259 -0.11143 -0.00195193  -0.0442702 -0.105416 -0.00165153  -0.0380533 -0.10507 -0.00176668  -0.0441977 -0.105152 -0.00206351  -0.0540488 -0.124328 -0.00198269  -0.0529567 -0.118114 -0.00168443  -0.0475494 -0.124533 -0.00138903  -0.0410273 -0.124319 -0.00148416  -0.0401353 -0.118041 -0.00125957  -0.0528936 -0.117874 -0.00210261  -0.0474833 -0.124307 -0.00173163  -0.0464917 -0.118058 -0.00147152  -0.0400639 -0.1178 -0.00157547  -0.0464203 -0.117818 -0.00183845  -0.0562471 -0.137516 -0.00175238  -0.05522 -0.131087 -0.00149632  -0.0495735 -0.137759 -0.00122452  -0.0428805 -0.137622 -0.00130939  -0.0420332 -0.131138 -0.0011158  -0.0551659 -0.130877 -0.00187135  -0.0495113 -0.137553 -0.00153255  -0.048578 -0.131097 -0.00130486  -0.0419644 -0.130924 -0.00139284  -0.048512 -0.130886 -0.00163007  -0.0583019 -0.151036 -0.00153136  -0.0573399 -0.144426 -0.00131512  -0.0514767 -0.151309 -0.00107479  -0.0446317 -0.151248 -0.00114036  -0.0438321 -0.144582 -0.000981808  -0.0572922 -0.144235 -0.00164413  -0.0514185 -0.15113 -0.00134087  -0.0505364 -0.144489 -0.00114942  -0.043771 -0.144394 -0.00123072  -0.0504801 -0.144302 -0.00143266  -0.0602207 -0.164843 -0.00132656  -0.0593278 -0.158069 -0.00114393  -0.0532625 -0.165146 -0.000928164  -0.0462925 -0.165153 -0.000989199  -0.045531 -0.158331 -0.000853062  -0.0592778 -0.157906 -0.00142932  -0.0532105 -0.164988 -0.00115991  -0.0523827 -0.158187 -0.00100017  -0.0454743 -0.158168 -0.00106764  -0.0523276 -0.158028 -0.00124693  -0.0620062 -0.178898 -0.00114584  -0.0611665 -0.171984 -0.000990391  -0.0549374 -0.179223 -0.000803471  -0.0478599 -0.179299 -0.000854015  -0.0471404 -0.172338 -0.000737906  -0.0611293 -0.171842 -0.00123262  -0.0548906 -0.179092 -0.00100136  -0.0541127 -0.172152 -0.00086236  -0.0470867 -0.172198 -0.000923634  -0.0540645 -0.172012 -0.00107908  -0.0636728 -0.193164 -0.000973463  -0.0628893 -0.186125 -0.000848055  -0.0565081 -0.193515 -0.000679255  -0.0493417 -0.193645 -0.00072217  -0.04866 -0.186568 -0.000631332  -0.0628519 -0.186004 -0.00105429  -0.0564682 -0.193402 -0.000847101  -0.0557342 -0.186341 -0.000737429  -0.0486102 -0.186449 -0.000791073  -0.0556917 -0.18622 -0.000921965  -0.0652237 -0.207601 -0.000808001  -0.0644927 -0.200463 -0.000714302  -0.057986 -0.207975 -0.000566959  -0.0507421 -0.208155 -0.00060606  -0.0500944 -0.200984 -0.000531673  -0.0644619 -0.200365 -0.000889063  -0.0579455 -0.207876 -0.000707626  -0.0572608 -0.200719 -0.000622272  -0.0500503 -0.20088 -0.000662565  -0.0572183 -0.200618 -0.000776291  -0.0666637 -0.22218 -0.000663519  -0.0659785 -0.214958 -0.000594854  -0.059366 -0.222567 -0.000468731  -0.0520668 -0.222799 -0.000496387  -0.0514476 -0.215547 -0.000440121  -0.0659549 -0.214876 -0.000738859  -0.0593336 -0.222486 -0.000584126  -0.0586903 -0.215252 -0.000516653  -0.0514147 -0.215462 -0.000548124  -0.0586505 -0.215166 -0.000645638  -0.068007 -0.236866 -0.000534773  -0.0673673 -0.22958 -0.00048399  -0.0606623 -0.237271 -0.000375032  -0.053319 -0.237543 -0.000399351  -0.052737 -0.23023 -0.000359535  -0.0673473 -0.229512 -0.000602722  -0.0606341 -0.237203 -0.000470161  -0.0600235 -0.229903 -0.000418901  -0.0526969 -0.23016 -0.000447273  -0.0599933 -0.229835 -0.000524759  -0.0692577 -0.251638 -0.000422001  -0.0686622 -0.244297 -0.000385046  -0.0618804 -0.252059 -0.000295639  -0.054502 -0.252363 -0.000312328  -0.0539443 -0.245003 -0.000284195  -0.0686424 -0.244244 -0.000478268  -0.0618558 -0.252001 -0.000368118  -0.0612788 -0.244653 -0.000333309  -0.0539207 -0.244943 -0.000352859  -0.0612531 -0.244592 -0.000415802  -0.0704284 -0.266464 -0.00032115  -0.06987 -0.259091 -0.000295639  -0.0630269 -0.266893 -0.000224352  -0.0556266 -0.267231 -0.000242233  -0.0550933 -0.259835 -0.000220299  -0.0698495 -0.259046 -0.00036788  -0.0630064 -0.266849 -0.000278234  -0.0624602 -0.259462 -0.000259638  -0.0550714 -0.259792 -0.000276566  -0.062439 -0.25942 -0.000320673  -0.0715203 -0.281327 -0.000226974  -0.0710018 -0.273926 -0.000218868  -0.0641084 -0.281764 -0.000162125  -0.0566957 -0.282128 -0.000170231  -0.0561898 -0.274711 -0.000163317  -0.0709825 -0.273893 -0.00026989  -0.064091 -0.281732 -0.000200272  -0.0635734 -0.27432 -0.000190735  -0.0561681 -0.274678 -0.000203371  -0.0635562 -0.274286 -0.000237465  -0.072551 -0.296204 -0.000164509  -0.0720561 -0.288789 -0.000156879  -0.0651348 -0.296647 -0.000113964  -0.0577152 -0.297032 -0.000116348  -0.0572283 -0.289604 -0.000116587  -0.0720441 -0.288766 -0.000196218  -0.065119 -0.296623 -0.000140429  -0.0646267 -0.2892 -0.000136375  -0.05721 -0.289579 -0.000147104  -0.0646105 -0.289174 -0.000167131  -0.0735254 -0.311081 -9.89437e-05  -0.0730574 -0.303658 -0.000104666  -0.0661128 -0.311524 -7.31945e-05  -0.0586953 -0.311929 -7.4625e-05  -0.0582261 -0.304501 -7.65324e-05  -0.0730441 -0.303642 -0.000128746  -0.066098 -0.311508 -8.7738e-05  -0.065624 -0.304082 -9.08375e-05  -0.0582099 -0.304481 -9.32217e-05  -0.0656126 -0.304064 -0.000111341  -0.0744536 -0.325943 -5.81741e-05  -0.074007 -0.318526 -6.81877e-05  -0.0670502 -0.326385 -4.14848e-05  -0.059639 -0.326803 -3.98159e-05  -0.0591798 -0.31938 -4.76837e-05  -0.0739956 -0.318515 -7.98702e-05  -0.0670404 -0.326377 -4.88758e-05  -0.0665846 -0.318955 -5.43594e-05  -0.0591733 -0.319367 -5.74589e-05  -0.0665724 -0.318944 -6.41346e-05  -0.0753515 -0.340775 -2.40803e-05  -0.0749137 -0.333365 -3.40939e-05  -0.0679584 -0.341224 -1.97887e-05  -0.0605533 -0.341644 -1.71661e-05  -0.060107 -0.334233 -2.36034e-05  -0.074908 -0.33336 -3.55244e-05  -0.0679483 -0.34121 -2.55108e-05  -0.0675051 -0.333804 -3.02792e-05  -0.0601001 -0.334228 -2.7895e-05  -0.0674965 -0.333796 -3.62396e-05  -0.0762339 -0.355582 -5.24521e-06  -0.0758061 -0.348186 -1.26362e-05  -0.0688479 -0.356025 -1.66893e-06  -0.0614505 -0.356451 -4.29153e-06  -0.0610113 -0.349056 -4.29153e-06  -0.0757942 -0.34818 -1.62125e-05  -0.0688393 -0.356018 -1.19209e-06  -0.0684054 -0.348623 -9.77516e-06  -0.0610056 -0.349052 -5.96046e-06  -0.0683949 -0.348618 -1.23978e-05  -0.0771072 -0.37036 1.0252e-05  -0.0766795 -0.362978 1.19209e-06  -0.0697293 -0.370807 1.62125e-05  -0.062335 -0.371224 3.0756e-05  -0.0619054 -0.363845 7.86781e-06  -0.0766704 -0.362972 2.86102e-06  -0.0697165 -0.370791 1.5974e-05  -0.0692883 -0.363414 2.86102e-06  -0.0618913 -0.36384 9.53674e-06  -0.0692778 -0.363408 6.4373e-06  -0.00139042 -0.00190297 -0.00141501  0 0 0  -0.00106535 -0.00112644 -0.00152564  -0.000319745 -0.000467718 -0.000638008  0 0 0  -0.00144974 -0.00167009 -0.00187635  -0.000421964 -0.000819042 -0.000782967  0 0 0  -0.000328265 -0.000369683 -0.000858307  -0.000434633 -0.000703216 -0.00104833  -0.00417712 -0.00516258 -0.00229025  -0.00322619 -0.00403813 -0.00239873  -0.00197513 -0.002721 -0.00155592  -0.00430524 -0.00474992 -0.00296116  -0.00268526 -0.00341107 -0.00192237  -0.00206348 -0.00243813 -0.00203395  -0.00278997 -0.00308761 -0.00250602  -0.00727957 -0.00928293 -0.00264621  -0.00567046 -0.00812782 -0.00269747  -0.00433955 -0.00637348 -0.00203013  -0.00737992 -0.00877787 -0.00334215  -0.00573367 -0.00709538 -0.00251675  -0.0044505 -0.00594723 -0.00259233  -0.00586224 -0.00663251 -0.00320816  -0.0102566 -0.0143919 -0.00268865  -0.00802058 -0.0132864 -0.00269604  -0.00680685 -0.0110716 -0.00216603  -0.0102881 -0.013849 -0.00336194  -0.00878915 -0.0117014 -0.00269151  -0.00686386 -0.0105712 -0.00271821  -0.00885376 -0.0111762 -0.00337744  -0.0130649 -0.0205331 -0.00258136  -0.0102472 -0.0195016 -0.00257635  -0.00914383 -0.0167911 -0.00212502  -0.013049 -0.0199896 -0.00321388  -0.0116785 -0.0173294 -0.00264692  -0.00914919 -0.0162657 -0.00264692  -0.0116854 -0.0167889 -0.003299  -0.0157271 -0.0276475 -0.00241375  -0.0123787 -0.0267052 -0.00240588  -0.011359 -0.0235021 -0.00200653  -0.0156756 -0.0271269 -0.00300407  -0.0144147 -0.023968 -0.00250268  -0.0113235 -0.0229847 -0.00249505  -0.0143771 -0.0234371 -0.0031147  -0.0182568 -0.0356748 -0.00222754  -0.0144247 -0.0348264 -0.00221539  -0.0134716 -0.0311525 -0.00185823  -0.018185 -0.0351815 -0.00276995  -0.0170066 -0.0315467 -0.00232172  -0.0134118 -0.0306559 -0.00231385  -0.0169449 -0.0310427 -0.00289083  -0.0206668 -0.0445361 -0.00204062  -0.0163959 -0.0437847 -0.0020287  -0.0154936 -0.039671 -0.00170517  -0.0205843 -0.0440806 -0.00253987  -0.0194765 -0.0399992 -0.00213313  -0.0154197 -0.0392047 -0.00212574  -0.0193986 -0.0395298 -0.00265884  -0.0229656 -0.0541657 -0.00185895  -0.0182999 -0.0535123 -0.00185275  -0.0174352 -0.0489894 -0.00155878  -0.0228782 -0.0537467 -0.00232172  -0.0218288 -0.0492533 -0.0019474  -0.0173571 -0.0485576 -0.00194311  -0.0217437 -0.0488214 -0.0024302  -0.025161 -0.0644998 -0.00168967  -0.0201354 -0.0639394 -0.0016818  -0.0193068 -0.0590416 -0.00141597  -0.0250716 -0.0641149 -0.00210738  -0.0240765 -0.0592448 -0.00177336  -0.0192261 -0.0586404 -0.00176764  -0.0239867 -0.0588449 -0.00221109  -0.0272552 -0.07547 -0.00153255  -0.0219088 -0.0750038 -0.00152469  -0.0211087 -0.0697574 -0.0012846  -0.0271696 -0.0751194 -0.00191212  -0.0262218 -0.0699025 -0.0016098  -0.0210305 -0.0693939 -0.0016005  -0.0261327 -0.0695394 -0.00200939  -0.0292592 -0.0870268 -0.00138211  -0.0236189 -0.086642 -0.00137186  -0.0228487 -0.0810842 -0.00116038  -0.029175 -0.086702 -0.00172472  -0.0282665 -0.0811729 -0.00145578  -0.0227705 -0.0807524 -0.00145006  -0.0281842 -0.0808423 -0.0018177  -0.03117 -0.0990955 -0.00124192  -0.0252708 -0.0987993 -0.00123453  -0.0245277 -0.0929574 -0.00104451  -0.0310925 -0.0988065 -0.00154972  -0.0302238 -0.0929909 -0.00130844  -0.0244533 -0.0926583 -0.00130367  -0.0301439 -0.0926927 -0.00163531  -0.0329974 -0.111639 -0.00110769  -0.0268629 -0.111423 -0.00110078  -0.0261434 -0.105325 -0.000933647  -0.0329237 -0.11138 -0.00138497  -0.0320923 -0.105306 -0.00117421  -0.0260726 -0.105056 -0.0011704  -0.0320188 -0.105037 -0.00146651  -0.0347413 -0.124593 -0.000986814  -0.0283999 -0.124456 -0.000982285  -0.0277017 -0.11813 -0.000831604  -0.034674 -0.124368 -0.00123167  -0.0338777 -0.118061 -0.00104642  -0.0276415 -0.117889 -0.00104237  -0.0338093 -0.117824 -0.00130725  -0.0364051 -0.137923 -0.000869751  -0.0298827 -0.137851 -0.00086236  -0.0292087 -0.131324 -0.000736713  -0.0363414 -0.13772 -0.00108314  -0.0355825 -0.131212 -0.000927687  -0.0291506 -0.131112 -0.000920773  -0.0355165 -0.130997 -0.00116038  -0.0379941 -0.151575 -0.000762939  -0.0313094 -0.151566 -0.000757933  -0.030658 -0.144859 -0.000648499  -0.0379353 -0.151392 -0.000951052  -0.0372114 -0.144705 -0.000814915  -0.0306036 -0.144673 -0.000809669  -0.0371468 -0.144518 -0.00101852  -0.0395098 -0.165494 -0.000659704  -0.0326877 -0.165551 -0.00065589  -0.0320535 -0.158691 -0.000564098  -0.0394547 -0.165339 -0.000826359  -0.038758 -0.158498 -0.000710011  -0.0320027 -0.158525 -0.000705719  -0.038702 -0.158334 -0.000888824  -0.0409496 -0.179665 -0.000567913  -0.0340095 -0.179772 -0.000564337  -0.0334032 -0.172777 -0.000488043  -0.0409045 -0.179525 -0.000709295  -0.0402374 -0.172545 -0.000610828  -0.0333545 -0.172634 -0.000608683  -0.0401895 -0.172404 -0.000764847  -0.0423291 -0.194025 -0.000480652  -0.035284 -0.194183 -0.000481129  -0.034693 -0.187077 -0.00041461  -0.0422845 -0.193906 -0.000599384  -0.0416465 -0.186815 -0.000521898  -0.0346518 -0.186954 -0.000518322  -0.0416024 -0.186691 -0.000652552  -0.0436385 -0.208549 -0.000402689  -0.0365102 -0.208753 -0.000400066  -0.0359397 -0.201555 -0.000348806  -0.0435972 -0.208447 -0.000501394  -0.0429914 -0.201259 -0.00043726  -0.0359027 -0.201449 -0.000435352  -0.0429499 -0.201156 -0.000549555  -0.0448911 -0.223203 -0.00033021  -0.0376902 -0.223448 -0.000324965  -0.0371375 -0.216172 -0.000286579  -0.0448549 -0.223118 -0.000415802  -0.0442715 -0.215852 -0.000363827  -0.0371068 -0.216083 -0.000359774  -0.0442352 -0.215765 -0.000455856  -0.0460827 -0.237958 -0.000264168  -0.0388253 -0.238238 -0.00026083  -0.0382907 -0.230905 -0.000234604  -0.0460515 -0.237887 -0.000332832  -0.0454912 -0.230562 -0.000295401  -0.038264 -0.230831 -0.000294209  -0.0454593 -0.230489 -0.00036931  -0.0472195 -0.252784 -0.000210285  -0.0399237 -0.253096 -0.000207424  -0.0394065 -0.245718 -0.000184774  -0.0471928 -0.252727 -0.000259638  -0.0466554 -0.245358 -0.000234365  -0.039382 -0.245661 -0.000231266  -0.0466294 -0.245298 -0.000293493  -0.0483098 -0.267659 -0.000159025  -0.0409787 -0.267999 -0.00015831  -0.0404804 -0.260588 -0.000143051  -0.0482869 -0.267613 -0.000194788  -0.0477707 -0.26021 -0.00018239  -0.0404561 -0.260543 -0.000179291  -0.0477464 -0.260165 -0.000228643  -0.0493524 -0.282562 -0.00011611  -0.0420003 -0.282922 -0.00011301  -0.0415115 -0.275493 -0.000107288  -0.049335 -0.282524 -0.00014019  -0.0488369 -0.275103 -0.00013566  -0.0414922 -0.275456 -0.000134945  -0.0488155 -0.275067 -0.000168562  -0.0503588 -0.29747 -7.98702e-05  -0.0429888 -0.297849 -7.79629e-05  -0.0425143 -0.290412 -7.67708e-05  -0.0503418 -0.29744 -0.000102043  -0.04986 -0.290006 -9.56059e-05  -0.0424998 -0.290385 -9.48906e-05  -0.0498426 -0.289981 -0.000118256  -0.051327 -0.312368 -5.17368e-05  -0.043951 -0.312763 -4.81606e-05  -0.0434854 -0.305327 -4.95911e-05  -0.0513151 -0.312345 -6.46114e-05  -0.0508461 -0.304913 -6.36578e-05  -0.0434735 -0.305308 -6.24657e-05  -0.0508316 -0.304895 -7.82013e-05  -0.0522668 -0.327241 -2.88486e-05  -0.0448864 -0.327651 -2.67029e-05  -0.0444312 -0.320223 -2.95639e-05  -0.0522552 -0.327229 -3.31402e-05  -0.0517991 -0.319799 -3.69549e-05  -0.0444217 -0.320209 -3.48091e-05  -0.0517867 -0.319789 -4.74453e-05  -0.0531812 -0.342088 -1.23978e-05  -0.0457976 -0.342504 -1.3113e-05  -0.0453529 -0.33509 -1.64509e-05  -0.0531731 -0.342076 -1.57356e-05  -0.0527265 -0.334662 -1.95503e-05  -0.0453444 -0.33508 -1.4782e-05  -0.0527158 -0.334654 -2.31266e-05  -0.0540767 -0.356894 2.6226e-06  -0.0466931 -0.357312 5.00679e-06  -0.0462549 -0.349919 -1.90735e-06  -0.0540681 -0.356882 3.33786e-06  -0.0536296 -0.349488 -3.8147e-06  -0.0462472 -0.349913 -4.29153e-06  -0.0536206 -0.349484 -4.29153e-06  -0.0549655 -0.371664 1.54972e-05  -0.0475798 -0.372077 1.74046e-05  -0.047142 -0.364707 7.15256e-06  -0.0549521 -0.371654 1.90735e-05  -0.0545175 -0.364277 7.62939e-06  -0.047137 -0.364699 1.0252e-05  -0.0545123 -0.364271 9.05991e-06  -0.000706799 -0.000957936 -0.000864506  0 0 0  -0.000465602 -0.000555724 -0.000771523  -0.000136215 -0.000101447 -0.000323772  0 0 0  -0.000745296 -0.000774443 -0.00114989  -0.000214938 -0.000240237 -0.000482321  0 0 0  -0.000143167 -2.68519e-05 -0.000437021  -0.000225488 -0.000155389 -0.000647545  -0.00221668 -0.00387034 -0.00139999  -0.00144827 -0.00320274 -0.00121999  -0.000866145 -0.0019401 -0.000790834  -0.0023028 -0.00352952 -0.00181198  -0.00139238 -0.0022459 -0.00117731  -0.000911549 -0.0016973 -0.00103164  -0.00145964 -0.00198644 -0.00153685  -0.0040386 -0.00808313 -0.00161433  -0.00262004 -0.00731173 -0.00137019  -0.00197461 -0.00548682 -0.00102878  -0.00410169 -0.00763741 -0.00203705  -0.0031161 -0.00583795 -0.0015347  -0.00202706 -0.00510848 -0.00131488  -0.00319916 -0.00544137 -0.00195432  -0.00584868 -0.0133702 -0.00163054  -0.00379571 -0.0125882 -0.00136614  -0.00318745 -0.0102746 -0.00109982  -0.00586373 -0.0128646 -0.00203466  -0.00495353 -0.0105931 -0.00163388  -0.00321248 -0.00981459 -0.00137401  -0.00499195 -0.0101163 -0.00204706  -0.00757521 -0.0196646 -0.0015595  -0.00493997 -0.0189151 -0.00129128  -0.00437719 -0.0161227 -0.00107408  -0.00755453 -0.0191411 -0.00193572  -0.00672305 -0.0163848 -0.00160027  -0.00437206 -0.0156243 -0.00133348  -0.0067175 -0.0158777 -0.00199199  -0.00922769 -0.0269137 -0.00145197  -0.0060662 -0.0262215 -0.00120211  -0.00553477 -0.0229542 -0.00100756  -0.00918359 -0.0264042 -0.00180626  -0.00840807 -0.0231672 -0.00150728  -0.00550503 -0.0224501 -0.00125051  -0.00837582 -0.0226548 -0.00187325  -0.0108252 -0.0350623 -0.00133443  -0.0071823 -0.0344402 -0.0011034  -0.00666547 -0.030711 -0.000930309  -0.0107638 -0.0345794 -0.00166559  -0.0100331 -0.0308753 -0.00139666  -0.00662494 -0.0302216 -0.00115466  -0.00997877 -0.0303816 -0.00173545  -0.0123744 -0.0440461 -0.00122309  -0.00829029 -0.043493 -0.00101328  -0.0077889 -0.0393287 -0.000853062  -0.0123077 -0.0435893 -0.00152302  -0.0116044 -0.0394472 -0.00128007  -0.0077371 -0.0388653 -0.00105691  -0.0115409 -0.0389829 -0.00159073  -0.0138878 -0.0537882 -0.0011127  -0.00940156 -0.0533135 -0.000919104  -0.00890565 -0.0487432 -0.000776529  -0.0138153 -0.0533673 -0.00138998  -0.0131344 -0.0488196 -0.00116801  -0.00884712 -0.0483111 -0.000965595  -0.0130649 -0.0483871 -0.00145268  -0.0153637 -0.0642295 -0.00100708  -0.0105153 -0.0638338 -0.000834465  -0.0100181 -0.0588886 -0.000703096  -0.0152913 -0.0638459 -0.0012567  -0.0146292 -0.0589199 -0.00105882  -0.00996041 -0.0584887 -0.000873089  -0.0145568 -0.0585211 -0.00132132  -0.0168056 -0.0753141 -0.000911236  -0.0116249 -0.074988 -0.000746489  -0.0111305 -0.0696989 -0.000633955  -0.0167333 -0.0749587 -0.00113988  -0.0160894 -0.0696866 -0.00095892  -0.0110694 -0.069334 -0.000791311  -0.0160164 -0.0693249 -0.00119638  -0.0182141 -0.0869654 -0.000822306  -0.0127345 -0.0867171 -0.000671148  -0.0122379 -0.0811161 -0.000568628  -0.0181454 -0.086646 -0.00102377  -0.0175148 -0.0810641 -0.000866652  -0.0121802 -0.0807816 -0.000715017  -0.0174423 -0.0807321 -0.00108123  -0.0195901 -0.0991351 -0.000736475  -0.0138439 -0.0989584 -0.000603914  -0.0133423 -0.0930767 -0.0005126  -0.0195267 -0.0988489 -0.000922441  -0.0189054 -0.0929856 -0.00077939  -0.0132909 -0.0927745 -0.000641346  -0.0188408 -0.0926836 -0.000973463  -0.0209378 -0.111776 -0.000659227  -0.0149451 -0.111662 -0.000539303  -0.014449 -0.105526 -0.000458717  -0.0208789 -0.111515 -0.000821352  -0.0202702 -0.105399 -0.000695944  -0.014395 -0.105254 -0.000572443  -0.020206 -0.105127 -0.000872135  -0.0222539 -0.124825 -0.000583649  -0.0160468 -0.124774 -0.000469923  -0.015547 -0.118411 -0.000405073  -0.0221968 -0.124591 -0.000729084  -0.0215987 -0.118245 -0.000619173  -0.0154951 -0.118168 -0.000506639  -0.0215408 -0.118004 -0.000772953  -0.0235369 -0.138228 -0.00051403  -0.0171398 -0.138242 -0.000422716  -0.0166337 -0.13168 -0.00035882  -0.023486 -0.138027 -0.000641823  -0.0228965 -0.131481 -0.000549078  -0.0165935 -0.131463 -0.000448704  -0.0228469 -0.131267 -0.000685453  -0.0247891 -0.151956 -0.000448465  -0.0182245 -0.152018 -0.000362635  -0.0177219 -0.145282 -0.000309944  -0.024745 -0.151773 -0.000560045  -0.0241683 -0.145052 -0.000481844  -0.0176826 -0.145091 -0.000394344  -0.0241191 -0.144863 -0.000601768  -0.0260134 -0.165954 -0.000391245  -0.0192997 -0.166066 -0.000315666  -0.0187995 -0.159178 -0.000270128  -0.025969 -0.165794 -0.000485897  -0.025404 -0.158918 -0.000416994  -0.0187631 -0.159009 -0.00033927  -0.0253613 -0.15875 -0.000522614  -0.0272017 -0.180181 -0.000333548  -0.0203605 -0.18034 -0.000272512  -0.0198627 -0.173321 -0.000231504  -0.0271652 -0.180042 -0.000416517  -0.0266085 -0.173036 -0.000359297  -0.0198305 -0.173175 -0.000292778  -0.0265708 -0.172889 -0.000450373  -0.0283628 -0.194602 -0.000281572  -0.0214136 -0.1948 -0.000224352  -0.0209172 -0.187672 -0.000197887  -0.0283308 -0.194481 -0.000352383  -0.0277874 -0.187363 -0.000305414  -0.020889 -0.187547 -0.000246048  -0.0277512 -0.187237 -0.000384569  -0.029495 -0.209176 -0.000235081  -0.0224476 -0.209414 -0.000189304  -0.0219564 -0.202196 -0.000164509  -0.0294633 -0.209073 -0.000292778  -0.0289323 -0.201867 -0.000257015  -0.0219331 -0.202089 -0.000208378  -0.0289004 -0.201758 -0.000321627  -0.0305929 -0.223877 -0.000190973  -0.0234714 -0.224146 -0.000156164  -0.0229828 -0.216857 -0.000138283  -0.0305665 -0.22379 -0.000241041  -0.0300465 -0.216506 -0.000211716  -0.0229623 -0.216767 -0.000169992  -0.0300171 -0.216418 -0.000264406  -0.0316632 -0.23867 -0.00015521  -0.0244753 -0.238971 -0.000124693  -0.0239966 -0.231625 -0.000111341  -0.0316379 -0.238597 -0.000190496  -0.0311296 -0.231258 -0.000170708  -0.0239751 -0.231549 -0.000137568  -0.0311072 -0.231182 -0.000214338  -0.0327044 -0.253531 -0.000120163  -0.0254662 -0.25386 -9.82285e-05  -0.0249915 -0.246469 -8.86917e-05  -0.0326836 -0.253475 -0.000151634  -0.0321872 -0.246085 -0.000137329  -0.0249708 -0.246409 -0.00010705  -0.0321631 -0.24603 -0.00017333  -0.0337181 -0.268437 -9.27448e-05  -0.0264413 -0.268785 -6.74725e-05  -0.0259717 -0.261367 -6.38962e-05  -0.0337012 -0.268388 -0.000111818  -0.0332108 -0.260972 -0.000103474  -0.0259576 -0.261317 -8.22544e-05  -0.0331967 -0.260926 -0.000131607  -0.0347044 -0.283362 -6.46114e-05  -0.0273988 -0.283733 -4.88758e-05  -0.0269325 -0.276294 -4.79221e-05  -0.0346904 -0.283324 -8.10623e-05  -0.0342133 -0.275888 -7.89165e-05  -0.0269222 -0.276256 -5.81741e-05  -0.0342002 -0.275853 -9.84669e-05  -0.0356708 -0.29829 -4.26769e-05  -0.0283406 -0.298676 -2.64645e-05  -0.0278795 -0.291231 -3.09944e-05  -0.0356579 -0.298259 -5.43594e-05  -0.0351868 -0.290821 -5.22137e-05  -0.0278714 -0.291203 -3.93391e-05  -0.0351772 -0.29079 -6.74725e-05  -0.0366116 -0.313202 -2.95639e-05  -0.0292659 -0.313602 -2.45571e-05  -0.0288148 -0.306161 -2.21729e-05  -0.0366044 -0.313182 -3.55244e-05  -0.036144 -0.305742 -3.6478e-05  -0.0288053 -0.306139 -2.71797e-05  -0.03613 -0.305722 -4.50611e-05  -0.0375333 -0.32809 -1.43051e-05  -0.0301795 -0.3285 -6.67572e-06  -0.0297306 -0.321067 -1.14441e-05  -0.0375295 -0.328075 -1.57356e-05  -0.0370781 -0.320642 -2.09808e-05  -0.0297246 -0.321054 -1.3113e-05  -0.0370674 -0.320632 -2.71797e-05  -0.0384429 -0.342941 -2.38419e-06  -0.0310788 -0.343361 -1.90735e-06  -0.0306373 -0.335944 -5.72205e-06  -0.0384352 -0.342932 -7.39098e-06  -0.0379915 -0.335516 -9.29832e-06  -0.0306301 -0.335935 -6.91414e-06  -0.0379817 -0.335508 -1.21593e-05  -0.0393336 -0.357753 1.19209e-06  -0.0319695 -0.358173 4.52995e-06  -0.0315294 -0.350778 4.76837e-07  -0.0393291 -0.357742 5.00679e-06  -0.0388877 -0.35035 1.90735e-06  -0.0315273 -0.35077 1.19209e-06  -0.0388839 -0.350342 2.38419e-07  -0.0402198 -0.372509 1.00136e-05  -0.0328512 -0.372928 1.07288e-05  -0.032414 -0.365563 5.00679e-06  -0.0402129 -0.372501 1.62125e-05  -0.0397756 -0.365134 7.86781e-06  -0.0324094 -0.365554 9.05991e-06  -0.0397701 -0.365126 7.62939e-06  -0.000195444 -0.00060752 -0.000287771  0 0 0  4.1604e-05 -0.000431865 1.50204e-05  9.47714e-06 -2.10106e-05 5.00679e-06  0 0 0  -0.000206292 -0.000448376 -0.000380278  -6.00815e-05 -3.17991e-05 -0.000159264  0 0 0  1.21966e-05 4.73261e-05 9.53674e-06  -6.24731e-05 3.86536e-05 -0.000213385  -0.000633538 -0.0033482 -0.000469446  0.000118166 -0.00302178 1.26362e-05  6.97672e-05 -0.0017637 7.39098e-06  -0.00065425 -0.00303683 -0.000605345  -0.000390977 -0.00178385 -0.00039053  7.92593e-05 -0.00153473 1.35899e-05  -0.000408649 -0.00155234 -0.000509739  -0.00119659 -0.0075646 -0.00054431  0.000176758 -0.00714141 -1.19209e-06  0.000136971 -0.00528634 1.43051e-06  -0.0012072 -0.00714761 -0.000684023  -0.000905931 -0.00530699 -0.000514507  0.000149757 -0.0049271 6.19888e-06  -0.000924557 -0.00493905 -0.000655651  -0.00179842 -0.0129374 -0.000551939  0.000184715 -0.0124671 -5.72205e-06  0.000168681 -0.0101138 -5.72205e-06  -0.00178865 -0.0124545 -0.000683784  -0.00149703 -0.0101158 -0.00055027  0.000187606 -0.0096679 -6.91414e-06  -0.00149697 -0.00966442 -0.000688791  -0.00240821 -0.0193278 -0.000524759  0.000140727 -0.0188566 -6.91414e-06  0.000147164 -0.0160216 -9.05991e-06  -0.00238645 -0.0188199 -0.000651121  -0.00210214 -0.015999 -0.000540733  0.000172257 -0.0155348 -9.53674e-06  -0.00208521 -0.0155095 -0.000670195  -0.00303721 -0.0266633 -0.000486851  2.89679e-05 -0.0262223 1.90735e-06  6.97374e-05 -0.022917 -6.4373e-06  -0.00300354 -0.0261621 -0.000601768  -0.00272232 -0.0228704 -0.000507593  9.41753e-05 -0.0224184 -3.8147e-06  -0.00269133 -0.022372 -0.00062871  -0.0036912 -0.0348918 -0.000445604  -0.000150263 -0.0344945 2.6226e-06  -8.08835e-05 -0.0307326 -3.33786e-06  -0.00364912 -0.0344116 -0.000552177  -0.00336248 -0.0306651 -0.000465393  -5.28693e-05 -0.0302474 -2.14577e-06  -0.00332165 -0.030176 -0.000576735  -0.00437474 -0.0439508 -0.000405312  -0.000393271 -0.0436062 9.53674e-06  -0.000295997 -0.0394088 1.90735e-06  -0.00432771 -0.0434994 -0.000501156  -0.00402761 -0.0393151 -0.000424623  -0.000262856 -0.0389481 4.76837e-06  -0.00398445 -0.0388528 -0.000524998  -0.00508785 -0.0537713 -0.00036335  -0.000705242 -0.0534879 1.57356e-05  -0.000570178 -0.0488844 9.29832e-06  -0.00503981 -0.0533527 -0.000451088  -0.00472581 -0.0487641 -0.000384569  -0.000539422 -0.0484504 1.14441e-05  -0.00468004 -0.0483311 -0.000476122  -0.0058347 -0.0642977 -0.000325441  -0.0010854 -0.0640666 2.36034e-05  -0.000923753 -0.0590905 1.38283e-05  -0.00578642 -0.063905 -0.000406265  -0.005458 -0.0589451 -0.0003438  -0.000886798 -0.058691 1.50204e-05  -0.00540841 -0.058546 -0.0004282  -0.00660837 -0.0754483 -0.000292778  -0.00152493 -0.0752785 2.47955e-05  -0.00133383 -0.0699629 1.38283e-05  -0.00656247 -0.0750933 -0.000370502  -0.00621593 -0.0697906 -0.000309229  -0.00129843 -0.0695955 1.95503e-05  -0.00617099 -0.0694238 -0.000384331  -0.00741231 -0.08718 -0.00026083  -0.00202501 -0.0870658 2.47955e-05  -0.00179839 -0.0814382 1.7643e-05  -0.00736821 -0.0868541 -0.000327826  -0.00700653 -0.0812392 -0.000277042  -0.0017674 -0.0811053 2.47955e-05  -0.00696003 -0.080908 -0.000343084  -0.00824142 -0.0994208 -0.00023222  -0.00258029 -0.0993647 2.81334e-05  -0.00232494 -0.0934584 1.81198e-05  -0.00819969 -0.0991304 -0.000291348  -0.00782192 -0.0932339 -0.000247002  -0.00229657 -0.0931542 2.43187e-05  -0.00778079 -0.092931 -0.000306368  -0.00909615 -0.112128 -0.00020647  -0.00318837 -0.112124 2.64645e-05  -0.00290537 -0.105962 2.07424e-05  -0.00905633 -0.111864 -0.000258446  -0.00866461 -0.105715 -0.000218868  -0.00287831 -0.10569 2.83718e-05  -0.00862324 -0.105442 -0.000272512  -0.00996792 -0.125237 -0.000179052  -0.00384104 -0.125285 3.05176e-05  -0.00353444 -0.118903 2.31266e-05  -0.00993323 -0.125005 -0.000221491  -0.00952983 -0.118631 -0.000191689  -0.00350857 -0.118656 2.76566e-05  -0.00949347 -0.118384 -0.000240326  -0.0108604 -0.138707 -0.000160694  -0.00453556 -0.138801 2.90871e-05  -0.0042057 -0.132219 2.21729e-05  -0.010826 -0.138498 -0.000196934  -0.0104115 -0.131927 -0.000168324  -0.00418174 -0.132001 2.7895e-05  -0.0103778 -0.131708 -0.000208616  -0.0117648 -0.152486 -0.000136375  -0.00526738 -0.152625 2.83718e-05  -0.0049181 -0.145869 2.52724e-05  -0.0117362 -0.152302 -0.000165701  -0.0113113 -0.145554 -0.000144243  -0.00489759 -0.145676 2.98023e-05  -0.0112801 -0.145363 -0.000180244  -0.0126839 -0.166532 -0.000115395  -0.00603271 -0.166714 2.6226e-05  -0.00566339 -0.159805 2.28882e-05  -0.0126567 -0.166373 -0.000146151  -0.0122237 -0.159473 -0.000124216  -0.00564432 -0.159637 2.88486e-05  -0.0121956 -0.159305 -0.000155926  -0.0136094 -0.180805 -9.60827e-05  -0.00682425 -0.181021 2.40803e-05  -0.0064404 -0.173988 2.26498e-05  -0.0135858 -0.180663 -0.000120163  -0.0131454 -0.17364 -0.000106573  -0.00642514 -0.17384 2.5034e-05  -0.0131207 -0.17349 -0.000132084  -0.0145411 -0.195266 -8.08239e-05  -0.00764108 -0.195516 2.3365e-05  -0.00724483 -0.188375 1.95503e-05  -0.0145187 -0.195146 -0.000100374  -0.0140727 -0.188011 -8.86917e-05  -0.00723052 -0.188247 2.52724e-05  -0.0140514 -0.187883 -0.000112772  -0.0154762 -0.209879 -6.46114e-05  -0.00847864 -0.21016 2.88486e-05  -0.00807142 -0.202927 1.88351e-05  -0.0154586 -0.209776 -8.22544e-05  -0.0150084 -0.202549 -7.1764e-05  -0.00805831 -0.20282 2.40803e-05  -0.0149887 -0.202441 -9.05991e-05  -0.0164113 -0.224609 -5.29289e-05  -0.00933313 -0.224918 1.90735e-05  -0.00891209 -0.217617 1.83582e-05  -0.0163953 -0.224521 -6.62804e-05  -0.0159433 -0.217227 -5.96046e-05  -0.0089047 -0.217524 2.16961e-05  -0.0159276 -0.217136 -7.41482e-05  -0.0173461 -0.239434 -3.93391e-05  -0.0101995 -0.239764 1.97887e-05  -0.00977278 -0.232407 1.93119e-05  -0.0173333 -0.239358 -4.79221e-05  -0.0168779 -0.232006 -4.8399e-05  -0.00976443 -0.23233 1.93119e-05  -0.0168667 -0.23193 -5.81741e-05  -0.0182772 -0.254317 -3.19481e-05  -0.0110734 -0.254669 2.19345e-05  -0.0106394 -0.247271 1.69277e-05  -0.018266 -0.254259 -3.76701e-05  -0.0178127 -0.246862 -3.71933e-05  -0.0106354 -0.247209 1.88351e-05  -0.0178001 -0.246801 -4.69685e-05  -0.0192041 -0.269246 -2.36034e-05  -0.0119536 -0.269612 1.71661e-05  -0.0115194 -0.262186 1.40667e-05  -0.0191936 -0.269193 -2.67029e-05  -0.0187387 -0.261772 -2.52724e-05  -0.0115144 -0.262136 1.88351e-05  -0.0187311 -0.261719 -3.38554e-05  -0.0201244 -0.284184 -1.62125e-05  -0.0128417 -0.284567 1.21593e-05  -0.0124004 -0.277128 1.0252e-05  -0.0201163 -0.284147 -2.12193e-05  -0.0196638 -0.276706 -1.97887e-05  -0.0123997 -0.277088 1.23978e-05  -0.0196552 -0.276668 -2.45571e-05  -0.0210388 -0.299123 -6.19888e-06  -0.0137315 -0.299518 1.69277e-05  -0.0132902 -0.292073 1.04904e-05  -0.0210316 -0.299096 -1.43051e-05  -0.0205832 -0.29165 -1.12057e-05  -0.0132849 -0.292045 1.09673e-05  -0.0205741 -0.29162 -1.26362e-05  -0.0219436 -0.314048 -5.00679e-06  -0.0146186 -0.314457 1.04904e-05  -0.0141776 -0.307014 6.67572e-06  -0.0219412 -0.314027 -8.10623e-06  -0.0214925 -0.306584 -6.19888e-06  -0.0141723 -0.306989 1.12057e-05  -0.0214899 -0.306562 -8.10623e-06  -0.0228405 -0.328943 -2.14577e-06  -0.015502 -0.32936 1.14441e-05  -0.0150621 -0.321928 6.4373e-06  -0.0228393 -0.328928 -3.09944e-06  -0.0223949 -0.321495 -3.33786e-06  -0.0150599 -0.321912 7.39098e-06  -0.0223908 -0.321481 -3.57628e-06  -0.0237339 -0.343804 -9.53674e-07  -0.0163839 -0.344222 4.52995e-06  -0.0159397 -0.336809 4.05312e-06  -0.023731 -0.34379 -9.53674e-07  -0.0232882 -0.336377 1.19209e-06  -0.0159447 -0.336798 6.91414e-06  -0.0232859 -0.336364 -2.38419e-06  -0.0246181 -0.358615 1.43051e-06  -0.0172651 -0.359038 5.00679e-06  -0.0168226 -0.351643 2.14577e-06  -0.024615 -0.358605 4.76837e-06  -0.0241773 -0.351209 2.38419e-06  -0.016825 -0.351636 3.8147e-06  -0.0241742 -0.351203 2.38419e-07  -0.0254917 -0.373368 3.8147e-06  -0.0181329 -0.373786 6.4373e-06  -0.017698 -0.366424 9.53674e-07  -0.0254922 -0.373351 2.86102e-06  -0.0250564 -0.365992 3.8147e-06  -0.0177009 -0.366419 2.14577e-06  -0.0250521 -0.365986 6.19888e-06  0.000273347 -0.000668585 0.000302076  0 0 0  0.000551119 -0.000680923 0.000794172  0.000163995 -0.000168085 0.000337362  0 0 0  0.000291407 -0.000509977 0.000406265  8.47057e-05 -6.7234e-05 0.000172615  0 0 0  0.000166133 -9.90629e-05 0.000457048  8.78572e-05 3.33786e-06 0.000232935  0.000848591 -0.00345105 0.000477791  0.00168502 -0.0034219 0.00122714  0.0010149 -0.00210941 0.000797749  0.000890464 -0.00314832 0.000621319  0.000534177 -0.00186723 0.00040555  0.00107256 -0.00187296 0.00104499  0.00056982 -0.00164133 0.00053525  0.00151169 -0.00770473 0.000531912  0.00296247 -0.00759894 0.00134921  0.00224549 -0.00572956 0.00101972  0.00155538 -0.00729132 0.000676632  0.00117981 -0.00542974 0.000514507  0.00232744 -0.00536197 0.00130725  0.00122663 -0.00506836 0.000660181  0.00212181 -0.0131063 0.000532627  0.00415027 -0.0129354 0.00133634  0.00351444 -0.0105796 0.00107288  0.00215757 -0.012629 0.000666857  0.00182799 -0.0102707 0.000536442  0.00357366 -0.0101274 0.00135136  0.00186855 -0.00982255 0.000678062  0.00263077 -0.0195243 0.000506639  0.00519907 -0.0193252 0.00126767  0.00465655 -0.0164923 0.00104594  0.00266039 -0.019027 0.000636816  0.00239313 -0.0161865 0.000518322  0.00469613 -0.0160012 0.00131083  0.00242257 -0.0156981 0.000653982  0.00303108 -0.0268996 0.000477076  0.00609946 -0.0267041 0.00119114  0.00564051 -0.0233905 0.000988722  0.00305575 -0.0264025 0.000595331  0.00284594 -0.0230895 0.000491381  0.00566548 -0.0228931 0.00123596  0.0028705 -0.0225928 0.000617027  0.00332248 -0.0351657 0.000445366  0.00685555 -0.0349924 0.0011096  0.00648099 -0.0312212 0.000922203  0.00334537 -0.0346891 0.000556231  0.00319141 -0.0309219 0.000461578  0.00649679 -0.030736 0.00115418  0.00321376 -0.0304342 0.000578165  0.00351083 -0.0442653 0.000415087  0.00747359 -0.0441285 0.00102711  0.00716883 -0.0399216 0.000853062  0.00353324 -0.0438173 0.000519276  0.00343186 -0.0396129 0.000429869  0.00718254 -0.0394582 0.00106764  0.00345194 -0.0391496 0.000538349  0.00359726 -0.0541342 0.000385284  0.00795925 -0.0540348 0.000948191  0.0077244 -0.0494199 0.000786781  0.00361943 -0.0537125 0.000480652  0.0035671 -0.0491035 0.000398636  0.00773168 -0.0489879 0.000985622  0.00358939 -0.0486708 0.000500441  0.00358546 -0.064702 0.000355482  0.00831258 -0.0646455 0.000873327  0.00814211 -0.0596537 0.000725746  0.00360882 -0.0643117 0.00044322  0.0036031 -0.0593287 0.000371456  0.00815237 -0.0592557 0.000908852  0.00362623 -0.0589278 0.000463486  0.00348175 -0.0759011 0.000326633  0.00854206 -0.0758886 0.000795841  0.00843477 -0.0705572 0.000666618  0.00350213 -0.0755445 0.000411272  0.00354493 -0.0702198 0.000340223  0.00844181 -0.0701895 0.000830412  0.00356627 -0.0698504 0.0004251  0.00328851 -0.0876754 0.0002985  0.00865066 -0.0877063 0.000727654  0.00860238 -0.0820656 0.000606537  0.00330818 -0.0873501 0.000374556  0.00339603 -0.0817124 0.000313044  0.00861108 -0.0817277 0.000761747  0.00341535 -0.0813775 0.000393152  0.00301123 -0.0999618 0.000270605  0.00864935 -0.100036 0.000659943  0.00865996 -0.0941139 0.000552654  0.00302744 -0.0996671 0.000342607  0.00316131 -0.093752 0.00028801  0.00866246 -0.0938099 0.000691891  0.00317943 -0.0934467 0.00036025  0.00265682 -0.112709 0.000247002  0.00854421 -0.112822 0.000596285  0.0086056 -0.106649 0.000500679  0.00267208 -0.112443 0.000309467  0.00284314 -0.106273 0.000261068  0.0086118 -0.106375 0.00062418  0.00286198 -0.106 0.00032568  0.00223207 -0.125859 0.000225544  0.00833869 -0.126012 0.000537634  0.0084461 -0.119616 0.000450134  0.00224507 -0.12562 0.000283241  0.00245321 -0.11923 0.000235796  0.00845408 -0.119369 0.000563383  0.0024662 -0.118984 0.000297546  0.00173926 -0.139366 0.000204563  0.00804615 -0.139553 0.00047636  0.00819981 -0.13296 0.000402451  0.00175047 -0.139151 0.000252962  0.00199449 -0.132564 0.000213861  0.0082041 -0.132739 0.000503063  0.0020057 -0.132344 0.000268936  0.00118566 -0.153178 0.000179052  0.00766945 -0.1534 0.000422239  0.00786686 -0.146635 0.00035882  0.00119615 -0.152991 0.000224113  0.00146961 -0.146227 0.000190973  0.00786781 -0.146438 0.000449896  0.00147891 -0.146034 0.000239849  0.000578642 -0.167254 0.000159502  0.00721812 -0.167505 0.000370264  0.00745225 -0.160593 0.000315666  0.000589609 -0.16709 0.000199795  0.000891209 -0.160178 0.000169277  0.00745416 -0.160421 0.000395536  0.000899553 -0.160009 0.000212908  -7.55787e-05 -0.181556 0.000138521  0.00669622 -0.181834 0.000321627  0.00696516 -0.174794 0.000277519  -6.69956e-05 -0.181411 0.00017643  0.0002563 -0.174373 0.00014782  0.00696659 -0.174645 0.000347614  0.000266075 -0.174224 0.00018692  -0.00077343 -0.196038 0.000121832  0.00611329 -0.196341 0.000279188  0.00641632 -0.189197 0.000238419  -0.000766754 -0.195914 0.000152349  -0.000417948 -0.188769 0.000129938  0.00641346 -0.189066 0.000299931  -0.000410557 -0.188641 0.000163555  -0.00150967 -0.21067 0.000101805  0.00547576 -0.210998 0.000236034  0.00580406 -0.203764 0.000204563  -0.00150681 -0.210564 0.000127792  -0.00113821 -0.203331 0.000111818  0.00580263 -0.203652 0.000254631  -0.00113153 -0.203222 0.000141144  -0.00227714 -0.225421 8.72612e-05  0.00479317 -0.225769 0.000195742  0.00514674 -0.218464 0.00017333  -0.00227356 -0.225335 0.000105619  -0.00188684 -0.218029 9.56059e-05  0.00513887 -0.21837 0.000216961  -0.00188708 -0.217936 0.00012064  -0.00307012 -0.240261 7.03335e-05  0.00406933 -0.240623 0.000158787  0.00443935 -0.233264 0.000142336  -0.00306845 -0.240183 9.27448e-05  -0.00267124 -0.232825 7.79629e-05  0.00443411 -0.233185 0.00017786  -0.002666 -0.232749 0.000101089  -0.00388622 -0.255157 6.07967e-05  0.00330949 -0.255536 0.000127316  0.00369978 -0.248134 0.000117779  -0.00388479 -0.255095 7.67708e-05  -0.00347447 -0.247695 6.46114e-05  0.00369191 -0.248072 0.000147581  -0.00347328 -0.247633 8.32081e-05  -0.0047195 -0.270089 4.60148e-05  0.00251985 -0.270484 0.000105381  0.00292468 -0.263054 9.46522e-05  -0.0047214 -0.270043 5.74589e-05  -0.00429749 -0.262613 5.50747e-05  0.00291824 -0.263004 0.000118256  -0.00429869 -0.262564 6.84261e-05  -0.00556827 -0.285037 3.83854e-05  0.00171041 -0.285441 8.2016e-05  0.00212312 -0.278001 7.41482e-05  -0.00556898 -0.285 4.48227e-05  -0.00514483 -0.277558 4.1008e-05  0.00211835 -0.277961 8.82149e-05  -0.0051403 -0.277518 5.22137e-05  -0.0064292 -0.299984 2.74181e-05  0.000875473 -0.300396 5.62668e-05  0.00129819 -0.292948 5.65052e-05  -0.00643039 -0.299952 3.48091e-05  -0.00599217 -0.292506 3.24249e-05  0.00129366 -0.292919 6.65188e-05  -0.00600028 -0.292477 3.95775e-05  -0.0072968 -0.314915 1.64509e-05  2.90871e-05 -0.315331 4.33922e-05  0.000463009 -0.307889 3.69549e-05  -0.00729585 -0.31489 2.26498e-05  -0.00686288 -0.307448 2.19345e-05  0.000452518 -0.307866 4.72069e-05  -0.00686169 -0.307424 2.7895e-05  -0.00816488 -0.32981 1.19209e-05  -0.000825644 -0.330236 2.19345e-05  -0.000393391 -0.322803 2.5034e-05  -0.00816679 -0.329797 1.4782e-05  -0.00773096 -0.322365 1.52588e-05  -0.000397921 -0.322787 2.90871e-05  -0.00773001 -0.322346 1.88351e-05  -0.00903893 -0.344673 8.82149e-06  -0.00169492 -0.345099 4.76837e-06  -0.00125432 -0.337684 1.5974e-05  -0.00903964 -0.34466 1.26362e-05  -0.00860023 -0.337244 1.19209e-05  -0.00126052 -0.337671 2.43187e-05  -0.00860238 -0.337233 1.28746e-05  -0.00991225 -0.359485 1.43051e-06  -0.00256181 -0.359909 1.43051e-06  -0.00212216 -0.352515 6.91414e-06  -0.00991464 -0.359472 1.19209e-06  -0.00947499 -0.352078 4.76837e-06  -0.00212884 -0.352509 8.58307e-06  -0.0094769 -0.35207 6.4373e-06  -0.0107822 -0.374234 -4.52995e-06  -0.00342488 -0.37466 -1.26362e-05  -0.00299168 -0.3673 -2.86102e-06  -0.0107815 -0.374223 -3.57628e-06  -0.0103478 -0.366859 0  -0.00299478 -0.367293 -2.38419e-06  -0.0103481 -0.366854 -9.53674e-07  0.00078845 -0.00113332 0.00087142  0 0 0  0.0011542 -0.00137228 0.00152349  0.000341691 -0.000603795 0.000639677  0 0 0  0.0008329 -0.000962496 0.00116611  0.00024318 -0.000341177 0.000489473  0 0 0  0.000354752 -0.000510454 0.000867128  0.000251658 -0.000262856 0.000662327  0.00243267 -0.00417763 0.0013938  0.00345197 -0.00445789 0.00237679  0.00211272 -0.00304633 0.00154352  0.00253585 -0.00385207 0.00180244  0.00153674 -0.00249279 0.00117469  0.00222132 -0.00277466 0.00202298  0.00162007 -0.00224441 0.00153875  0.00433871 -0.00849402 0.00158429  0.00598174 -0.00867957 0.00264049  0.00459987 -0.00683844 0.00199437  0.00443384 -0.00806057 0.00200295  0.00338507 -0.00619751 0.0015142  0.00473082 -0.00643206 0.00254846  0.0034923 -0.0058127 0.00193715  0.00614172 -0.0138655 0.00159216  0.00832313 -0.0139627 0.00263691  0.00709316 -0.0116603 0.00211716  0.00620234 -0.0133801 0.00199556  0.00526354 -0.0110473 0.00160217  0.00718138 -0.0111843 0.00265789  0.00534037 -0.0105832 0.00201082  0.00775063 -0.0202612 0.00152659  0.0104361 -0.0203087 0.00253105  0.00935775 -0.01751 0.00207591  0.007783 -0.0197534 0.00190735  0.00697166 -0.0169337 0.00156426  0.00940764 -0.0170039 0.00259376  0.0070166 -0.0164381 0.00195432  0.00916481 -0.02762 0.00143337  0.0123281 -0.0276581 0.00237703  0.0113846 -0.0243659 0.00196886  0.00918269 -0.0271222 0.00178885  0.0084818 -0.0238175 0.00148201  0.0114111 -0.0238621 0.00245667  0.00850546 -0.0233169 0.00184989  0.0103926 -0.0358886 0.00132942  0.0140061 -0.0359341 0.00220752  0.0131854 -0.0321709 0.00183725  0.0104018 -0.035408 0.00166273  0.00980222 -0.0316391 0.00137973  0.0131935 -0.0316829 0.00229454  0.00981402 -0.0311537 0.00172663  0.0114479 -0.0449971 0.00122833  0.0154819 -0.045059 0.00203824  0.0147735 -0.0408561 0.0016973  0.0114495 -0.0445433 0.00153255  0.0109454 -0.0403352 0.00127792  0.0147703 -0.0403939 0.0021224  0.0109474 -0.0398732 0.00159836  0.0123308 -0.0548767 0.00112796  0.0167557 -0.0549635 0.00187778  0.0161513 -0.0503495 0.00156474  0.0123289 -0.0544507 0.00141096  0.0119117 -0.0498343 0.00117612  0.0161426 -0.0499201 0.00195622  0.0119107 -0.0494033 0.00147223  0.0130485 -0.0654542 0.00103545  0.0178325 -0.0655748 0.00171542  0.0173339 -0.0605823 0.00143671  0.0130459 -0.0650668 0.00129294  0.0127115 -0.0600729 0.00107908  0.0173169 -0.0601844 0.00179386  0.0127084 -0.0596741 0.00135231  0.0136124 -0.0766689 0.00094676  0.0187275 -0.0768219 0.00156498  0.0183158 -0.0714899 0.00131035  0.0136092 -0.0763153 0.0011816  0.0133528 -0.070982 0.00098896  0.018302 -0.0711219 0.00163817  0.0133467 -0.0706139 0.00123668  0.0140294 -0.088461 0.000861168  0.0194454 -0.0886431 0.0014236  0.0191194 -0.0829982 0.00119424  0.0140244 -0.088135 0.00107503  0.0138389 -0.0824916 0.000904799  0.0191083 -0.0826632 0.00149274  0.0138354 -0.0821577 0.00113082  0.0143038 -0.100771 0.000777721  0.0199915 -0.100978 0.00129175  0.0197524 -0.0950525 0.00108385  0.0142988 -0.100472 0.000972509  0.0141823 -0.0945485 0.000818968  0.019738 -0.0947484 0.00135446  0.0141782 -0.0942442 0.0010252  0.0144469 -0.11353 0.000703335  0.0203809 -0.113767 0.00116014  0.0202177 -0.107591 0.000977993  0.0144416 -0.113264 0.000877619  0.0143901 -0.107086 0.000739574  0.0202051 -0.107318 0.00122237  0.0143863 -0.106814 0.000924349  0.014466 -0.126699 0.000627518  0.0206219 -0.126958 0.00103927  0.0205362 -0.120559 0.000876665  0.0144596 -0.126458 0.000785589  0.0144707 -0.120059 0.000664234  0.0205193 -0.120314 0.00109768  0.0144666 -0.119813 0.000831604  0.0143704 -0.140214 0.000558853  0.0207224 -0.140502 0.000923395  0.0207008 -0.133909 0.000783682  0.014365 -0.140002 0.000700235  0.0144364 -0.133408 0.000593185  0.0206912 -0.133688 0.000980616  0.0144261 -0.133188 0.000741243  0.0141704 -0.154039 0.000496626  0.0206952 -0.154351 0.000816345  0.0207424 -0.147585 0.000693083  0.014163 -0.153854 0.000616312  0.0142832 -0.147086 0.000524998  0.0207248 -0.14739 0.000869989  0.0142753 -0.14689 0.000657797  0.0138721 -0.168128 0.000433207  0.0205464 -0.168456 0.000708342  0.0206523 -0.161545 0.000607252  0.0138671 -0.167962 0.000541449  0.0140331 -0.161046 0.00046277  0.0206337 -0.161371 0.000761986  0.0140252 -0.160875 0.000577211  0.0134859 -0.182437 0.000375509  0.020294 -0.182781 0.000614166  0.0204537 -0.175742 0.000530243  0.0134799 -0.182291 0.000467777  0.0136902 -0.175247 0.000402689  0.0204337 -0.175592 0.00066328  0.0136847 -0.175101 0.00050211  0.01302 -0.196923 0.00032258  0.0199423 -0.197289 0.000530958  0.0201445 -0.190143 0.000457287  0.0130143 -0.1968 0.000404596  0.0132627 -0.189654 0.000347853  0.0201287 -0.190013 0.000569582  0.013257 -0.189523 0.000436306  0.0124834 -0.21156 0.000272989  0.0195005 -0.211942 0.00044179  0.0197484 -0.204706 0.000388384  0.0124762 -0.211458 0.000338316  0.0127616 -0.20422 0.000296116  0.019731 -0.204597 0.000483751  0.0127528 -0.204112 0.000371456  0.0118842 -0.226314 0.00022912  0.0189829 -0.226707 0.000371695  0.0192671 -0.219404 0.000324249  0.0118744 -0.226228 0.000285149  0.0121872 -0.218922 0.000249147  0.0192506 -0.21931 0.000406742  0.0121832 -0.218829 0.000311613  0.0112271 -0.241156 0.000181913  0.0183907 -0.241554 0.000300646  0.0187092 -0.234199 0.000268459  0.0112202 -0.241079 0.000231028  0.0115592 -0.23372 0.000204086  0.0186958 -0.23412 0.000336409  0.0115547 -0.233642 0.000256777  0.010524 -0.256049 0.000149012  0.0177412 -0.256461 0.000244379  0.0180881 -0.249063 0.000218391  0.0105147 -0.25599 0.000189781  0.0108809 -0.24859 0.00016427  0.0180736 -0.249 0.00027132  0.0108733 -0.248528 0.000210285  0.00978041 -0.270984 0.000114441  0.0170424 -0.271399 0.000188589  0.0174134 -0.263978 0.000169516  0.00977206 -0.270935 0.000143766  0.0101569 -0.263511 0.000130415  0.0173965 -0.263925 0.000211239  0.010149 -0.263458 0.000167131  0.00900054 -0.285932 8.72612e-05  0.0162973 -0.286352 0.000140667  0.0166855 -0.278915 0.000129223  0.00899363 -0.285894 0.000108004  0.00939751 -0.278453 0.000101805  0.0166764 -0.278876 0.000160217  0.00938654 -0.278413 0.000128269  0.00819492 -0.300875 6.22272e-05  0.0155127 -0.3013 9.9659e-05  0.0159225 -0.293857 9.46522e-05  0.00818825 -0.300843 7.98702e-05  0.00860214 -0.293399 7.58171e-05  0.0159085 -0.293827 0.000121355  0.0085938 -0.293368 9.29832e-05  0.00736713 -0.315799 4.05312e-05  0.0147054 -0.316229 6.84261e-05  0.0151179 -0.308788 6.53267e-05  0.00736141 -0.315777 4.88758e-05  0.00778365 -0.308335 5.07832e-05  0.0151126 -0.308767 8.24928e-05  0.00777698 -0.308313 6.58035e-05  0.00652146 -0.330699 2.55108e-05  0.0138712 -0.331127 4.14848e-05  0.014297 -0.323695 4.26769e-05  0.00651813 -0.33068 3.43323e-05  0.00694633 -0.323249 3.26633e-05  0.0142894 -0.323681 5.19753e-05  0.00694323 -0.323231 4.43459e-05  0.00566506 -0.345551 1.19209e-05  0.0130198 -0.345982 1.54972e-05  0.0134563 -0.33857 2.40803e-05  0.00565958 -0.345541 1.7643e-05  0.00609612 -0.338126 2.16961e-05  0.0134478 -0.338559 2.90871e-05  0.00608993 -0.338112 2.59876e-05  0.00480342 -0.360363 1.19209e-06  0.0121589 -0.360791 9.53674e-07  0.0125978 -0.3534 6.4373e-06  0.00479507 -0.360348 3.57628e-06  0.00523639 -0.352959 7.39098e-06  0.0125911 -0.353392 1.00136e-05  0.00522804 -0.352949 8.58307e-06  0.00394058 -0.375118 -8.58307e-06  0.0112958 -0.375553 -1.62125e-05  0.0117371 -0.368186 -5.72205e-06  0.00393438 -0.375107 -1.74046e-05  0.0043714 -0.367741 -5.96046e-06  0.0117283 -0.368177 -5.48363e-06  0.0043633 -0.367735 -6.67572e-06  0.00147419 -0.00218797 0.00139451  0 0 0  0.00199842 -0.00282621 0.00218415  0.000596747 -0.00154287 0.000923634  0 0 0  0.00154482 -0.00196928 0.00185776  0.000449494 -0.000990212 0.000776291  0 0 0  0.00061065 -0.00140351 0.0012362  0.000463799 -0.000877202 0.00104523  0.00437281 -0.00564003 0.002244  0.00572214 -0.00625312 0.00342298  0.00366913 -0.0048005 0.00223351  0.00452062 -0.00525624 0.00290728  0.00282721 -0.00380021 0.00188828  0.00379322 -0.00445032 0.00291562  0.0029524 -0.00349498 0.00247097  0.00752863 -0.0099259 0.00257802  0.00945833 -0.010341 0.00386834  0.00747943 -0.00863963 0.00290704  0.00765625 -0.00944269 0.00326395  0.00596976 -0.00765729 0.00245667  0.00763708 -0.00816649 0.00370836  0.00611621 -0.00721818 0.00313449  0.0104671 -0.0151945 0.00261617  0.01288 -0.0155205 0.0039022  0.0110969 -0.0133113 0.0031147  0.0105435 -0.0146787 0.00327921  0.00903028 -0.0124201 0.0026207  0.011203 -0.0127909 0.00392032  0.00913244 -0.0119228 0.0032959  0.0131361 -0.0215084 0.00252151  0.0160264 -0.0217866 0.00375915  0.0144303 -0.0190493 0.00307488  0.0131743 -0.0209882 0.00314879  0.0118363 -0.018217 0.0025804  0.0144876 -0.0185182 0.00384617  0.0118908 -0.0177005 0.0032258  0.0155432 -0.0288171 0.0023725  0.0188892 -0.029075 0.00354218  0.0174661 -0.0258232 0.00293064  0.0155551 -0.0283071 0.00295973  0.0143698 -0.0250368 0.00245094  0.0174904 -0.0253071 0.00365591  0.0143966 -0.0245261 0.00305939  0.0176946 -0.0370508 0.00220251  0.0214792 -0.0373067 0.00329113  0.0202151 -0.033569 0.0027349  0.0176916 -0.0365672 0.00275064  0.0166531 -0.0328155 0.00228882  0.0202187 -0.0330768 0.00341773  0.0166539 -0.0323253 0.00285864  0.0196011 -0.0461339 0.0020318  0.023798 -0.0463984 0.00304055  0.0226805 -0.0422115 0.00253367  0.0195891 -0.0456783 0.00253963  0.0186796 -0.0414808 0.00211859  0.0226716 -0.0417493 0.0031631  0.0186706 -0.0410196 0.0026443  0.0212715 -0.0559933 0.00187016  0.025846 -0.0562739 0.00279593  0.0248668 -0.0516735 0.00233507  0.0212556 -0.0555717 0.00233483  0.0204638 -0.0509655 0.00194979  0.0248537 -0.0512402 0.00291729  0.0204514 -0.0505329 0.00243664  0.0227126 -0.0665593 0.00170922  0.0276424 -0.0668553 0.00255394  0.0268012 -0.0618759 0.00214005  0.0226917 -0.0661695 0.00213695  0.0220188 -0.0611849 0.00178742  0.0267776 -0.0614793 0.00267315  0.0220007 -0.0607861 0.00223422  0.0239336 -0.077764 0.00155997  0.0291878 -0.078077 0.00233412  0.0284665 -0.0727557 0.0019536  0.0239149 -0.0774098 0.00194836  0.0233486 -0.0720806 0.00163341  0.0284445 -0.0723898 0.00244188  0.0233308 -0.0717158 0.00204253  0.0249484 -0.089545 0.00141788  0.0304958 -0.0898756 0.00211382  0.0298969 -0.0842398 0.00178027  0.0249292 -0.0892235 0.0017767  0.0244688 -0.0835808 0.00148797  0.0298709 -0.0839073 0.00222373  0.0244473 -0.0832459 0.00185943  0.0257673 -0.101843 0.00128078  0.0315813 -0.102188 0.00191259  0.0310897 -0.0962723 0.00161147  0.0257475 -0.101548 0.00160193  0.0253842 -0.0956278 0.00134921  0.0310665 -0.09597 0.00201368  0.0253609 -0.0953248 0.0016849  0.0263978 -0.114598 0.00115347  0.0324525 -0.114955 0.00171876  0.0320663 -0.108791 0.00145364  0.0263784 -0.11433 0.00144196  0.0261053 -0.10816 0.0012145  0.0320448 -0.108515 0.00181675  0.0260847 -0.107885 0.00151777  0.0268563 -0.127753 0.00102949  0.0331239 -0.128126 0.00153971  0.0328338 -0.121738 0.00130153  0.0268368 -0.127512 0.00129104  0.02665 -0.121116 0.00108886  0.0328114 -0.121491 0.00162697  0.02663 -0.120874 0.00136399  0.0271499 -0.14126 0.000915766  0.0336084 -0.14165 0.00136566  0.0334095 -0.135063 0.00115967  0.0271332 -0.14105 0.00114465  0.0270253 -0.13446 0.000971794  0.0333879 -0.134847 0.00145078  0.0270034 -0.134241 0.00121546  0.027292 -0.155078 0.000808001  0.0339174 -0.155475 0.00120354  0.0338073 -0.148721 0.0010283  0.0272732 -0.154891 0.00100899  0.0272398 -0.148129 0.000860691  0.0337837 -0.148526 0.00128174  0.0272205 -0.147936 0.00107574  0.0272954 -0.169159 0.000703573  0.0340664 -0.169561 0.00105119  0.0340314 -0.162658 0.000898361  0.0272777 -0.168989 0.00088048  0.0273118 -0.162082 0.000754595  0.0340104 -0.162489 0.00112224  0.0272927 -0.161907 0.000943899  0.0271709 -0.183453 0.000608921  0.0340652 -0.183866 0.000908136  0.0341041 -0.176837 0.000781298  0.0271516 -0.183307 0.000760794  0.0272489 -0.17627 0.000656128  0.0340831 -0.176688 0.000977993  0.0272307 -0.176122 0.000821352  0.0269301 -0.197928 0.000520229  0.033931 -0.198353 0.000771523  0.0340323 -0.191218 0.000672102  0.0269091 -0.197809 0.000650883  0.027065 -0.190666 0.000562668  0.034014 -0.191089 0.000840902  0.027046 -0.190536 0.000706673  0.0265825 -0.212559 0.000440121  0.0336735 -0.212984 0.000654936  0.0338335 -0.205761 0.00056839  0.0265658 -0.21245 0.000550747  0.0267684 -0.205221 0.000477791  0.0338173 -0.205653 0.000710964  0.026751 -0.205112 0.000598907  0.0261381 -0.227296 0.000365973  0.0333059 -0.227727 0.00053978  0.0335243 -0.220437 0.000479221  0.0261223 -0.227206 0.000453949  0.0263705 -0.219908 0.000400066  0.0335028 -0.220343 0.000597477  0.0263548 -0.219814 0.00050354  0.0256104 -0.24212 0.000296354  0.0328381 -0.242558 0.000437498  0.0330999 -0.235207 0.000391722  0.0255961 -0.242046 0.000372887  0.0258818 -0.234695 0.000330448  0.0330861 -0.235134 0.000491381  0.0258694 -0.234617 0.000412941  0.0250113 -0.257006 0.000236988  0.0322845 -0.257443 0.000350714  0.0325899 -0.250056 0.000316143  0.0249953 -0.256945 0.000294685  0.0253205 -0.249551 0.000266552  0.0325725 -0.249993 0.000396013  0.0253036 -0.249488 0.000332594  0.0243495 -0.271926 0.00018239  0.031656 -0.272365 0.000267267  0.0319934 -0.264947 0.000247717  0.0243349 -0.271876 0.000227213  0.0246875 -0.264456 0.000208616  0.0319784 -0.2649 0.00030899  0.0246711 -0.264407 0.000261784  0.0236304 -0.28686 0.000136852  0.0309651 -0.287298 0.000206947  0.0313323 -0.279868 0.000187397  0.023617 -0.286821 0.000175953  0.0239978 -0.279388 0.000157595  0.0313179 -0.279828 0.000232458  0.023984 -0.279348 0.000200987  0.022866 -0.301794 9.58443e-05  0.0302219 -0.30223 0.000145674  0.0306141 -0.294793 0.000135899  0.0228574 -0.301762 0.000119209  0.023252 -0.29432 0.000115871  0.0305982 -0.294764 0.000169754  0.0232437 -0.294293 0.000146389  0.0220697 -0.31671 6.60419e-05  0.0294335 -0.317145 9.72748e-05  0.0298488 -0.309712 9.39369e-05  0.0220585 -0.316684 8.24928e-05  0.0224738 -0.309248 8.10623e-05  0.0298312 -0.309692 0.000117064  0.0224624 -0.309228 0.000101566  0.0212436 -0.331595 4.05312e-05  0.0286102 -0.332028 5.6982e-05  0.0290363 -0.324606 5.98431e-05  0.0212343 -0.331577 4.72069e-05  0.0216589 -0.32415 5.26905e-05  0.0290253 -0.32459 7.62939e-05  0.0216508 -0.324134 6.55651e-05  0.0203969 -0.346443 2.02656e-05  0.0277679 -0.346875 2.57492e-05  0.0282047 -0.339465 3.40939e-05  0.0203886 -0.346428 2.57492e-05  0.0208218 -0.339017 2.6226e-05  0.0281894 -0.339456 4.05312e-05  0.0208139 -0.339005 3.71933e-05  0.0195363 -0.361247 3.33786e-06  0.0269077 -0.36168 8.82149e-06  0.0273504 -0.354289 1.28746e-05  0.0195286 -0.361236 2.14577e-06  0.0199683 -0.353843 1.09673e-05  0.0273407 -0.354281 1.57356e-05  0.0199604 -0.353837 9.53674e-06  0.0186768 -0.376012 -1.3113e-05  0.0260434 -0.376449 -1.38283e-05  0.0264845 -0.369073 -1.66893e-06  0.0186691 -0.375999 -1.95503e-05  0.0191095 -0.36863 -5.24521e-06  0.0264759 -0.369069 -4.52995e-06  0.0190976 -0.368623 -6.4373e-06  0.00268514 -0.00440413 0.00191665  0 0 0  0.00379097 -0.00578588 0.00289607  0.001337 -0.00362176 0.00123167  0 0 0  0.00272979 -0.004094 0.0025301  0.000807837 -0.00234812 0.00104189  0 0 0  0.00131464 -0.00339091 0.00164342  0.00081306 -0.00217652 0.00139213  0.00701353 -0.00787908 0.00305939  0.00876918 -0.00858748 0.00449252  0.00633913 -0.00748366 0.00295019  0.00714794 -0.0073939 0.00395203  0.00486921 -0.00605178 0.00258398  0.00638078 -0.00700742 0.00384092  0.00496651 -0.00564164 0.00337148  0.0112441 -0.0119154 0.00354409  0.0134441 -0.0125296 0.00510025  0.0109842 -0.0109642 0.00382853  0.0113769 -0.0113709 0.00448442  0.00914401 -0.00975913 0.00336432  0.011111 -0.0104169 0.00488973  0.00928876 -0.00924635 0.00429797  0.0152511 -0.0170355 0.00361753  0.0179374 -0.0175644 0.00516152  0.0156282 -0.0154652 0.00410509  0.0153375 -0.016484 0.00453472  0.0132881 -0.0143307 0.00361276  0.0157322 -0.0148982 0.0051775  0.0133951 -0.0137856 0.0045464  0.0189487 -0.0232428 0.00349832  0.0221149 -0.0237334 0.00498199  0.0199911 -0.0210686 0.0040679  0.0189972 -0.0227014 0.00437021  0.0171391 -0.0200003 0.00357127  0.0200691 -0.0205146 0.00508976  0.0172058 -0.019457 0.00447059  0.0223266 -0.030467 0.003299  0.0259497 -0.0309439 0.00469351  0.0240306 -0.0277449 0.00387454  0.0223474 -0.0299541 0.00411797  0.0206791 -0.0267242 0.00340343  0.024074 -0.0272126 0.00484347  0.0207112 -0.0262041 0.00425124  0.0253856 -0.0386393 0.00306439  0.0294388 -0.0391035 0.00436163  0.0277133 -0.0354076 0.00362659  0.0253884 -0.0381536 0.00382686  0.0238981 -0.034436 0.00318289  0.0277369 -0.034911 0.00452471  0.0239066 -0.0339386 0.00397539  0.0281322 -0.0476723 0.00283194  0.032589 -0.0481352 0.00403357  0.031042 -0.0439812 0.0033586  0.0281234 -0.0472165 0.0035398  0.0267968 -0.043045 0.00294733  0.0310579 -0.0435168 0.00419235  0.0267938 -0.0425818 0.00368381  0.0305715 -0.0574843 0.00260019  0.0354005 -0.0579503 0.00370002  0.0340381 -0.053378 0.00309348  0.0305583 -0.0570669 0.0032506  0.0293896 -0.0524777 0.00271535  0.0340379 -0.0529499 0.00386429  0.0293788 -0.052048 0.00339365  0.0327184 -0.0680131 0.00237989  0.0378876 -0.0684782 0.00338912  0.0366871 -0.0635275 0.00283766  0.0327013 -0.067625 0.00297499  0.0316815 -0.0626579 0.00248933  0.0366803 -0.063131 0.00354648  0.0316648 -0.0622613 0.00310993  0.0345827 -0.0791776 0.00216985  0.0400679 -0.0796524 0.00308728  0.0390188 -0.0743491 0.00259328  0.0345695 -0.0788239 0.00271368  0.0336844 -0.0735097 0.0022738  0.039018 -0.0739884 0.00323844  0.0336696 -0.0731475 0.0028429  0.0361861 -0.090921 0.00196719  0.0419528 -0.0913997 0.00280023  0.0410542 -0.0857854 0.00235581  0.0361662 -0.0906016 0.00246167  0.0354186 -0.084976 0.00206876  0.041045 -0.0854565 0.00294375  0.0353992 -0.0846446 0.00258517  0.0375295 -0.103183 0.00177979  0.0435504 -0.103662 0.00253248  0.0427961 -0.0977683 0.00213408  0.0375106 -0.102892 0.00222301  0.036889 -0.0969882 0.00187492  0.0427862 -0.0974699 0.0026679  0.0368707 -0.0966869 0.00234342  0.0386348 -0.115903 0.00159764  0.044885 -0.116386 0.00227857  0.044255 -0.110241 0.00192523  0.0386174 -0.11564 0.00199842  0.03811 -0.109486 0.00168967  0.04425 -0.109968 0.00240183  0.0380929 -0.10921 0.00210977  0.0395118 -0.129028 0.00142741  0.0459722 -0.129514 0.00203085  0.0454708 -0.123141 0.00172162  0.0394968 -0.128794 0.0017848  0.0391014 -0.122414 0.00151277  0.0454572 -0.122901 0.00215197  0.0390849 -0.122168 0.0018909  0.0401824 -0.142507 0.00126815  0.0468171 -0.142993 0.00180244  0.0464246 -0.136428 0.00153303  0.0401635 -0.142295 0.00158668  0.0398749 -0.13572 0.00134611  0.0464255 -0.136207 0.00191617  0.0398564 -0.135502 0.00168419  0.0406544 -0.15629 0.0011158  0.0474453 -0.156775 0.00159144  0.0471652 -0.150039 0.00135803  0.0406375 -0.156104 0.00139713  0.0404453 -0.149357 0.00119209  0.0471611 -0.149847 0.00169301  0.0404227 -0.149164 0.00149012  0.0409443 -0.170336 0.000973463  0.0478714 -0.170818 0.00138712  0.0476892 -0.163934 0.00118899  0.0409262 -0.170171 0.00121498  0.040822 -0.163276 0.00104427  0.0476818 -0.163765 0.00148654  0.0408027 -0.163108 0.00130701  0.0410614 -0.1846 0.000844479  0.048104 -0.185084 0.00119734  0.0480235 -0.178073 0.00103331  0.0410473 -0.18446 0.00105286  0.0410216 -0.177439 0.000907183  0.0480103 -0.177927 0.0012846  0.0410056 -0.17729 0.0011332  0.0410285 -0.199052 0.000719309  0.0481679 -0.199532 0.00102425  0.0481663 -0.19241 0.000890017  0.041013 -0.198927 0.000900507  0.0410638 -0.191803 0.000778913  0.0481546 -0.19229 0.00110745  0.0410483 -0.191675 0.000972509  0.0408552 -0.213647 0.000605583  0.0480726 -0.214124 0.000866413  0.0481465 -0.206916 0.000752926  0.0408399 -0.213544 0.00075841  0.0409584 -0.206329 0.000661612  0.0481362 -0.206811 0.000935793  0.0409431 -0.206219 0.00082612  0.0405564 -0.228358 0.000500679  0.0478349 -0.228829 0.000710964  0.0479779 -0.22155 0.000631809  0.0405397 -0.228267 0.000625849  0.0407214 -0.220983 0.000554085  0.0479739 -0.221463 0.000782967  0.0407062 -0.220892 0.000690699  0.0401423 -0.243155 0.000408411  0.047472 -0.243625 0.000574827  0.0476758 -0.236286 0.000516176  0.0401266 -0.243086 0.000510216  0.0403626 -0.235743 0.000452518  0.0476687 -0.236216 0.000639677  0.0403473 -0.235666 0.000567436  0.0396295 -0.258015 0.000325203  0.0469971 -0.258475 0.000460386  0.0472596 -0.251105 0.000414848  0.0396168 -0.257954 0.00040555  0.0399003 -0.250573 0.000366449  0.0472481 -0.251044 0.000516653  0.0398836 -0.250513 0.000456572  0.039031 -0.27291 0.000249147  0.046422 -0.273366 0.000351906  0.0467336 -0.265964 0.000328064  0.0390203 -0.272863 0.000313044  0.0393436 -0.265451 0.000286341  0.0467219 -0.265917 0.00040555  0.0393291 -0.265404 0.000355959  0.0383589 -0.287823 0.000183582  0.0457642 -0.288269 0.000260115  0.0461154 -0.280851 0.000245094  0.0383463 -0.287783 0.000228405  0.038703 -0.280356 0.000218153  0.0461054 -0.280819 0.000303984  0.0386915 -0.28032 0.00027132  0.0376244 -0.302733 0.0001297  0.0450349 -0.30318 0.000185966  0.0454161 -0.295752 0.000175953  0.0376112 -0.302704 0.000162125  0.0380025 -0.295269 0.000159979  0.0454054 -0.295726 0.000216484  0.037986 -0.295244 0.000197172  0.0368381 -0.317631 8.84533e-05  0.0442474 -0.318069 0.000123024  0.0446541 -0.31064 0.000118971  0.0368259 -0.317606 0.000105143  0.0372372 -0.310176 0.00010705  0.0446467 -0.310621 0.000148535  0.0372267 -0.310157 0.000135899  0.0360146 -0.332495 4.98295e-05  0.0434172 -0.332932 6.60419e-05  0.0438483 -0.325515 7.96318e-05  0.0360055 -0.332483 6.55651e-05  0.0364308 -0.325063 6.86646e-05  0.0438364 -0.325504 9.53674e-05  0.0364206 -0.325048 8.53539e-05  0.0351665 -0.347333 2.6226e-05  0.0425572 -0.347763 3.29018e-05  0.0430036 -0.340362 4.19617e-05  0.035156 -0.347322 2.81334e-05  0.0355921 -0.339915 3.88622e-05  0.0429885 -0.340352 5.31673e-05  0.0355854 -0.339907 4.79221e-05  0.0343041 -0.362131 7.86781e-06  0.0416858 -0.362563 1.23978e-05  0.0421309 -0.355175 1.71661e-05  0.034292 -0.362122 5.72205e-06  0.0347364 -0.354735 1.71661e-05  0.042125 -0.355169 1.95503e-05  0.0347257 -0.354725 2.0504e-05  0.0334344 -0.376909 -1.0252e-05  0.0408092 -0.377343 -2.21729e-05  0.0412571 -0.369957 1.43051e-06  0.0334234 -0.376897 -1.85966e-05  0.0338693 -0.369517 -3.57628e-06  0.041245 -0.369952 2.38419e-07  0.0338571 -0.369511 -2.14577e-06  -0.00382888 -0.00605772 -0.00164795  -0.00140772 -0.00366123 -0.000596046  0 0 0  -0.0026112 -0.00439102 -0.000930071  0 0 0  -0.00180966 -0.00292154 -0.00122523  -0.000562951 -0.00149379 -0.000437975  0 0 0  -0.00138585 -0.00353983 -0.000917912  -0.00261131 -0.00424007 -0.00142956  -0.000790861 -0.00231036 -0.000498772  0 0 0  -0.00056449 -0.00143008 -0.00067544  -0.000790425 -0.002227 -0.000772953  -0.00860299 -0.00890775 -0.00263834  -0.00633132 -0.00757293 -0.00145054  -0.0068129 -0.00792528 -0.00151587  -0.0053291 -0.00647232 -0.00199032  -0.00344713 -0.00480287 -0.00108957  -0.00630695 -0.00733065 -0.00222468  -0.00683807 -0.00766436 -0.00231242  -0.00472651 -0.00608288 -0.00127029  -0.00347738 -0.00462308 -0.00167012  -0.00473484 -0.00587535 -0.00194311  -0.0132372 -0.0127012 -0.00309682  -0.0108738 -0.0109885 -0.00192237  -0.0110043 -0.0118458 -0.00179529  -0.00905448 -0.0105183 -0.0023427  -0.00716636 -0.00863579 -0.00145435  -0.0108919 -0.0106781 -0.00292349  -0.0110487 -0.0115398 -0.00271702  -0.00890481 -0.00976291 -0.00168777  -0.00721148 -0.00837753 -0.00220561  -0.00894186 -0.00947676 -0.00256538  -0.0178691 -0.0174421 -0.00318551  -0.0155416 -0.0152623 -0.002105  -0.0151216 -0.0167457 -0.00185633  -0.012614 -0.0155376 -0.00240231  -0.0108137 -0.0131935 -0.00158763  -0.0155768 -0.0149288 -0.00317621  -0.0151547 -0.0164242 -0.00279665  -0.0130826 -0.0141595 -0.00184655  -0.0108556 -0.0128969 -0.00239396  -0.0131252 -0.0138459 -0.00278425  -0.0222891 -0.0232435 -0.00308418  -0.0200835 -0.0205379 -0.00209785  -0.0190412 -0.0226596 -0.00180507  -0.0159898 -0.0215774 -0.00232196  -0.0143044 -0.0187352 -0.00158286  -0.0201077 -0.0202104 -0.00315142  -0.0190557 -0.0223475 -0.00270557  -0.0171062 -0.0195732 -0.00184059  -0.0143244 -0.018432 -0.00237536  -0.0171339 -0.0192562 -0.00276256  -0.0264601 -0.030045 -0.00289083  -0.0243979 -0.0268346 -0.00199938  -0.0227419 -0.0295601 -0.00169444  -0.0191755 -0.0285938 -0.00217533  -0.0176051 -0.025262 -0.00150561  -0.0244072 -0.0265243 -0.00299525  -0.0227377 -0.0292637 -0.00253797  -0.0209198 -0.0259891 -0.00175214  -0.0176058 -0.0249674 -0.00225496  -0.0209234 -0.0256856 -0.00262451  -0.0303795 -0.0377708 -0.00267458  -0.0284558 -0.0340894 -0.00186491  -0.026224 -0.0373728 -0.00156951  -0.0221861 -0.0365158 -0.00200891  -0.0207219 -0.0327264 -0.00140071  -0.0284503 -0.033795 -0.00279284  -0.0262052 -0.0370903 -0.00234461  -0.0245082 -0.0333512 -0.0016315  -0.0207021 -0.0324458 -0.00209546  -0.024498 -0.0330661 -0.0024426  -0.0340523 -0.0463459 -0.0024581  -0.0322592 -0.0422252 -0.00171161  -0.0294963 -0.0460268 -0.00143337  -0.0250282 -0.0452778 -0.00183797  -0.0236554 -0.0410595 -0.00128603  -0.032245 -0.0419552 -0.002563  -0.0294673 -0.0457659 -0.00214934  -0.0278866 -0.0415937 -0.00149965  -0.0236278 -0.0407958 -0.00192785  -0.0278609 -0.0413284 -0.00224566  -0.0374997 -0.0557 -0.00224352  -0.0358299 -0.0511775 -0.00156736  -0.0325748 -0.0554522 -0.00130773  -0.0277201 -0.0548065 -0.00167632  -0.0264294 -0.0501926 -0.00117326  -0.035802 -0.05093 -0.00234675  -0.0325396 -0.0552134 -0.00195789  -0.0310593 -0.0506408 -0.00136828  -0.0263927 -0.04995 -0.00175929  -0.0310271 -0.0503979 -0.00205064  -0.0407319 -0.0657682 -0.00203443  -0.039171 -0.0608727 -0.00142527  -0.035472 -0.0655907 -0.00118876  -0.0302694 -0.0650421 -0.0015204  -0.0290498 -0.0600637 -0.00106692  -0.0391408 -0.0606478 -0.00213981  -0.0354347 -0.0653669 -0.00178003  -0.0340425 -0.0604301 -0.00124741  -0.0290114 -0.0598412 -0.00160193  -0.0340085 -0.0602082 -0.00186729  -0.0437709 -0.0764903 -0.0018537  -0.0423049 -0.0712551 -0.00129509  -0.038203 -0.076377 -0.00107622  -0.0326829 -0.0759204 -0.00138164  -0.0315317 -0.0706092 -0.000970125  -0.0422738 -0.0710483 -0.00193691  -0.0381646 -0.0761727 -0.00161386  -0.0368584 -0.0708974 -0.00113106  -0.0314919 -0.0704047 -0.0014534  -0.0368189 -0.0706927 -0.0016973  -0.0466204 -0.0877941 -0.00166464  -0.0452479 -0.0822551 -0.00117254  -0.0407726 -0.0877446 -0.000971079  -0.0349717 -0.0873826 -0.0012455  -0.0338842 -0.0817671 -0.000874996  -0.0452185 -0.0820728 -0.00175405  -0.0407379 -0.0875616 -0.00145531  -0.0395054 -0.0819831 -0.00102282  -0.0338448 -0.0815823 -0.00131226  -0.0394713 -0.0817975 -0.00153375  -0.0492923 -0.0996438 -0.00150585  -0.0480044 -0.0938224 -0.00105572  -0.0431975 -0.0996487 -0.00087285  -0.0371431 -0.0993714 -0.00112319  -0.0361081 -0.0934811 -0.000788689  -0.047978 -0.0936564 -0.00158215  -0.043162 -0.0994832 -0.00131106  -0.0420045 -0.0936283 -0.000922441  -0.0360718 -0.0933137 -0.00118232  -0.0419667 -0.0934586 -0.00138187  -0.0518022 -0.11197 -0.00134397  -0.0505949 -0.105898 -0.000949621  -0.0454781 -0.11203 -0.000780582  -0.0392019 -0.111835 -0.000999689  -0.0382189 -0.105698 -0.000708818  -0.050566 -0.10575 -0.00141883  -0.0454464 -0.111883 -0.00117469  -0.0443535 -0.105776 -0.000828743  -0.0381876 -0.105545 -0.00106192  -0.044322 -0.105624 -0.00123978  -0.0541445 -0.124727 -0.00119281  -0.0530181 -0.118433 -0.000843287  -0.0476273 -0.124837 -0.000697374  -0.0411484 -0.124717 -0.000890017  -0.0402222 -0.118361 -0.000631094  -0.0529903 -0.118298 -0.00126386  -0.047595 -0.124705 -0.0010438  -0.0465701 -0.118378 -0.000737429  -0.0401886 -0.118224 -0.000944138  -0.0465367 -0.118243 -0.0011065  -0.0563341 -0.137867 -0.00105214  -0.0552772 -0.13137 -0.000747919  -0.0496427 -0.138023 -0.000612974  -0.0429908 -0.137973 -0.000787497  -0.042114 -0.13142 -0.000560284  -0.0552613 -0.131251 -0.00112319  -0.0496148 -0.137906 -0.000921011  -0.0486494 -0.131381 -0.000653028  -0.0420802 -0.131301 -0.000837803  -0.04862 -0.13126 -0.00097847  -0.0583837 -0.151341 -0.000923395  -0.0573936 -0.144672 -0.000659466  -0.0515409 -0.151541 -0.000537395  -0.0447369 -0.151556 -0.000686646  -0.0439026 -0.144833 -0.000488758  -0.0573773 -0.144564 -0.000989437  -0.0515141 -0.151436 -0.000807524  -0.0506046 -0.144738 -0.000573158  -0.0438752 -0.144726 -0.000735044  -0.0505791 -0.144632 -0.000862837  -0.060292 -0.165112 -0.000806093  -0.059375 -0.158284 -0.000573874  -0.0533221 -0.165348 -0.000464916  -0.0463858 -0.165423 -0.000602245  -0.0456023 -0.158549 -0.000427008  -0.0593524 -0.158192 -0.000864983  -0.0532985 -0.165259 -0.000697851  -0.0524445 -0.158407 -0.00050211  -0.0455709 -0.158455 -0.000640631  -0.0524209 -0.158313 -0.000751019  -0.0620699 -0.179126 -0.00069046  -0.0612133 -0.172169 -0.000498295  -0.0549932 -0.179401 -0.000400543  -0.0479443 -0.179533 -0.000509739  -0.0472012 -0.17253 -0.000370026  -0.0611944 -0.172089 -0.000741243  -0.0549707 -0.179321 -0.000599861  -0.0541706 -0.172339 -0.000431538  -0.0471764 -0.172448 -0.000550508  -0.0541475 -0.172261 -0.000649452  -0.0637293 -0.193354 -0.000582457  -0.0629294 -0.186284 -0.000422955  -0.0565598 -0.193666 -0.000341177  -0.0494182 -0.193842 -0.000437021  -0.048712 -0.186732 -0.000313997  -0.0629175 -0.186218 -0.000635147  -0.0565386 -0.193595 -0.000512123  -0.0557876 -0.186502 -0.000369549  -0.0486901 -0.186662 -0.000470638  -0.0557668 -0.186433 -0.000555754  -0.0652742 -0.207764 -0.000490189  -0.0645304 -0.200598 -0.00035882  -0.0580263 -0.2081 -0.000287294  -0.0508106 -0.208321 -0.000363588  -0.050144 -0.201123 -0.000267029  -0.0645139 -0.200542 -0.000535011  -0.0580106 -0.208038 -0.000429869  -0.0573018 -0.200855 -0.000311852  -0.0501235 -0.201062 -0.000395775  -0.0572867 -0.200797 -0.000467539  -0.0667083 -0.222315 -0.000404119  -0.0660126 -0.215075 -0.000295639  -0.0594044 -0.222675 -0.000232458  -0.0521271 -0.222936 -0.000294924  -0.0514932 -0.215664 -0.000219822  -0.0660021 -0.215021 -0.000446796  -0.0593889 -0.222621 -0.000350714  -0.0587244 -0.215364 -0.000258684  -0.0514786 -0.215614 -0.00033021  -0.0587099 -0.215316 -0.000388622  -0.0680459 -0.236974 -0.000323534  -0.0674016 -0.22967 -0.000238895  -0.0606961 -0.237355 -0.00018692  -0.0533702 -0.237655 -0.000240088  -0.0527749 -0.230325 -0.000177145  -0.0673876 -0.22963 -0.000360727  -0.0606828 -0.237314 -0.000279188  -0.0600562 -0.229997 -0.000211477  -0.0527549 -0.230284 -0.000266552  -0.0600493 -0.229955 -0.000313997  -0.0692902 -0.251723 -0.000255108  -0.0686872 -0.244374 -0.000192881  -0.0619092 -0.252121 -0.000145674  -0.0545478 -0.252451 -0.000191212  -0.0539784 -0.245077 -0.000144243  -0.0686781 -0.244341 -0.000289917  -0.0618961 -0.252087 -0.00022316  -0.061312 -0.244726 -0.00016737  -0.0539656 -0.245046 -0.000214338  -0.0612996 -0.244693 -0.00025034  -0.0704546 -0.266527 -0.000194311  -0.0698872 -0.259144 -0.000150681  -0.0630486 -0.266942 -0.000112057  -0.0556662 -0.267299 -0.000141621  -0.0551248 -0.259896 -0.000110149  -0.0698812 -0.259118 -0.000221252  -0.0630393 -0.266915 -0.000166416  -0.0624876 -0.259522 -0.000130177  -0.0551167 -0.259869 -0.000166178  -0.0624774 -0.259494 -0.00019455  -0.0715463 -0.281375 -0.000142097  -0.0710158 -0.273967 -0.000111341  -0.0641291 -0.281801 -8.08239e-05  -0.0567288 -0.282179 -0.000104189  -0.0562122 -0.274753 -8.01086e-05  -0.0710082 -0.273946 -0.00016284  -0.0641198 -0.281779 -0.000124693  -0.0635962 -0.274362 -9.5129e-05  -0.0562024 -0.274735 -0.000121593  -0.0635862 -0.274342 -0.000144243  -0.0725708 -0.296239 -9.84669e-05  -0.0720627 -0.288816 -8.2016e-05  -0.0651484 -0.29667 -5.79357e-05  -0.0577433 -0.297071 -7.03335e-05  -0.0572464 -0.289638 -5.91278e-05  -0.0720651 -0.288804 -0.000121355  -0.0651433 -0.296656 -8.39233e-05  -0.064646 -0.289231 -6.84261e-05  -0.0572419 -0.289622 -8.7738e-05  -0.0646379 -0.289216 -0.000100374  -0.0735424 -0.311104 -6.55651e-05  -0.0730646 -0.30368 -5.07832e-05  -0.066124 -0.311545 -3.60012e-05  -0.0587161 -0.311955 -4.55379e-05  -0.0582392 -0.304524 -3.8147e-05  -0.0730612 -0.303671 -8.10623e-05  -0.0661204 -0.311532 -5.14984e-05  -0.0656424 -0.304106 -4.62532e-05  -0.0582347 -0.304511 -5.72205e-05  -0.0656378 -0.304094 -6.93798e-05  -0.074472 -0.325951 -3.48091e-05  -0.0740139 -0.318535 -2.95639e-05  -0.0670624 -0.3264 -1.90735e-05  -0.0596597 -0.326818 -2.40803e-05  -0.059195 -0.319398 -2.38419e-05  -0.074013 -0.318528 -4.88758e-05  -0.0670576 -0.326388 -3.19481e-05  -0.0665982 -0.31897 -2.95639e-05  -0.0591941 -0.319389 -3.43323e-05  -0.0665922 -0.318964 -4.17233e-05  -0.0753706 -0.34078 -2.3365e-05  -0.0749278 -0.333374 -2.12193e-05  -0.06797 -0.341233 -1.00136e-05  -0.0605717 -0.341655 -1.16825e-05  -0.0601213 -0.334245 -1.23978e-05  -0.0749226 -0.33337 -2.52724e-05  -0.067965 -0.341222 -1.66893e-05  -0.0675187 -0.333814 -1.57356e-05  -0.0601194 -0.334239 -1.7643e-05  -0.067513 -0.333807 -2.36034e-05  -0.076252 -0.355587 -7.15256e-06  -0.0758171 -0.34819 -6.4373e-06  -0.0688617 -0.356032 -2.6226e-06  -0.0614657 -0.356459 -3.8147e-06  -0.0610256 -0.349066 -7.15256e-07  -0.0758109 -0.348188 -9.29832e-06  -0.0688555 -0.356025 -1.66893e-06  -0.0684168 -0.348633 -5.48363e-06  -0.0610211 -0.34906 -3.57628e-06  -0.0684121 -0.348626 -1.07288e-05  -0.0771217 -0.370368 5.48363e-06  -0.0766907 -0.362985 -2.6226e-06  -0.0697417 -0.370814 3.33786e-06  -0.0623543 -0.371235 1.62125e-05  -0.0619183 -0.363852 5.24521e-06  -0.0766909 -0.362978 9.53674e-07  -0.0697365 -0.370804 9.77516e-06  -0.0693011 -0.36342 1.66893e-06  -0.0619106 -0.363849 5.72205e-06  -0.0692961 -0.363416 5.48363e-06  -0.00133938 -0.00217003 -0.000663519  0 0 0  -0.000985362 -0.00146756 -0.000820398  -0.000306726 -0.000583276 -0.000294447  0 0 0  -0.00135813 -0.00205725 -0.0010221  -0.000406202 -0.000953749 -0.00036335  0 0 0  -0.000307936 -0.000537708 -0.000455379  -0.00041106 -0.000900522 -0.000560284  -0.00406891 -0.00565656 -0.00109529  -0.00305551 -0.00466745 -0.00135159  -0.00189716 -0.00307103 -0.000734091  -0.00411241 -0.00544736 -0.00167131  -0.0026003 -0.00379881 -0.000911236  -0.00192773 -0.0029332 -0.0011251  -0.00263672 -0.00364423 -0.00139737  -0.00716555 -0.00991984 -0.00129795  -0.00552619 -0.00894219 -0.00158  -0.00423086 -0.00689626 -0.000982285  -0.00721315 -0.00965396 -0.00196338  -0.00561708 -0.00767069 -0.00121951  -0.00427723 -0.00668496 -0.0014956  -0.00566456 -0.0074356 -0.00185156  -0.0101897 -0.0150824 -0.00134301  -0.00796327 -0.0141895 -0.00162196  -0.00672263 -0.0116984 -0.00107098  -0.0102194 -0.0147923 -0.00201631  -0.00869295 -0.0123701 -0.00133252  -0.00676203 -0.0114421 -0.00161409  -0.00873548 -0.012095 -0.00200605  -0.0130601 -0.0212328 -0.00129604  -0.0102722 -0.0204257 -0.00155973  -0.00912178 -0.0174633 -0.00106335  -0.0130647 -0.0209374 -0.0019381  -0.0116419 -0.0180317 -0.00132513  -0.00913262 -0.0171836 -0.00159478  -0.0116624 -0.0177411 -0.00198722  -0.0157669 -0.0283312 -0.00121307  -0.0124548 -0.0276072 -0.00145626  -0.0113866 -0.0241808 -0.00100636  -0.0157558 -0.0280412 -0.00181746  -0.0144335 -0.0246582 -0.00125718  -0.0113767 -0.0238993 -0.00150847  -0.014428 -0.0243705 -0.00188255  -0.0183283 -0.0363204 -0.00111866  -0.0145351 -0.0356818 -0.00133944  -0.0135259 -0.0318095 -0.000934124  -0.0183014 -0.0360457 -0.00167656  -0.0170653 -0.0322104 -0.00116873  -0.0135092 -0.0315372 -0.00139952  -0.017045 -0.031935 -0.00174737  -0.0207588 -0.045139 -0.00102448  -0.0165264 -0.044585 -0.00122547  -0.0155741 -0.0402917 -0.000858307  -0.0207219 -0.0448841 -0.00153327  -0.0195616 -0.0406263 -0.00107145  -0.015542 -0.0400321 -0.00128317  -0.0195266 -0.0403638 -0.00160503  -0.0230669 -0.0547207 -0.000933886  -0.0184382 -0.0542513 -0.00111604  -0.0175343 -0.0495644 -0.000783205  -0.0230274 -0.0544872 -0.00139761  -0.0219246 -0.0498347 -0.000978231  -0.0174909 -0.0493251 -0.00117064  -0.0218889 -0.0495901 -0.00146675  -0.0252616 -0.0650089 -0.000847101  -0.0202756 -0.0646167 -0.00101447  -0.0194041 -0.0595716 -0.000712156  -0.0252211 -0.0647904 -0.00127244  -0.0241785 -0.0597765 -0.000891685  -0.0193664 -0.0593483 -0.00106478  -0.0241371 -0.0595535 -0.001333  -0.0273585 -0.0759396 -0.000766277  -0.0220457 -0.0756187 -0.000915766  -0.0212083 -0.0702439 -0.000644684  -0.0273174 -0.0757341 -0.00115108  -0.0263231 -0.0703916 -0.000806093  -0.0211679 -0.0700412 -0.000965595  -0.0262798 -0.0701867 -0.00120831  -0.0293564 -0.0874396 -0.00068903  -0.0237511 -0.0872016 -0.000827551  -0.0229468 -0.0815286 -0.000579596  -0.0293161 -0.0872608 -0.00103712  -0.0283694 -0.0816136 -0.000728846  -0.0229057 -0.0813407 -0.000870943  -0.0283276 -0.0814282 -0.00108933  -0.0312654 -0.0994735 -0.000622034  -0.0253948 -0.0993047 -0.000740767  -0.024616 -0.0933579 -0.000523329  -0.0312274 -0.0993082 -0.000932217  -0.0303208 -0.0933922 -0.00065732  -0.0245796 -0.0931903 -0.000784874  -0.0302831 -0.0932223 -0.000984907  -0.0330844 -0.111977 -0.000552893  -0.0269814 -0.111871 -0.000662565  -0.02623 -0.105684 -0.000466585  -0.0330487 -0.11183 -0.000833035  -0.0321845 -0.105666 -0.000588894  -0.0261961 -0.105532 -0.000700712  -0.0321492 -0.105513 -0.000879288  -0.0348262 -0.124895 -0.000495672  -0.0285105 -0.124859 -0.000587702  -0.0277834 -0.11845 -0.000414371  -0.0347916 -0.124768 -0.000742674  -0.0339639 -0.118384 -0.000522375  -0.0277536 -0.118317 -0.000623703  -0.0339315 -0.118249 -0.000785351  -0.0364821 -0.138192 -0.000434875  -0.0299822 -0.138209 -0.000517845  -0.029281 -0.131612 -0.000370502  -0.0364507 -0.138075 -0.000653505  -0.0356618 -0.131499 -0.000463963  -0.0292546 -0.13149 -0.000555277  -0.0356315 -0.131377 -0.000696421  -0.038063 -0.151807 -0.000380039  -0.0314043 -0.151879 -0.000454664  -0.030725 -0.145112 -0.000325203  -0.0380349 -0.151701 -0.000573158  -0.0372787 -0.144953 -0.000408888  -0.0306978 -0.145006 -0.000483751  -0.0372529 -0.144851 -0.000611305  -0.039572 -0.165704 -0.000330448  -0.0327702 -0.165824 -0.000393629  -0.0321193 -0.158913 -0.000281096  -0.0395463 -0.16561 -0.000494003  -0.0388255 -0.158718 -0.000354052  -0.0320945 -0.158819 -0.000422955  -0.0388007 -0.158622 -0.000533342  -0.0410104 -0.179838 -0.000284433  -0.0340843 -0.180007 -0.000335932  -0.0334549 -0.172972 -0.000247002  -0.0409858 -0.179759 -0.0004251  -0.0402992 -0.172738 -0.000306368  -0.0334313 -0.172889 -0.000365973  -0.0402737 -0.172658 -0.000458956  -0.042382 -0.194176 -0.000239134  -0.0353513 -0.194384 -0.000285149  -0.0347443 -0.18724 -0.000207186  -0.0423586 -0.194103 -0.000358343  -0.0417004 -0.186977 -0.000261307  -0.0347228 -0.187173 -0.000311375  -0.0416794 -0.186907 -0.000391722  -0.0436854 -0.208673 -0.000198126  -0.036571 -0.208921 -0.000233412  -0.0359867 -0.201693 -0.000172138  -0.0436673 -0.208613 -0.000298977  -0.0430386 -0.2014 -0.000219107  -0.0359664 -0.201634 -0.000261068  -0.043021 -0.20134 -0.000329733  -0.0449302 -0.223308 -0.000162363  -0.0377424 -0.223588 -0.000195742  -0.037178 -0.21629 -0.000141859  -0.044915 -0.223256 -0.000246763  -0.0443165 -0.215968 -0.000183105  -0.0371637 -0.21624 -0.000216007  -0.0442977 -0.215921 -0.000272036  -0.0461185 -0.238045 -0.000130653  -0.0388761 -0.238353 -0.000154734  -0.0383329 -0.231 -0.00011754  -0.0461035 -0.238001 -0.00019908  -0.0455282 -0.230658 -0.00014925  -0.0383132 -0.23096 -0.000177383  -0.045517 -0.230619 -0.00022006  -0.0472505 -0.252855 -0.000104904  -0.0399625 -0.253189 -0.000123024  -0.0394409 -0.245797 -9.10759e-05  -0.0472383 -0.252817 -0.000156641  -0.0466866 -0.245433 -0.000118494  -0.039423 -0.245762 -0.000137329  -0.0466776 -0.2454 -0.00017643  -0.0483377 -0.267715 -7.72476e-05  -0.0410149 -0.26807 -9.72748e-05  -0.0405025 -0.26065 -6.86646e-05  -0.0483263 -0.267683 -0.000117779  -0.0477989 -0.26027 -9.13143e-05  -0.0404921 -0.260624 -0.000108957  -0.0477853 -0.260245 -0.000136852  -0.0493762 -0.282602 -5.65052e-05  -0.0420318 -0.282975 -7.03335e-05  -0.0415359 -0.275542 -5.34058e-05  -0.0493655 -0.282576 -8.44002e-05  -0.0488596 -0.275145 -7.08103e-05  -0.0415282 -0.275521 -7.93934e-05  -0.0488501 -0.275128 -9.799e-05  -0.0503762 -0.297499 -3.83854e-05  -0.043014 -0.29789 -5.05447e-05  -0.0425322 -0.290448 -3.76701e-05  -0.0503664 -0.297481 -5.6982e-05  -0.0498784 -0.290043 -4.91142e-05  -0.0425279 -0.290432 -5.93662e-05  -0.0498714 -0.290026 -7.1764e-05  -0.0513418 -0.312388 -2.38419e-05  -0.0439708 -0.312791 -3.14713e-05  -0.0435061 -0.305352 -2.36034e-05  -0.0513375 -0.312374 -3.93391e-05  -0.0508592 -0.304937 -3.17097e-05  -0.0434966 -0.305341 -3.83854e-05  -0.0508559 -0.304927 -4.673e-05  -0.0522809 -0.327256 -1.33514e-05  -0.0449002 -0.327669 -1.50204e-05  -0.0444431 -0.320243 -1.57356e-05  -0.0522726 -0.327245 -1.95503e-05  -0.0518165 -0.319822 -1.97887e-05  -0.0444376 -0.320231 -1.85966e-05  -0.0518084 -0.319812 -2.90871e-05  -0.0531905 -0.342098 -3.8147e-06  -0.0458105 -0.342515 -7.86781e-06  -0.0453591 -0.335102 -6.91414e-06  -0.053185 -0.342085 -9.29832e-06  -0.0527363 -0.334674 -1.07288e-05  -0.0453598 -0.335097 -1.0252e-05  -0.0527318 -0.334668 -1.52588e-05  -0.0540879 -0.3569 2.86102e-06  -0.0467041 -0.357322 1.90735e-06  -0.046262 -0.349927 -1.19209e-06  -0.0540817 -0.356892 2.14577e-06  -0.0536406 -0.349496 -1.66893e-06  -0.0462608 -0.349923 -2.14577e-06  -0.0536335 -0.349493 -2.86102e-06  -0.0549755 -0.371671 5.72205e-06  -0.0475967 -0.372088 4.52995e-06  -0.0471516 -0.364714 3.09944e-06  -0.054971 -0.371661 1.38283e-05  -0.0545306 -0.364284 4.05312e-06  -0.0471492 -0.364709 7.15256e-06  -0.054529 -0.36428 5.48363e-06  -0.000671521 -0.00116491 -0.000403643  0 0 0  -0.000426441 -0.000834674 -0.000414848  -0.00013034 -0.000186861 -0.000148773  0 0 0  -0.00068564 -0.00107843 -0.000622272  -0.00020387 -0.000337332 -0.000220299  0 0 0  -0.00013141 -0.000156462 -0.000229836  -0.000208616 -0.00030154 -0.000339746  -0.00214347 -0.00427312 -0.00066638  -0.00136507 -0.00374383 -0.000685215  -0.000831887 -0.00222728 -0.000370741  -0.00217429 -0.0041084 -0.00102258  -0.00133449 -0.00255871 -0.000553846  -0.000847831 -0.00211561 -0.000570297  -0.00135686 -0.00243413 -0.000852108  -0.00395957 -0.00862908 -0.000787258  -0.00255206 -0.00804248 -0.000798702  -0.00192112 -0.00593868 -0.000496149  -0.00399351 -0.00840306 -0.00119376  -0.00303394 -0.00631922 -0.000743151  -0.00194278 -0.005757 -0.000760794  -0.00306776 -0.0061259 -0.0011282  -0.00580761 -0.0139996 -0.000811577  -0.00377926 -0.0134305 -0.000819683  -0.00314972 -0.0108445 -0.000542641  -0.00582916 -0.0137341 -0.00122094  -0.00489211 -0.0111867 -0.000808716  -0.00316891 -0.0106103 -0.000819683  -0.00491905 -0.0109443 -0.00121999  -0.00758088 -0.0203225 -0.000784636  -0.00497264 -0.0198002 -0.000787497  -0.00437915 -0.0167556 -0.000538588  -0.00757974 -0.0200449 -0.00117207  -0.00670582 -0.0170367 -0.000803709  -0.00438255 -0.0164944 -0.000807524  -0.00671571 -0.0167676 -0.00120306  -0.00927037 -0.0275767 -0.000729084  -0.0061298 -0.0271012 -0.000733614  -0.00556594 -0.0236069 -0.000507832  -0.00925207 -0.027294 -0.00109029  -0.00843477 -0.0238302 -0.00075984  -0.00555485 -0.0233347 -0.000758648  -0.00842583 -0.0235528 -0.00113416  -0.010891 -0.0356969 -0.000672102  -0.00726748 -0.0352832 -0.00067234  -0.00672024 -0.0313511 -0.000467062  -0.0108647 -0.0354257 -0.00100613  -0.0100885 -0.0315216 -0.000701427  -0.00670189 -0.0310827 -0.000699759  -0.0100663 -0.031252 -0.00104976  -0.0124559 -0.0446382 -0.000612736  -0.00838929 -0.044286 -0.000614882  -0.00785184 -0.0399405 -0.000426054  -0.012423 -0.0443855 -0.00091958  -0.0116793 -0.0400621 -0.000644445  -0.00782925 -0.0396846 -0.000640869  -0.0116478 -0.0398049 -0.000962019  -0.0139742 -0.0543376 -0.000558853  -0.00950491 -0.0540514 -0.000551462  -0.00897741 -0.0493175 -0.000388861  -0.0139388 -0.0541067 -0.000835896  -0.0132182 -0.0493926 -0.000585556  -0.00894797 -0.0490776 -0.000585079  -0.0131863 -0.0491524 -0.000877857  -0.015452 -0.0647406 -0.000506639  -0.0106179 -0.0645122 -0.000498056  -0.0100935 -0.0594211 -0.000349045  -0.015415 -0.0645223 -0.000757933  -0.0147167 -0.0594541 -0.000531673  -0.0100626 -0.0591975 -0.000525236  -0.0146817 -0.0592288 -0.000796318  -0.01689 -0.0757756 -0.000454903  -0.011729 -0.0756083 -0.000453949  -0.0112044 -0.0701856 -0.000317812  -0.0168562 -0.0755764 -0.000682592  -0.0161726 -0.0701763 -0.000480652  -0.0111724 -0.0699826 -0.000475883  -0.0161393 -0.0699717 -0.000718594  -0.0182978 -0.0873865 -0.00041151  -0.0128342 -0.0872774 -0.000405312  -0.0123081 -0.0815586 -0.000284672  -0.0182632 -0.0872071 -0.000615358  -0.0175983 -0.0815088 -0.000433922  -0.0122803 -0.0813742 -0.000430346  -0.0175641 -0.0813222 -0.000650167  -0.0196704 -0.0995172 -0.000366688  -0.0139351 -0.0994661 -0.000363111  -0.0134126 -0.0934793 -0.000255346  -0.0196383 -0.0993573 -0.000556231  -0.0189893 -0.093389 -0.000391483  -0.0133851 -0.0933118 -0.000385523  -0.0189552 -0.0932187 -0.000582695  -0.0210122 -0.112119 -0.00032568  -0.0150348 -0.11212 -0.000323534  -0.01451 -0.105888 -0.000231743  -0.0209808 -0.111969 -0.000492096  -0.0203434 -0.105759 -0.00034833  -0.0144844 -0.105737 -0.000344276  -0.0203147 -0.105606 -0.000522137  -0.0223237 -0.125125 -0.000289679  -0.0161273 -0.125177 -0.000285864  -0.0156077 -0.118735 -0.000199795  -0.0222961 -0.124994 -0.000439644  -0.0216713 -0.118569 -0.00030756  -0.0155811 -0.118598 -0.0003016  -0.0216411 -0.118432 -0.000465155  -0.0236027 -0.138503 -0.000257015  -0.0172136 -0.138601 -0.000253916  -0.0166926 -0.131969 -0.000180006  -0.0235755 -0.138385 -0.000383377  -0.0229673 -0.131766 -0.000273228  -0.0166711 -0.131847 -0.000270605  -0.0229409 -0.131646 -0.000410795  -0.0248499 -0.152195 -0.000222206  -0.0182889 -0.152338 -0.000217915  -0.0177743 -0.145538 -0.000155687  -0.0248253 -0.15209 -0.000333786  -0.024226 -0.145308 -0.000239611  -0.0177541 -0.145431 -0.000234604  -0.0242059 -0.145199 -0.000359535  -0.0260665 -0.166163 -0.000193834  -0.0193589 -0.166344 -0.000188112  -0.0188479 -0.159403 -0.000134945  -0.0260434 -0.166068 -0.00028801  -0.02546 -0.15914 -0.000210047  -0.0188236 -0.159307 -0.000203609  -0.0254385 -0.159046 -0.000312567  -0.027252 -0.18036 -0.000164986  -0.0204163 -0.180579 -0.000157833  -0.019906 -0.173517 -0.000115156  -0.0272319 -0.180278 -0.000250578  -0.0266609 -0.17323 -0.000182152  -0.0198884 -0.173434 -0.000177383  -0.0266409 -0.173147 -0.000272036  -0.0284092 -0.194753 -0.000141144  -0.0214601 -0.195006 -0.000136614  -0.0209551 -0.187839 -9.91821e-05  -0.0283892 -0.194685 -0.000215292  -0.0278308 -0.187529 -0.000153065  -0.0209386 -0.18777 -0.000148058  -0.0278144 -0.187459 -0.000231028  -0.0295312 -0.209306 -0.000115871  -0.0224922 -0.20959 -0.000115871  -0.0219903 -0.202339 -8.01086e-05  -0.0295148 -0.209247 -0.00017786  -0.0289721 -0.202006 -0.000129223  -0.0219777 -0.202278 -0.00012207  -0.0289562 -0.201945 -0.000193357  -0.0306246 -0.223982 -9.44138e-05  -0.0235066 -0.224294 -9.29832e-05  -0.0230134 -0.216976 -6.53267e-05  -0.030612 -0.223933 -0.000144243  -0.0300829 -0.216625 -0.00010705  -0.0230019 -0.216926 -0.000102043  -0.0300665 -0.216574 -0.000157833  -0.0316908 -0.238758 -7.48634e-05  -0.0245082 -0.23909 -7.62939e-05  -0.02402 -0.231724 -5.4121e-05  -0.031678 -0.238716 -0.000115871  -0.0311594 -0.231354 -8.70228e-05  -0.0240068 -0.23168 -8.44002e-05  -0.0311499 -0.231313 -0.000129938  -0.0327265 -0.253603 -6.00815e-05  -0.0254962 -0.253956 -5.96046e-05  -0.0250103 -0.246552 -4.26769e-05  -0.0327177 -0.253567 -8.79765e-05  -0.032212 -0.246169 -6.77109e-05  -0.0250013 -0.246514 -6.67572e-05  -0.0322027 -0.246133 -0.000105143  -0.0337369 -0.268493 -4.48227e-05  -0.0264645 -0.268863 -3.93391e-05  -0.0259821 -0.261433 -3.17097e-05  -0.0337274 -0.268463 -6.81877e-05  -0.0332336 -0.261037 -5.22137e-05  -0.0259817 -0.261402 -4.95911e-05  -0.0332263 -0.261009 -7.82013e-05  -0.034724 -0.283402 -3.33786e-05  -0.0274148 -0.283789 -3.12328e-05  -0.0269451 -0.276345 -2.28882e-05  -0.0347154 -0.283379 -4.95911e-05  -0.0342333 -0.275941 -3.91006e-05  -0.0269403 -0.276321 -3.33786e-05  -0.0342271 -0.275917 -5.88894e-05  -0.0356874 -0.298319 -2.0504e-05  -0.0283532 -0.298716 -1.50204e-05  -0.0278924 -0.291268 -1.50204e-05  -0.0356779 -0.298301 -3.09944e-05  -0.0352063 -0.290855 -2.59876e-05  -0.0278847 -0.291253 -2.3365e-05  -0.035198 -0.290841 -4.26769e-05  -0.0366242 -0.313223 -1.54972e-05  -0.0292773 -0.313632 -1.4782e-05  -0.0288231 -0.306191 -8.82149e-06  -0.0366199 -0.31321 -2.0504e-05  -0.0361578 -0.305769 -1.64509e-05  -0.0288193 -0.306176 -1.52588e-05  -0.0361516 -0.305757 -2.71797e-05  -0.0375445 -0.328105 -4.76837e-06  -0.0301905 -0.328521 -5.96046e-06  -0.0297394 -0.32109 -7.15256e-06  -0.0375412 -0.328097 -8.82149e-06  -0.0370834 -0.320665 -1.12057e-05  -0.0297339 -0.321078 -8.82149e-06  -0.0370798 -0.320655 -1.57356e-05  -0.0384493 -0.342953 -1.19209e-06  -0.0310886 -0.343373 -4.76837e-07  -0.0306416 -0.33596 7.15256e-07  -0.0384455 -0.342945 -4.29153e-06  -0.0380003 -0.33553 -4.05312e-06  -0.0306411 -0.335952 -4.05312e-06  -0.0379946 -0.335523 -6.67572e-06  -0.039341 -0.357761 2.14577e-06  -0.0319762 -0.358181 2.14577e-06  -0.0315342 -0.350789 0  -0.0393364 -0.357751 9.53674e-07  -0.0388968 -0.350358 -7.15256e-07  -0.0315318 -0.350783 1.43051e-06  -0.0388911 -0.350354 0  -0.0402274 -0.372521 3.8147e-06  -0.0328584 -0.372936 9.29832e-06  -0.0324183 -0.365569 1.90735e-06  -0.0402219 -0.372513 6.19888e-06  -0.039784 -0.365141 2.86102e-06  -0.032419 -0.365567 3.09944e-06  -0.0397797 -0.365138 5.00679e-06  -0.000187531 -0.000786394 -0.000132561  0 0 0  3.50773e-05 -0.000694156 8.10623e-06  1.00136e-05 -9.62317e-05 2.14577e-06  0 0 0  -0.000190035 -0.000713676 -0.000208616  -5.53839e-05 -0.000108153 -7.34329e-05  0 0 0  1.09896e-05 -7.03037e-05 2.6226e-06  -5.88931e-05 -8.21352e-05 -0.000112057  -0.00061591 -0.00369695 -0.000224829  9.97484e-05 -0.00352526 1.90735e-06  6.27339e-05 -0.00202304 1.66893e-06  -0.000621915 -0.00355244 -0.000342369  -0.000375941 -0.00205469 -0.000185966  6.56694e-05 -0.00192159 5.48363e-06  -0.000381157 -0.00194851 -0.000283003  -0.00118032 -0.00806639 -0.000267982  0.000146061 -0.00784075 -2.6226e-06  0.00012064 -0.00571209 -7.15256e-07  -0.00118774 -0.00785488 -0.000406265  -0.000886589 -0.00573874 -0.000249386  0.000126451 -0.00554186 -1.90735e-06  -0.000895917 -0.00556451 -0.000379562  -0.00179929 -0.0135302 -0.000277281  0.000149488 -0.0132869 -8.82149e-06  0.000143379 -0.0106591 -4.52995e-06  -0.00179806 -0.0132807 -0.000416756  -0.00148609 -0.0106669 -0.000273943  0.000155002 -0.0104368 -6.91414e-06  -0.00149095 -0.0104428 -0.00041151  -0.00243366 -0.0199582 -0.000266314  9.43542e-05 -0.0197227 -9.29832e-06  0.000120163 -0.0166371 -6.67572e-06  -0.00242352 -0.0196929 -0.000397921  -0.00211442 -0.0166203 -0.000272989  0.000129521 -0.0163844 -8.82149e-06  -0.00210971 -0.016367 -0.000407457  -0.00307864 -0.0273063 -0.000244379  -2.20537e-05 -0.0270875 -6.4373e-06  2.87294e-05 -0.023557 -3.57628e-06  -0.00306213 -0.0270323 -0.000366926  -0.00275505 -0.0235174 -0.000257254  4.1604e-05 -0.0232909 -7.86781e-06  -0.00273991 -0.0232464 -0.000382423  -0.00374216 -0.0355181 -0.000226974  -0.000204146 -0.0353316 -1.19209e-06  -0.000121057 -0.031367 -2.38419e-06  -0.00372177 -0.0352511 -0.000335693  -0.00340664 -0.0312999 -0.000235081  -0.000102639 -0.0311031 -7.15256e-07  -0.00338924 -0.0310337 -0.000350475  -0.00442922 -0.0445445 -0.00020504  -0.000452816 -0.0443963 5.00679e-06  -0.000339746 -0.0400168 -9.53674e-07  -0.00440675 -0.0442894 -0.000308514  -0.00408429 -0.0399254 -0.000216007  -0.000319242 -0.0397645 -4.76837e-07  -0.00406021 -0.0396707 -0.000319719  -0.00514829 -0.0543267 -0.000183582  -0.000766873 -0.05422 1.07288e-05  -0.000623703 -0.0494571 3.09944e-06  -0.00512266 -0.0540895 -0.000272274  -0.00478554 -0.0493389 -0.00019145  -0.000602961 -0.0492172 4.05312e-06  -0.00476122 -0.0490992 -0.000288248  -0.00589347 -0.0648046 -0.000164509  -0.00114536 -0.0647448 7.39098e-06  -0.000966072 -0.05962 6.19888e-06  -0.00586784 -0.0645853 -0.000244617  -0.00551403 -0.0594774 -0.000172853  -0.000948071 -0.0593986 9.53674e-06  -0.00549197 -0.0592528 -0.000258923  -0.00666797 -0.0759179 -0.000149488  -0.00158298 -0.0759 1.07288e-05  -0.00137246 -0.070451 6.19888e-06  -0.0066433 -0.075715 -0.000219584  -0.00627732 -0.0702774 -0.000156403  -0.00135577 -0.0702464 8.58307e-06  -0.00625157 -0.0700721 -0.000230789  -0.0074693 -0.0876007 -0.00013113  -0.00208163 -0.0876329 1.33514e-05  -0.00184524 -0.081884 8.34465e-06  -0.00744486 -0.08742 -0.000197411  -0.00706184 -0.0816854 -0.000140905  -0.00182641 -0.081698 1.09673e-05  -0.00704241 -0.081499 -0.00020647  -0.00829625 -0.0998063 -0.00011754  -0.00263464 -0.0998791 1.40667e-05  -0.00236666 -0.0938638 1.04904e-05  -0.00827217 -0.0996397 -0.000174046  -0.00788009 -0.0936398 -0.000124454  -0.00235236 -0.0936924 1.40667e-05  -0.00785518 -0.0934683 -0.000184298  -0.00914466 -0.112471 -0.000102758  -0.00323617 -0.112584 1.16825e-05  -0.00294101 -0.106328 1.00136e-05  -0.00912559 -0.112324 -0.00015378  -0.00871527 -0.106077 -0.000107527  -0.00292802 -0.106177 1.95503e-05  -0.00869513 -0.105926 -0.000165224  -0.0100156 -0.125546 -9.17912e-05  -0.00388253 -0.125695 1.21593e-05  -0.0035665 -0.119229 1.00136e-05  -0.00999415 -0.125411 -0.000134468  -0.00957608 -0.118956 -9.56059e-05  -0.00355399 -0.11909 1.50204e-05  -0.00955927 -0.118817 -0.000142097  -0.0109009 -0.138985 -7.82013e-05  -0.00457537 -0.139167 1.50204e-05  -0.00423539 -0.132513 8.58307e-06  -0.0108852 -0.138859 -0.00011611  -0.010453 -0.132218 -8.41618e-05  -0.00422406 -0.132388 1.62125e-05  -0.0104373 -0.132094 -0.000126839  -0.0118041 -0.152731 -6.69956e-05  -0.00530148 -0.152946 1.74046e-05  -0.00494456 -0.146129 8.34465e-06  -0.0117874 -0.152623 -9.98974e-05  -0.0113494 -0.145813 -7.24792e-05  -0.00493312 -0.146019 1.71661e-05  -0.0113344 -0.145704 -0.000108242  -0.0127177 -0.166747 -5.8651e-05  -0.00606251 -0.166994 1.81198e-05  -0.00569415 -0.160033 1.07288e-05  -0.0127025 -0.16665 -8.70228e-05  -0.01226 -0.159701 -6.17504e-05  -0.00567722 -0.15994 1.57356e-05  -0.012244 -0.159605 -9.36985e-05  -0.0136402 -0.18099 -4.74453e-05  -0.0068543 -0.181266 1.21593e-05  -0.00646114 -0.174188 1.04904e-05  -0.0136259 -0.180907 -7.20024e-05  -0.0131798 -0.173835 -5.26905e-05  -0.00645709 -0.174103 1.57356e-05  -0.0131638 -0.173752 -7.9155e-05  -0.0145674 -0.195422 -3.95775e-05  -0.0076642 -0.195726 1.52588e-05  -0.00726008 -0.188547 1.00136e-05  -0.0145555 -0.195351 -5.98431e-05  -0.0141032 -0.188176 -4.43459e-05  -0.00725579 -0.188471 1.62125e-05  -0.0140905 -0.188105 -6.67572e-05  -0.0155005 -0.210011 -3.19481e-05  -0.00850129 -0.210336 1.07288e-05  -0.00808334 -0.203077 9.77516e-06  -0.0154884 -0.209952 -4.86374e-05  -0.0150309 -0.202695 -3.69549e-05  -0.00808191 -0.203013 1.43051e-05  -0.0150223 -0.202634 -5.31673e-05  -0.0164328 -0.224726 -2.7895e-05  -0.00934911 -0.225066 1.7643e-05  -0.00892687 -0.217738 8.58307e-06  -0.0164244 -0.224671 -3.93391e-05  -0.0159669 -0.217349 -3.09944e-05  -0.00892305 -0.217686 1.09673e-05  -0.0159543 -0.217297 -4.19617e-05  -0.0173626 -0.239525 -1.83582e-05  -0.0102122 -0.239885 1.38283e-05  -0.00978565 -0.232508 7.39098e-06  -0.017355 -0.239479 -2.93255e-05  -0.0168946 -0.232107 -2.38419e-05  -0.00978065 -0.232466 1.3113e-05  -0.0168908 -0.232064 -3.45707e-05  -0.0182915 -0.254396 -1.23978e-05  -0.0110874 -0.254767 1.4782e-05  -0.010654 -0.247354 8.82149e-06  -0.0182848 -0.254357 -2.31266e-05  -0.0178237 -0.246944 -1.71661e-05  -0.0106487 -0.247317 1.16825e-05  -0.0178192 -0.24691 -2.64645e-05  -0.0192139 -0.269299 -1.16825e-05  -0.0119643 -0.269688 5.72205e-06  -0.0115283 -0.262253 6.19888e-06  -0.0192091 -0.26927 -1.93119e-05  -0.0187547 -0.261837 -1.38283e-05  -0.0115252 -0.262223 1.16825e-05  -0.0187485 -0.261806 -2.00272e-05  -0.0201321 -0.28423 -4.29153e-06  -0.0128469 -0.284629 7.15256e-06  -0.0124083 -0.277178 5.48363e-06  -0.0201299 -0.284205 -1.00136e-05  -0.0196736 -0.276756 -8.82149e-06  -0.0124052 -0.277156 7.62939e-06  -0.0196702 -0.276735 -1.23978e-05  -0.0210443 -0.29916 -1.90735e-06  -0.0137331 -0.299565 4.05312e-06  -0.0132892 -0.292115 5.48363e-06  -0.0210409 -0.299137 -2.6226e-06  -0.0205884 -0.291687 -5.24521e-06  -0.0132878 -0.292097 7.86781e-06  -0.0205889 -0.291671 -7.62939e-06  -0.0219495 -0.314076 -7.15256e-07  -0.0146205 -0.314487 7.39098e-06  -0.0141785 -0.307042 6.67572e-06  -0.0219464 -0.314056 -3.8147e-06  -0.0214934 -0.306614 -1.66893e-06  -0.0141752 -0.30703 3.33786e-06  -0.0214949 -0.306601 -3.09944e-06  -0.0228486 -0.328962 1.43051e-06  -0.0155051 -0.329382 3.33786e-06  -0.0150614 -0.321949 4.76837e-06  -0.0228446 -0.32895 -2.6226e-06  -0.0223989 -0.321517 -1.19209e-06  -0.0150623 -0.321938 4.05312e-06  -0.0223963 -0.321505 -7.15256e-07  -0.0237346 -0.343815 9.53674e-07  -0.0163841 -0.34424 -2.38419e-07  -0.0159454 -0.336821 2.14577e-06  -0.023735 -0.343805 3.33786e-06  -0.0232942 -0.336387 -7.15256e-07  -0.0159469 -0.336812 4.52995e-06  -0.0232909 -0.336381 2.6226e-06  -0.0246215 -0.358627 2.6226e-06  -0.017262 -0.359049 3.8147e-06  -0.0168242 -0.351653 -1.19209e-06  -0.0246203 -0.358614 4.76837e-07  -0.024179 -0.35122 9.53674e-07  -0.0168233 -0.351648 4.29153e-06  -0.0241776 -0.351215 1.66893e-06  -0.0254946 -0.373377 1.66893e-06  -0.018136 -0.373799 7.15256e-07  -0.0176988 -0.366436 1.19209e-06  -0.0254943 -0.373365 3.09944e-06  -0.0250568 -0.366004 1.90735e-06  -0.0177007 -0.36643 -2.38419e-07  -0.0250571 -0.365996 4.05312e-06  0.000252053 -0.000840604 0.000137091  0 0 0  0.000497937 -0.000951767 0.000427246  0.000148766 -0.000249982 0.000153303  0 0 0  0.000262305 -0.000771344 0.000213146  7.69943e-05 -0.000141084 7.72476e-05  0 0 0  0.000154406 -0.000220001 0.000237226  8.07866e-05 -0.000113964 0.000120401  0.000803828 -0.00379699 0.000222683  0.00156569 -0.00394285 0.000684977  0.000957817 -0.00238431 0.000372648  0.000821322 -0.00365478 0.000344753  0.00050205 -0.00213224 0.000188351  0.000981703 -0.00227714 0.000573397  0.000515983 -0.00203085 0.00029254  0.00146002 -0.00819421 0.000261307  0.00283927 -0.00831008 0.000785589  0.00215942 -0.00616854 0.00048995  0.00148061 -0.00799137 0.000397682  0.00112924 -0.00585532 0.000247478  0.00219363 -0.00599283 0.000747204  0.0011515 -0.00568414 0.00037694  0.00207007 -0.0136889 0.00026083  0.00406116 -0.0137569 0.000797987  0.00342932 -0.011138 0.000530243  0.00209272 -0.0134472 0.000398159  0.00177428 -0.0108169 0.000262022  0.00346559 -0.01091 0.00079751  0.00179744 -0.010592 0.000398636  0.00258744 -0.0201552 0.000253677  0.00513875 -0.0201942 0.000767231  0.00459367 -0.0171129 0.000519753  0.00260699 -0.0198915 0.000379324  0.00234443 -0.0168028 0.00026083  0.00462103 -0.0168551 0.000779867  0.00236422 -0.0165479 0.000391245  0.00299203 -0.0275356 0.000237465  0.00605935 -0.0275701 0.000715256  0.00559878 -0.0240328 0.000493288  0.00300884 -0.0272681 0.000358582  0.00280553 -0.0237306 0.000245571  0.00562036 -0.0237663 0.000738621  0.00282073 -0.0234639 0.000369072  0.00328875 -0.0357838 0.000220299  0.00682843 -0.035829 0.000668526  0.00644815 -0.0318553 0.000461102  0.00330532 -0.0355268 0.000330687  0.0031544 -0.0315514 0.000228643  0.00646085 -0.0315922 0.000692368  0.00317144 -0.0312881 0.000345707  0.0034796 -0.044856 0.000207901  0.00745237 -0.0449178 0.000615835  0.00714767 -0.0405259 0.000426292  0.00349259 -0.0446063 0.000309229  0.00339866 -0.0402178 0.000213146  0.00715691 -0.0402738 0.000639677  0.00341046 -0.0399657 0.000323057  0.00356579 -0.0546837 0.000191212  0.00793767 -0.0547701 0.00056529  0.00770354 -0.0499929 0.000394821  0.0035814 -0.0544465 0.000288963  0.00353408 -0.0496758 0.00019908  0.00771236 -0.0497518 0.000591278  0.00354862 -0.0494344 0.000300884  0.00355685 -0.0652096 0.000174761  0.00829422 -0.0653233 0.000518084  0.00812542 -0.0601848 0.000362396  0.00356758 -0.064991 0.000270844  0.00357318 -0.0598583 0.000184536  0.00813186 -0.0599628 0.000544786  0.00358772 -0.0596347 0.000276089  0.00345242 -0.0763675 0.000160694  0.00852644 -0.076513 0.000478268  0.00841868 -0.0710458 0.000332832  0.00346553 -0.0761656 0.000244617  0.00351727 -0.0707062 0.000170946  0.00842416 -0.0708396 0.000500917  0.00352752 -0.0705024 0.000256062  0.00326097 -0.0881012 0.000149727  0.00863731 -0.0882751 0.00043273  0.00859082 -0.0825117 0.000303507  0.00327241 -0.0879193 0.000221729  0.00336981 -0.0821622 0.000154018  0.00859666 -0.0823232 0.000455618  0.00338018 -0.0819727 0.000234365  0.00298941 -0.10035 0.000137806  0.00863886 -0.100552 0.000394106  0.00864863 -0.0945218 0.000277281  0.00299954 -0.100183 0.00020647  0.00313175 -0.0941573 0.000141382  0.00865412 -0.0943502 0.000414133  0.00314581 -0.0939863 0.000216246  0.00263619 -0.113055 0.000123978  0.00853503 -0.113285 0.000355959  0.00859678 -0.107017 0.000249863  0.00264394 -0.112903 0.000187874  0.0028187 -0.106642 0.000131369  0.00860155 -0.106861 0.000376463  0.00283217 -0.106487 0.000194788  0.00221145 -0.126172 0.000114679  0.00833285 -0.126425 0.000319719  0.00844467 -0.119944 0.00022459  0.00222123 -0.126034 0.000169754  0.00242913 -0.119559 0.000118256  0.00844634 -0.119806 0.000335932  0.00244248 -0.11942 0.00017786  0.00172281 -0.13964 0.000102043  0.00804043 -0.139919 0.00028801  0.0081929 -0.133251 0.000201464  0.00172973 -0.139519 0.00015378  0.00197399 -0.132857 0.00010705  0.00819874 -0.13313 0.000303984  0.00198185 -0.132733 0.000160217  0.00117016 -0.153419 8.7738e-05  0.00766659 -0.153724 0.000249624  0.00786281 -0.146894 0.000179768  0.00117826 -0.153314 0.00013566  0.00145626 -0.146488 9.72748e-05  0.00786376 -0.146783 0.000267982  0.00146031 -0.146378 0.000143766  0.000568151 -0.167469 7.82013e-05  0.00721645 -0.167789 0.000221014  0.00744772 -0.160823 0.000158787  0.000571966 -0.167373 0.000118732  0.000876665 -0.160407 8.29697e-05  0.00745249 -0.160725 0.000235319  0.000880718 -0.160311 0.0001266  -8.65459e-05 -0.181742 6.74725e-05  0.00669599 -0.182078 0.000191689  0.00696373 -0.174991 0.000138283  -8.22544e-05 -0.181656 0.000100613  0.000245571 -0.174572 7.43866e-05  0.00696492 -0.174908 0.000208139  0.000251055 -0.174488 0.000108719  -0.000782013 -0.196197 6.03199e-05  0.00611663 -0.196555 0.00016737  0.00641727 -0.189369 0.000118494  -0.00077939 -0.196126 8.98838e-05  -0.000428438 -0.18894 6.48499e-05  0.00641298 -0.189296 0.000174284  -0.000424385 -0.188869 9.77516e-05  -0.00151634 -0.210808 5.03063e-05  0.00548148 -0.211177 0.000138044  0.00580382 -0.20391 0.000101328  -0.001513 -0.210747 7.7486e-05  -0.00114775 -0.203478 5.72205e-05  0.00580573 -0.203849 0.000154495  -0.00114083 -0.203417 8.36849e-05  -0.0022788 -0.225531 4.22001e-05  0.00479841 -0.225918 0.000117064  0.00514817 -0.218588 8.53539e-05  -0.00227904 -0.225482 6.67572e-05  -0.00189352 -0.218153 4.76837e-05  0.0051446 -0.218534 0.000131607  -0.00189137 -0.218098 7.15256e-05  -0.00307417 -0.24035 3.8147e-05  0.00407243 -0.240747 9.60827e-05  0.00444484 -0.233368 7.20024e-05  -0.00307369 -0.240308 5.65052e-05  -0.00267243 -0.232929 4.1008e-05  0.00444198 -0.233323 0.000105858  -0.00267315 -0.232884 6.17504e-05  -0.00389218 -0.255226 3.00407e-05  0.00331616 -0.255635 7.7486e-05  0.00370097 -0.24822 5.76973e-05  -0.00388551 -0.255191 4.52995e-05  -0.00347996 -0.247776 3.24249e-05  0.00369859 -0.248182 8.63075e-05  -0.00347686 -0.247743 4.88758e-05  -0.0047226 -0.270153 2.64645e-05  0.00252867 -0.27056 5.98431e-05  0.00292921 -0.26312 4.57764e-05  -0.00472021 -0.270118 3.50475e-05  -0.00430417 -0.262681 2.71797e-05  0.0029254 -0.263093 7.05719e-05  -0.00430083 -0.262652 4.31538e-05  -0.00556612 -0.285084 1.90735e-05  0.0017159 -0.285499 4.72069e-05  0.00212455 -0.278052 3.79086e-05  -0.00556922 -0.285062 2.6226e-05  -0.0051434 -0.277613 2.24113e-05  0.00212526 -0.278028 5.67436e-05  -0.00514317 -0.277587 3.21865e-05  -0.00642467 -0.30002 1.5974e-05  0.000884056 -0.300442 2.74181e-05  0.0013063 -0.29299 2.93255e-05  -0.0064261 -0.3 2.45571e-05  -0.00599432 -0.292549 1.85966e-05  0.00130153 -0.292972 4.36306e-05  -0.0059967 -0.292529 2.3365e-05  -0.00729299 -0.314938 7.62939e-06  3.57628e-05 -0.315363 1.85966e-05  0.000459671 -0.307919 1.88351e-05  -0.00729394 -0.314926 1.3113e-05  -0.00685763 -0.307478 1.23978e-05  0.000462294 -0.307905 3.05176e-05  -0.00685906 -0.307465 1.54972e-05  -0.00816488 -0.329831 6.91414e-06  -0.000820637 -0.330258 1.26362e-05  -0.000386477 -0.322823 1.33514e-05  -0.00816321 -0.329816 6.4373e-06  -0.00772643 -0.322383 7.86781e-06  -0.000393152 -0.322813 1.7643e-05  -0.0077281 -0.322374 1.3113e-05  -0.00903559 -0.344686 2.86102e-06  -0.00168324 -0.345111 9.53674e-06  -0.00124836 -0.337697 8.82149e-06  -0.00903583 -0.344674 7.86781e-06  -0.0086 -0.337255 5.72205e-06  -0.00125241 -0.337689 1.57356e-05  -0.00859904 -0.33725 8.58307e-06  -0.00990772 -0.359492 -4.76837e-07  -0.00255251 -0.359919 0  -0.00211549 -0.352527 3.09944e-06  -0.00990844 -0.359482 -1.19209e-06  -0.00947022 -0.352091 3.09944e-06  -0.00211787 -0.352522 7.15256e-06  -0.00947332 -0.352085 4.52995e-06  -0.0107789 -0.37425 -4.29153e-06  -0.00341654 -0.374675 -1.28746e-05  -0.00298119 -0.367313 -1.90735e-06  -0.0107758 -0.374237 -2.38419e-06  -0.0103416 -0.366874 2.38419e-07  -0.00298619 -0.367304 -2.38419e-06  -0.0103447 -0.366866 7.15256e-07  0.000742212 -0.00133735 0.000399351  0 0 0  0.00105937 -0.00169349 0.000817776  0.00032568 -0.000712335 0.000289679  0 0 0  0.000759766 -0.00125122 0.000622272  0.000228167 -0.000433147 0.000221491  0 0 0  0.000329778 -0.000669599 0.000451088  0.000230938 -0.000397086 0.000345945  0.00233164 -0.0045628 0.000657082  0.00324661 -0.00505501 0.00133038  0.00202502 -0.00337386 0.000725269  0.00237122 -0.00440425 0.00101066  0.00146437 -0.00279003 0.000550985  0.00205924 -0.00324583 0.0011127  0.00149284 -0.00267518 0.000847816  0.00422034 -0.00901777 0.000772476  0.00578365 -0.00945514 0.00154567  0.00445619 -0.00733733 0.000964165  0.00426999 -0.00879788 0.00117445  0.00326499 -0.00666308 0.000729799  0.00451431 -0.00713468 0.00146294  0.00331637 -0.00647426 0.00111318  0.00604838 -0.0144792 0.000791073  0.00819278 -0.0148278 0.00157619  0.00696284 -0.0122618 0.00104523  0.0060882 -0.0142217 0.00119114  0.00515151 -0.011623 0.000789642  0.00701547 -0.0120161 0.00157785  0.00520098 -0.0113859 0.00119233  0.0076884 -0.0209075 0.00076437  0.0103633 -0.0211992 0.00152373  0.00926852 -0.0181576 0.00103617  0.00771695 -0.0206307 0.00114369  0.00689512 -0.0175681 0.000781775  0.00930917 -0.0178921 0.00155377  0.00692701 -0.0173042 0.00117517  0.00912833 -0.0282668 0.000714302  0.012295 -0.0285338 0.00143361  0.0113339 -0.0250208 0.000985622  0.00914598 -0.027993 0.00107145  0.0084331 -0.024464 0.000742435  0.0113601 -0.0247507 0.00147629  0.00845474 -0.0241964 0.00111341  0.0103756 -0.036512 0.000664234  0.014002 -0.0367734 0.00132442  0.0131671 -0.0328101 0.000922203  0.0103849 -0.0362442 0.000995398  0.00977558 -0.0322747 0.00069046  0.0131763 -0.0325423 0.00138044  0.00978905 -0.0320092 0.00103927  0.0114375 -0.0455849 0.000614643  0.0154877 -0.045851 0.00122237  0.0147702 -0.0414646 0.000850439  0.0114431 -0.0453346 0.000918865  0.0109312 -0.0409459 0.000638962  0.0147707 -0.0412112 0.00127649  0.010936 -0.0406904 0.000958443  0.0123246 -0.0554239 0.000565529  0.0167682 -0.0557025 0.00112391  0.0161517 -0.0509227 0.000782728  0.012328 -0.0551904 0.000848055  0.0119036 -0.0504075 0.000590801  0.0161554 -0.0506826 0.00117421  0.0119072 -0.0501684 0.000882626  0.0130471 -0.065962 0.000517845  0.0178546 -0.0662534 0.00102878  0.0173365 -0.061114 0.000716448  0.0130496 -0.0657451 0.000776052  0.012707 -0.0606067 0.000540495  0.0173342 -0.0608909 0.00107408  0.0127091 -0.0603809 0.000810623  0.0136132 -0.0771394 0.000474215  0.0187489 -0.0774458 0.000939369  0.0183272 -0.0719782 0.000654221  0.0136138 -0.0769387 0.000709295  0.0133488 -0.0714689 0.000494957  0.0183244 -0.071772 0.000982046  0.0133513 -0.0712648 0.00074172  0.014028 -0.0888891 0.000429153  0.0194645 -0.0892088 0.000853777  0.0191327 -0.0834445 0.000597715  0.0140296 -0.0887048 0.000645161  0.0138408 -0.08294 0.000451326  0.0191286 -0.0832561 0.000896454  0.0138407 -0.0827514 0.000675917  0.014305 -0.101152 0.000388145  0.0200137 -0.101489 0.00077033  0.0197603 -0.0954575 0.000541687  0.0143071 -0.100986 0.000584602  0.0141848 -0.0949523 0.000408173  0.0197611 -0.0952864 0.000813961  0.0141854 -0.0947838 0.000613928  0.0144473 -0.113877 0.000350952  0.0204015 -0.114226 0.000691891  0.0202307 -0.107957 0.000489473  0.0144489 -0.113723 0.000528336  0.0143906 -0.107454 0.000368118  0.0202279 -0.107804 0.000733614  0.0143936 -0.107301 0.000555992  0.0144689 -0.127005 0.000313997  0.0206417 -0.127372 0.000618696  0.0205437 -0.120889 0.000439882  0.0144693 -0.12687 0.000468254  0.0144737 -0.120388 0.00033164  0.0205419 -0.120751 0.000657558  0.0144738 -0.120249 0.000498056  0.0143745 -0.140487 0.000278473  0.0207434 -0.140868 0.000550032  0.020715 -0.1342 0.000389814  0.0143745 -0.14037 0.000419855  0.0144348 -0.133702 0.00029707  0.0207103 -0.134076 0.00058341  0.0144366 -0.133577 0.000444412  0.0141776 -0.154283 0.000246048  0.0207164 -0.154673 0.000487089  0.0207503 -0.147844 0.000347614  0.0141742 -0.154177 0.000367641  0.0142913 -0.147346 0.000263691  0.0207458 -0.147734 0.000519276  0.0142884 -0.147236 0.000392437  0.0138793 -0.16834 0.000213146  0.0205712 -0.168739 0.000427008  0.0206602 -0.161769 0.000306129  0.0138786 -0.168244 0.000324726  0.0140412 -0.161276 0.000232697  0.0206578 -0.161675 0.000456333  0.0140381 -0.161179 0.000346899  0.0134935 -0.18262 0.000186443  0.0203166 -0.183028 0.000365973  0.0204601 -0.175942 0.000266075  0.0134926 -0.182536 0.000280619  0.0136971 -0.175448 0.000201464  0.020457 -0.175856 0.000397682  0.0136955 -0.175364 0.000301838  0.0130296 -0.197084 0.00015831  0.0199645 -0.197499 0.00031805  0.0201597 -0.190316 0.000231981  0.0130272 -0.197015 0.000242949  0.0132704 -0.189828 0.000174046  0.0201514 -0.190242 0.000342131  0.0132685 -0.189753 0.000261545  0.0124915 -0.211702 0.000134468  0.0195258 -0.21212 0.000266314  0.0197616 -0.204853 0.000195742  0.0124886 -0.211634 0.000204086  0.012774 -0.204368 0.000148058  0.0197573 -0.204793 0.000291109  0.0127647 -0.204307 0.000221491  0.0118914 -0.226432 0.000113964  0.0190029 -0.226857 0.000217915  0.0192811 -0.219528 0.000165224  0.0118897 -0.226378 0.000172853  0.0121994 -0.219045 0.000125647  0.0192745 -0.219475 0.000245094  0.0121958 -0.218992 0.000185728  0.0112371 -0.241248 9.05991e-05  0.0184121 -0.241679 0.000181437  0.0187225 -0.234301 0.00013423  0.0112329 -0.241204 0.000138998  0.0115736 -0.233824 0.000102758  0.0187163 -0.234257 0.000202894  0.0115683 -0.23378 0.000154734  0.0105317 -0.256129 7.1764e-05  0.0177622 -0.25656 0.000143528  0.0180991 -0.249149 0.000107527  0.0105286 -0.256091 0.000110626  0.0108917 -0.248677 8.2016e-05  0.0180979 -0.249111 0.000162363  0.010886 -0.248639 0.000124216  0.00978684 -0.271047 5.76973e-05  0.0170596 -0.271478 0.000113249  0.017422 -0.264044 8.58307e-05  0.00978684 -0.271012 8.55923e-05  0.0101669 -0.263576 6.65188e-05  0.0174181 -0.264014 0.000123978  0.0101631 -0.263546 9.87053e-05  0.00900865 -0.285979 4.60148e-05  0.0163143 -0.286412 8.60691e-05  0.0166965 -0.278967 6.55651e-05  0.00900722 -0.285951 6.8903e-05  0.00940275 -0.278506 5.10216e-05  0.0166898 -0.278944 9.46522e-05  0.00940061 -0.278481 7.82013e-05  0.00820518 -0.300914 3.29018e-05  0.0155299 -0.301346 6.1512e-05  0.015928 -0.293897 4.81606e-05  0.0082016 -0.30089 4.98295e-05  0.00861168 -0.293439 3.95775e-05  0.0159268 -0.29388 7.1764e-05  0.00860834 -0.293422 5.57899e-05  0.00737691 -0.315827 2.28882e-05  0.0147152 -0.316263 4.07696e-05  0.0151324 -0.308819 3.52859e-05  0.00737214 -0.315811 3.24249e-05  0.00779247 -0.308368 2.6226e-05  0.0151262 -0.308804 5.10216e-05  0.00779009 -0.308351 3.93391e-05  0.00653124 -0.330716 1.43051e-05  0.0138819 -0.33115 1.88351e-05  0.0143063 -0.323717 2.0504e-05  0.00652671 -0.330702 2.02656e-05  0.00695395 -0.323267 1.90735e-05  0.0143023 -0.323708 3.29018e-05  0.00695276 -0.323258 2.5034e-05  0.00567245 -0.345565 8.58307e-06  0.0130334 -0.345997 1.26362e-05  0.0134637 -0.338584 9.77516e-06  0.00567174 -0.345552 1.16825e-05  0.00610423 -0.338138 1.00136e-05  0.0134606 -0.338577 1.66893e-05  0.00609922 -0.338132 1.71661e-05  0.00480819 -0.360373 1.90735e-06  0.0121722 -0.360804 -5.48363e-06  0.0126116 -0.353411 5.00679e-06  0.00480676 -0.360362 -2.38419e-07  0.00524473 -0.352969 3.09944e-06  0.012604 -0.353403 6.19888e-06  0.00524044 -0.35296 6.91414e-06  0.00394821 -0.375136 -5.24521e-06  0.011313 -0.375569 -9.29832e-06  0.0117457 -0.368194 -4.76837e-06  0.00394535 -0.375123 -1.04904e-05  0.00437784 -0.367754 -5.24521e-06  0.0117412 -0.36819 -2.14577e-06  0.00437689 -0.367745 -3.33786e-06  0.00141487 -0.00244236 0.000648499  0 0 0  0.00188413 -0.00324553 0.00118828  0.000579208 -0.0016908 0.000425339  0 0 0  0.00143608 -0.00233489 0.00100112  0.00042861 -0.00111771 0.000354052  0 0 0  0.000581622 -0.00162971 0.000657558  0.00043311 -0.00106621 0.000551701  0.0042367 -0.00610727 0.00106764  0.00548652 -0.00699133 0.00193286  0.00356334 -0.00521529 0.00105572  0.00429374 -0.00591481 0.00163651  0.00272551 -0.0041669 0.000889063  0.00360318 -0.00504529 0.00162292  0.00276937 -0.00402039 0.00136924  0.00737303 -0.0105196 0.00126123  0.00923267 -0.0112264 0.00226784  0.00732449 -0.00923133 0.00140905  0.00743803 -0.0102715 0.00191283  0.00581264 -0.00819665 0.00118852  0.00739011 -0.00898808 0.00214005  0.00587788 -0.00797546 0.00180864  0.0103453 -0.0158539 0.00130296  0.012725 -0.0164493 0.00233173  0.0109458 -0.0139793 0.00153899  0.0103981 -0.0155733 0.00196195  0.00888667 -0.0130528 0.00129628  0.0110138 -0.0137038 0.00232244  0.00894967 -0.0127927 0.00195408  0.0130612 -0.0221763 0.00126314  0.015937 -0.0227092 0.00225711  0.0143245 -0.0197354 0.00153494  0.0130967 -0.0218949 0.00189447  0.0117381 -0.0188844 0.00128841  0.0143684 -0.0194514 0.00230432  0.0117807 -0.0186086 0.00193477  0.0155053 -0.0294724 0.0011878  0.0188538 -0.0299677 0.00213361  0.0174037 -0.0264982 0.0014658  0.0155249 -0.0291931 0.00177932  0.0143189 -0.0257019 0.00122762  0.0174326 -0.0262184 0.00219584  0.0143429 -0.0254247 0.00184059  0.0176837 -0.0376783 0.00110292  0.0214778 -0.0381567 0.00197768  0.0201843 -0.0342199 0.00137115  0.0176898 -0.0374107 0.00165462  0.0166274 -0.0334597 0.00114536  0.0202035 -0.0339491 0.00205421  0.0166386 -0.03319 0.00171804  0.019603 -0.0467206 0.00101709  0.0238117 -0.0471929 0.0018301  0.0226719 -0.0428252 0.00126791  0.0196047 -0.0464728 0.0015285  0.0186742 -0.0420943 0.00105977  0.0226821 -0.0425681 0.00190187  0.018679 -0.0418373 0.00158787  0.0212781 -0.0565435 0.000933409  0.0258752 -0.0570068 0.00167608  0.0248789 -0.052243 0.00116897  0.0212773 -0.0563075 0.00140405  0.0204707 -0.0515363 0.000976086  0.0248774 -0.0520055 0.0017519  0.0204706 -0.0512947 0.00146365  0.0227256 -0.0670634 0.000852823  0.0276728 -0.0675302 0.00153661  0.0268102 -0.0624023 0.00107193  0.0227214 -0.0668479 0.00128317  0.0220321 -0.0617135 0.000896215  0.0268041 -0.0621832 0.0016067  0.0220279 -0.061492 0.00134134  0.0239483 -0.0782312 0.000777483  0.0292201 -0.0786957 0.00139713  0.0284814 -0.07324 0.000975847  0.0239443 -0.0780309 0.0011704  0.0233607 -0.072571 0.000816584  0.0284765 -0.0730367 0.00146818  0.0233606 -0.0723622 0.00122595  0.0249645 -0.0899691 0.000707865  0.0305322 -0.0904373 0.00127339  0.0299087 -0.0846825 0.000888824  0.0249599 -0.0897871 0.00106454  0.0244837 -0.0840239 0.000744581  0.0299071 -0.0844967 0.00133419  0.0244782 -0.0838389 0.00111771  0.0257825 -0.102224 0.000643015  0.0316143 -0.102696 0.00114369  0.0311047 -0.0966726 0.000805855  0.0257787 -0.102059 0.000962019  0.0253977 -0.0960305 0.000673294  0.0310999 -0.0965055 0.00120878  0.0253942 -0.095861 0.00101161  0.0264149 -0.114942 0.000573635  0.0324861 -0.115414 0.00102854  0.0320796 -0.109153 0.0007267  0.0264087 -0.11479 0.000865459  0.0261245 -0.108526 0.000607967  0.0320758 -0.109001 0.00109124  0.0261155 -0.10837 0.000912428  0.0268706 -0.128063 0.000512838  0.0331559 -0.128537 0.000918388  0.0328506 -0.122065 0.000649929  0.026867 -0.127927 0.000772953  0.0266658 -0.121448 0.000546217  0.0328438 -0.121928 0.000976324  0.0266587 -0.121311 0.000816822  0.0271654 -0.141536 0.000455856  0.0336404 -0.142013 0.000822783  0.033427 -0.135354 0.000579596  0.0271609 -0.141416 0.000685453  0.0270375 -0.134752 0.000485897  0.0334225 -0.135232 0.000867128  0.0270334 -0.134628 0.000726223  0.0273106 -0.155318 0.000406504  0.0339499 -0.155798 0.000719786  0.0338225 -0.148978 0.000512123  0.0273056 -0.155213 0.000606775  0.0272567 -0.148389 0.00042963  0.0338154 -0.148869 0.000769377  0.0272505 -0.14828 0.000646114  0.0273142 -0.16937 0.000351191  0.0340984 -0.169845 0.000629425  0.03405 -0.162885 0.000451565  0.0273082 -0.169273 0.000526905  0.0273283 -0.162306 0.000378609  0.0340438 -0.16279 0.000674248  0.0273221 -0.162212 0.000564337  0.0271883 -0.183638 0.000306845  0.0340981 -0.184113 0.000547171  0.0341163 -0.177033 0.00039053  0.0271821 -0.183555 0.000457764  0.0272682 -0.17647 0.000328302  0.0341158 -0.176952 0.000586271  0.0272608 -0.176387 0.000491619  0.0269463 -0.19809 0.00026083  0.0339618 -0.198563 0.000463247  0.0340531 -0.191388 0.00033617  0.0269403 -0.198018 0.000391483  0.027082 -0.190838 0.000281572  0.0340469 -0.191315 0.000501633  0.0270748 -0.190763 0.000424147  0.0265963 -0.212691 0.000220537  0.0337029 -0.213162 0.000393152  0.0338523 -0.205904 0.000284672  0.026592 -0.212628 0.00033164  0.0267839 -0.205366 0.000240803  0.0338476 -0.205844 0.000430346  0.0267797 -0.205306 0.000360012  0.0261538 -0.227407 0.000183821  0.0333347 -0.227877 0.000329971  0.0335357 -0.220559 0.000240088  0.0261464 -0.227359 0.000272036  0.0263872 -0.220029 0.000201225  0.0335326 -0.220504 0.000355482  0.0263834 -0.219978 0.000303268  0.0256288 -0.242213 0.000147581  0.0328672 -0.242679 0.000267506  0.0331166 -0.23531 0.00019908  0.0256214 -0.242171 0.000223637  0.0259054 -0.234797 0.000164509  0.0331132 -0.235269 0.000294447  0.0258954 -0.234753 0.000248194  0.0250266 -0.257085 0.000120401  0.0323119 -0.257539 0.000211716  0.0326071 -0.250138 0.000158548  0.0250213 -0.257044 0.000178337  0.0253358 -0.249637 0.000133991  0.0325985 -0.250103 0.000237465  0.0253296 -0.249599 0.000201225  0.0243614 -0.271983 9.01222e-05  0.0316834 -0.272441 0.000163317  0.0320098 -0.265016 0.00012517  0.0243571 -0.271953 0.000137806  0.0247033 -0.264523 0.000103235  0.0320055 -0.264988 0.000189543  0.0246947 -0.264496 0.00015521  0.0236433 -0.286904 7.05719e-05  0.0309899 -0.287358 0.0001266  0.0313516 -0.27992 9.29832e-05  0.0236397 -0.286879 0.000103712  0.0240088 -0.279436 7.98702e-05  0.031343 -0.279898 0.00014019  0.0240042 -0.279418 0.000119925  0.0228813 -0.301828 5.00679e-05  0.0302422 -0.302275 8.41618e-05  0.0306294 -0.294834 7.10487e-05  0.0228755 -0.301807 7.24792e-05  0.0232685 -0.294366 5.76973e-05  0.0306222 -0.294815 0.000103474  0.0232632 -0.294343 8.70228e-05  0.0220799 -0.316733 3.48091e-05  0.0294509 -0.317175 6.12736e-05  0.0298572 -0.309738 4.69685e-05  0.0220764 -0.31672 4.69685e-05  0.0224874 -0.309275 4.00543e-05  0.0298514 -0.309726 7.15256e-05  0.02248 -0.309264 6.12736e-05  0.0212548 -0.331612 1.90735e-05  0.0286303 -0.332048 3.50475e-05  0.0290523 -0.324624 2.88486e-05  0.0212498 -0.3316 2.81334e-05  0.0216732 -0.32417 2.69413e-05  0.0290437 -0.324616 4.29153e-05  0.0216665 -0.32416 4.00543e-05  0.020406 -0.346448 1.16825e-05  0.0277824 -0.346888 1.85966e-05  0.0282123 -0.339478 1.95503e-05  0.0204031 -0.346442 1.50204e-05  0.0208349 -0.339032 1.43051e-05  0.0282085 -0.339473 3.0756e-05  0.0208292 -0.339024 2.24113e-05  0.0195477 -0.361258 2.86102e-06  0.0269246 -0.36169 5.24521e-06  0.0273647 -0.354298 7.39098e-06  0.0195441 -0.361248 3.57628e-06  0.0199788 -0.353854 5.48363e-06  0.0273533 -0.354295 1.21593e-05  0.0199733 -0.353849 7.62939e-06  0.018683 -0.376026 -8.10623e-06  0.0260644 -0.376461 -4.29153e-06  0.0264969 -0.369084 -2.38419e-06  0.0186825 -0.376015 -1.07288e-05  0.0191154 -0.368638 -3.09944e-06  0.0264931 -0.369079 -7.15256e-07  0.0191119 -0.368633 -4.52995e-06  0.00265662 -0.00473523 0.000897408  0 0 0  0.00380994 -0.00639427 0.00158644  0.00136127 -0.0038774 0.000570297  0 0 0  0.00266251 -0.00458872 0.0013833  0.000798158 -0.00253052 0.000481367  0 0 0  0.00134727 -0.0037604 0.000879765  0.000800088 -0.00245178 0.00074482  0.00690567 -0.00846434 0.00146198  0.00863847 -0.00948298 0.00254011  0.00633916 -0.00802994 0.00139117  0.0069463 -0.00821614 0.00223541  0.00480381 -0.00652695 0.00122237  0.00633638 -0.00779235 0.00214195  0.00482747 -0.00632846 0.00187683  0.0110874 -0.0126026 0.00173235  0.0132403 -0.0135311 0.00298572  0.0108737 -0.0116657 0.00184774  0.0111527 -0.0123138 0.00262403  0.00900039 -0.0104034 0.00163007  0.0109155 -0.0113725 0.00281096  0.0090569 -0.0101392 0.0024786  0.0151153 -0.0177492 0.00179744  0.0177687 -0.0185682 0.00307226  0.0154757 -0.0162094 0.00202632  0.015174 -0.0174494 0.00270271  0.0131368 -0.0150367 0.00178194  0.0155386 -0.0158998 0.00305629  0.0131993 -0.014742 0.00268912  0.0188556 -0.0239449 0.0017488  0.0219951 -0.0247005 0.00298738  0.0198693 -0.0218014 0.0020237  0.018898 -0.0236459 0.00262213  0.0170264 -0.0207086 0.00178146  0.0199233 -0.0214943 0.00304198  0.0170748 -0.0204145 0.00267363  0.0222749 -0.0311401 0.00165129  0.0258787 -0.0318546 0.00281405  0.023946 -0.0284402 0.00193906  0.0223 -0.0308573 0.00247645  0.0206041 -0.0274131 0.00170326  0.023982 -0.0281516 0.00290608  0.0206401 -0.0271274 0.00255442  0.0253605 -0.0392758 0.00153279  0.0294024 -0.0399581 0.00262046  0.0276572 -0.0360655 0.00181437  0.0253739 -0.0390028 0.00229764  0.0238589 -0.0350903 0.00159311  0.0276875 -0.0357937 0.00272274  0.0238783 -0.0348181 0.00239253  0.0281187 -0.0482615 0.00142002  0.0325687 -0.0489261 0.00241685  0.0310062 -0.0445925 0.00167966  0.0281276 -0.0480086 0.00212789  0.0267815 -0.0436592 0.00147533  0.0310262 -0.0443377 0.00251985  0.026791 -0.0434025 0.00221276  0.0305687 -0.0580322 0.00130439  0.035392 -0.0586798 0.00222754  0.0340074 -0.0539439 0.00155234  0.0305736 -0.0577998 0.00195169  0.0293863 -0.0530463 0.00135946  0.0340194 -0.0537086 0.00232267  0.0293887 -0.0528098 0.00203919  0.0327235 -0.0685121 0.00119162  0.0378876 -0.0691479 0.00202894  0.0366759 -0.0640485 0.00141883  0.0327241 -0.0682976 0.00178409  0.031682 -0.0631816 0.00124598  0.0366793 -0.063828 0.00213099  0.031684 -0.0629621 0.0018692  0.034592 -0.0796385 0.001086  0.0400726 -0.0802613 0.00185823  0.0390122 -0.0748258 0.00129652  0.0345908 -0.0794393 0.00162697  0.0336932 -0.0739919 0.0011375  0.0390164 -0.0746279 0.00194454  0.0336912 -0.0737929 0.00170517  0.0361907 -0.0913417 0.000984192  0.0419577 -0.0919545 0.00167966  0.0410415 -0.0862184 0.00117707  0.0361922 -0.09116 0.00147414  0.0354245 -0.0854145 0.00103593  0.0410513 -0.0860382 0.00177097  0.0354246 -0.0852303 0.00155044  0.03754 -0.103559 0.00089097  0.0435591 -0.104165 0.00152516  0.0427859 -0.0981619 0.00106788  0.0375381 -0.103401 0.0013361  0.0368978 -0.0973839 0.000935316  0.0427909 -0.097997 0.00160003  0.0368963 -0.0972177 0.00140691  0.0386477 -0.116243 0.000800133  0.0448945 -0.116836 0.00136399  0.0442609 -0.110594 0.000963688  0.0386409 -0.116096 0.00120211  0.0381209 -0.109845 0.000845432  0.0442597 -0.110447 0.00144553  0.0381198 -0.109693 0.00126815  0.0395263 -0.129333 0.000713587  0.0459797 -0.129916 0.00122333  0.0454634 -0.123459 0.000862837  0.0395219 -0.129199 0.00107193  0.039113 -0.122737 0.000756025  0.0454659 -0.123327 0.00129247  0.0391102 -0.122599 0.00113392  0.0401936 -0.142777 0.000633478  0.0468276 -0.143351 0.00107956  0.0464253 -0.13671 0.000765324  0.0401907 -0.14266 0.000951529  0.039886 -0.136006 0.000673532  0.0464346 -0.136591 0.00114918  0.0398821 -0.135887 0.00100994  0.0406661 -0.156531 0.000560284  0.0474572 -0.15709 0.000955582  0.0471632 -0.150291 0.000676632  0.0406635 -0.156423 0.000835896  0.0404527 -0.14961 0.000593185  0.0471683 -0.150183 0.00101948  0.0404534 -0.149505 0.000893831  0.0409546 -0.170545 0.000486851  0.0478806 -0.171094 0.000830412  0.0476928 -0.164154 0.000597954  0.0409517 -0.170451 0.000729799  0.0408356 -0.163499 0.000521898  0.0476916 -0.164065 0.000889778  0.0408294 -0.163408 0.000784397  0.0410757 -0.184784 0.000421047  0.0481167 -0.185321 0.000727177  0.0480187 -0.178262 0.000519753  0.0410736 -0.184702 0.000633478  0.0410366 -0.177631 0.000454426  0.048018 -0.178182 0.00077796  0.0410326 -0.177551 0.0006814  0.0410445 -0.199205 0.000360727  0.048183 -0.199733 0.000612974  0.0481706 -0.192575 0.000446796  0.0410373 -0.199137 0.000539541  0.0410798 -0.191965 0.000390053  0.0481696 -0.192506 0.000665426  0.0410743 -0.191896 0.000584602  0.0408685 -0.213779 0.000301123  0.0480874 -0.214293 0.000515938  0.0481477 -0.207056 0.000378609  0.0408661 -0.213715 0.000452995  0.0409744 -0.206469 0.000330925  0.0481546 -0.206993 0.000567913  0.0409687 -0.206407 0.000495195  0.0405695 -0.228467 0.000253677  0.0478494 -0.228969 0.00042963  0.047992 -0.221671 0.000314713  0.0405664 -0.228414 0.000378847  0.0407336 -0.221106 0.000278711  0.0479856 -0.22162 0.00047636  0.0407319 -0.221053 0.000415802  0.0401585 -0.243245 0.000203848  0.047488 -0.243734 0.000343084  0.0476844 -0.236385 0.000255823  0.0401525 -0.243201 0.000306129  0.0403786 -0.235838 0.00022769  0.0476851 -0.236341 0.000386238  0.0403724 -0.235796 0.000341654  0.0396481 -0.258083 0.000166655  0.0470135 -0.258566 0.000281334  0.047266 -0.251178 0.000208378  0.0396416 -0.258048 0.000245571  0.0399141 -0.250652 0.000183821  0.0472639 -0.251145 0.000311136  0.0399075 -0.250617 0.000273943  0.0390434 -0.272965 0.000127316  0.0464392 -0.273437 0.000213146  0.0467401 -0.266022 0.00016427  0.0390396 -0.272935 0.000190735  0.039355 -0.265515 0.000143528  0.0467377 -0.265999 0.000248909  0.0393498 -0.26549 0.000216007  0.0383704 -0.287862 9.41753e-05  0.0457785 -0.288324 0.000155926  0.0461226 -0.2809 0.000125408  0.0383666 -0.287838 0.000139952  0.038717 -0.280407 0.000110149  0.0461164 -0.280878 0.000185966  0.0387125 -0.280385 0.000164032  0.037636 -0.302763 6.65188e-05  0.045047 -0.303215 0.000114679  0.0454237 -0.295786 9.29832e-05  0.0376325 -0.302745 9.67979e-05  0.0380106 -0.29531 8.01086e-05  0.0454209 -0.295768 0.000136614  0.038007 -0.295292 0.000120163  0.03685 -0.317649 4.31538e-05  0.0442619 -0.318091 7.53403e-05  0.044668 -0.310668 6.24657e-05  0.0368462 -0.317632 6.4373e-05  0.037251 -0.310205 5.50747e-05  0.0446627 -0.310657 9.34601e-05  0.0372446 -0.310191 8.2016e-05  0.0360265 -0.332513 2.93255e-05  0.0434361 -0.332949 4.8399e-05  0.0438597 -0.325532 4.02927e-05  0.0360241 -0.332499 4.19617e-05  0.0364451 -0.325078 3.55244e-05  0.0438542 -0.325525 5.67436e-05  0.0364382 -0.325071 5.38826e-05  0.0351799 -0.347348 1.35899e-05  0.0425735 -0.347778 2.43187e-05  0.0430124 -0.34037 2.26498e-05  0.0351741 -0.347337 1.83582e-05  0.0356095 -0.339928 2.02656e-05  0.0430057 -0.340366 3.8147e-05  0.0356009 -0.339921 2.98023e-05  0.0343161 -0.362144 3.8147e-06  0.0417044 -0.362572 5.24521e-06  0.0421479 -0.355183 1.14441e-05  0.0343113 -0.362132 7.39098e-06  0.0347493 -0.354742 9.29832e-06  0.0421391 -0.355176 1.45435e-05  0.0347443 -0.354736 1.40667e-05  0.0334454 -0.376921 -6.91414e-06  0.040834 -0.377352 -4.05312e-06  0.0412695 -0.369964 2.38419e-07  0.0334425 -0.376908 -8.10623e-06  0.0338809 -0.369525 -1.19209e-06  0.0412707 -0.369965 -2.14577e-06  0.0338762 -0.369522 -1.90735e-06  -0.00387751 -0.00633702 -0.000530481  -0.00142193 -0.00373545 1.19209e-06  0 0 0  -0.00261393 -0.0044987 -9.53674e-07  0 0 0  -0.00178433 -0.00310534 -0.000387907  -0.000553854 -0.00153716 1.43051e-06  0 0 0  -0.0014171 -0.00370994 -0.000296116  -0.00261067 -0.0044618 -0.000458956  -0.000792764 -0.00236237 9.53674e-07  0 0 0  -0.000558499 -0.00152403 -0.000216961  -0.000791144 -0.00234622 -0.000246525  -0.00861527 -0.00933463 -0.000850201  -0.00635864 -0.00775063 -1.43051e-06  -0.00679934 -0.00811355 2.38419e-07  -0.0052661 -0.00682651 -0.000641584  -0.0034273 -0.00493668 -1.19209e-06  -0.00634885 -0.00769469 -0.000715971  -0.00680324 -0.00805532 -0.000751734  -0.00471792 -0.00623536 9.53674e-07  -0.00343119 -0.00490081 -0.000538588  -0.00472115 -0.00619059 -0.000628233  -0.0131932 -0.0132111 -0.00101876  -0.0108662 -0.0112261 1.66893e-06  -0.0109793 -0.0120839 1.66893e-06  -0.00898537 -0.0109643 -0.000767231  -0.0071364 -0.00883497 -2.38419e-06  -0.0108681 -0.0111557 -0.000952959  -0.0109853 -0.0120146 -0.00089407  -0.00888208 -0.00998159 -3.09944e-06  -0.00714174 -0.00878333 -0.000721216  -0.0088883 -0.00992079 -0.00083828  -0.0178133 -0.0179677 -0.00105286  -0.0155144 -0.0155171 1.19209e-06  -0.0150926 -0.0169921 9.53674e-07  -0.0125626 -0.0160174 -0.000792742  -0.0107866 -0.013423 7.15256e-07  -0.0155217 -0.0154492 -0.00104928  -0.0151007 -0.0169243 -0.000925541  -0.0130554 -0.0144055 -2.38419e-07  -0.0107897 -0.0133638 -0.000794172  -0.0130633 -0.0143408 -0.000919819  -0.0222554 -0.0237518 -0.00103092  -0.0200559 -0.0207946 7.15256e-07  -0.0190266 -0.0229111 9.53674e-07  -0.0159717 -0.0220554 -0.000777006  -0.0142868 -0.0189724 -2.86102e-06  -0.0200617 -0.0207308 -0.00104499  -0.0190325 -0.0228411 -0.000900269  -0.0170881 -0.0198191 4.76837e-07  -0.0142901 -0.0189117 -0.000791311  -0.0170916 -0.0197557 -0.000918865  -0.0264525 -0.0305247 -0.000969887  -0.024381 -0.0270805 4.76837e-07  -0.0227451 -0.0297983 -7.15256e-07  -0.0191888 -0.0290524 -0.000729322  -0.0176019 -0.0254961 -2.38419e-06  -0.0243868 -0.0270198 -0.00100064  -0.0227426 -0.0297324 -0.000846863  -0.020913 -0.026227 -4.76837e-07  -0.017605 -0.0254391 -0.000753164  -0.0209154 -0.0261687 -0.000877857  -0.0303922 -0.0382166 -0.000898123  -0.0284555 -0.0343176 5.24521e-06  -0.0262349 -0.0375954 -2.38419e-07  -0.0222217 -0.03695 -0.00067091  -0.0207331 -0.0329499 1.66893e-06  -0.0284516 -0.0342613 -0.000933409  -0.0262315 -0.0375307 -0.000784636  -0.0245166 -0.0335825 -1.90735e-06  -0.0207278 -0.0328935 -0.000700951  -0.0245149 -0.0335237 -0.000817537  -0.0340831 -0.0467551 -0.000819683  -0.0322683 -0.0424404 -3.33786e-06  -0.0295153 -0.0462289 -9.53674e-07  -0.025081 -0.0456805 -0.000617981  -0.0236766 -0.0412705 -1.90735e-06  -0.0322686 -0.0423861 -0.000856638  -0.0295101 -0.0461714 -0.000716448  -0.0279021 -0.0418066 2.38419e-07  -0.0236718 -0.0412154 -0.000644445  -0.0278978 -0.0417518 -0.000751972  -0.0375389 -0.0560761 -0.000751734  -0.0358379 -0.0513729 1.66893e-06  -0.0325967 -0.0556408 -4.76837e-07  -0.0277796 -0.0551797 -0.000561476  -0.0264571 -0.0503854 2.38419e-07  -0.035841 -0.0513245 -0.00078392  -0.0325921 -0.055589 -0.000652313  -0.0310794 -0.0508383 9.53674e-07  -0.0264491 -0.0503394 -0.000587225  -0.031075 -0.0507892 -0.000683784  -0.0407788 -0.06611 -0.000676155  -0.0391905 -0.0610543 9.53674e-07  -0.0354984 -0.065759 7.15256e-07  -0.0303309 -0.0653837 -0.000509501  -0.0290806 -0.0602413 -1.19209e-06  -0.0391833 -0.0610092 -0.00071311  -0.0354917 -0.0657138 -0.000593424  -0.0340712 -0.0606106 1.43051e-06  -0.0290742 -0.0601974 -0.00053525  -0.0340633 -0.0605646 -0.000622034  -0.0438161 -0.0767969 -0.000612259  -0.0423282 -0.071418 -7.15256e-07  -0.0382291 -0.0765242 7.15256e-07  -0.032748 -0.0762323 -0.000460863  -0.0315617 -0.0707703 4.76837e-07  -0.0423208 -0.0713789 -0.000648975  -0.0382224 -0.0764815 -0.000537872  -0.0368829 -0.0710626 2.14577e-06  -0.0315567 -0.0707291 -0.000483036  -0.0368786 -0.0710196 -0.000564575  -0.0466661 -0.0880788 -0.000553131  -0.0452698 -0.0824069 -7.15256e-07  -0.0407988 -0.0878815 4.76837e-07  -0.0350353 -0.087662 -0.000414848  -0.0339105 -0.081914 -7.15256e-07  -0.0452645 -0.0823656 -0.000587225  -0.0407914 -0.087841 -0.000488281  -0.0395302 -0.0821304 -9.53674e-07  -0.0339063 -0.0818767 -0.000440121  -0.0395266 -0.0820916 -0.000511169  -0.0493373 -0.0998992 -0.000502586  -0.0480213 -0.0939566 -2.38419e-07  -0.0432215 -0.0997722 -1.43051e-06  -0.0372015 -0.0996249 -0.000376463  -0.0361401 -0.0936149 2.38419e-07  -0.0480247 -0.093924 -0.000528574  -0.0432147 -0.0997381 -0.000437975  -0.0420285 -0.0937613 1.43051e-06  -0.0361328 -0.0935818 -0.000392914  -0.0420207 -0.0937263 -0.000461817  -0.0518384 -0.112199 -0.000444174  -0.0506107 -0.106021 -2.86102e-06  -0.0455021 -0.112142 1.66893e-06  -0.0392547 -0.112061 -0.000332355  -0.03825 -0.105816 -2.38419e-07  -0.0506055 -0.105991 -0.000477076  -0.0454954 -0.11211 -0.000391006  -0.0443767 -0.105895 2.38419e-07  -0.0382417 -0.105786 -0.000353098  -0.0443733 -0.105867 -0.000411987  -0.0541774 -0.124928 -0.000397682  -0.0530325 -0.118543 7.15256e-07  -0.0476468 -0.124935 1.19209e-06  -0.0412 -0.124919 -0.000301123  -0.0402454 -0.118466 7.15256e-07  -0.0530301 -0.118513 -0.000422478  -0.0476421 -0.124907 -0.000347614  -0.0465902 -0.118485 -9.53674e-07  -0.040241 -0.11844 -0.000317335  -0.0465837 -0.118458 -0.000367641  -0.056372 -0.138046 -0.000349522  -0.0552911 -0.131466 7.15256e-07  -0.0496629 -0.138114 2.38419e-07  -0.0430402 -0.138153 -0.00026083  -0.0421376 -0.131517 2.38419e-07  -0.0552946 -0.131444 -0.000375986  -0.0496587 -0.138084 -0.000306606  -0.0486717 -0.131475 -1.19209e-06  -0.0421321 -0.131492 -0.000280142  -0.0486653 -0.131451 -0.000328064  -0.0584118 -0.151497 -0.000308752  -0.0574107 -0.144754 1.19209e-06  -0.0515609 -0.15162 2.14577e-06  -0.0447791 -0.151715 -0.000223875  -0.0439291 -0.144915 2.38419e-07  -0.0574093 -0.144735 -0.000329733  -0.0515544 -0.151593 -0.000267506  -0.0506253 -0.144823 1.43051e-06  -0.0439212 -0.144893 -0.000245571  -0.0506241 -0.144802 -0.000285625  -0.0603185 -0.165245 -0.000269651  -0.0593834 -0.158358 2.38419e-06  -0.0533402 -0.165416 1.19209e-06  -0.0464256 -0.165562 -0.000201702  -0.0456178 -0.158624 2.38419e-07  -0.0593827 -0.158336 -0.000287771  -0.0533335 -0.165392 -0.00023365  -0.0524602 -0.158478 2.86102e-06  -0.0456142 -0.158604 -0.000211716  -0.052459 -0.158459 -0.000248671  -0.0620983 -0.179247 -0.000231981  -0.0612235 -0.17223 4.76837e-07  -0.0550063 -0.17946 9.53674e-07  -0.0479808 -0.179649 -0.000172853  -0.0472159 -0.172591 7.15256e-07  -0.0612223 -0.172216 -0.000247955  -0.0550036 -0.179437 -0.000199318  -0.0541861 -0.172405 -7.15256e-07  -0.0472152 -0.172574 -0.000185251  -0.0541813 -0.172388 -0.00021553  -0.0637512 -0.193459 -0.000193834  -0.0629351 -0.186342 0  -0.0565705 -0.193714 -3.33786e-06  -0.0494494 -0.193943 -0.00014782  -0.0487287 -0.186785 9.53674e-07  -0.0629411 -0.186328 -0.000210762  -0.0565686 -0.193694 -0.000169992  -0.0558059 -0.186559 -1.19209e-06  -0.0487268 -0.186773 -0.000154018  -0.055799 -0.186544 -0.000184298  -0.0652916 -0.207849 -0.000160456  -0.0645361 -0.200644 4.76837e-07  -0.0580385 -0.208138 -7.15256e-07  -0.0508394 -0.208407 -0.000119925  -0.0501566 -0.201167 2.38419e-07  -0.0645332 -0.200631 -0.000179529  -0.0580342 -0.208125 -0.000143051  -0.0573158 -0.200899 -3.33786e-06  -0.0501547 -0.201153 -0.000135422  -0.057313 -0.200889 -0.00015974  -0.0667241 -0.222384 -0.000135899  -0.0660188 -0.215109 4.76837e-07  -0.0594144 -0.22271 -4.76837e-07  -0.0521526 -0.223008 -0.000100136  -0.0515065 -0.215701 7.15256e-07  -0.0660219 -0.215099 -0.000147343  -0.0594101 -0.222692 -0.000114202  -0.0587385 -0.215402 -2.38419e-07  -0.0515065 -0.215691 -0.000112295  -0.0587347 -0.215392 -0.000128984  -0.0680587 -0.237032 -0.000107288  -0.067404 -0.229703 2.86102e-06  -0.0607033 -0.237387 -2.86102e-06  -0.0533912 -0.237713 -8.05855e-05  -0.052783 -0.230357 0  -0.0674014 -0.229696 -0.000120163  -0.0606997 -0.237372 -9.58443e-05  -0.0600684 -0.230026 -4.76837e-07  -0.0527792 -0.230348 -8.9407e-05  -0.0600669 -0.230021 -0.000103951  -0.0693014 -0.251767 -8.72612e-05  -0.0686913 -0.244395 -4.76837e-07  -0.0619147 -0.252142 2.38419e-07  -0.0545669 -0.252497 -6.34193e-05  -0.0539916 -0.245102 -2.38419e-06  -0.0686882 -0.244392 -9.44138e-05  -0.0619135 -0.252134 -7.29561e-05  -0.0613167 -0.244748 -2.38419e-07  -0.0539846 -0.245095 -7.31945e-05  -0.0613163 -0.244743 -8.36849e-05  -0.0704625 -0.266562 -7.03335e-05  -0.0698905 -0.259162 -2.38419e-06  -0.0630565 -0.266963 2.86102e-06  -0.0556808 -0.267336 -4.52995e-05  -0.05513 -0.259914 9.53674e-07  -0.0698943 -0.259159 -7.41482e-05  -0.0630546 -0.266951 -5.43594e-05  -0.0624924 -0.259542 0  -0.0551307 -0.25991 -5.29289e-05  -0.0624924 -0.259534 -6.55651e-05  -0.0715516 -0.281397 -5.03063e-05  -0.0710161 -0.273984 2.38419e-07  -0.0641339 -0.281814 1.19209e-06  -0.0567408 -0.282206 -3.12328e-05  -0.0562191 -0.274772 -4.76837e-07  -0.0710151 -0.273977 -5.48363e-05  -0.064132 -0.281803 -3.86238e-05  -0.063602 -0.274379 -9.53674e-07  -0.0562184 -0.274766 -4.24385e-05  -0.063601 -0.274374 -4.69685e-05  -0.0725751 -0.296255 -3.79086e-05  -0.0720711 -0.28883 -2.38419e-07  -0.0651569 -0.296685 2.38419e-07  -0.0577555 -0.297088 -2.57492e-05  -0.0572565 -0.289649 2.38419e-07  -0.0720737 -0.288825 -3.86238e-05  -0.0651512 -0.296674 -2.69413e-05  -0.0646489 -0.289239 -1.19209e-06  -0.0572546 -0.289645 -2.69413e-05  -0.0646482 -0.289239 -3.55244e-05  -0.0735521 -0.311114 -2.00272e-05  -0.0730708 -0.303686 1.66893e-06  -0.0661292 -0.311548 -2.38419e-07  -0.0587265 -0.311967 -1.43051e-05  -0.0582461 -0.30453 2.14577e-06  -0.0730669 -0.303686 -2.64645e-05  -0.0661299 -0.311545 -1.93119e-05  -0.0656481 -0.304112 4.76837e-07  -0.0582435 -0.30453 -2.02656e-05  -0.0656459 -0.304109 -2.40803e-05  -0.0744793 -0.325961 -8.10623e-06  -0.074013 -0.318541 1.19209e-06  -0.0670691 -0.326404 -1.19209e-06  -0.0596681 -0.326829 -8.82149e-06  -0.0591981 -0.319402 0  -0.0740232 -0.318539 -1.81198e-05  -0.0670652 -0.326398 -1.16825e-05  -0.0666025 -0.318974 2.38419e-06  -0.059202 -0.319401 -1.35899e-05  -0.066602 -0.318974 -1.45435e-05  -0.0753765 -0.340786 -6.19888e-06  -0.0749252 -0.333379 -1.19209e-06  -0.0679765 -0.341233 7.15256e-07  -0.0605795 -0.341663 -3.09944e-06  -0.0601254 -0.33425 -1.66893e-06  -0.0749311 -0.333376 -8.10623e-06  -0.0679755 -0.341229 -2.38419e-06  -0.067524 -0.333818 -4.76837e-07  -0.0601261 -0.334247 -2.86102e-06  -0.067523 -0.333815 -8.82149e-06  -0.0762563 -0.355589 -4.76837e-07  -0.0758181 -0.348195 9.53674e-07  -0.0688641 -0.356035 4.76837e-07  -0.0614738 -0.356465 1.43051e-06  -0.061029 -0.349069 1.19209e-06  -0.0758188 -0.348191 -7.15256e-07  -0.0688629 -0.356029 7.15256e-07  -0.0684211 -0.348635 7.15256e-07  -0.0610268 -0.349068 2.86102e-06  -0.068419 -0.348631 -4.05312e-06  -0.0771365 -0.370374 -1.43051e-06  -0.0766947 -0.362986 -2.38419e-07  -0.0697465 -0.370815 -3.57628e-06  -0.0623629 -0.371241 1.43051e-06  -0.0619171 -0.363856 2.86102e-06  -0.0766945 -0.362985 -3.57628e-06  -0.069747 -0.370809 1.90735e-06  -0.0693021 -0.363422 -2.38419e-07  -0.061919 -0.363854 7.15256e-07  -0.0693045 -0.363423 -7.15256e-07  -0.00133149 -0.00224514 1.66893e-06  0 0 0  -0.00096146 -0.00161389 -0.000265837  -0.000301491 -0.000615329 -1.43051e-06  0 0 0  -0.00133109 -0.00222105 -0.000325441  -0.000405587 -0.000992462 0  0 0 0  -0.000300974 -0.00060752 -0.000140429  -0.000403192 -0.000980586 -0.000179291  -0.00404277 -0.0058108 4.76837e-07  -0.00299685 -0.00495119 -0.000438452  -0.00187689 -0.00317545 0  -0.00404674 -0.00576518 -0.000540018  -0.00258295 -0.00391755 0  -0.0018837 -0.00315014 -0.000363827  -0.00258641 -0.00388789 -0.000446796  -0.00713086 -0.0101202 4.76837e-07  -0.00546351 -0.00932366 -0.000521421  -0.00420076 -0.00706346 7.15256e-07  -0.00714248 -0.0100656 -0.000644445  -0.00558344 -0.0078492 -2.38419e-07  -0.00421283 -0.00702342 -0.000486374  -0.00559184 -0.00780673 -0.000605345  -0.0101623 -0.0153068 -3.8147e-06  -0.00792402 -0.0146211 -0.000539303  -0.00669658 -0.0119016 -2.38419e-07  -0.0101721 -0.0152472 -0.000669241  -0.008661 -0.0125888 4.76837e-07  -0.00670746 -0.0118519 -0.000535488  -0.00867262 -0.0125335 -0.000664473  -0.0130504 -0.0214597 0  -0.0102634 -0.0208724 -0.000519753  -0.00910747 -0.0176827 -1.90735e-06  -0.0130525 -0.0213981 -0.000645638  -0.0116258 -0.0182619 0  -0.00910801 -0.0176275 -0.000531435  -0.0116333 -0.0182009 -0.000665188  -0.0157764 -0.0285529 -1.19209e-06  -0.0124777 -0.0280514 -0.000486851  -0.011385 -0.0244026 -4.76837e-07  -0.0157739 -0.0284904 -0.000607252  -0.014434 -0.0248885 -2.38419e-07  -0.0113876 -0.0243444 -0.000501394  -0.0144329 -0.0248299 -0.000629425  -0.0183504 -0.0365356 2.14577e-06  -0.0145785 -0.0361064 -0.00044775  -0.0135425 -0.0320264 1.19209e-06  -0.0183442 -0.0364733 -0.000558138  -0.0170793 -0.0324309 4.76837e-07  -0.0135404 -0.0319694 -0.000469446  -0.0170767 -0.0323748 -0.000583887  -0.0207852 -0.0453386 -2.14577e-06  -0.0165815 -0.0449822 -0.000407696  -0.0155957 -0.0404968 -1.19209e-06  -0.0207784 -0.0452827 -0.000513315  -0.0195843 -0.0408308 0  -0.0155906 -0.0404432 -0.000430822  -0.0195763 -0.0407782 -0.000536919  -0.023093 -0.0549069 -1.43051e-06  -0.0184971 -0.0546193 -0.000374556  -0.0175561 -0.0497593 4.76837e-07  -0.0230889 -0.0548581 -0.0004673  -0.0219539 -0.0500276 -9.53674e-07  -0.0175484 -0.0497095 -0.000394106  -0.0219476 -0.0499775 -0.000490427  -0.025296 -0.0651798 0  -0.0203384 -0.0649557 -0.000340223  -0.0194343 -0.0597507 2.38419e-07  -0.0252868 -0.0651286 -0.0004282  -0.024207 -0.0599564 2.38419e-07  -0.0194259 -0.059705 -0.000356674  -0.0242004 -0.0599091 -0.00044775  -0.0273901 -0.0760927 1.19209e-06  -0.0221072 -0.0759301 -0.000306845  -0.0212398 -0.0704076 0  -0.0273809 -0.0760484 -0.000382185  -0.0263561 -0.0705519 -7.15256e-07  -0.0212318 -0.0703658 -0.00032115  -0.0263457 -0.0705098 -0.000403404  -0.0293878 -0.0875822 0  -0.0238117 -0.0874843 -0.00027585  -0.0229729 -0.0816735 9.53674e-07  -0.02938 -0.0875432 -0.000348091  -0.0283984 -0.0817606 9.53674e-07  -0.0229681 -0.0816373 -0.000289202  -0.0283924 -0.0817235 -0.000362873  -0.0312957 -0.099602 2.38419e-07  -0.0254533 -0.0995585 -0.000245333  -0.0246449 -0.0934926 -2.38419e-07  -0.0312859 -0.0995644 -0.000308514  -0.0303522 -0.093525 4.76837e-07  -0.0246406 -0.0934575 -0.000263691  -0.0303426 -0.0934903 -0.000328541  -0.0331099 -0.11209 1.66893e-06  -0.0270365 -0.112102 -0.000221252  -0.0262597 -0.105806 7.15256e-07  -0.0331082 -0.112058 -0.00027585  -0.0322113 -0.105786 7.15256e-07  -0.0262523 -0.105774 -0.000231028  -0.0322078 -0.105754 -0.000293016  -0.0348469 -0.125 -1.19209e-06  -0.0285603 -0.125064 -0.000194311  -0.027814 -0.118561 -2.38419e-07  -0.0348414 -0.124972 -0.000246048  -0.0339892 -0.118491 -7.15256e-07  -0.0278039 -0.118532 -0.000206232  -0.0339848 -0.118463 -0.00026226  -0.0365053 -0.138282 -4.76837e-07  -0.0300299 -0.13839 -0.000170469  -0.0293062 -0.131707 -7.15256e-07  -0.0365001 -0.138254 -0.000219822  -0.0356851 -0.131595 -2.38419e-07  -0.0293012 -0.131682 -0.000185013  -0.0356822 -0.131566 -0.00023365  -0.0380852 -0.151884 -4.76837e-07  -0.0314438 -0.152039 -0.000149727  -0.0307503 -0.145196 -1.66893e-06  -0.0380785 -0.151861 -0.00019002  -0.0373042 -0.145038 -2.38419e-07  -0.0307436 -0.145174 -0.000163794  -0.0372989 -0.145018 -0.000202179  -0.039593 -0.16577 2.38419e-06  -0.0328057 -0.165964 -0.000133276  -0.0321341 -0.158986 -2.38419e-07  -0.0395863 -0.165749 -0.000165462  -0.0388474 -0.158791 1.19209e-06  -0.0321307 -0.158969 -0.000139713  -0.0388417 -0.158772 -0.000178337  -0.041028 -0.179898 4.76837e-07  -0.0341218 -0.180123 -0.000110865  -0.0334773 -0.173034 -7.15256e-07  -0.0410235 -0.179875 -0.000143528  -0.0403192 -0.172804 9.53674e-07  -0.0334702 -0.173017 -0.000120401  -0.040313 -0.172785 -0.000154495  -0.0423961 -0.194224 2.38419e-07  -0.0353844 -0.194484 -9.29832e-05  -0.0347631 -0.187297 -7.15256e-07  -0.0423932 -0.194205 -0.000118732  -0.0417199 -0.187032 7.15256e-07  -0.0347576 -0.187281 -0.000103235  -0.0417166 -0.187017 -0.000131845  -0.0436995 -0.208721 0  -0.0365992 -0.209008 -7.62939e-05  -0.0359998 -0.20174 -1.19209e-06  -0.043695 -0.208701 -9.72748e-05  -0.0430574 -0.201444 -1.43051e-06  -0.0359974 -0.201729 -8.72612e-05  -0.0430522 -0.201434 -0.000112057  -0.0449448 -0.223345 2.38419e-07  -0.0377698 -0.22366 -6.58035e-05  -0.0371914 -0.21633 2.14577e-06  -0.0449388 -0.22333 -8.27312e-05  -0.0443258 -0.216011 2.6226e-06  -0.0371885 -0.216318 -7.05719e-05  -0.0443258 -0.215998 -9.10759e-05  -0.0461268 -0.238074 -2.86102e-06  -0.0388975 -0.238413 -5.31673e-05  -0.0383437 -0.231035 1.43051e-06  -0.0461283 -0.238057 -6.53267e-05  -0.0455413 -0.230691 -1.43051e-06  -0.038337 -0.231024 -5.79357e-05  -0.0455406 -0.230682 -7.4625e-05  -0.0472605 -0.252874 2.6226e-06  -0.0399814 -0.253235 -4.3869e-05  -0.0394461 -0.245822 -2.14577e-06  -0.0472569 -0.252863 -5.26905e-05  -0.0466993 -0.245459 -1.19209e-06  -0.0394428 -0.245817 -4.57764e-05  -0.0466979 -0.245452 -6.03199e-05  -0.0483449 -0.26773 -2.38419e-07  -0.0410302 -0.268109 -2.93255e-05  -0.0405118 -0.260674 9.53674e-07  -0.0483406 -0.267721 -3.88622e-05  -0.0478065 -0.260291 0  -0.0405083 -0.260666 -3.12328e-05  -0.0478072 -0.260286 -4.52995e-05  -0.0493813 -0.282611 4.76837e-07  -0.0420437 -0.283006 -2.5034e-05  -0.0415406 -0.27556 7.15256e-07  -0.0493803 -0.282604 -2.74181e-05  -0.0488672 -0.275166 3.33786e-06  -0.0415432 -0.275553 -2.64645e-05  -0.0488663 -0.275159 -3.09944e-05  -0.0503809 -0.297508 -9.53674e-07  -0.0430253 -0.297911 -1.50204e-05  -0.0425389 -0.290464 1.90735e-06  -0.0503793 -0.2975 -1.83582e-05  -0.0498862 -0.290056 4.76837e-07  -0.0425367 -0.290458 -1.66893e-05  -0.049886 -0.29005 -2.57492e-05  -0.0513473 -0.312392 -1.43051e-06  -0.0439823 -0.312806 -1.54972e-05  -0.0435069 -0.305362 0  -0.0513442 -0.312386 -9.29832e-06  -0.0508671 -0.304949 9.53674e-07  -0.0435059 -0.30536 -1.26362e-05  -0.0508668 -0.304947 -1.66893e-05  -0.0522857 -0.327262 4.76837e-07  -0.0449102 -0.32768 -5.24521e-06  -0.0444486 -0.320249 2.38419e-07  -0.0522828 -0.327255 -1.00136e-05  -0.0518198 -0.319826 -7.15256e-07  -0.0444515 -0.320246 -6.19888e-06  -0.0518153 -0.319824 -1.07288e-05  -0.0531974 -0.342101 4.76837e-07  -0.0458176 -0.342522 7.15256e-07  -0.0453699 -0.335107 7.15256e-07  -0.0531945 -0.342092 -5.00679e-06  -0.0527475 -0.334679 2.38419e-07  -0.0453658 -0.335104 -5.24521e-06  -0.0527425 -0.334676 -5.48363e-06  -0.0540895 -0.356901 1.66893e-06  -0.0467095 -0.357327 4.52995e-06  -0.0462701 -0.34993 4.76837e-07  -0.0540888 -0.356897 4.05312e-06  -0.0536423 -0.3495 9.53674e-07  -0.0462639 -0.349929 1.19209e-06  -0.0536437 -0.349499 2.38419e-07  -0.054976 -0.371675 -4.76837e-07  -0.0475976 -0.372094 -2.14577e-06  -0.0471535 -0.364715 7.15256e-07  -0.0549767 -0.371669 6.4373e-06  -0.0545321 -0.364285 1.43051e-06  -0.0471556 -0.364713 1.19209e-06  -0.0545323 -0.364285 3.57628e-06  -0.000665218 -0.00122786 2.38419e-07  0 0 0  -0.000413522 -0.000955969 -0.00013113  -0.000127513 -0.00021264 -9.53674e-07  0 0 0  -0.00066451 -0.00121137 -0.000199318  -0.000203479 -0.000365227 -4.76837e-07  0 0 0  -0.000129551 -0.000205785 -6.93798e-05  -0.000201721 -0.000359267 -0.000109434  -0.00212328 -0.00439578 -1.43051e-06  -0.00133824 -0.0039804 -0.000221014  -0.000823438 -0.00231227 -2.38419e-07  -0.00212887 -0.00436422 -0.000330925  -0.00132138 -0.00265265 4.76837e-07  -0.000825658 -0.00229424 -0.000182867  -0.00132304 -0.00263005 -0.000272751  -0.00393745 -0.00880569 -1.19209e-06  -0.00252143 -0.00837511 -0.000264883  -0.00190893 -0.0060803 2.38419e-07  -0.00394359 -0.00875649 -0.000390291  -0.00301155 -0.00647464 -4.76837e-07  -0.00191268 -0.00604621 -0.000245094  -0.00301731 -0.00643668 -0.000368357  -0.00579435 -0.0141991 1.66893e-06  -0.0037629 -0.013825 -0.000269651  -0.00313866 -0.0110245 -1.43051e-06  -0.00579917 -0.0141464 -0.000402212  -0.00487271 -0.0113762 1.66893e-06  -0.00314033 -0.0109805 -0.00026989  -0.00487751 -0.0113314 -0.000402689  -0.00757897 -0.0205387 -1.66893e-06  -0.00497967 -0.0202237 -0.000262499  -0.00437737 -0.0169608 -2.38419e-07  -0.0075807 -0.0204799 -0.00039506  -0.00669575 -0.0172488 -2.38419e-07  -0.00437689 -0.0169078 -0.000268936  -0.00669909 -0.0171949 -0.000400305  -0.00928092 -0.0277874 -1.19209e-06  -0.00615507 -0.0275284 -0.000244141  -0.00557405 -0.0238186 7.15256e-07  -0.00927901 -0.0277277 -0.000367641  -0.00844216 -0.0240435 -4.76837e-07  -0.00557268 -0.0237646 -0.000254393  -0.00843972 -0.0239882 -0.000380516  -0.0109088 -0.0359055 -4.76837e-07  -0.00730306 -0.0357002 -0.000226736  -0.00673449 -0.0315618 -1.66893e-06  -0.0109044 -0.0358483 -0.000337124  -0.0101038 -0.0317339 -1.19209e-06  -0.00673378 -0.0315081 -0.00023675  -0.0100991 -0.0316812 -0.000352144  -0.0124801 -0.0448339 1.66893e-06  -0.00843406 -0.0446831 -0.000204802  -0.00787741 -0.0401423 1.66893e-06  -0.0124741 -0.0447813 -0.000302553  -0.0116994 -0.0402664 0  -0.00787032 -0.0400906 -0.000214815  -0.0116955 -0.0402145 -0.000323534  -0.014001 -0.054527 7.15256e-07  -0.0095551 -0.0544179 -0.000187159  -0.00900161 -0.0495047 1.43051e-06  -0.0139936 -0.054473 -0.000281334  -0.0132458 -0.0495851 9.53674e-07  -0.00899553 -0.0494576 -0.000192404  -0.0132401 -0.0495355 -0.000292778  -0.015478 -0.0649151 2.38419e-06  -0.0106663 -0.0648523 -0.000165462  -0.0101194 -0.0595949 -1.66893e-06  -0.0154715 -0.0648635 -0.000254393  -0.0147427 -0.059629 -7.15256e-07  -0.0101088 -0.0595493 -0.000174522  -0.014737 -0.059584 -0.000266552  -0.0169181 -0.0759292 -4.76837e-07  -0.0117751 -0.0759179 -0.000153542  -0.0112264 -0.0703476 4.76837e-07  -0.0169095 -0.0758846 -0.00022912  -0.0162022 -0.0703379 9.53674e-07  -0.0112201 -0.0703081 -0.000161409  -0.0161961 -0.0702979 -0.000239134  -0.0183206 -0.0875301 -1.66893e-06  -0.0128793 -0.0875605 -0.000135422  -0.0123329 -0.0817092 1.90735e-06  -0.0183167 -0.0874898 -0.000204563  -0.0176227 -0.0816553 1.19209e-06  -0.0123256 -0.0816702 -0.000142574  -0.0176172 -0.0816192 -0.000216007  -0.0196939 -0.0996499 -1.19209e-06  -0.0139782 -0.0997224 -0.000123024  -0.0134333 -0.093613 2.38419e-07  -0.0196905 -0.0996101 -0.000184298  -0.0190109 -0.09352 -9.53674e-07  -0.0134293 -0.0935782 -0.000128508  -0.0190077 -0.093486 -0.000194073  -0.0210361 -0.112233 2.14577e-06  -0.0150741 -0.112346 -0.000105143  -0.0145295 -0.10601 4.76837e-07  -0.0210292 -0.112197 -0.000160217  -0.0203668 -0.105879 1.90735e-06  -0.0145274 -0.105979 -0.000115633  -0.020363 -0.105846 -0.000173569  -0.0223424 -0.12523 -2.38419e-07  -0.0161624 -0.125384 -9.84669e-05  -0.0156218 -0.118842 1.43051e-06  -0.0223391 -0.125201 -0.000147104  -0.0216906 -0.118676 9.53674e-07  -0.0156217 -0.118815 -9.98974e-05  -0.0216868 -0.118648 -0.000153542  -0.0236229 -0.138596 -1.66893e-06  -0.0172498 -0.138783 -8.53539e-05  -0.0167174 -0.132064 -9.53674e-07  -0.0236162 -0.138564 -0.000129461  -0.0229855 -0.131863 -2.86102e-06  -0.0167069 -0.13204 -8.86917e-05  -0.0229825 -0.131839 -0.00013876  -0.024869 -0.152277 2.38419e-06  -0.0183237 -0.152496 -6.46114e-05  -0.0177917 -0.145625 4.76837e-07  -0.0248611 -0.152249 -0.000109196  -0.0242505 -0.145391 2.38419e-07  -0.0177886 -0.145602 -7.82013e-05  -0.0242424 -0.145369 -0.000121117  -0.0260825 -0.166234 0  -0.0193875 -0.166484 -6.79493e-05  -0.018856 -0.159476 2.86102e-06  -0.0260789 -0.166208 -9.75132e-05  -0.0254793 -0.159217 -2.38419e-07  -0.0188558 -0.159457 -6.50883e-05  -0.0254741 -0.159195 -0.000103712  -0.0272675 -0.180423 0  -0.0204434 -0.180701 -5.17368e-05  -0.0199218 -0.173582 -1.19209e-06  -0.0272636 -0.180399 -8.08239e-05  -0.02668 -0.173292 4.76837e-07  -0.0199196 -0.173566 -5.72205e-05  -0.0266738 -0.173277 -9.01222e-05  -0.0284226 -0.194807 -1.43051e-06  -0.0214841 -0.195108 -4.55379e-05  -0.0209692 -0.187898 -1.66893e-06  -0.0284157 -0.194785 -7.10487e-05  -0.0278468 -0.187583 -9.53674e-07  -0.0209627 -0.187881 -4.81606e-05  -0.0278432 -0.187569 -7.51019e-05  -0.0295415 -0.209348 -2.38419e-07  -0.0225132 -0.209676 -3.67165e-05  -0.0219977 -0.202389 2.86102e-06  -0.0295396 -0.209332 -5.60284e-05  -0.0289819 -0.202055 0  -0.0220013 -0.202375 -4.31538e-05  -0.0289843 -0.202041 -6.36578e-05  -0.0306368 -0.22402 0  -0.0235229 -0.224363 -2.90871e-05  -0.0230172 -0.217016 2.38419e-07  -0.0306332 -0.224005 -4.91142e-05  -0.0300941 -0.216664 0  -0.0230217 -0.217005 -3.40939e-05  -0.0300889 -0.216653 -5.36442e-05  -0.0316985 -0.238788 -3.8147e-06  -0.0245214 -0.239153 -2.81334e-05  -0.0240285 -0.231758 1.19209e-06  -0.0316973 -0.238776 -3.83854e-05  -0.0311668 -0.231389 -2.38419e-07  -0.024025 -0.231748 -2.74181e-05  -0.0311706 -0.231379 -4.3869e-05  -0.0327353 -0.253628 -4.76837e-07  -0.0255051 -0.254005 -1.90735e-05  -0.0250213 -0.246577 -1.43051e-06  -0.0327327 -0.253617 -3.19481e-05  -0.0322196 -0.246197 2.38419e-07  -0.0250142 -0.24657 -2.0504e-05  -0.032218 -0.246188 -3.48091e-05  -0.0337455 -0.268512 -1.66893e-06  -0.0264721 -0.268899 -1.3113e-05  -0.0259907 -0.261456 2.38419e-06  -0.0337424 -0.268501 -2.07424e-05  -0.0332408 -0.261058 1.43051e-06  -0.0259888 -0.261447 -1.5974e-05  -0.0332403 -0.261052 -2.6226e-05  -0.0347285 -0.28342 0  -0.0274253 -0.283817 -1.09673e-05  -0.0269501 -0.276361 -1.43051e-06  -0.0347276 -0.283411 -1.7643e-05  -0.0342417 -0.275957 1.19209e-06  -0.0269516 -0.276358 -1.28746e-05  -0.0342371 -0.275953 -1.7643e-05  -0.0356891 -0.298331 2.38419e-07  -0.0283611 -0.298741 -2.38419e-06  -0.0278952 -0.291284 7.15256e-07  -0.0356872 -0.298325 -8.58307e-06  -0.0352135 -0.29087 1.43051e-06  -0.0278955 -0.29128 -9.77516e-06  -0.0352118 -0.290867 -1.69277e-05  -0.0366268 -0.313232 2.38419e-07  -0.0292838 -0.313651 -6.91414e-06  -0.0288231 -0.3062 2.38419e-07  -0.0366275 -0.313227 -5.72205e-06  -0.0361605 -0.305781 -1.19209e-06  -0.0288246 -0.306195 -4.05312e-06  -0.0361581 -0.305775 -8.58307e-06  -0.0375514 -0.328113 7.15256e-07  -0.0301936 -0.328532 4.76837e-07  -0.0297408 -0.321095 2.6226e-06  -0.0375478 -0.328105 -4.76837e-07  -0.0370905 -0.320673 -4.76837e-07  -0.0297396 -0.321095 -4.05312e-06  -0.037091 -0.320667 -6.67572e-06  -0.0384536 -0.342958 -7.15256e-07  -0.0310926 -0.34338 1.66893e-06  -0.0306458 -0.335962 1.66893e-06  -0.0384524 -0.342954 -9.53674e-07  -0.0380023 -0.335534 -4.76837e-07  -0.0306435 -0.335961 1.19209e-06  -0.0380013 -0.335533 -7.15256e-07  -0.0393441 -0.357768 -1.19209e-06  -0.0319788 -0.358188 3.8147e-06  -0.0315337 -0.350793 -2.14577e-06  -0.0393422 -0.357757 2.14577e-06  -0.0389013 -0.350361 -2.38419e-07  -0.0315368 -0.35079 -2.38419e-07  -0.0388968 -0.350359 1.66893e-06  -0.0402281 -0.372528 -2.38419e-07  -0.0328605 -0.372946 -1.43051e-06  -0.0324185 -0.365576 -1.66893e-06  -0.0402274 -0.372516 4.52995e-06  -0.0397861 -0.365145 4.76837e-07  -0.0324209 -0.365573 1.19209e-06  -0.0397823 -0.365143 9.53674e-07  -0.000186741 -0.000836313 -1.43051e-06  0 0 0  3.09646e-05 -0.000796318 1.19209e-06  8.75443e-06 -0.000116795 1.43051e-06  0 0 0  -0.000183143 -0.000821561 -6.58035e-05  -5.80512e-05 -0.00013414 -2.38419e-07  0 0 0  8.91834e-06 -0.000112861 1.90735e-06  -5.52572e-05 -0.000127882 -3.62396e-05  -0.000611916 -0.00380549 2.38419e-07  9.21488e-05 -0.00374404 -4.52995e-06  5.9545e-05 -0.00210148 -9.53674e-07  -0.00061135 -0.0037761 -0.000111818  -0.000373185 -0.00213307 -7.15256e-07  6.09457e-05 -0.00208592 -2.38419e-07  -0.000372842 -0.00211686 -9.32217e-05  -0.00117844 -0.00822061 7.15256e-07  0.000132591 -0.00815266 -2.6226e-06  0.000113726 -0.00584242 0  -0.00117934 -0.00817326 -0.000131607  -0.000884563 -0.0058707 1.66893e-06  0.000114262 -0.00581104 4.76837e-07  -0.000885069 -0.00584054 -0.000123024  -0.00179946 -0.0137148 9.53674e-07  0.000132501 -0.0136662 -5.48363e-06  0.000135809 -0.0108303 -1.90735e-06  -0.00179967 -0.0136642 -0.000136137  -0.0014832 -0.0108411 -2.38419e-07  0.00014028 -0.0107883 -2.86102e-06  -0.00148618 -0.0107995 -0.000136375  -0.00243974 -0.0201674 1.19209e-06  7.2062e-05 -0.0201366 -1.90735e-06  0.000105679 -0.0168339 1.19209e-06  -0.00243914 -0.0201084 -0.000133276  -0.00211948 -0.0168204 4.76837e-07  0.000109673 -0.0167848 -3.33786e-06  -0.00211775 -0.0167715 -0.000136614  -0.00308859 -0.0275162 -4.76837e-07  -4.8697e-05 -0.0275102 -8.34465e-06  1.58548e-05 -0.0237645 -1.19209e-06  -0.00308627 -0.0274562 -0.000125647  -0.00276083 -0.0237247 -9.53674e-07  1.92523e-05 -0.0237119 -3.09944e-06  -0.00276214 -0.0236719 -0.000129223  -0.00375795 -0.0357197 2.14577e-06  -0.000232637 -0.035744 -2.38419e-06  -0.000136256 -0.0315736 2.14577e-06  -0.00375378 -0.0356641 -0.000112534  -0.00342095 -0.0315082 -9.53674e-07  -0.000131667 -0.0315207 2.38419e-07  -0.00341541 -0.0314547 -0.000118732  -0.00445086 -0.044739 2.86102e-06  -0.000484407 -0.0447899 -1.19209e-06  -0.00035429 -0.0402177 2.38419e-06  -0.00444508 -0.0446856 -0.000101089  -0.00409901 -0.0401264 2.38419e-06  -0.000349641 -0.0401679 5.48363e-06  -0.00409549 -0.0400751 -0.00010848  -0.0051682 -0.0545098 -1.66893e-06  -0.000798345 -0.0545907 1.43051e-06  -0.000635743 -0.0496447 1.66893e-06  -0.00516236 -0.0544574 -8.9407e-05  -0.00480366 -0.0495256 0  -0.000633836 -0.0495981 2.86102e-06  -0.00480139 -0.0494788 -9.63211e-05  -0.0059129 -0.0649734 0  -0.00117397 -0.0650835 9.53674e-07  -0.000979781 -0.0597966 0  -0.0059073 -0.0649224 -7.7486e-05  -0.00553477 -0.0596512 -2.38419e-07  -0.000975728 -0.0597517 2.14577e-06  -0.00553215 -0.059605 -8.67844e-05  -0.00668776 -0.0760728 0  -0.00161207 -0.0762132 5.24521e-06  -0.00138998 -0.0706118 9.53674e-07  -0.00668049 -0.0760266 -7.60555e-05  -0.00629604 -0.0704372 -1.19209e-06  -0.00138414 -0.0705704 3.33786e-06  -0.00629056 -0.0703987 -7.93934e-05  -0.00748718 -0.0877457 3.09944e-06  -0.00211012 -0.0879148 5.72205e-06  -0.00185871 -0.082033 1.43051e-06  -0.00748193 -0.0877037 -6.4373e-05  -0.00708318 -0.0818344 9.53674e-07  -0.00185609 -0.0819947 3.57628e-06  -0.00707924 -0.0817954 -6.77109e-05  -0.00831389 -0.0999339 -7.15256e-07  -0.00265825 -0.100134 5.48363e-06  -0.00238121 -0.093998 -1.90735e-06  -0.00830817 -0.0998976 -5.76973e-05  -0.00789583 -0.0937692 -1.66893e-06  -0.00237703 -0.0939624 5.24521e-06  -0.0078907 -0.0937381 -6.34193e-05  -0.00916016 -0.112587 9.53674e-07  -0.00325894 -0.112813 3.57628e-06  -0.00295556 -0.106447 1.43051e-06  -0.00915611 -0.112551 -5.07832e-05  -0.00873709 -0.1062 -4.76837e-07  -0.0029546 -0.106418 6.91414e-06  -0.00872934 -0.106168 -5.36442e-05  -0.0100287 -0.125653 1.66893e-06  -0.00390887 -0.125902 8.34465e-06  -0.00357521 -0.119338 2.38419e-06  -0.0100238 -0.125619 -4.69685e-05  -0.00959134 -0.119062 4.76837e-07  -0.00357497 -0.119309 5.72205e-06  -0.00958729 -0.119035 -4.81606e-05  -0.0109147 -0.139074 -4.76837e-07  -0.00459409 -0.139351 6.91414e-06  -0.00424647 -0.132608 7.15256e-07  -0.0109113 -0.139044 -4.00543e-05  -0.0104692 -0.132312 -2.14577e-06  -0.00424409 -0.132584 4.05312e-06  -0.0104667 -0.132287 -4.24385e-05  -0.0118144 -0.152808 1.66893e-06  -0.00531983 -0.153109 4.52995e-06  -0.00495529 -0.146215 -7.15256e-07  -0.0118115 -0.152783 -3.45707e-05  -0.0113621 -0.145898 1.43051e-06  -0.00495195 -0.146192 3.33786e-06  -0.0113609 -0.145876 -3.6478e-05  -0.012727 -0.166815 -1.90735e-06  -0.00607705 -0.167136 7.62939e-06  -0.00569439 -0.16011 9.53674e-07  -0.0127249 -0.166791 -2.98023e-05  -0.0122705 -0.159774 0  -0.00569487 -0.160089 7.86781e-06  -0.0122671 -0.159754 -3.09944e-05  -0.0136497 -0.181053 2.38419e-06  -0.00686455 -0.18139 4.05312e-06  -0.00646496 -0.174252 -1.90735e-06  -0.0136464 -0.181028 -2.52724e-05  -0.0131891 -0.1739 -1.19209e-06  -0.0064683 -0.174235 5.72205e-06  -0.0131834 -0.173883 -2.5034e-05  -0.0145755 -0.195472 0  -0.00767612 -0.195832 4.52995e-06  -0.00726843 -0.188603 -7.15256e-07  -0.0145743 -0.195459 -1.97887e-05  -0.0141146 -0.188233 -1.19209e-06  -0.00726628 -0.188587 5.00679e-06  -0.0141091 -0.18822 -2.26498e-05  -0.0155058 -0.210059 2.14577e-06  -0.00850797 -0.210426 7.62939e-06  -0.00809431 -0.203124 1.19209e-06  -0.0155041 -0.210041 -1.52588e-05  -0.0150399 -0.202744 4.76837e-07  -0.00808764 -0.20311 4.76837e-06  -0.0150383 -0.20273 -1.78814e-05  -0.0164378 -0.224757 -1.19209e-06  -0.00935841 -0.225139 4.76837e-06  -0.00893044 -0.217778 4.76837e-07  -0.0164359 -0.224745 -1.4782e-05  -0.0159736 -0.217386 -1.43051e-06  -0.00893354 -0.21777 4.29153e-06  -0.01597 -0.217377 -1.50204e-05  -0.0173671 -0.239559 2.86102e-06  -0.0102201 -0.239946 5.72205e-06  -0.00978923 -0.232543 2.38419e-07  -0.0173666 -0.239542 -8.10623e-06  -0.0169008 -0.232142 2.6226e-06  -0.00978541 -0.232533 2.38419e-06  -0.0168993 -0.232132 -1.26362e-05  -0.0182953 -0.254415 4.76837e-07  -0.0110917 -0.254818 1.19209e-06  -0.0106568 -0.247385 -2.6226e-06  -0.0182946 -0.254406 -9.29832e-06  -0.0178316 -0.246973 -4.76837e-07  -0.010653 -0.247375 3.33786e-06  -0.0178318 -0.246966 -8.34465e-06  -0.0192196 -0.26932 -1.66893e-06  -0.0119712 -0.269729 5.48363e-06  -0.0115271 -0.262275 7.15256e-07  -0.0192173 -0.269309 -7.62939e-06  -0.0187557 -0.261862 4.76837e-07  -0.0115302 -0.26227 6.19888e-06  -0.0187559 -0.261854 -7.15256e-06  -0.0201371 -0.284243 -1.19209e-06  -0.0128527 -0.284659 4.52995e-06  -0.0124097 -0.277196 -2.38419e-07  -0.0201349 -0.284236 -2.6226e-06  -0.0196786 -0.276772 4.76837e-07  -0.0124102 -0.27719 4.76837e-06  -0.0196764 -0.276768 -4.76837e-06  -0.0210495 -0.299171 -1.90735e-06  -0.0137353 -0.299591 5.48363e-06  -0.0132911 -0.292129 1.66893e-06  -0.0210471 -0.299161 4.76837e-07  -0.0205946 -0.291703 -7.15256e-07  -0.0132942 -0.292124 3.33786e-06  -0.0205927 -0.291698 -2.14577e-06  -0.0219538 -0.31408 4.76837e-07  -0.0146208 -0.314506 4.76837e-07  -0.0141809 -0.307053 4.76837e-07  -0.0219502 -0.314076 -2.86102e-06  -0.0215013 -0.306624 1.19209e-06  -0.0141745 -0.307051 3.8147e-06  -0.0214989 -0.30662 7.15256e-07  -0.0228479 -0.328969 9.53674e-07  -0.0155044 -0.329394 3.57628e-06  -0.0150619 -0.321956 2.38419e-06  -0.0228469 -0.328961 4.76837e-07  -0.0224018 -0.321523 7.15256e-07  -0.0150623 -0.321951 3.57628e-06  -0.0223992 -0.321521 4.76837e-07  -0.0237362 -0.343818 -4.52995e-06  -0.0163832 -0.344246 -1.66893e-06  -0.0159431 -0.336825 -2.38419e-07  -0.023737 -0.343811 -1.90735e-06  -0.023293 -0.336393 9.53674e-07  -0.0159435 -0.336824 4.76837e-07  -0.023293 -0.336392 -1.19209e-06  -0.0246205 -0.358629 -1.43051e-06  -0.0172601 -0.359054 5.24521e-06  -0.0168264 -0.351657 2.38419e-07  -0.0246186 -0.35862 1.90735e-06  -0.0241787 -0.351224 1.90735e-06  -0.0168207 -0.351656 7.15256e-07  -0.0241783 -0.351222 -2.38419e-07  -0.0254962 -0.373384 2.6226e-06  -0.0181339 -0.373808 4.29153e-06  -0.017698 -0.366441 1.43051e-06  -0.0254948 -0.373375 -2.38419e-06  -0.0250602 -0.366008 2.38419e-07  -0.0176973 -0.366437 9.53674e-07  -0.0250573 -0.366004 1.90735e-06  0.000249922 -0.000894487 -4.76837e-07  0 0 0  0.000476927 -0.00106376 0.000135183  0.000146009 -0.000273943 2.38419e-07  0 0 0  0.00024952 -0.000874519 6.86646e-05  7.53105e-05 -0.00016278 1.19209e-06  0 0 0  0.000148922 -0.000270605 7.20024e-05  7.65696e-05 -0.000159442 3.76701e-05  0.000789076 -0.00390613 -2.14577e-06  0.00151876 -0.00417185 0.000213623  0.000941947 -0.0024668 -9.53674e-07  0.000793546 -0.00387174 0.000110865  0.000494108 -0.00221157 7.15256e-07  0.000946343 -0.00244826 0.000184536  0.000495017 -0.00219494 9.27448e-05  0.00143793 -0.00835222 7.15256e-07  0.00278035 -0.00863445 0.000256777  0.0021337 -0.00630552 -7.15256e-07  0.00144386 -0.00830716 0.000128746  0.00111243 -0.0059852 9.53674e-07  0.00214025 -0.00627351 0.000243902  0.00111535 -0.00595528 0.000120401  0.00205481 -0.013884 -4.76837e-07  0.00401247 -0.014147 0.000264645  0.00340173 -0.0113136 0  0.00206083 -0.0138263 0.000129223  0.0017544 -0.0109895 -9.53674e-07  0.00341019 -0.0112709 0.00026226  0.00176302 -0.0109458 0.000130653  0.00257361 -0.0203594 0  0.00510257 -0.0206127 0.000257492  0.00457168 -0.0173106 9.53674e-07  0.00257611 -0.0203052 0.000127554  0.00232732 -0.0169973 -1.19209e-06  0.00457734 -0.0172634 0.000258446  0.00233215 -0.0169498 0.000130653  0.00298119 -0.0277455 -9.53674e-07  0.00603205 -0.0279922 0.000237942  0.00558633 -0.0242435 -7.15256e-07  0.00298458 -0.0276897 0.000118494  0.00279099 -0.0239363 -2.38419e-07  0.00558782 -0.0241898 0.000247717  0.00279558 -0.0238847 0.000123978  0.00327659 -0.0359978 -1.43051e-06  0.00680655 -0.0362437 0.000220776  0.00643677 -0.0320625 -2.38419e-07  0.00327981 -0.0359375 0.000110388  0.00314319 -0.0317605 -4.76837e-07  0.00643802 -0.0320095 0.000228882  0.00314575 -0.031706 0.00011301  0.00346625 -0.0450538 1.43051e-06  0.00743461 -0.0453117 0.000207663  0.00713807 -0.0407266 -7.15256e-07  0.00346887 -0.0449987 0.000104427  0.00338471 -0.0404196 1.19209e-06  0.00713962 -0.0406767 0.000216007  0.00338697 -0.0403674 0.000108004  0.00355482 -0.0548689 -1.66893e-06  0.0079242 -0.0551393 0.000191689  0.00769496 -0.0501821 2.6226e-06  0.00355673 -0.0548174 9.53674e-05  0.00352442 -0.0498657 2.14577e-06  0.00769567 -0.0501322 0.000196695  0.0035255 -0.0498157 0.000100136  0.00354743 -0.065379 -7.15256e-07  0.0082835 -0.0656634 0.000169277  0.00811851 -0.0603597 3.09944e-06  0.0035491 -0.065329 8.84533e-05  0.00356364 -0.0600305 -1.66893e-06  0.00812006 -0.0603175 0.000184298  0.00356531 -0.0599877 8.98838e-05  0.00344336 -0.0765259 2.38419e-07  0.00851619 -0.0768218 0.000157833  0.00841641 -0.0712084 2.38419e-06  0.00344849 -0.0764778 8.13007e-05  0.00350583 -0.0708671 1.19209e-06  0.00841653 -0.0711658 0.000168562  0.00351048 -0.0708266 8.4877e-05  0.00325239 -0.0882403 1.90735e-06  0.00863016 -0.088558 0.000140429  0.00858521 -0.0826591 -2.38419e-07  0.00325692 -0.0881986 7.27177e-05  0.00335932 -0.0823072 1.19209e-06  0.00858915 -0.0826212 0.000149727  0.00336301 -0.0822695 7.86781e-05  0.00297821 -0.100476 -1.66893e-06  0.0086329 -0.100807 0.000130415  0.00864482 -0.0946543 -4.76837e-07  0.00298202 -0.100436 6.86646e-05  0.00312483 -0.0942889 -2.38419e-07  0.00864398 -0.0946212 0.000138521  0.00313127 -0.0942586 7.03335e-05  0.00262964 -0.113169 -2.14577e-06  0.00852823 -0.113518 0.000115395  0.0085932 -0.107138 -1.43051e-06  0.00263143 -0.113136 6.50883e-05  0.00281692 -0.106763 2.38419e-07  0.00859129 -0.107106 0.000124454  0.00281715 -0.106731 6.29425e-05  0.00220358 -0.126275 7.15256e-07  0.00832593 -0.126629 0.000105381  0.00843942 -0.120053 1.19209e-06  0.00220633 -0.126237 5.48363e-05  0.00242865 -0.119668 -1.66893e-06  0.00844204 -0.120026 0.00011301  0.00242603 -0.119639 5.65052e-05  0.00171542 -0.139732 -4.29153e-06  0.00803685 -0.140102 9.20296e-05  0.00819194 -0.13335 2.38419e-07  0.00171661 -0.139702 4.91142e-05  0.00196743 -0.132952 -2.38419e-07  0.00819278 -0.133323 0.000101328  0.00196791 -0.132928 5.34058e-05  0.00116825 -0.153503 -1.66893e-06  0.00766444 -0.153885 8.70228e-05  0.0078547 -0.14698 -1.43051e-06  0.00116944 -0.153477 4.12464e-05  0.00144911 -0.146574 -4.76837e-07  0.00786281 -0.146959 8.82149e-05  0.0014503 -0.146553 4.79221e-05  0.000561237 -0.16754 2.38419e-07  0.00721335 -0.167933 6.91414e-05  0.00744605 -0.160901 -9.53674e-07  0.00056386 -0.167516 4.12464e-05  0.000869274 -0.160483 -1.90735e-06  0.00744987 -0.160877 7.93934e-05  0.000873566 -0.160464 3.93391e-05  -9.05991e-05 -0.181804 4.76837e-07  0.00669479 -0.182205 6.48499e-05  0.00696325 -0.175059 -1.19209e-06  -8.79765e-05 -0.181781 3.48091e-05  0.000241756 -0.174637 -2.38419e-06  0.00696111 -0.175041 6.79493e-05  0.000244856 -0.17462 3.43323e-05  -0.00078845 -0.196251 1.43051e-06  0.00611353 -0.196662 5.62668e-05  0.00641489 -0.189426 -2.38419e-07  -0.000784159 -0.196232 3.0756e-05  -0.000432491 -0.189 -1.66893e-06  0.0064106 -0.18941 5.88894e-05  -0.000431299 -0.188983 3.14713e-05  -0.00151944 -0.210851 -2.38419e-07  0.00547957 -0.211268 4.3869e-05  0.00580478 -0.203959 1.19209e-06  -0.0015161 -0.210834 2.64645e-05  -0.00114799 -0.20353 -2.38419e-07  0.00580239 -0.203947 5.17368e-05  -0.0011456 -0.203516 2.76566e-05  -0.00228381 -0.225574 -1.66893e-06  0.00480199 -0.225994 3.93391e-05  0.00514698 -0.218629 2.38419e-07  -0.00228238 -0.225559 2.19345e-05  -0.0018971 -0.218192 2.38419e-07  0.0051477 -0.218618 4.41074e-05  -0.00189543 -0.218181 2.16961e-05  -0.00307631 -0.240385 -9.53674e-07  0.00407815 -0.240808 3.12328e-05  0.00444555 -0.233399 1.19209e-06  -0.00307608 -0.24037 1.85966e-05  -0.00267601 -0.232963 -4.76837e-07  0.00444269 -0.233389 3.52859e-05  -0.0026741 -0.232951 2.24113e-05  -0.00388956 -0.255255 -2.86102e-06  0.00331569 -0.255685 2.64645e-05  0.00369954 -0.248247 0  -0.0038898 -0.255246 1.40667e-05  -0.003479 -0.247808 -4.76837e-07  0.00370121 -0.248238 3.0756e-05  -0.00348115 -0.247798 1.78814e-05  -0.0047214 -0.270171 1.43051e-06  0.00252914 -0.2706 2.16961e-05  0.00292754 -0.263144 7.15256e-07  -0.0047226 -0.270159 1.00136e-05  -0.00430417 -0.262703 -4.76837e-07  0.00292611 -0.263137 2.14577e-05  -0.00430274 -0.262697 1.26362e-05  -0.00557232 -0.285102 0  0.00171494 -0.285533 1.52588e-05  0.00212598 -0.278071 -1.43051e-06  -0.00556946 -0.285091 9.29832e-06  -0.00514364 -0.277627 1.19209e-06  0.00212479 -0.278064 2.00272e-05  -0.00514364 -0.277623 1.0252e-05  -0.00642848 -0.300033 1.19209e-06  0.000886679 -0.300465 1.54972e-05  0.00130606 -0.293001 -1.43051e-06  -0.00642705 -0.300024 8.34465e-06  -0.0059967 -0.292558 -1.90735e-06  0.00130343 -0.292997 1.28746e-05  -0.0059967 -0.292557 1.07288e-05  -0.00729275 -0.31495 -1.66893e-06  3.95775e-05 -0.31538 3.09944e-06  0.0004673 -0.307928 -2.38419e-07  -0.0072906 -0.31494 -7.15256e-07  -0.00685573 -0.307488 -9.53674e-07  0.000465393 -0.307925 9.05991e-06  -0.00685906 -0.307484 5.72205e-06  -0.00816369 -0.329837 9.53674e-07  -0.000818014 -0.33027 2.86102e-06  -0.000386953 -0.32283 -2.6226e-06  -0.00816226 -0.329829 6.19888e-06  -0.00772762 -0.32239 -9.53674e-07  -0.000387907 -0.322828 6.19888e-06  -0.00772738 -0.322387 3.09944e-06  -0.00903249 -0.344691 -4.76837e-07  -0.00168109 -0.345123 8.10623e-06  -0.0012486 -0.337701 1.66893e-06  -0.00903296 -0.344683 1.43051e-06  -0.00859547 -0.337262 9.53674e-07  -0.00124788 -0.3377 5.96046e-06  -0.0085988 -0.33726 4.52995e-06  -0.00990486 -0.359502 4.76837e-07  -0.00254941 -0.359933 9.53674e-07  -0.00210953 -0.352533 -2.38419e-07  -0.00990796 -0.359493 -4.76837e-07  -0.00946903 -0.352095 2.38419e-07  -0.00211501 -0.352529 1.66893e-06  -0.00946927 -0.352092 0  -0.0107768 -0.374255 3.09944e-06  -0.00341535 -0.374688 -1.90735e-06  -0.00298667 -0.367315 2.38419e-07  -0.0107756 -0.374245 -1.43051e-06  -0.0103412 -0.366875 2.38419e-07  -0.00298285 -0.367314 -7.15256e-07  -0.0103402 -0.366875 2.6226e-06  0.000731215 -0.00139117 -2.38419e-07  0 0 0  0.00102571 -0.00183296 0.000255108  0.000319585 -0.000743568 -1.90735e-06  0 0 0  0.000732705 -0.00137562 0.000196695  0.000225782 -0.00046128 -2.38419e-07  0 0 0  0.000319086 -0.000736058 0.000139952  0.000223376 -0.000456274 0.000106335  0.00229993 -0.00468445 7.15256e-07  0.00317073 -0.00532264 0.000427961  0.00199527 -0.00347275 4.76837e-07  0.00230879 -0.00465006 0.000324488  0.00144078 -0.00287944 0  0.00200288 -0.00344902 0.00035429  0.00144725 -0.00285947 0.000271082  0.00418362 -0.00918174 0  0.00569266 -0.00981772 0.000505447  0.00441375 -0.00749195 0  0.00419354 -0.00913823 0.000384569  0.00322932 -0.00680619 0  0.00442588 -0.00745308 0.000476122  0.00324118 -0.0067715 0.000361919  0.00601709 -0.0146711 4.76837e-07  0.00811732 -0.0152418 0.000524998  0.00692031 -0.0124543 1.66893e-06  0.00602633 -0.0146211 0.000394106  0.00511885 -0.0118036 -1.90735e-06  0.00693071 -0.0124075 0.000521421  0.00513044 -0.0117593 0.000393629  0.00766695 -0.0211166 0  0.0103151 -0.0216324 0.000504017  0.00923413 -0.0183693 -1.43051e-06  0.00767314 -0.0210572 0.000384092  0.00686657 -0.0177693 -4.76837e-07  0.00924772 -0.0183173 0.000519753  0.00687385 -0.0177203 0.00039053  0.00911349 -0.0284787 -3.57628e-06  0.0122679 -0.028966 0.000474691  0.0113199 -0.0252358 1.19209e-06  0.00912029 -0.0284152 0.00035882  0.00841767 -0.0246782 -2.14577e-06  0.0113217 -0.0251811 0.000492096  0.00842136 -0.0246229 0.000370741  0.0103658 -0.0367174 -7.15256e-07  0.0139871 -0.0371897 0.000442982  0.0131541 -0.0330216 -4.76837e-07  0.010368 -0.0366606 0.000335217  0.00976658 -0.0324836 1.43051e-06  0.0131547 -0.032968 0.000460148  0.00976872 -0.0324317 0.0003438  0.0114335 -0.0457829 -1.43051e-06  0.0154825 -0.0462456 0.000412464  0.0147578 -0.041666 -2.6226e-06  0.0114324 -0.0457283 0.000306845  0.0109228 -0.041144 7.15256e-07  0.0147602 -0.0416166 0.000424623  0.0109231 -0.0410921 0.000318527  0.0123219 -0.0556081 0  0.0167685 -0.0560677 0.000374556  0.0161517 -0.0511113 7.15256e-07  0.0123221 -0.0555578 0.000281811  0.0118998 -0.0505985 2.38419e-07  0.0161504 -0.0510632 0.000392675  0.0118992 -0.0505486 0.000295877  0.0130447 -0.0661302 -2.14577e-06  0.0178546 -0.066592 0.000341177  0.017337 -0.0612895 -7.15256e-07  0.0130455 -0.0660844 0.000260592  0.0126992 -0.0607809 1.19209e-06  0.0173358 -0.0612459 0.000358343  0.012705 -0.0607358 0.000268459  0.013612 -0.0772936 -4.76837e-07  0.0187514 -0.0777549 0.000314951  0.0183268 -0.0721365 7.15256e-07  0.0136126 -0.0772483 0.000238657  0.0133486 -0.0716333 2.38419e-07  0.0183266 -0.0720969 0.000328064  0.0133475 -0.0715886 0.000248671  0.0140269 -0.0890273 -4.76837e-07  0.019469 -0.0894924 0.000288725  0.0191342 -0.0835919 1.19209e-06  0.0140277 -0.088989 0.000212908  0.0138397 -0.083089 -2.38419e-07  0.0191318 -0.0835543 0.000299215  0.0138389 -0.0830492 0.00022316  0.0143042 -0.101283 -3.57628e-06  0.0200189 -0.101744 0.000256777  0.0197653 -0.0955922 -2.86102e-06  0.0143043 -0.101243 0.000195265  0.0141829 -0.0950902 -2.38419e-07  0.019763 -0.095557 0.000267267  0.0141842 -0.095054 0.000204086  0.0144498 -0.113992 2.14577e-06  0.0204095 -0.114458 0.000229836  0.0202326 -0.10808 -2.38419e-06  0.0144501 -0.113958 0.000176907  0.0143951 -0.107575 -1.90735e-06  0.0202327 -0.108047 0.000243902  0.0143926 -0.107545 0.000184298  0.0144709 -0.12711 2.6226e-06  0.0206484 -0.127578 0.000203609  0.0205488 -0.120999 2.14577e-06  0.0144694 -0.127077 0.000156641  0.0144764 -0.120499 0  0.0205466 -0.120971 0.000220776  0.0144758 -0.120468 0.000164509  0.0143764 -0.140584 2.14577e-06  0.0207505 -0.141055 0.000179768  0.0207175 -0.134299 -4.76837e-07  0.0143764 -0.140552 0.000141621  0.0144368 -0.1338 -1.43051e-06  0.0207168 -0.134273 0.000192642  0.0144371 -0.133772 0.00014782  0.0141792 -0.154363 2.14577e-06  0.0207229 -0.154837 0.00016284  0.0207522 -0.147932 -2.38419e-07  0.0141768 -0.154339 0.000124216  0.0142906 -0.147434 9.53674e-07  0.0207529 -0.147907 0.000172853  0.0142899 -0.14741 0.00013113  0.0138814 -0.168412 2.38419e-07  0.0205789 -0.168881 0.000140905  0.0206652 -0.161848 1.43051e-06  0.0138814 -0.168389 0.000110626  0.0140414 -0.161353 7.15256e-07  0.0206652 -0.161828 0.000152111  0.0140407 -0.161333 0.000116587  0.0134952 -0.182682 0  0.0203261 -0.183152 0.000127554  0.0204659 -0.176011 2.38419e-07  0.0134962 -0.182661 9.48906e-05  0.0136995 -0.175518 -9.53674e-07  0.0204668 -0.175991 0.000131607  0.0136974 -0.175498 0.000100613  0.0130312 -0.197139 4.76837e-07  0.0199745 -0.197609 0.000105619  0.0201609 -0.190372 1.90735e-06  0.0130301 -0.197121 7.93934e-05  0.0132742 -0.189884 2.38419e-07  0.0201621 -0.190358 0.000115395  0.013272 -0.189869 8.63075e-05  0.0124953 -0.211744 0  0.0195322 -0.212211 8.86917e-05  0.0197666 -0.204906 1.66893e-06  0.0124953 -0.211729 6.60419e-05  0.0127716 -0.204419 -2.38419e-07  0.0197632 -0.204891 9.98974e-05  0.0127709 -0.204407 7.55787e-05  0.011893 -0.226468 -3.09944e-06  0.0190136 -0.22693 7.60555e-05  0.0192873 -0.219569 -7.15256e-07  0.0118959 -0.226452 5.55515e-05  0.0122011 -0.219086 2.6226e-06  0.0192814 -0.219557 8.01086e-05  0.0122035 -0.219077 6.24657e-05  0.0112398 -0.241278 -3.09944e-06  0.0184228 -0.241741 5.81741e-05  0.0187254 -0.234335 1.90735e-06  0.0112381 -0.241265 4.48227e-05  0.0115764 -0.233855 1.43051e-06  0.0187263 -0.234324 6.62804e-05  0.0115736 -0.233849 5.24521e-05  0.010536 -0.256154 1.66893e-06  0.0177689 -0.256609 4.74453e-05  0.0181055 -0.249176 2.38419e-07  0.010534 -0.256139 3.76701e-05  0.0108907 -0.248705 2.14577e-06  0.0181029 -0.249168 5.4121e-05  0.0108936 -0.248695 4.17233e-05  0.00978923 -0.271067 -2.38419e-07  0.017066 -0.271519 3.98159e-05  0.0174258 -0.264066 9.53674e-07  0.00979042 -0.271053 3.05176e-05  0.0101688 -0.263598 -4.76837e-07  0.0174248 -0.26406 4.19617e-05  0.0101671 -0.263593 3.38554e-05  0.0090127 -0.285993 2.38419e-07  0.0163178 -0.286445 2.93255e-05  0.0167022 -0.278987 -7.15256e-07  0.0090127 -0.285983 2.14577e-05  0.00940299 -0.278524 0  0.0166981 -0.27898 3.00407e-05  0.00940561 -0.278516 2.67029e-05  0.00820589 -0.300922 2.86102e-06  0.0155385 -0.301369 2.00272e-05  0.0159366 -0.293912 -2.14577e-06  0.00820541 -0.300914 1.71661e-05  0.00861287 -0.293455 2.38419e-06  0.0159333 -0.293906 2.47955e-05  0.00861073 -0.293448 1.81198e-05  0.00737906 -0.315833 4.76837e-07  0.0147262 -0.316277 1.40667e-05  0.0151341 -0.308827 4.76837e-07  0.00737619 -0.315825 1.00136e-05  0.00779557 -0.308375 9.53674e-07  0.0151355 -0.308824 1.83582e-05  0.0077951 -0.308371 1.5974e-05  0.0065341 -0.330724 -1.66893e-06  0.0138915 -0.33116 9.05991e-06  0.0143135 -0.323725 9.53674e-07  0.00653338 -0.330712 8.34465e-06  0.00695682 -0.323274 4.76837e-07  0.0143101 -0.323722 1.23978e-05  0.00695896 -0.323273 7.86781e-06  0.00568008 -0.345573 4.76837e-07  0.0130422 -0.346002 4.76837e-06  0.0134709 -0.338589 4.76837e-07  0.00567794 -0.345561 3.09944e-06  0.00610733 -0.338146 -1.43051e-06  0.0134671 -0.338586 2.86102e-06  0.00610876 -0.338141 6.4373e-06  0.00481439 -0.360376 -1.66893e-06  0.0121813 -0.360812 7.15256e-07  0.0126128 -0.353413 2.14577e-06  0.00481367 -0.36037 1.90735e-06  0.00524616 -0.352973 -2.38419e-07  0.0126147 -0.353412 2.6226e-06  0.00524449 -0.35297 2.14577e-06  0.00394869 -0.375141 1.43051e-06  0.0113163 -0.375578 -3.33786e-06  0.0117531 -0.368202 0  0.00395155 -0.375127 -9.53674e-07  0.00437903 -0.367757 -9.53674e-07  0.0117486 -0.368199 -2.6226e-06  0.0043807 -0.367758 -3.33786e-06  0.00139986 -0.00251591 4.76837e-07  0 0 0  0.0018519 -0.00342119 0.0003829  0.000575617 -0.00173628 0  0 0 0  0.00140335 -0.00249058 0.000317097  0.000423558 -0.00115567 -1.43051e-06  0 0 0  0.000572927 -0.00172275 0.000207186  0.000426009 -0.00114328 0.000173092  0.00419903 -0.00625277 -2.6226e-06  0.00540665 -0.00732064 0.000624895  0.0035354 -0.00533986 -3.57628e-06  0.0042116 -0.00621134 0.000530243  0.00270122 -0.00427777 -3.8147e-06  0.00354621 -0.00530773 0.000519276  0.0027075 -0.00425053 0.000439405  0.00732467 -0.0107088 1.43051e-06  0.00912997 -0.0116389 0.000746489  0.00728038 -0.00941622 2.38419e-06  0.00733808 -0.010659 0.00062561  0.00577161 -0.00836545 -7.15256e-07  0.00729308 -0.00936854 0.000698805  0.00578243 -0.00832325 0.000588179  0.0103046 -0.0160608 9.53674e-07  0.0126377 -0.0168981 0.000771999  0.0108981 -0.0141945 -1.19209e-06  0.0103143 -0.0160039 0.000650644  0.00884157 -0.0132568 1.66893e-06  0.0109109 -0.0141395 0.000768661  0.00885427 -0.0132048 0.000647545  0.0130327 -0.0223964 4.76837e-07  0.0158776 -0.0231626 0.00075388  0.0142843 -0.0199609 4.76837e-07  0.0130423 -0.0223352 0.000634432  0.0117019 -0.0190997 -7.15256e-07  0.0142961 -0.0199026 0.000767231  0.0117108 -0.0190458 0.00064373  0.0154883 -0.0296843 -4.76837e-07  0.018819 -0.0304075 0.000710011  0.0173787 -0.0267203 7.15256e-07  0.0154938 -0.0296301 0.000595093  0.0142967 -0.0259185 0  0.0173863 -0.0266647 0.00073123  0.0143018 -0.0258632 0.000613451  0.0176706 -0.0378849 -7.15256e-07  0.0214588 -0.0385723 0.000658989  0.0201716 -0.0344346 -2.6226e-06  0.0176769 -0.0378281 0.000554562  0.0166152 -0.0336705 9.53674e-07  0.0201753 -0.0343817 0.000686169  0.0166184 -0.0336191 0.000573158  0.0195996 -0.0469223 7.15256e-07  0.0238074 -0.0475833 0.000609875  0.0226685 -0.043029 -2.86102e-06  0.0196 -0.0468642 0.000509977  0.0186679 -0.042298 0  0.0226685 -0.0429779 0.000635147  0.0186702 -0.0422449 0.000530958  0.0212796 -0.0567234 0  0.025874 -0.0573722 0.000561714  0.0248715 -0.052434 1.19209e-06  0.0212806 -0.0566718 0.000467777  0.0204692 -0.051722 -1.19209e-06  0.0248734 -0.0523832 0.000588894  0.0204707 -0.0516758 0.000488043  0.0227252 -0.0672353 -9.53674e-07  0.0276754 -0.0678679 0.00051403  0.026807 -0.0625798 -2.38419e-07  0.0227265 -0.0671893 0.000429153  0.022033 -0.0618901 9.53674e-07  0.0268074 -0.0625334 0.000533581  0.0220315 -0.0618446 0.00044632  0.0239515 -0.0783858 -2.6226e-06  0.029227 -0.0790057 0.000466585  0.0284829 -0.0734007 -1.66893e-06  0.0239508 -0.0783405 0.000390768  0.0233663 -0.07273 -1.19209e-06  0.028483 -0.0733584 0.000487566  0.0233662 -0.0726861 0.000406504  0.0249678 -0.0901101 4.76837e-07  0.0305359 -0.090718 0.0004251  0.0299097 -0.0848289 1.90735e-06  0.0249654 -0.0900674 0.000353813  0.0244848 -0.084172 -9.53674e-07  0.0299115 -0.0847917 0.000443697  0.0244837 -0.0841367 0.000374556  0.0257852 -0.102352 -1.19209e-06  0.0316204 -0.102951 0.00038147  0.0311073 -0.0968063 0  0.0257847 -0.102315 0.000322342  0.0254008 -0.0961652 -7.15256e-07  0.0311066 -0.0967724 0.000404596  0.0254006 -0.0961289 0.000336409  0.0264193 -0.115054 2.38419e-07  0.032493 -0.115642 0.000344753  0.0320812 -0.109274 0  0.0264179 -0.115023 0.000288486  0.0261261 -0.108645 -1.19209e-06  0.0320832 -0.109242 0.000363111  0.0261251 -0.108612 0.000304699  0.0268742 -0.128167 0  0.0331624 -0.128744 0.000307083  0.0328571 -0.122173 1.66893e-06  0.026876 -0.128134 0.0002563  0.0266671 -0.121556 2.14577e-06  0.0328526 -0.122143 0.000325203  0.026667 -0.121529 0.000271082  0.027169 -0.141632 -2.38419e-07  0.0336473 -0.142195 0.000273943  0.0334288 -0.135453 -4.76837e-07  0.0271702 -0.141602 0.000229359  0.0270442 -0.13485 -1.66893e-06  0.0334253 -0.135426 0.000288963  0.0270424 -0.134825 0.000241756  0.0273123 -0.155401 -7.15256e-07  0.0339601 -0.155956 0.000241995  0.0338235 -0.149063 -1.19209e-06  0.0273125 -0.155375 0.000204802  0.0272598 -0.148476 4.76837e-07  0.0338264 -0.149041 0.000255585  0.0272589 -0.148451 0.000212908  0.0273151 -0.169439 4.76837e-07  0.0341072 -0.169982 0.000210524  0.0340495 -0.162959 4.76837e-07  0.0273166 -0.169413 0.000175476  0.0273337 -0.162382 4.76837e-07  0.0340509 -0.16294 0.000223637  0.0273309 -0.162364 0.000189066  0.0271914 -0.1837 9.53674e-07  0.0341074 -0.184233 0.000183582  0.0341282 -0.1771 -1.43051e-06  0.0271924 -0.183676 0.000150442  0.0272694 -0.176537 1.19209e-06  0.0341251 -0.177082 0.000193119  0.0272682 -0.17652 0.000164986  0.0269513 -0.198142 1.43051e-06  0.0339713 -0.198666 0.000152349  0.0340538 -0.191444 0  0.0269485 -0.198123 0.000129938  0.0270865 -0.190891 0  0.0340562 -0.191428 0.000167608  0.0270844 -0.190877 0.000142574  0.0266037 -0.212738 9.53674e-07  0.0337121 -0.213249 0.000131845  0.0338576 -0.205954 1.66893e-06  0.0266006 -0.212717 0.000111818  0.026788 -0.205414 0  0.0338569 -0.205941 0.00014472  0.0267861 -0.205403 0.000120401  0.0261595 -0.227448 -1.19209e-06  0.0333436 -0.227952 0.000108004  0.0335426 -0.2206 1.90735e-06  0.0261588 -0.22743 9.08375e-05  0.0263934 -0.220073 -9.53674e-07  0.0335407 -0.220586 0.000120163  0.0263896 -0.220061 0.000101566  0.0256338 -0.242246 1.90735e-06  0.0328763 -0.242738 8.60691e-05  0.0331242 -0.235343 1.43051e-06  0.0256312 -0.242232 7.72476e-05  0.0259058 -0.23483 3.57628e-06  0.0331233 -0.235334 0.000101566  0.025907 -0.234822 8.27312e-05  0.0250318 -0.257105 -9.53674e-07  0.0323184 -0.25759 6.81877e-05  0.0326078 -0.250166 9.53674e-07  0.0250294 -0.257094 6.29425e-05  0.0253396 -0.249663 2.14577e-06  0.0326087 -0.250157 8.15392e-05  0.0253394 -0.249656 6.84261e-05  0.0243652 -0.272008 -2.14577e-06  0.0316899 -0.27248 5.57899e-05  0.0320208 -0.265039 -1.43051e-06  0.0243647 -0.271994 4.33922e-05  0.0247085 -0.264546 7.15256e-07  0.0320134 -0.265031 6.03199e-05  0.0247066 -0.264541 5.29289e-05  0.0236471 -0.28692 0  0.0309947 -0.287384 3.93391e-05  0.0313537 -0.279933 1.66893e-06  0.0236464 -0.286915 3.69549e-05  0.024014 -0.279457 -9.53674e-07  0.0313494 -0.279932 4.673e-05  0.0240133 -0.279451 4.05312e-05  0.0228846 -0.301837 -1.19209e-06  0.0302525 -0.302293 2.69413e-05  0.0306268 -0.294843 -9.53674e-07  0.0228832 -0.301831 2.3365e-05  0.023272 -0.294376 2.38419e-07  0.0306299 -0.29484 3.69549e-05  0.0232708 -0.294369 2.81334e-05  0.0220854 -0.316741 -1.19209e-06  0.0294621 -0.31719 1.93119e-05  0.0298605 -0.309749 -1.19209e-06  0.0220852 -0.316733 1.88351e-05  0.0224869 -0.309286 -1.43051e-06  0.0298598 -0.309744 2.24113e-05  0.0224891 -0.309282 2.02656e-05  0.0212591 -0.331619 4.76837e-07  0.0286372 -0.332061 1.38283e-05  0.0290565 -0.324633 9.53674e-07  0.0212591 -0.33161 1.23978e-05  0.0216765 -0.324176 -1.66893e-06  0.0290551 -0.324628 1.52588e-05  0.0216739 -0.324174 1.0252e-05  0.0204117 -0.346456 -4.76837e-07  0.0277948 -0.346897 7.15256e-06  0.0282226 -0.339484 0  0.020411 -0.34645 5.24521e-06  0.0208366 -0.339037 1.19209e-06  0.0282161 -0.339481 7.62939e-06  0.0208356 -0.339035 6.67572e-06  0.0195544 -0.361261 -4.76837e-07  0.0269334 -0.361696 5.48363e-06  0.0273645 -0.354303 0  0.0195541 -0.361253 1.19209e-06  0.0199838 -0.35386 1.66893e-06  0.0273657 -0.354299 5.48363e-06  0.0199852 -0.353854 2.86102e-06  0.0186915 -0.376031 1.43051e-06  0.0260653 -0.376471 -4.76837e-06  0.0265079 -0.369089 -1.66893e-06  0.0186896 -0.376025 -4.05312e-06  0.0191231 -0.368642 0  0.0264997 -0.369085 -3.57628e-06  0.0191209 -0.368643 -4.76837e-07  0.00265333 -0.00483429 -1.43051e-06  0 0 0  0.00384711 -0.00665802 0.000512838  0.00137131 -0.00395375 3.33786e-06  0 0 0  0.00265285 -0.00480038 0.000439167  0.000801116 -0.00258666 9.53674e-07  0 0 0  0.0013736 -0.00392765 0.000281811  0.000797614 -0.00256848 0.000236988  0.00687853 -0.00863981 -1.66893e-06  0.00861549 -0.00988668 0.000813246  0.00635371 -0.00819916 -1.66893e-06  0.00688592 -0.00858468 0.000722647  0.00479396 -0.00667208 -1.43051e-06  0.00635293 -0.00814325 0.00068593  0.0047954 -0.0066303 0.000602961  0.0110423 -0.0128211 -2.38419e-07  0.0131542 -0.0140013 0.000973463  0.0108466 -0.0118843 -1.43051e-06  0.0110546 -0.0127577 0.000863314  0.00895998 -0.0106059 -7.15256e-07  0.0108549 -0.0118219 0.000916004  0.00897306 -0.0105528 0.000808477  0.0150688 -0.017983 -1.19209e-06  0.0176734 -0.0190528 0.00101733  0.0154305 -0.0164478 2.38419e-06  0.0150819 -0.0179142 0.000896215  0.0130883 -0.0152596 1.19209e-06  0.0154429 -0.0163805 0.00101066  0.0130986 -0.0152013 0.000889301  0.0188218 -0.0241699 -9.53674e-07  0.0219193 -0.0251701 0.000995398  0.0198209 -0.0220404 7.15256e-07  0.018832 -0.024109 0.000871181  0.0169861 -0.0209386 -2.38419e-07  0.0198391 -0.0219772 0.00101113  0.0169955 -0.0208812 0.000893593  0.0222514 -0.0313622 7.15256e-07  0.0258238 -0.0323059 0.000943422  0.0239101 -0.028671 1.19209e-06  0.022256 -0.0313018 0.000826597  0.0205784 -0.0276405 2.38419e-07  0.0239165 -0.0286159 0.000971079  0.0205866 -0.0275839 0.000852108  0.0253437 -0.0394809 2.38419e-07  0.0293648 -0.0403804 0.000872374  0.0276307 -0.0362853 -4.76837e-07  0.0253488 -0.0394254 0.000766039  0.0238378 -0.0353079 -7.15256e-07  0.0276396 -0.0362292 0.000907183  0.023845 -0.03525 0.000799179  0.0281084 -0.0484548 2.38419e-07  0.0325414 -0.0493135 0.000808716  0.0309901 -0.0447979 1.43051e-06  0.0281161 -0.0484015 0.000709295  0.0267678 -0.0438626 4.76837e-07  0.0309995 -0.0447438 0.000844002  0.0267718 -0.0438101 0.000738382  0.0305641 -0.0582131 1.19209e-06  0.0353754 -0.0590442 0.000745058  0.0339984 -0.0541307 1.19209e-06  0.0305674 -0.0581623 0.000649691  0.0293761 -0.0532355 1.19209e-06  0.0339994 -0.0540838 0.000776768  0.0293784 -0.0531868 0.000681877  0.0327204 -0.0686811 -1.19209e-06  0.0378749 -0.0694798 0.000682116  0.0366611 -0.0642207 2.86102e-06  0.0327215 -0.0686329 0.000596523  0.0316814 -0.063358 -9.53674e-07  0.0366659 -0.064174 0.000711918  0.0316818 -0.0633098 0.000623703  0.034592 -0.0797918 7.15256e-07  0.0400629 -0.0805632 0.000617981  0.0390056 -0.0749877 4.76837e-07  0.0345927 -0.0797458 0.000542402  0.0336908 -0.0741563 -1.66893e-06  0.0390056 -0.0749465 0.00064683  0.0336915 -0.0741128 0.000567913  0.0361922 -0.0914823 -9.53674e-07  0.0419481 -0.0922313 0.000561237  0.0410408 -0.0863681 4.05312e-06  0.0361929 -0.0914407 0.000493288  0.0354229 -0.085563 -4.76837e-07  0.041045 -0.086326 0.000588417  0.0354253 -0.0855221 0.000519037  0.0375413 -0.103689 -9.53674e-07  0.0435531 -0.104415 0.000506878  0.0427811 -0.0982997 -2.86102e-06  0.0375396 -0.10365 0.000443935  0.0368941 -0.0975178 2.38419e-07  0.0427835 -0.0982602 0.000534058  0.036898 -0.097483 0.000466824  0.0386467 -0.116357 4.76837e-07  0.0448891 -0.117061 0.000453472  0.0442513 -0.110716 1.19209e-06  0.038645 -0.116324 0.000401735  0.0381236 -0.109963 7.15256e-07  0.0442512 -0.110684 0.000481367  0.0381206 -0.109932 0.000421524  0.039525 -0.129435 -2.38419e-07  0.0459712 -0.130115 0.000401258  0.0454637 -0.123569 2.38419e-07  0.0395261 -0.129404 0.000359774  0.0391146 -0.122844 -9.53674e-07  0.0454589 -0.123539 0.000427961  0.0391147 -0.122814 0.000378609  0.0401938 -0.142869 -1.43051e-06  0.046818 -0.143524 0.000362873  0.0464275 -0.136804 -1.66893e-06  0.0401952 -0.142837 0.000316858  0.0398843 -0.136105 1.19209e-06  0.046423 -0.136779 0.000382662  0.0398865 -0.136078 0.000338316  0.0406678 -0.156608 -1.66893e-06  0.0474513 -0.157247 0.000315189  0.0471587 -0.15037 -2.14577e-06  0.0406678 -0.156582 0.000282764  0.0404561 -0.149698 -2.38419e-07  0.0471625 -0.150348 0.000341654  0.0404537 -0.149673 0.000297546  0.0409582 -0.170615 -7.15256e-07  0.047879 -0.171233 0.000279427  0.0476933 -0.164228 2.14577e-06  0.0409575 -0.170593 0.000243187  0.0408359 -0.163575 -7.15256e-07  0.0476892 -0.164208 0.000296354  0.0408342 -0.163555 0.000262976  0.0410793 -0.184844 0  0.0481167 -0.18544 0.000237465  0.048023 -0.178329 7.15256e-07  0.0410783 -0.184821 0.00020957  0.0410402 -0.177697 2.38419e-07  0.0480192 -0.178313 0.000261068  0.041038 -0.177681 0.000226259  0.0410473 -0.199256 -9.53674e-07  0.048182 -0.199833 0.000207663  0.0481706 -0.192631 2.38419e-06  0.041048 -0.199236 0.000180006  0.0410814 -0.192022 -4.76837e-07  0.0481713 -0.192615 0.000223637  0.0410812 -0.192009 0.000196934  0.0408754 -0.213821 2.38419e-07  0.0480893 -0.214378 0.000175476  0.0481572 -0.207101 -2.14577e-06  0.0408714 -0.213804 0.000151396  0.0409772 -0.206516 4.76837e-07  0.0481541 -0.207086 0.000186443  0.040977 -0.206503 0.000165939  0.0405736 -0.228503 2.38419e-07  0.0478539 -0.229045 0.000144005  0.0479896 -0.22171 3.33786e-06  0.0405722 -0.228489 0.0001266  0.0407372 -0.221145 -2.38419e-07  0.0479867 -0.221698 0.000160217  0.0407381 -0.221134 0.000138521  0.0401618 -0.243273 -1.90735e-06  0.0474913 -0.243794 0.000110626  0.0476847 -0.236419 1.90735e-06  0.0401614 -0.24326 0.000102282  0.0403798 -0.235875 -4.76837e-07  0.0476859 -0.23641 0.000127792  0.0403805 -0.235863 0.000111818  0.0396459 -0.258111 4.76837e-07  0.0470178 -0.258613 9.5129e-05  0.0472648 -0.251205 -9.53674e-07  0.0396466 -0.258099 8.29697e-05  0.0399156 -0.250681 -2.38419e-07  0.0472677 -0.251199 0.000108719  0.0399172 -0.250672 9.08375e-05  0.0390491 -0.272982 1.43051e-06  0.0464408 -0.273471 6.91414e-05  0.0467405 -0.266044 4.76837e-07  0.0390458 -0.272972 6.53267e-05  0.0393586 -0.265539 9.53674e-07  0.0467412 -0.266038 8.32081e-05  0.0393572 -0.26553 7.36713e-05  0.0383761 -0.287878 2.14577e-06  0.0457799 -0.288346 5.57899e-05  0.0461245 -0.280913 7.15256e-07  0.0383737 -0.287863 4.76837e-05  0.0387199 -0.280424 2.38419e-07  0.0461204 -0.280908 6.58035e-05  0.0387173 -0.280418 5.45979e-05  0.0376382 -0.302775 2.6226e-06  0.0450535 -0.303233 3.93391e-05  0.0454292 -0.295793 3.57628e-06  0.0376391 -0.302763 3.26633e-05  0.0380125 -0.295317 1.19209e-06  0.0454226 -0.295792 4.79221e-05  0.0380137 -0.295313 4.19617e-05  0.0368507 -0.317658 -1.66893e-06  0.0442684 -0.318107 2.6226e-05  0.0446665 -0.310674 4.76837e-07  0.036854 -0.317649 2.14577e-05  0.0372536 -0.310212 -2.14577e-06  0.0446653 -0.310669 3.24249e-05  0.0372519 -0.310208 2.76566e-05  0.036032 -0.33252 7.15256e-07  0.0434406 -0.332962 1.33514e-05  0.0438597 -0.32554 -2.38419e-07  0.0360324 -0.332509 2.09808e-05  0.0364499 -0.325085 7.15256e-07  0.0438559 -0.325536 2.07424e-05  0.0364456 -0.325084 1.78814e-05  0.0351822 -0.347347 1.43051e-06  0.0425868 -0.347781 1.09673e-05  0.0430186 -0.340378 -7.15256e-07  0.0351837 -0.347343 5.96046e-06  0.0356092 -0.339931 1.19209e-06  0.0430169 -0.340374 1.50204e-05  0.0356121 -0.339929 1.04904e-05  0.0343204 -0.362145 -1.43051e-06  0.0417118 -0.362578 2.14577e-06  0.0421474 -0.355186 -1.19209e-06  0.0343177 -0.362138 4.29153e-06  0.0347533 -0.354744 -7.15256e-07  0.0421493 -0.355185 5.24521e-06  0.0347514 -0.354743 4.76837e-06  0.0334496 -0.376922 -4.05312e-06  0.0408387 -0.37736 4.05312e-06  0.0412757 -0.369973 -4.29153e-06  0.0334516 -0.376915 -6.4373e-06  0.0338845 -0.369532 -1.66893e-06  0.0412774 -0.369969 -5.72205e-06  0.0338852 -0.369528 -7.15256e-07  -0.00387786 -0.00633348 0.000525951  -0.00140416 -0.00365932 0.000590801  0 0 0  -0.00260773 -0.0043907 0.000934601  0 0 0  -0.00178245 -0.00310478 0.000396967  -0.000562962 -0.0014938 0.000442028  0 0 0  -0.00141691 -0.00371067 0.000291348  -0.00260948 -0.00446041 0.000459194  -0.000791818 -0.00230918 0.000500202  0 0 0  -0.000557791 -0.00152364 0.000213861  -0.000789758 -0.00234502 0.000248671  -0.00861353 -0.00933638 0.000849247  -0.00633435 -0.00757659 0.00144958  -0.00681248 -0.00792398 0.00151634  -0.00526616 -0.00682728 0.000647783  -0.00344269 -0.00480415 0.00108767  -0.00634819 -0.00769518 0.000714064  -0.00680196 -0.00805797 0.000751734  -0.00472164 -0.00608289 0.00126839  -0.0034304 -0.00490213 0.000536442  -0.00472052 -0.00619243 0.000623226  -0.0131929 -0.0132105 0.00101638  -0.0108758 -0.0109913 0.00192213  -0.0110064 -0.0118498 0.00179434  -0.0089834 -0.0109613 0.0007658  -0.00716615 -0.00863624 0.00145149  -0.0108686 -0.0111596 0.000952721  -0.0109874 -0.0120169 0.000888824  -0.00890461 -0.00976162 0.00168657  -0.0071395 -0.0087846 0.000719786  -0.00888938 -0.00992171 0.000834703  -0.0178152 -0.0179661 0.00105166  -0.0155368 -0.015261 0.00210667  -0.0151201 -0.016745 0.00186157  -0.012564 -0.016015 0.000800133  -0.0108113 -0.013194 0.00159121  -0.0155225 -0.0154487 0.00105071  -0.0151021 -0.0169238 0.000929356  -0.0130866 -0.0141594 0.00184822  -0.0107884 -0.0133647 0.000793695  -0.013063 -0.0143403 0.00091958  -0.0222546 -0.023752 0.0010345  -0.0200759 -0.0205389 0.00210142  -0.0190418 -0.0226623 0.00180578  -0.015974 -0.022056 0.000775576  -0.0143051 -0.0187342 0.0015831  -0.020064 -0.0207312 0.00105047  -0.0190318 -0.0228384 0.000903845  -0.0171086 -0.0195725 0.00184155  -0.0142945 -0.0189127 0.000792265  -0.0170926 -0.0197571 0.000919819  -0.0264532 -0.0305243 0.000967264  -0.0243994 -0.026835 0.00199747  -0.0227447 -0.0295598 0.00169373  -0.019192 -0.0290545 0.00072813  -0.0176068 -0.0252621 0.0015049  -0.0243863 -0.0270199 0.00100017  -0.0227439 -0.0297313 0.000848293  -0.0209208 -0.0259877 0.00175381  -0.017606 -0.0254365 0.000750542  -0.0209156 -0.0261673 0.00087738  -0.030394 -0.0382129 0.000896692  -0.0284597 -0.0340836 0.00186396  -0.0262253 -0.037371 0.00156641  -0.0222229 -0.0369535 0.000672579  -0.0207183 -0.032726 0.00140047  -0.0284564 -0.0342609 0.000935316  -0.0262343 -0.0375328 0.000783205  -0.0245115 -0.0333516 0.00163031  -0.0207281 -0.0328928 0.000700712  -0.0245171 -0.0335214 0.000818253  -0.0340802 -0.0467548 0.000818253  -0.0322587 -0.0422209 0.00171328  -0.0294962 -0.046023 0.0014329  -0.0250806 -0.0456811 0.00061202  -0.0236562 -0.0410596 0.00128603  -0.03227 -0.0423844 0.000859499  -0.0295104 -0.0461732 0.000718117  -0.0278865 -0.0415919 0.00149822  -0.0236737 -0.0412152 0.000640392  -0.0278967 -0.0417526 0.00075078  -0.037537 -0.0560762 0.000756025  -0.0358245 -0.0511764 0.00156975  -0.0325737 -0.055452 0.00131035  -0.0277787 -0.0551802 0.000557899  -0.0264295 -0.0501928 0.00117397  -0.0358366 -0.0513215 0.000783205  -0.0325913 -0.0555869 0.000658274  -0.0310589 -0.0506428 0.00136995  -0.0264479 -0.0503388 0.000588655  -0.0310733 -0.0507875 0.00068593  -0.0407792 -0.0661129 0.000680208  -0.0391656 -0.060874 0.00143147  -0.0354707 -0.0655902 0.00119305  -0.0303322 -0.0653818 0.000508785  -0.0290519 -0.0600654 0.00106907  -0.0391839 -0.0610085 0.000715733  -0.0354917 -0.0657113 0.00059557  -0.0340451 -0.0604312 0.00124741  -0.0290722 -0.0601972 0.000535488  -0.0340621 -0.0605648 0.000627518  -0.0438178 -0.0767986 0.000618219  -0.0423065 -0.0712569 0.00129557  -0.0382026 -0.0763748 0.00107813  -0.0327481 -0.0762306 0.000459671  -0.0315316 -0.0706097 0.000967026  -0.0423213 -0.0713763 0.00064683  -0.0382195 -0.0764834 0.000535011  -0.0368581 -0.0708964 0.00113249  -0.0315557 -0.070729 0.000487566  -0.0368773 -0.0710201 0.000566721  -0.0466654 -0.0880783 0.000556469  -0.0452477 -0.0822562 0.00117254  -0.040774 -0.0877447 0.000974178  -0.0350351 -0.0876624 0.000414371  -0.033884 -0.0817643 0.000877857  -0.0452659 -0.0823664 0.000589609  -0.0407926 -0.0878454 0.000487089  -0.0395074 -0.0819816 0.0010252  -0.0339066 -0.0818763 0.000440121  -0.0395241 -0.0820921 0.000512362  -0.0493368 -0.0998964 0.000500441  -0.0480075 -0.0938242 0.00105572  -0.0431981 -0.0996474 0.000871181  -0.0372028 -0.0996236 0.000373125  -0.0361116 -0.093482 0.000789165  -0.048022 -0.0939249 0.000531673  -0.0432149 -0.0997362 0.000437498  -0.0420021 -0.0936268 0.00092411  -0.0361329 -0.0935797 0.000392914  -0.0420234 -0.0937267 0.00046277  -0.0518388 -0.112196 0.000452042  -0.0505893 -0.105902 0.000948429  -0.0454779 -0.112027 0.000780582  -0.0392538 -0.112059 0.000331163  -0.0382229 -0.105697 0.000705719  -0.0506071 -0.10599 0.000471354  -0.0454943 -0.112108 0.00039053  -0.0443554 -0.105776 0.000825882  -0.0382407 -0.105787 0.000354052  -0.0443718 -0.105867 0.000411987  -0.0541791 -0.124929 0.000400066  -0.0530158 -0.118433 0.000844479  -0.047626 -0.124836 0.000692844  -0.0411987 -0.124919 0.000294209  -0.0402199 -0.118359 0.000628948  -0.0530282 -0.118512 0.000424147  -0.0476414 -0.124908 0.000346661  -0.0465662 -0.118376 0.000738144  -0.0402384 -0.11844 0.000314951  -0.0465846 -0.118457 0.000367641  -0.0563668 -0.138045 0.000352383  -0.0552779 -0.131373 0.000748158  -0.0496444 -0.138024 0.000611782  -0.0430384 -0.138153 0.000262022  -0.0421149 -0.131422 0.000557899  -0.0552911 -0.131443 0.000373602  -0.0496593 -0.138086 0.000307322  -0.0486486 -0.131381 0.000655174  -0.042132 -0.13149 0.000280142  -0.0486654 -0.131451 0.00032711  -0.0584118 -0.151497 0.000312567  -0.0573905 -0.144673 0.000660896  -0.0515409 -0.151542 0.000539303  -0.0447819 -0.151714 0.000228882  -0.0439038 -0.144832 0.000492096  -0.0574079 -0.144733 0.000329971  -0.0515542 -0.151594 0.000273705  -0.0506091 -0.144737 0.000574112  -0.0439217 -0.144893 0.000245333  -0.0506213 -0.1448 0.000287294  -0.0603199 -0.165245 0.000271559  -0.0593724 -0.158286 0.000575066  -0.0533209 -0.165348 0.000464439  -0.0464258 -0.165559 0.000199556  -0.0455973 -0.158548 0.000427723  -0.0593829 -0.158341 0.000289202  -0.0533342 -0.165392 0.000231028  -0.0524447 -0.158405 0.000500202  -0.0456166 -0.158601 0.000215769  -0.0524585 -0.15846 0.00025034  -0.0620966 -0.179241 0.000228405  -0.0612116 -0.172171 0.000491619  -0.0549929 -0.179403 0.000401974  -0.0479813 -0.17965 0.000169992  -0.0471983 -0.172526 0.00037241  -0.0612228 -0.172216 0.000246763  -0.0550027 -0.179441 0.000201464  -0.0541706 -0.172338 0.000432491  -0.0472157 -0.172576 0.000186205  -0.0541809 -0.172387 0.000218868  -0.0637505 -0.19345 0.000195742  -0.0629301 -0.186285 0.000421524  -0.0565572 -0.193662 0.000337124  -0.0494511 -0.193945 0.00014329  -0.0487146 -0.18673 0.000317574  -0.0629396 -0.186326 0.000213385  -0.0565681 -0.193695 0.000168562  -0.0557849 -0.186502 0.000370026  -0.0487251 -0.186772 0.000158548  -0.0557976 -0.186542 0.000186682  -0.0652893 -0.207844 0.000164747  -0.0645251 -0.200598 0.000356197  -0.0580261 -0.208098 0.000285625  -0.0508385 -0.208404 0.000125885  -0.0501449 -0.201121 0.000265121  -0.0645351 -0.200632 0.000179529  -0.0580354 -0.208122 0.000143766  -0.057301 -0.200857 0.000309944  -0.0501528 -0.201153 0.000133514  -0.0573127 -0.200888 0.000153303  -0.0667233 -0.22238 0.000132322  -0.0660181 -0.215069 0.000296593  -0.0594039 -0.222674 0.000229836  -0.0521507 -0.223004 9.77516e-05  -0.0514941 -0.215663 0.000221252  -0.0660207 -0.215098 0.000149488  -0.0594101 -0.222689 0.000114202  -0.0587244 -0.215363 0.000258446  -0.0515027 -0.21569 0.000113249  -0.0587354 -0.215391 0.000129938  -0.0680609 -0.237028 0.000110865  -0.0673981 -0.229671 0.000237465  -0.0606916 -0.237356 0.000187397  -0.0533912 -0.237712 7.93934e-05  -0.0527689 -0.230324 0.000179291  -0.0674043 -0.229693 0.000119686  -0.0606995 -0.237367 9.34601e-05  -0.0600581 -0.229996 0.000209808  -0.0527802 -0.230347 8.96454e-05  -0.0600638 -0.230018 0.000103951  -0.0693018 -0.251766 8.01086e-05  -0.0686879 -0.24437 0.000190258  -0.0619066 -0.252126 0.000146389  -0.0545666 -0.252496 5.96046e-05  -0.0539775 -0.245079 0.000144958  -0.0686963 -0.244389 9.5129e-05  -0.0619113 -0.252132 7.29561e-05  -0.0613077 -0.244723 0.00016737  -0.0539873 -0.245095 7.12872e-05  -0.0613139 -0.244743 8.46386e-05  -0.0704615 -0.266565 6.03199e-05  -0.0698891 -0.259147 0.000147343  -0.0630491 -0.266945 0.00011301  -0.0556836 -0.267335 4.88758e-05  -0.0551224 -0.259896 0.000110626  -0.0698898 -0.259159 7.43866e-05  -0.0630531 -0.26695 5.48363e-05  -0.0624852 -0.259519 0.000133038  -0.055131 -0.25991 5.60284e-05  -0.0624912 -0.259535 6.55651e-05  -0.0715516 -0.281402 4.95911e-05  -0.0710113 -0.27397 0.000113964  -0.0641289 -0.281802 8.2016e-05  -0.0567412 -0.282205 3.48091e-05  -0.056216 -0.274757 8.24928e-05  -0.0710151 -0.273978 5.62668e-05  -0.0641325 -0.281806 4.26769e-05  -0.0635948 -0.274365 0.000100136  -0.0562162 -0.274769 4.19617e-05  -0.0636008 -0.274376 4.93526e-05  -0.0725806 -0.296256 3.93391e-05  -0.0720732 -0.28882 8.86917e-05  -0.0651531 -0.296673 5.72205e-05  -0.0577557 -0.297089 2.6226e-05  -0.057251 -0.289639 5.91278e-05  -0.0720725 -0.288826 4.43459e-05  -0.0651553 -0.296675 2.69413e-05  -0.0646479 -0.289229 6.81877e-05  -0.0572517 -0.289645 2.93255e-05  -0.064652 -0.28924 3.55244e-05  -0.0735509 -0.311113 1.50204e-05  -0.0730679 -0.303681 5.10216e-05  -0.0661254 -0.311541 3.62396e-05  -0.0587254 -0.311968 1.71661e-05  -0.0582426 -0.304524 3.76701e-05  -0.0730734 -0.303685 2.86102e-05  -0.0661294 -0.311544 1.81198e-05  -0.0656452 -0.304107 4.62532e-05  -0.0582449 -0.30453 1.97887e-05  -0.0656469 -0.30411 2.3365e-05  -0.0744774 -0.325959 1.57356e-05  -0.0740161 -0.318537 3.38554e-05  -0.0670607 -0.326399 2.28882e-05  -0.0596678 -0.326828 9.77516e-06  -0.0591986 -0.319398 2.52724e-05  -0.0740197 -0.318538 1.95503e-05  -0.067065 -0.326398 1.16825e-05  -0.066602 -0.318969 3.05176e-05  -0.0592008 -0.319399 1.14441e-05  -0.0666018 -0.318972 1.45435e-05  -0.075377 -0.340787 4.52995e-06  -0.074924 -0.333375 1.90735e-05  -0.0679717 -0.341232 1.14441e-05  -0.0605805 -0.341661 2.6226e-06  -0.0601218 -0.334244 1.38283e-05  -0.074934 -0.333378 8.58307e-06  -0.0679736 -0.341229 3.09944e-06  -0.0675178 -0.333816 1.62125e-05  -0.0601263 -0.334248 6.19888e-06  -0.0675218 -0.333815 6.67572e-06  -0.0762618 -0.355592 1.43051e-06  -0.0758152 -0.348191 1.09673e-05  -0.0688646 -0.356034 2.86102e-06  -0.0614736 -0.356465 -1.19209e-06  -0.061028 -0.349067 6.67572e-06  -0.0758204 -0.348192 6.91414e-06  -0.0688636 -0.35603 -2.38419e-07  -0.0684178 -0.348631 4.76837e-06  -0.0610278 -0.349067 4.52995e-06  -0.0684206 -0.348632 1.19209e-06  -0.0771396 -0.370375 -7.15256e-06  -0.0766931 -0.362982 3.8147e-06  -0.0697453 -0.370814 -4.29153e-06  -0.0623577 -0.37124 -3.57628e-06  -0.0619147 -0.363853 -9.53674e-07  -0.0766964 -0.362982 -2.38419e-07  -0.0697453 -0.370807 -9.53674e-07  -0.0693033 -0.363417 -4.76837e-07  -0.061913 -0.363854 -1.43051e-06  -0.0693035 -0.36342 0  -0.00133976 -0.00216597 0.000662804  0 0 0  -0.000960395 -0.00161202 0.000261307  -0.000304218 -0.000582904 0.000291348  0 0 0  -0.00133067 -0.00222059 0.00032711  -0.000405509 -0.000951082 0.00036335  0 0 0  -0.000298962 -0.000607312 0.000143051  -0.000403207 -0.000981092 0.000177145  -0.00406973 -0.00565451 0.00109529  -0.00299536 -0.00495121 0.000434637  -0.00189826 -0.00307015 0.00073576  -0.00404696 -0.00576423 0.000543118  -0.00260158 -0.00379767 0.000908375  -0.00188352 -0.00314938 0.00036025  -0.00258669 -0.00388774 0.000449419  -0.00716445 -0.00991838 0.00129843  -0.00546059 -0.00932249 0.000520706  -0.0042311 -0.00689852 0.000982285  -0.00714305 -0.0100639 0.00064683  -0.00561595 -0.00767165 0.00121832  -0.00421119 -0.00702244 0.000485659  -0.0055919 -0.00780636 0.000600576  -0.0101889 -0.0150832 0.00133944  -0.00792491 -0.0146201 0.000535488  -0.00672415 -0.0116988 0.00107241  -0.0101733 -0.0152458 0.000668764  -0.00869399 -0.0123732 0.00133038  -0.00670803 -0.0118523 0.00053215  -0.00867283 -0.0125334 0.000664234  -0.0130584 -0.0212307 0.00129366  -0.0102649 -0.02087 0.000524044  -0.00911438 -0.0174628 0.00106001  -0.0130545 -0.0213986 0.000648022  -0.0116432 -0.0180324 0.00132322  -0.00911254 -0.0176266 0.000530243  -0.0116352 -0.0182013 0.000660658  -0.0157678 -0.028327 0.00121307  -0.0124777 -0.0280482 0.000487328  -0.0113845 -0.0241802 0.0010066  -0.0157747 -0.0284926 0.000607967  -0.0144314 -0.0246594 0.00125694  -0.0113856 -0.0243459 0.000503063  -0.0144347 -0.024829 0.000628948  -0.018329 -0.0363206 0.00112057  -0.0145781 -0.0361068 0.000446796  -0.0135279 -0.0318073 0.000931263  -0.0183447 -0.036476 0.000559568  -0.0170671 -0.0322109 0.0011673  -0.0135398 -0.0319699 0.000467062  -0.0170775 -0.0323754 0.000585794  -0.0207586 -0.0451412 0.00102663  -0.0165821 -0.0449826 0.000414371  -0.0155732 -0.0402909 0.0008564  -0.0207781 -0.0452839 0.00051403  -0.0195599 -0.0406227 0.0010705  -0.0155899 -0.0404463 0.000427723  -0.0195775 -0.04078 0.000535727  -0.0230678 -0.0547224 0.000933647  -0.0184973 -0.0546203 0.000370264  -0.0175296 -0.0495662 0.000781059  -0.023088 -0.054858 0.000467539  -0.0219257 -0.0498331 0.000976086  -0.0175489 -0.0497094 0.000388861  -0.0219477 -0.0499778 0.000487804  -0.0252639 -0.065011 0.000846863  -0.0203383 -0.0649556 0.000341892  -0.019405 -0.059572 0.000711918  -0.0252867 -0.0651315 0.000425339  -0.024178 -0.059777 0.000888824  -0.0194262 -0.0597033 0.000356436  -0.024202 -0.0599078 0.000445127  -0.0273564 -0.0759341 0.000765324  -0.0221072 -0.0759291 0.000298977  -0.0212095 -0.0702453 0.000644684  -0.0273802 -0.0760434 0.000382185  -0.0263218 -0.0703896 0.000806332  -0.0212325 -0.0703651 0.000322104  -0.026347 -0.0705112 0.000401735  -0.0293561 -0.0874444 0.000692844  -0.0238104 -0.0874832 0.000277042  -0.022945 -0.0815271 0.000583172  -0.0293792 -0.0875415 0.000348568  -0.0283688 -0.0816132 0.000730515  -0.022969 -0.0816369 0.000291109  -0.0283897 -0.0817245 0.000362635  -0.0312662 -0.0994721 0.000620842  -0.025453 -0.0995606 0.000244856  -0.0246149 -0.0933589 0.00052166  -0.0312855 -0.0995643 0.000310183  -0.0303222 -0.0933898 0.000655174  -0.0246387 -0.0934579 0.000261068  -0.0303432 -0.0934887 0.000329494  -0.0330861 -0.11198 0.000555992  -0.0270354 -0.112104 0.000225067  -0.0262312 -0.105685 0.00046587  -0.0331039 -0.112057 0.000278473  -0.0321856 -0.105665 0.000588894  -0.0262489 -0.105774 0.00023365  -0.0322049 -0.105754 0.00029397  -0.0348262 -0.124901 0.000492096  -0.028559 -0.125061 0.000192642  -0.0277817 -0.118453 0.000417233  -0.0348417 -0.124969 0.000247955  -0.0339662 -0.118384 0.000523567  -0.0278043 -0.118532 0.000209093  -0.0339816 -0.118463 0.000260353  -0.0364821 -0.13819 0.000434399  -0.0300292 -0.13839 0.000175476  -0.0292823 -0.13161 0.000367641  -0.0364989 -0.138252 0.000220299  -0.0356634 -0.131495 0.000464439  -0.0292996 -0.131681 0.00018239  -0.0356799 -0.131565 0.000230551  -0.038063 -0.151808 0.000380516  -0.0314445 -0.152038 0.000150919  -0.0307262 -0.145114 0.000320435  -0.0380821 -0.151861 0.000191689  -0.037281 -0.144957 0.000407219  -0.0307419 -0.145176 0.000159979  -0.0373011 -0.145017 0.000201941  -0.0395703 -0.165705 0.00033474  -0.0328062 -0.165965 0.000136375  -0.0321188 -0.158914 0.000282288  -0.0395861 -0.165748 0.000167131  -0.0388265 -0.158716 0.000355721  -0.0321341 -0.158967 0.000143528  -0.0388427 -0.15877 0.000177622  -0.0410099 -0.179838 0.000286102  -0.0341198 -0.180126 0.000113249  -0.0334573 -0.172968 0.000244141  -0.0410223 -0.179878 0.00014472  -0.040298 -0.172737 0.000308037  -0.0334685 -0.173017 0.000121117  -0.0403109 -0.172783 0.000151873  -0.0423822 -0.194174 0.000242233  -0.035383 -0.194486 9.67979e-05  -0.0347466 -0.187243 0.000209808  -0.0423915 -0.194205 0.000117064  -0.0417001 -0.186979 0.00026226  -0.0347571 -0.187283 0.000106335  -0.0417144 -0.187018 0.000130653  -0.0436866 -0.208675 0.000203609  -0.0365977 -0.209009 8.15392e-05  -0.0359859 -0.201692 0.000173092  -0.0436952 -0.208699 9.89437e-05  -0.0430403 -0.201399 0.000221252  -0.0359964 -0.201728 8.44002e-05  -0.0430508 -0.201433 0.000111818  -0.0449312 -0.223307 0.000166416  -0.0377684 -0.223661 6.27041e-05  -0.0371771 -0.216291 0.00014782  -0.0449388 -0.223328 8.53539e-05  -0.0443161 -0.215971 0.000184059  -0.0371878 -0.216319 7.58171e-05  -0.0443249 -0.215998 9.25064e-05  -0.0461171 -0.238043 0.000131607  -0.0388937 -0.238413 5.31673e-05  -0.0383263 -0.231002 0.000118256  -0.0461235 -0.238058 6.34193e-05  -0.0455287 -0.230659 0.00014925  -0.0383379 -0.231025 5.79357e-05  -0.0455391 -0.230682 7.43866e-05  -0.0472529 -0.252855 0.000104904  -0.0399821 -0.253236 4.62532e-05  -0.0394356 -0.245796 9.05991e-05  -0.0472572 -0.252864 5.126e-05  -0.04669 -0.245433 0.000119686  -0.0394425 -0.245816 4.43459e-05  -0.0466976 -0.245453 5.93662e-05  -0.0483353 -0.267712 7.96318e-05  -0.0410295 -0.268108 3.19481e-05  -0.0405021 -0.260653 7.10487e-05  -0.048342 -0.26772 4.24385e-05  -0.0477993 -0.260272 9.20296e-05  -0.0405102 -0.260667 3.88622e-05  -0.047806 -0.260288 4.60148e-05  -0.0493762 -0.282599 5.67436e-05  -0.0420423 -0.283005 2.52724e-05  -0.0415356 -0.275541 5.48363e-05  -0.0493817 -0.282604 3.24249e-05  -0.0488613 -0.275149 6.7234e-05  -0.041539 -0.275552 2.83718e-05  -0.0488653 -0.275161 3.62396e-05  -0.0503755 -0.297497 4.1008e-05  -0.0430236 -0.297911 1.83582e-05  -0.0425313 -0.290448 3.86238e-05  -0.0503793 -0.297502 2.28882e-05  -0.0498788 -0.290042 4.86374e-05  -0.0425358 -0.290458 2.0504e-05  -0.0498853 -0.290052 2.45571e-05  -0.0513411 -0.31239 2.71797e-05  -0.043977 -0.312807 6.67572e-06  -0.0434978 -0.305353 2.81334e-05  -0.0513473 -0.312388 1.38283e-05  -0.0508597 -0.304938 3.38554e-05  -0.0435047 -0.305359 1.45435e-05  -0.0508664 -0.304943 1.66893e-05  -0.0522759 -0.327255 1.43051e-05  -0.0449085 -0.32768 7.62939e-06  -0.0444458 -0.320242 1.4782e-05  -0.0522811 -0.327256 6.67572e-06  -0.0518122 -0.319821 2.0504e-05  -0.0444467 -0.320245 4.29153e-06  -0.0518167 -0.319824 1.26362e-05  -0.0531914 -0.342095 6.19888e-06  -0.0458198 -0.342524 1.66893e-06  -0.045357 -0.335103 8.58307e-06  -0.0531945 -0.342094 4.29153e-06  -0.0527365 -0.334674 1.04904e-05  -0.0453653 -0.335105 4.05312e-06  -0.0527403 -0.334678 4.05312e-06  -0.0540884 -0.356901 9.53674e-07  -0.0467119 -0.357326 9.53674e-07  -0.0462618 -0.349928 3.33786e-06  -0.0540891 -0.356896 -2.38419e-07  -0.0536366 -0.349499 1.90735e-06  -0.0462663 -0.349929 2.14577e-06  -0.0536444 -0.349499 -2.38419e-07  -0.0549738 -0.371675 -6.67572e-06  -0.0476007 -0.372092 -5.24521e-06  -0.0471511 -0.364712 -4.29153e-06  -0.054976 -0.371668 -1.43051e-06  -0.0545306 -0.364283 -3.33786e-06  -0.0471561 -0.364714 -2.14577e-06  -0.0545318 -0.364285 -7.15256e-07  -0.000672735 -0.00116724 0.00040102  0 0 0  -0.000414528 -0.000952303 0.000130653  -0.000130333 -0.00018701 0.000146389  0 0 0  -0.000662588 -0.0012098 0.000196695  -0.000208639 -0.000336736 0.000218868  0 0 0  -0.000128791 -0.000207663 7.05719e-05  -0.000201821 -0.000360847 0.00010705  -0.0021427 -0.00427562 0.000666142  -0.00133537 -0.00397617 0.000219107  -0.000830486 -0.00222802 0.000369072  -0.00212689 -0.00436142 0.000328064  -0.00133352 -0.00255817 0.000553608  -0.000826225 -0.00229338 0.000181913  -0.00132003 -0.00262937 0.000272036  -0.0039604 -0.00863102 0.000790596  -0.00252071 -0.00837445 0.000263929  -0.00192136 -0.00593883 0.000497818  -0.00394413 -0.00875503 0.000391245  -0.00303307 -0.00632018 0.000745296  -0.00190976 -0.00604731 0.000245333  -0.00301734 -0.00643662 0.000369549  -0.00580969 -0.013999 0.000813484  -0.00376356 -0.0138266 0.000272274  -0.00315112 -0.010843 0.000545979  -0.0057992 -0.0141464 0.000404835  -0.00489166 -0.0111875 0.000808716  -0.00314316 -0.0109814 0.000271559  -0.00487766 -0.0113314 0.000404596  -0.00758195 -0.0203209 0.000784397  -0.0049789 -0.0202262 0.000260592  -0.0043779 -0.0167552 0.000540257  -0.00757962 -0.0204815 0.000391006  -0.00670493 -0.017037 0.00080061  -0.00437593 -0.016908 0.000271797  -0.00670111 -0.017194 0.000397205  -0.00927198 -0.0275725 0.000729561  -0.00615376 -0.0275304 0.000247717  -0.0055663 -0.0236062 0.000510216  -0.00927967 -0.0277258 0.000367165  -0.00843316 -0.0238282 0.000761032  -0.00557178 -0.0237654 0.000258207  -0.00843871 -0.0239903 0.000382185  -0.0108916 -0.035693 0.000672817  -0.00730371 -0.0356984 0.000221491  -0.00671941 -0.0313521 0.000470638  -0.0109061 -0.0358456 0.00033927  -0.010087 -0.0315217 0.000703335  -0.0067324 -0.0315091 0.000235796  -0.0100995 -0.0316801 0.00034833  -0.0124553 -0.0446389 0.000617027  -0.00843567 -0.0446809 0.000207663  -0.00785446 -0.0399424 0.000429153  -0.0124722 -0.0447823 0.000311375  -0.0116795 -0.0400625 0.000644684  -0.00787133 -0.0400914 0.00021553  -0.0116973 -0.040216 0.000321865  -0.0139724 -0.0543406 0.000558853  -0.00955331 -0.0544183 0.000183344  -0.00897944 -0.0493159 0.000391483  -0.0139933 -0.054474 0.000279188  -0.0132183 -0.0493959 0.000587463  -0.00899482 -0.0494581 0.00019598  -0.0132391 -0.0495355 0.000295162  -0.0154511 -0.0647411 0.000508308  -0.0106668 -0.064852 0.000164986  -0.0100927 -0.0594185 0.000352859  -0.0154713 -0.0648586 0.000256538  -0.0147188 -0.0594517 0.000531673  -0.0101087 -0.0595506 0.000176907  -0.0147383 -0.059583 0.000263929  -0.0168918 -0.0757802 0.000457287  -0.0117748 -0.0759188 0.000152826  -0.0112003 -0.0701875 0.000317097  -0.0169115 -0.0758853 0.000228167  -0.016175 -0.0701745 0.000481606  -0.0112214 -0.0703075 0.00015974  -0.0161967 -0.0702989 0.000240564  -0.0182966 -0.0873891 0.000412941  -0.012876 -0.0875601 0.00013113  -0.0123103 -0.0815602 0.000286102  -0.0183172 -0.0874898 0.000208139  -0.017597 -0.0815091 0.000432968  -0.0123265 -0.0816716 0.00014472  -0.0176176 -0.0816186 0.000216246  -0.0196705 -0.0995222 0.000367165  -0.0139792 -0.0997221 0.000121117  -0.0134085 -0.0934773 0.000257492  -0.0196875 -0.0996108 0.000181437  -0.0189856 -0.0933892 0.000389576  -0.0134286 -0.0935795 0.000127554  -0.019007 -0.0934868 0.000195026  -0.0210111 -0.112118 0.000328541  -0.0150737 -0.112345 0.000105619  -0.014511 -0.105889 0.000227451  -0.0210283 -0.112199 0.000165462  -0.020344 -0.105757 0.000346184  -0.0145289 -0.105977 0.000113964  -0.0203621 -0.105848 0.00017333  -0.0223206 -0.125128 0.000293255  -0.0161639 -0.125382 9.75132e-05  -0.0156021 -0.118734 0.000203609  -0.0223373 -0.125198 0.000146866  -0.0216701 -0.11857 0.000309467  -0.0156174 -0.118814 9.87053e-05  -0.0216862 -0.118649 0.000154495  -0.0236002 -0.138504 0.000255585  -0.0172471 -0.138781 8.10623e-05  -0.0166937 -0.131966 0.000178814  -0.0236158 -0.138565 0.000129938  -0.0229609 -0.131768 0.000273705  -0.016705 -0.13204 8.7738e-05  -0.0229805 -0.131836 0.000135422  -0.0248492 -0.152196 0.000224113  -0.0183201 -0.152495 7.31945e-05  -0.0177734 -0.145538 0.000156403  -0.0248618 -0.152248 0.000112295  -0.0242298 -0.145308 0.000238419  -0.0177844 -0.145601 7.72476e-05  -0.0242441 -0.145369 0.000118256  -0.0260653 -0.166162 0.00019598  -0.019387 -0.166482 6.34193e-05  -0.0188456 -0.159401 0.000135899  -0.0260756 -0.166206 9.94205e-05  -0.0254626 -0.15914 0.000210762  -0.0188551 -0.159458 7.24792e-05  -0.0254717 -0.159196 0.000106096  -0.0272529 -0.180362 0.000165462  -0.020442 -0.180698 5.31673e-05  -0.019906 -0.173516 0.000116825  -0.0272629 -0.180399 8.24928e-05  -0.0266628 -0.173227 0.000182629  -0.0199161 -0.173565 5.34058e-05  -0.0266733 -0.173277 9.05991e-05  -0.0284097 -0.19475 0.00014019  -0.0214834 -0.195107 4.50611e-05  -0.0209575 -0.187841 9.9659e-05  -0.0284159 -0.194787 7.00951e-05  -0.027833 -0.187529 0.000152588  -0.0209641 -0.187882 4.81606e-05  -0.0278428 -0.187571 7.55787e-05  -0.02953 -0.209307 0.000118256  -0.0225089 -0.209676 3.98159e-05  -0.021991 -0.202336 8.05855e-05  -0.0295405 -0.209332 5.91278e-05  -0.0289721 -0.202005 0.000127316  -0.0219982 -0.202372 4.22001e-05  -0.028981 -0.20204 6.65188e-05  -0.0306256 -0.223987 9.39369e-05  -0.0235262 -0.224367 3.19481e-05  -0.0230122 -0.216975 6.7234e-05  -0.0306334 -0.224009 4.8399e-05  -0.0300825 -0.216625 0.000108242  -0.0230179 -0.217006 3.12328e-05  -0.0300894 -0.216655 5.26905e-05  -0.0316901 -0.238761 7.58171e-05  -0.0245233 -0.239155 2.64645e-05  -0.0240252 -0.231724 5.29289e-05  -0.031698 -0.238778 3.67165e-05  -0.031162 -0.231356 8.67844e-05  -0.0240266 -0.231749 2.67029e-05  -0.0311697 -0.231378 4.33922e-05  -0.0327268 -0.2536 6.19888e-05  -0.0255065 -0.254007 1.83582e-05  -0.0250089 -0.24655 4.14848e-05  -0.0327344 -0.253615 3.14713e-05  -0.0322108 -0.246168 6.91414e-05  -0.0250154 -0.246569 2.07424e-05  -0.0322199 -0.246187 3.3617e-05  -0.0337389 -0.268494 4.43459e-05  -0.0264742 -0.2689 9.05991e-06  -0.0259857 -0.261433 3.29018e-05  -0.0337415 -0.268503 2.3365e-05  -0.0332355 -0.26104 5.24521e-05  -0.0259914 -0.261449 1.7643e-05  -0.0332408 -0.261053 2.74181e-05  -0.0347223 -0.283407 3.43323e-05  -0.0274234 -0.283819 1.12057e-05  -0.0269482 -0.276343 2.38419e-05  -0.034724 -0.283409 1.97887e-05  -0.0342333 -0.275938 4.14848e-05  -0.0269506 -0.276356 1.07288e-05  -0.0342357 -0.275951 2.09808e-05  -0.0356817 -0.298325 2.19345e-05  -0.0283616 -0.29874 5.48363e-06  -0.0278864 -0.291271 1.85966e-05  -0.0356879 -0.298323 1.21593e-05  -0.0352061 -0.290856 2.90871e-05  -0.0278945 -0.291278 1.07288e-05  -0.0352106 -0.290866 1.28746e-05  -0.0366249 -0.313226 1.4782e-05  -0.0292845 -0.313646 8.10623e-06  -0.0288224 -0.306189 1.19209e-05  -0.0366266 -0.313224 8.10623e-06  -0.0361567 -0.30577 1.81198e-05  -0.0288246 -0.306195 5.24521e-06  -0.03616 -0.305776 1.04904e-05  -0.0375466 -0.32811 1.04904e-05  -0.0301938 -0.328532 1.19209e-06  -0.0297387 -0.321086 7.15256e-06  -0.0375481 -0.328107 6.67572e-06  -0.037087 -0.320665 1.04904e-05  -0.029741 -0.321092 7.15256e-07  -0.0370884 -0.320667 5.72205e-06  -0.0384517 -0.342955 2.38419e-06  -0.031091 -0.343383 4.05312e-06  -0.0306423 -0.335958 3.33786e-06  -0.0384517 -0.342953 2.14577e-06  -0.0380011 -0.335533 4.76837e-06  -0.0306423 -0.335959 4.05312e-06  -0.0380023 -0.335531 2.86102e-06  -0.0393395 -0.357762 4.76837e-07  -0.0319798 -0.358189 -4.76837e-07  -0.0315354 -0.350788 1.43051e-06  -0.0393438 -0.357759 1.43051e-06  -0.0388978 -0.350355 -1.90735e-06  -0.0315373 -0.350789 -1.90735e-06  -0.0388985 -0.350359 2.38419e-07  -0.0402238 -0.372522 -6.19888e-06  -0.0328655 -0.372947 -1.66893e-06  -0.0324173 -0.365571 -1.43051e-06  -0.0402274 -0.372516 -2.38419e-06  -0.0397842 -0.365142 -3.33786e-06  -0.0324237 -0.365573 -1.90735e-06  -0.0397856 -0.365143 0  -0.000185743 -0.000784069 0.000133991  0 0 0  3.27379e-05 -0.000796288 -2.38419e-06  9.73791e-06 -9.64105e-05 4.76837e-07  0 0 0  -0.000183225 -0.00082022 6.53267e-05  -5.75632e-05 -0.000108361 7.24792e-05  0 0 0  1.02147e-05 -0.000113338 -7.15256e-07  -5.56596e-05 -0.000126302 3.50475e-05  -0.000613257 -0.00369754 0.000224113  9.09269e-05 -0.00374448 0  6.37025e-05 -0.00202221 0  -0.000611067 -0.00377718 0.000111103  -0.000376195 -0.00205508 0.00018692  5.90086e-05 -0.00208622 -2.86102e-06  -0.000373945 -0.00211746 9.01222e-05  -0.00117868 -0.00806135 0.000268459  0.000135094 -0.00815362 1.19209e-06  0.000124395 -0.00571194 4.29153e-06  -0.00117716 -0.00817579 0.000132561  -0.000883818 -0.00573966 0.000250816  0.000117093 -0.00581247 2.14577e-06  -0.000883877 -0.00584042 0.000126362  -0.00180006 -0.013532 0.000273705  0.000130355 -0.0136658 4.76837e-07  0.000144988 -0.0106594 3.8147e-06  -0.00179935 -0.0136665 0.000138998  -0.00148842 -0.0106652 0.000274658  0.0001387 -0.010789 3.8147e-06  -0.00148442 -0.0108005 0.000136852  -0.0024339 -0.0199609 0.000265598  7.4029e-05 -0.0201365 5.00679e-06  0.000118554 -0.0166379 8.58307e-06  -0.00243753 -0.0201109 0.000136852  -0.0021162 -0.016622 0.000275135  0.000109792 -0.0167861 6.19888e-06  -0.00211704 -0.0167729 0.000134945  -0.00307798 -0.0273067 0.000247002  -4.91142e-05 -0.0275101 -9.53674e-07  2.99811e-05 -0.0235547 3.8147e-06  -0.00308669 -0.027458 0.00012517  -0.00275308 -0.0235156 0.000256538  2.29478e-05 -0.0237102 1.66893e-06  -0.00276107 -0.0236717 0.000127554  -0.00374258 -0.0355188 0.000226021  -0.000233352 -0.0357457 4.76837e-07  -0.000120699 -0.0313654 4.76837e-06  -0.00375575 -0.0356657 0.000114441  -0.00340617 -0.0312997 0.000234604  -0.000133514 -0.0315211 2.38419e-06  -0.00341868 -0.0314547 0.000118971  -0.0044319 -0.0445472 0.000204086  -0.000483513 -0.0447922 7.15256e-07  -0.000339568 -0.0400168 3.33786e-06  -0.00444579 -0.0446845 0.00010705  -0.00408357 -0.0399234 0.000216961  -0.000348866 -0.0401674 2.6226e-06  -0.00409847 -0.0400754 0.000108957  -0.00514793 -0.0543262 0.000178814  -0.000795126 -0.0545894 -5.72205e-06  -0.000619531 -0.0494573 -2.86102e-06  -0.00516331 -0.0544564 8.89301e-05  -0.00478685 -0.0493365 0.000193596  -0.000632167 -0.0495977 -3.09944e-06  -0.00479925 -0.0494785 9.5129e-05  -0.00589108 -0.0648056 0.000162601  -0.00117409 -0.0650843 -4.76837e-07  -0.000963807 -0.0596209 -8.10623e-06  -0.00590634 -0.0649261 8.55923e-05  -0.00551701 -0.0594766 0.000172615  -0.000976562 -0.0597512 -3.09944e-06  -0.00553071 -0.0596061 8.34465e-05  -0.00666666 -0.075913 0.000143528  -0.00161469 -0.0762129 -7.86781e-06  -0.00137568 -0.0704492 -7.15256e-06  -0.00668144 -0.0760265 7.53403e-05  -0.00627565 -0.0702766 0.000154972  -0.00138795 -0.0705702 -2.38419e-06  -0.00628996 -0.0703981 7.43866e-05  -0.00746965 -0.0876073 0.000128269  -0.00210905 -0.0879153 -6.67572e-06  -0.00184619 -0.0818837 -7.15256e-06  -0.00748205 -0.0877005 6.7234e-05  -0.0070653 -0.0816836 0.000137329  -0.00185394 -0.0819944 -2.86102e-06  -0.00707805 -0.0817957 6.84261e-05  -0.00829566 -0.0998053 0.000117779  -0.00266266 -0.100134 -6.91414e-06  -0.00236797 -0.0938622 -9.05991e-06  -0.00830734 -0.0998966 5.88894e-05  -0.00788069 -0.0936353 0.00012207  -0.0023787 -0.0939622 -3.57628e-06  -0.00789058 -0.0937372 5.93662e-05  -0.00914478 -0.112471 0.000100613  -0.00325835 -0.112815 -1.0252e-05  -0.00294387 -0.106328 -1.19209e-05  -0.00915802 -0.112551 5.05447e-05  -0.00871837 -0.106079 0.000108719  -0.00295424 -0.106418 -5.00679e-06  -0.00872934 -0.106166 5.57899e-05  -0.0100143 -0.125548 9.39369e-05  -0.00390542 -0.125903 2.6226e-06  -0.00357234 -0.119226 -1.14441e-05  -0.0100224 -0.125616 4.673e-05  -0.00957692 -0.118951 9.67979e-05  -0.00357676 -0.119308 -4.52995e-06  -0.00958765 -0.119035 4.72069e-05  -0.0109 -0.138983 7.9155e-05  -0.00459421 -0.13935 -7.39098e-06  -0.00423479 -0.132511 -1.00136e-05  -0.0109099 -0.139043 3.76701e-05  -0.010455 -0.132214 8.34465e-05  -0.00424278 -0.132582 -3.8147e-06  -0.0104653 -0.132287 4.36306e-05  -0.0118058 -0.152727 6.77109e-05  -0.00531983 -0.153109 -2.38419e-06  -0.00494456 -0.146127 -1.00136e-05  -0.0118115 -0.152783 3.45707e-05  -0.0113504 -0.14581 7.15256e-05  -0.00495267 -0.146192 -3.57628e-06  -0.0113606 -0.145875 3.67165e-05  -0.0127161 -0.166743 5.67436e-05  -0.00607848 -0.167134 -7.15256e-06  -0.00568628 -0.160035 -1.19209e-05  -0.0127256 -0.166791 2.83718e-05  -0.0122576 -0.1597 6.48499e-05  -0.00569463 -0.16009 -4.05312e-06  -0.0122671 -0.159754 3.0756e-05  -0.0136399 -0.180988 4.95911e-05  -0.00686264 -0.181389 -6.19888e-06  -0.00646591 -0.174187 -1.04904e-05  -0.0136449 -0.181028 2.40803e-05  -0.013176 -0.173834 5.05447e-05  -0.00646591 -0.174235 -8.10623e-06  -0.0131848 -0.173883 2.64645e-05  -0.0145674 -0.195423 4.24385e-05  -0.00767803 -0.195829 -4.05312e-06  -0.00726604 -0.188545 -1.00136e-05  -0.0145738 -0.195456 2.00272e-05  -0.0140991 -0.188178 4.57764e-05  -0.00726533 -0.188587 -1.43051e-06  -0.0141068 -0.188221 2.3365e-05  -0.0154977 -0.21001 3.38554e-05  -0.00850821 -0.210423 -4.29153e-06  -0.00809121 -0.203072 -5.72205e-06  -0.0155056 -0.21004 1.85966e-05  -0.0150318 -0.202695 3.71933e-05  -0.00809026 -0.203109 -5.00679e-06  -0.0150387 -0.202727 1.74046e-05  -0.0164309 -0.224722 2.71797e-05  -0.00935769 -0.22514 -4.76837e-07  -0.00892353 -0.217738 -8.10623e-06  -0.0164356 -0.224743 1.19209e-05  -0.015965 -0.217345 2.81334e-05  -0.00893164 -0.217767 -5.24521e-06  -0.0159695 -0.217376 1.52588e-05  -0.01736 -0.239525 2.3365e-05  -0.0102177 -0.239946 -3.33786e-06  -0.00978255 -0.232508 -9.53674e-06  -0.0173693 -0.239543 1.04904e-05  -0.0168965 -0.232109 2.47955e-05  -0.00978708 -0.232533 -3.8147e-06  -0.0169027 -0.232132 1.26362e-05  -0.0182924 -0.254391 1.62125e-05  -0.0110896 -0.254817 -4.52995e-06  -0.0106485 -0.247356 -8.58307e-06  -0.0182927 -0.254408 7.86781e-06  -0.0178266 -0.246948 1.62125e-05  -0.0106523 -0.247375 -5.72205e-06  -0.0178316 -0.246963 8.10623e-06  -0.0192161 -0.269304 1.38283e-05  -0.0119696 -0.269727 2.38419e-07  -0.0115259 -0.262254 -7.15256e-06  -0.0192175 -0.269309 5.24521e-06  -0.0187538 -0.261835 1.4782e-05  -0.0115252 -0.262268 -3.8147e-06  -0.0187564 -0.261852 7.39098e-06  -0.0201323 -0.284227 7.15256e-06  -0.0128524 -0.284657 -3.09944e-06  -0.0124049 -0.27718 -5.24521e-06  -0.0201356 -0.284234 3.33786e-06  -0.0196753 -0.276758 9.53674e-06  -0.0124118 -0.277191 -1.66893e-06  -0.0196779 -0.27677 4.76837e-06  -0.021044 -0.299161 3.8147e-06  -0.0137346 -0.299589 -2.14577e-06  -0.0132911 -0.292113 -5.72205e-06  -0.0210457 -0.299161 6.67572e-06  -0.0205884 -0.291685 6.19888e-06  -0.0132916 -0.292123 -2.6226e-06  -0.0205903 -0.291698 4.76837e-06  -0.0219498 -0.314074 6.19888e-06  -0.0146201 -0.314504 1.66893e-06  -0.0141728 -0.30704 -3.33786e-06  -0.0219502 -0.314073 4.76837e-06  -0.0214992 -0.306612 3.8147e-06  -0.0141788 -0.307049 -1.19209e-06  -0.0214984 -0.30662 1.90735e-06  -0.0228472 -0.328965 3.33786e-06  -0.0155056 -0.329392 -2.86102e-06  -0.0150597 -0.321948 -4.76837e-07  -0.0228472 -0.328959 2.86102e-06  -0.022398 -0.321516 2.38419e-06  -0.015065 -0.321952 -7.15256e-07  -0.0223987 -0.321521 2.38419e-07  -0.0237362 -0.343817 -4.76837e-07  -0.0163836 -0.344243 -1.66893e-06  -0.0159454 -0.33682 -3.33786e-06  -0.023737 -0.343812 -1.19209e-06  -0.0232913 -0.336388 0  -0.0159459 -0.336825 -7.15256e-07  -0.0232902 -0.336389 0  -0.0246198 -0.358625 2.86102e-06  -0.0172634 -0.359056 1.19209e-06  -0.0168207 -0.351655 1.43051e-06  -0.0246205 -0.358621 -1.90735e-06  -0.0241804 -0.35122 1.90735e-06  -0.0168245 -0.351656 2.38419e-06  -0.0241811 -0.351222 2.38419e-07  -0.025496 -0.37338 4.76837e-07  -0.0181375 -0.37381 6.91414e-06  -0.0177011 -0.366436 1.43051e-06  -0.0254974 -0.373377 -1.43051e-06  -0.0250602 -0.366003 1.90735e-06  -0.0176985 -0.36644 2.86102e-06  -0.0250611 -0.366005 7.15256e-07  0.000252932 -0.000843704 -0.000136852  0 0 0  0.000478983 -0.00106388 -0.000131845  0.000149637 -0.00024879 -0.000150204  0 0 0  0.000249565 -0.000876665 -6.34193e-05  7.63535e-05 -0.000139654 -7.48634e-05  0 0 0  0.000149518 -0.000269771 -7.53403e-05  7.61449e-05 -0.00015974 -3.60012e-05  0.000806481 -0.00379491 -0.00022316  0.00151837 -0.00417352 -0.000214577  0.000953481 -0.00238425 -0.000371456  0.000793606 -0.00387561 -0.000114441  0.000504524 -0.00213236 -0.000187397  0.000946209 -0.00244963 -0.000183344  0.000495762 -0.00219536 -9.13143e-05  0.00145635 -0.00819707 -0.000259399  0.00278163 -0.00863546 -0.000257492  0.00216141 -0.00617045 -0.000491619  0.00144523 -0.00830579 -0.000128269  0.00112838 -0.0058524 -0.000245571  0.00214052 -0.00627255 -0.000246525  0.00111499 -0.00595713 -0.000123739  0.00207263 -0.0136929 -0.000263691  0.00401193 -0.0141456 -0.000266552  0.00343302 -0.0111385 -0.000527859  0.00205958 -0.0138265 -0.00013113  0.00177461 -0.0108159 -0.000265121  0.00341022 -0.0112684 -0.000262022  0.00176245 -0.0109453 -0.000132799  0.0025894 -0.0201565 -0.000251293  0.00510085 -0.0206113 -0.000252962  0.00459474 -0.0171115 -0.000519753  0.00257641 -0.0203041 -0.000125885  0.00234556 -0.0168024 -0.000259876  0.00457674 -0.0172628 -0.000257015  0.00233155 -0.0169504 -0.000130415  0.0029912 -0.0275418 -0.000238895  0.00603294 -0.0279904 -0.000240088  0.00559843 -0.0240337 -0.00049448  0.00298417 -0.027689 -0.000119925  0.00280386 -0.0237283 -0.000246048  0.00558668 -0.0241879 -0.000245094  0.00279355 -0.0238836 -0.00012517  0.00328994 -0.0357859 -0.000221252  0.0068087 -0.0362431 -0.000224352  0.00644845 -0.0318558 -0.000460148  0.00327879 -0.0359368 -0.000109196  0.0031541 -0.0315496 -0.000229359  0.00643867 -0.0320089 -0.000230789  0.00314522 -0.0317054 -0.000114918  0.00348091 -0.0448594 -0.000207901  0.00743806 -0.0453108 -0.000207901  0.00714636 -0.0405268 -0.000426769  0.00347042 -0.0449995 -0.000103712  0.0033989 -0.0402187 -0.000215054  0.00713968 -0.0406763 -0.000213623  0.00338805 -0.0403671 -0.000105143  0.00356841 -0.0546852 -0.000188351  0.00792611 -0.0551358 -0.000187159  0.00770295 -0.0499922 -0.000392437  0.00355995 -0.0548172 -9.10759e-05  0.0035392 -0.0496741 -0.000197887  0.00770032 -0.0501328 -0.000194788  0.00352943 -0.0498165 -9.77516e-05  0.00355542 -0.0652076 -0.000175953  0.00828326 -0.0656618 -0.000174761  0.00812745 -0.0601841 -0.000362873  0.00354815 -0.0653298 -8.67844e-05  0.0035708 -0.0598581 -0.000183582  0.00811946 -0.0603163 -0.000180244  0.00356638 -0.0599887 -9.48906e-05  0.00345242 -0.076365 -0.000163078  0.00851619 -0.0768237 -0.000157118  0.00841916 -0.0710445 -0.000328541  0.00344598 -0.0764779 -7.93934e-05  0.00351715 -0.0707047 -0.000171185  0.00841475 -0.0711672 -0.000165224  0.00350857 -0.0708253 -8.58307e-05  0.0032599 -0.0881002 -0.000151157  0.00863075 -0.0885562 -0.00014782  0.00859106 -0.0825105 -0.000303268  0.00325537 -0.088201 -7.43866e-05  0.00336838 -0.082159 -0.000156879  0.00858629 -0.0826213 -0.00015378  0.00336111 -0.0822697 -7.72476e-05  0.00298774 -0.100348 -0.000134945  0.00863039 -0.100805 -0.00012517  0.00864339 -0.094519 -0.000274658  0.00298166 -0.100438 -6.58035e-05  0.00313687 -0.0941571 -0.000144005  0.00864267 -0.0946203 -0.000139236  0.00313079 -0.0942566 -7.34329e-05  0.00263464 -0.113054 -0.000125408  0.00852907 -0.113515 -0.000118017  0.00859571 -0.107014 -0.000249386  0.0026288 -0.113138 -6.29425e-05  0.0028224 -0.106637 -0.00013113  0.00859451 -0.107108 -0.000126839  0.00281298 -0.10673 -6.62804e-05  0.00221241 -0.12617 -0.000111103  0.00832736 -0.126632 -0.000103474  0.00844431 -0.119944 -0.000226498  0.00220847 -0.12624 -5.74589e-05  0.00243235 -0.119558 -0.000118256  0.00843847 -0.120025 -0.000111103  0.00242853 -0.119638 -6.07967e-05  0.00172257 -0.139636 -0.000100136  0.00803757 -0.140105 -9.46522e-05  0.00819886 -0.133253 -0.000203133  0.00171852 -0.139703 -5.22137e-05  0.00197792 -0.132858 -0.000107288  0.00819266 -0.133325 -0.000100374  0.00197256 -0.13293 -5.36442e-05  0.0011704 -0.15342 -8.91685e-05  0.00766182 -0.153887 -8.44002e-05  0.00786018 -0.146893 -0.00017786  0.00116825 -0.153476 -4.69685e-05  0.00145245 -0.146489 -9.58443e-05  0.00785923 -0.14696 -8.82149e-05  0.00145006 -0.146554 -4.8399e-05  0.000567198 -0.167469 -7.86781e-05  0.00721455 -0.167933 -7.39098e-05  0.00744891 -0.160822 -0.000153542  0.000564575 -0.167513 -4.1008e-05  0.00087738 -0.160408 -8.39233e-05  0.00744891 -0.16088 -7.7486e-05  0.000872612 -0.160465 -4.12464e-05  -8.53539e-05 -0.181741 -6.91414e-05  0.00669384 -0.182203 -6.67572e-05  0.00696063 -0.174992 -0.000137806  -8.96454e-05 -0.181779 -3.33786e-05  0.00024581 -0.174571 -7.34329e-05  0.00696182 -0.175041 -7.12872e-05  0.000242472 -0.174621 -3.71933e-05  -0.00078249 -0.1962 -5.48363e-05  0.00611591 -0.196662 -5.36442e-05  0.00640917 -0.189367 -0.000119686  -0.000784159 -0.19623 -2.81334e-05  -0.000427961 -0.18894 -6.34193e-05  0.00641274 -0.189409 -5.8651e-05  -0.000430822 -0.188982 -3.38554e-05  -0.00151372 -0.210808 -5.24521e-05  0.00548196 -0.211268 -5.07832e-05  0.00580764 -0.203912 -0.000100136  -0.00151682 -0.210834 -2.5034e-05  -0.00114489 -0.203479 -5.48363e-05  0.00580573 -0.203948 -5.126e-05  -0.0011456 -0.203515 -2.98023e-05  -0.00227976 -0.225536 -4.14848e-05  0.0047996 -0.225994 -3.62396e-05  0.00514531 -0.218587 -8.53539e-05  -0.00228071 -0.225556 -2.5034e-05  -0.00189161 -0.218152 -4.57764e-05  0.00514603 -0.218618 -4.33922e-05  -0.00189471 -0.21818 -2.16961e-05  -0.00307345 -0.240349 -3.48091e-05  0.00407791 -0.240808 -3.48091e-05  0.00444245 -0.233366 -7.00951e-05  -0.00307226 -0.240369 -1.97887e-05  -0.00267053 -0.232926 -3.91006e-05  0.00444388 -0.23339 -3.6478e-05  -0.00267315 -0.232953 -1.83582e-05  -0.00388837 -0.255236 -3.09944e-05  0.00331783 -0.255684 -2.7895e-05  0.00370121 -0.24822 -5.81741e-05  -0.00388932 -0.255241 -1.57356e-05  -0.00347972 -0.247781 -3.24249e-05  0.00370383 -0.248241 -2.81334e-05  -0.00347853 -0.2478 -1.83582e-05  -0.00472188 -0.270146 -2.0504e-05  0.0025301 -0.2706 -2.21729e-05  0.00292802 -0.263122 -4.673e-05  -0.0047226 -0.270159 -8.58307e-06  -0.00430346 -0.262683 -2.76566e-05  0.00292659 -0.263138 -2.16961e-05  -0.00430536 -0.262697 -1.3113e-05  -0.00556803 -0.285088 -1.85966e-05  0.00171804 -0.285534 -1.5974e-05  0.00212717 -0.278053 -3.57628e-05  -0.00556779 -0.285091 -9.29832e-06  -0.00514269 -0.277614 -1.90735e-05  0.00212884 -0.278065 -1.71661e-05  -0.00514317 -0.277621 -9.53674e-06  -0.00642443 -0.30002 -1.43051e-05  0.000886202 -0.300463 -1.26362e-05  0.001302 -0.292989 -2.71797e-05  -0.00642657 -0.300022 -4.05312e-06  -0.00599504 -0.292547 -1.4782e-05  0.00130439 -0.292998 -1.21593e-05  -0.00599504 -0.292558 -9.53674e-06  -0.00729203 -0.314939 -7.15256e-06  4.17233e-05 -0.315381 -7.86781e-06  0.00046134 -0.307917 -1.62125e-05  -0.00729418 -0.31494 -3.33786e-06  -0.00685716 -0.307476 -1.04904e-05  0.000464678 -0.307924 -9.05991e-06  -0.00685811 -0.307482 -4.76837e-06  -0.00816393 -0.329834 -6.19888e-06  -0.000818491 -0.330269 -3.33786e-06  -0.000389338 -0.322823 -1.28746e-05  -0.00816178 -0.329831 -4.76837e-07  -0.00772691 -0.322383 -9.53674e-06  -0.000388384 -0.322829 -1.00136e-05  -0.0077281 -0.322388 -3.57628e-06  -0.00903416 -0.344686 -1.43051e-06  -0.00168061 -0.34512 -4.76837e-07  -0.00125408 -0.337696 -6.67572e-06  -0.00903392 -0.344679 -2.38419e-07  -0.00859928 -0.337258 -5.72205e-06  -0.00124884 -0.337697 4.76837e-07  -0.0085969 -0.33726 -2.14577e-06  -0.00990629 -0.359493 2.86102e-06  -0.00254774 -0.35993 1.66893e-06  -0.00211501 -0.352527 -1.90735e-06  -0.00990677 -0.359491 1.90735e-06  -0.00947428 -0.352089 -1.90735e-06  -0.00211525 -0.352527 -9.53674e-07  -0.00946903 -0.352091 0  -0.0107758 -0.374251 5.72205e-06  -0.00341463 -0.374685 -5.48363e-06  -0.00298285 -0.367313 2.38419e-06  -0.0107768 -0.374244 1.19209e-06  -0.0103419 -0.366874 9.53674e-07  -0.00298142 -0.367313 -1.66893e-06  -0.0103419 -0.366874 1.66893e-06  0.000741765 -0.00133407 -0.000401974  0 0 0  0.0010272 -0.00183141 -0.000263691  0.000328027 -0.000710368 -0.00028944  0 0 0  0.000733167 -0.00137407 -0.000197411  0.00022579 -0.000432134 -0.000221729  0 0 0  0.000319652 -0.000735641 -0.000141621  0.000224218 -0.00045377 -0.000109911  0.00233081 -0.00456858 -0.000659466  0.00316972 -0.00532174 -0.000425577  0.00202104 -0.00337458 -0.000723839  0.00230777 -0.00464731 -0.000323296  0.00146291 -0.00279248 -0.000551701  0.00200294 -0.0034498 -0.000357151  0.00144568 -0.00285995 -0.000270605  0.00421959 -0.00901854 -0.000775814  0.00569206 -0.00981545 -0.000509262  0.00445423 -0.00733805 -0.000963211  0.00419533 -0.00913602 -0.000385284  0.0032672 -0.00666237 -0.000730515  0.00442505 -0.0074541 -0.000475407  0.0032413 -0.00677127 -0.000363111  0.00604743 -0.0144787 -0.000790119  0.00811863 -0.0152407 -0.000522614  0.00695691 -0.0122616 -0.00104237  0.00602329 -0.0146193 -0.000392675  0.00515485 -0.0116199 -0.000788212  0.00693202 -0.0124061 -0.000518084  0.00512856 -0.0117575 -0.000392675  0.00769049 -0.0209048 -0.000760555  0.0103132 -0.0216326 -0.000507355  0.0092718 -0.018158 -0.00103474  0.00767422 -0.0210548 -0.000382662  0.00689447 -0.0175666 -0.00078249  0.00924706 -0.0183135 -0.000516176  0.00687319 -0.0177187 -0.000391245  0.0091309 -0.0282679 -0.000715733  0.0122666 -0.0289624 -0.000480175  0.0113335 -0.0250236 -0.000985622  0.00911981 -0.028416 -0.000360727  0.00843292 -0.0244642 -0.000741482  0.0113207 -0.0251838 -0.000493526  0.00842303 -0.0246235 -0.000371218  0.0103754 -0.0365135 -0.000664234  0.0139868 -0.0371883 -0.00044179  0.0131657 -0.0328117 -0.000915051  0.0103696 -0.0366609 -0.00033617  0.00977808 -0.0322754 -0.000692844  0.0131547 -0.0329687 -0.000458717  0.00976861 -0.0324304 -0.000346184  0.0114391 -0.0455885 -0.000615597  0.0154823 -0.0462449 -0.000405788  0.0147651 -0.0414662 -0.000850677  0.0114334 -0.0457245 -0.00030756  0.010929 -0.0409443 -0.000640392  0.0147621 -0.0416146 -0.000426292  0.0109246 -0.0410921 -0.000321865  0.0123261 -0.0554228 -0.000562668  0.0167681 -0.0560677 -0.000377893  0.0161537 -0.0509221 -0.000782967  0.0123215 -0.0555555 -0.000280142  0.0119047 -0.0504066 -0.00058794  0.0161511 -0.0510637 -0.000393152  0.0118996 -0.0505488 -0.000296593  0.0130469 -0.0659607 -0.000518799  0.0178535 -0.0665914 -0.000342369  0.0173345 -0.0611144 -0.000715733  0.0130461 -0.0660847 -0.000255823  0.0127076 -0.0606028 -0.000537395  0.017338 -0.0612449 -0.00035882  0.0127043 -0.0607342 -0.00027132  0.0136133 -0.0771372 -0.000473499  0.0187513 -0.0777537 -0.000310659  0.0183238 -0.0719767 -0.000655174  0.0136127 -0.077249 -0.00023222  0.0133499 -0.0714684 -0.000493526  0.0183268 -0.0720953 -0.000328779  0.0133487 -0.0715899 -0.000248194  0.0140278 -0.0888853 -0.00042963  0.0194718 -0.0894939 -0.000287533  0.0191323 -0.0834429 -0.000597  0.0140288 -0.088989 -0.000214815  0.0138403 -0.0829372 -0.000452042  0.0191348 -0.0835532 -0.000296116  0.0138384 -0.0830487 -0.000226021  0.0143044 -0.101156 -0.000387669  0.0200206 -0.101747 -0.000259161  0.0197667 -0.0954565 -0.000543594  0.0143073 -0.101241 -0.000194311  0.0141861 -0.094952 -0.000411034  0.0197661 -0.0955571 -0.000272274  0.0141847 -0.0950531 -0.000206947  0.0144486 -0.113878 -0.000349045  0.0204057 -0.114459 -0.000230551  0.0202273 -0.107957 -0.000486851  0.0144483 -0.113957 -0.000174522  0.014392 -0.107453 -0.000368118  0.020233 -0.108046 -0.000244617  0.0143929 -0.107547 -0.000184536  0.0144691 -0.127006 -0.000312328  0.0206479 -0.127576 -0.000210047  0.0205457 -0.120889 -0.000438213  0.014469 -0.127076 -0.000156403  0.0144719 -0.120389 -0.000330925  0.0205451 -0.120971 -0.000216007  0.0144744 -0.120468 -0.00016427  0.0143771 -0.140493 -0.000277519  0.020752 -0.141054 -0.000183821  0.020714 -0.1342 -0.000391483  0.0143762 -0.140556 -0.00013423  0.0144373 -0.133702 -0.000297546  0.0207183 -0.134273 -0.000196218  0.0144393 -0.133774 -0.000149012  0.0141759 -0.154284 -0.000246048  0.0207236 -0.154837 -0.000163317  0.0207503 -0.147844 -0.0003438  0.0141773 -0.154341 -0.000120163  0.014292 -0.147347 -0.000264645  0.0207517 -0.147908 -0.0001719  0.0142913 -0.14741 -0.000131369  0.0138781 -0.168342 -0.000216961  0.0205789 -0.168884 -0.000143766  0.020668 -0.161772 -0.000305653  0.01388 -0.16839 -0.000106812  0.0140393 -0.161277 -0.00023222  0.0206659 -0.161829 -0.000151873  0.0140414 -0.161334 -0.000114202  0.0134935 -0.182621 -0.000188828  0.0203245 -0.183154 -0.000121117  0.0204577 -0.175941 -0.000263214  0.0134966 -0.182664 -9.36985e-05  0.0136988 -0.175451 -0.000202179  0.0204637 -0.17599 -0.000132561  0.0137002 -0.175498 -9.98974e-05  0.0130296 -0.197083 -0.00015974  0.0199726 -0.197607 -0.000103474  0.0201538 -0.190315 -0.000229359  0.0130305 -0.197122 -8.03471e-05  0.0132735 -0.189825 -0.000174522  0.0201612 -0.190358 -0.000113487  0.0132742 -0.189869 -8.63075e-05  0.0124915 -0.211702 -0.000132561  0.0195317 -0.212211 -9.08375e-05  0.0197604 -0.204855 -0.000192642  0.0124938 -0.211727 -6.62804e-05  0.012768 -0.204371 -0.000148296  0.0197623 -0.204892 -9.58443e-05  0.0127716 -0.204406 -7.41482e-05  0.0118902 -0.226433 -0.000110149  0.0190117 -0.226932 -7.27177e-05  0.0192773 -0.219529 -0.000161648  0.0118952 -0.226451 -5.53131e-05  0.0122006 -0.219046 -0.000124454  0.0192811 -0.219557 -8.10623e-05  0.0122013 -0.219076 -6.27041e-05  0.0112374 -0.241247 -9.15527e-05  0.0184228 -0.241741 -6.03199e-05  0.0187213 -0.234301 -0.000134468  0.0112391 -0.241265 -4.55379e-05  0.0115728 -0.233826 -0.000102997  0.0187254 -0.234326 -6.50883e-05  0.0115733 -0.233848 -5.00679e-05  0.0105329 -0.256129 -7.00951e-05  0.017771 -0.25661 -4.86374e-05  0.0180984 -0.249147 -0.000106335  0.0105362 -0.256142 -3.48091e-05  0.0108941 -0.248677 -8.15392e-05  0.018106 -0.249169 -5.24521e-05  0.0108929 -0.248697 -3.83854e-05  0.00978804 -0.271042 -5.81741e-05  0.0170693 -0.271517 -3.74317e-05  0.0174189 -0.264043 -8.44002e-05  0.00979185 -0.271053 -3.24249e-05  0.010165 -0.263575 -6.77109e-05  0.0174272 -0.26406 -4.26769e-05  0.0101683 -0.263593 -3.38554e-05  0.00900936 -0.285978 -4.29153e-05  0.0163229 -0.286443 -2.90871e-05  0.0166965 -0.278966 -6.38962e-05  0.00901341 -0.285984 -1.90735e-05  0.00940371 -0.278503 -5.00679e-05  0.0167019 -0.278978 -3.05176e-05  0.00940657 -0.278517 -2.47955e-05  0.00820255 -0.30091 -2.81334e-05  0.0155365 -0.301368 -1.64509e-05  0.0159297 -0.293897 -4.48227e-05  0.00820565 -0.300912 -1.40667e-05  0.00861239 -0.293439 -3.43323e-05  0.0159333 -0.293905 -2.19345e-05  0.00861192 -0.293447 -1.64509e-05  0.00737572 -0.315826 -2.09808e-05  0.014724 -0.316279 -1.04904e-05  0.0151291 -0.30882 -3.24249e-05  0.00737596 -0.315827 -1.28746e-05  0.00779438 -0.308364 -2.67029e-05  0.0151343 -0.308826 -1.69277e-05  0.00779247 -0.308372 -1.0252e-05  0.00652766 -0.330712 -1.4782e-05  0.01389 -0.331162 -6.91414e-06  0.0143054 -0.323718 -2.0504e-05  0.00653172 -0.330715 -5.00679e-06  0.00695205 -0.32327 -1.66893e-05  0.0143077 -0.323721 -1.09673e-05  0.00695753 -0.323273 -7.15256e-06  0.00567198 -0.345566 -6.19888e-06  0.0130408 -0.346008 -8.10623e-06  0.013463 -0.338585 -1.14441e-05  0.00567579 -0.345561 -3.57628e-06  0.00610352 -0.33814 -7.62939e-06  0.0134692 -0.338586 -7.39098e-06  0.00610566 -0.338141 -8.82149e-06  0.00480938 -0.360371 1.43051e-06  0.0121806 -0.360813 3.8147e-06  0.012609 -0.353412 -3.33786e-06  0.00481462 -0.36037 1.66893e-06  0.00524306 -0.352969 -2.38419e-06  0.0126126 -0.353414 -4.76837e-07  0.00524902 -0.35297 -2.38419e-07  0.00394535 -0.375129 7.15256e-06  0.0113187 -0.375577 7.86781e-06  0.0117514 -0.368195 1.43051e-06  0.00394964 -0.375128 1.66893e-06  0.00437975 -0.367753 5.72205e-06  0.0117495 -0.368198 2.38419e-06  0.00437951 -0.367756 2.6226e-06  0.00141551 -0.00244135 -0.000649452  0 0 0  0.00185226 -0.00342208 -0.000380754  0.000577226 -0.00169337 -0.000421524  0 0 0  0.00140205 -0.00249171 -0.000321388  0.000428937 -0.001118 -0.000355244  0 0 0  0.000573605 -0.00172168 -0.000207901  0.000424415 -0.00114262 -0.000174284  0.00423667 -0.00611043 -0.00106955  0.00540328 -0.00732279 -0.000628233  0.00356431 -0.0052141 -0.00105619  0.00420985 -0.00621015 -0.000529528  0.00272812 -0.00416458 -0.000892639  0.00354388 -0.00530672 -0.000522614  0.00270763 -0.00424975 -0.000440121  0.00737071 -0.0105188 -0.00126123  0.00913101 -0.0116404 -0.000743628  0.00732562 -0.00923115 -0.00140715  0.00733879 -0.0106568 -0.000626564  0.00581214 -0.0081954 -0.0011878  0.00729236 -0.00936681 -0.000699043  0.00578144 -0.00832415 -0.000590324  0.0103457 -0.0158462 -0.00129938  0.0126362 -0.0168959 -0.000773907  0.0109507 -0.0139799 -0.00153589  0.010315 -0.0160019 -0.000647545  0.00888821 -0.0130545 -0.00129366  0.0109109 -0.0141402 -0.000766039  0.00885558 -0.0132052 -0.000645161  0.0130623 -0.0221763 -0.00126314  0.0158784 -0.0231606 -0.000756979  0.0143236 -0.019735 -0.00153589  0.013043 -0.0223368 -0.00063014  0.0117388 -0.0188845 -0.00128794  0.0142933 -0.0199024 -0.000765085  0.0117133 -0.0190454 -0.000646114  0.0155057 -0.0294729 -0.00118732  0.0188179 -0.0304099 -0.000711679  0.0174028 -0.0264996 -0.00146484  0.0154944 -0.0296299 -0.000593185  0.0143166 -0.0257025 -0.00122786  0.0173861 -0.0266657 -0.000730276  0.0143021 -0.0258648 -0.000613928  0.0176817 -0.0376777 -0.00110722  0.0214579 -0.038573 -0.000662804  0.0201892 -0.0342211 -0.00137043  0.0176758 -0.0378273 -0.000551939  0.0166271 -0.033463 -0.00114441  0.020176 -0.034379 -0.000689745  0.0166175 -0.0336179 -0.000571728  0.0196029 -0.0467271 -0.00101757  0.0238078 -0.0475858 -0.00060606  0.0226738 -0.0428255 -0.00127172  0.0196006 -0.0468646 -0.000509739  0.0186745 -0.042094 -0.00106239  0.0226681 -0.0429763 -0.00063467  0.0186706 -0.0422429 -0.000530958  0.0212801 -0.0565428 -0.000936031  0.0258726 -0.0573725 -0.000558376  0.0248804 -0.0522434 -0.00116634  0.0212802 -0.0566752 -0.000466347  0.0204724 -0.0515332 -0.000975132  0.0248741 -0.0523848 -0.000582457  0.0204707 -0.0516768 -0.00048852  0.0227262 -0.0670677 -0.000852585  0.0276769 -0.0678681 -0.0005126  0.0268079 -0.0624035 -0.00106812  0.0227252 -0.0671871 -0.000428915  0.0220319 -0.0617148 -0.000894547  0.0268067 -0.0625347 -0.000534058  0.0220319 -0.0618449 -0.000446796  0.0239513 -0.0782301 -0.000779152  0.0292258 -0.0790037 -0.000464439  0.0284822 -0.0732399 -0.000976086  0.0239522 -0.0783365 -0.000390291  0.0233628 -0.0725657 -0.000818253  0.0284829 -0.0733593 -0.000487566  0.0233656 -0.072686 -0.000408888  0.0249684 -0.0899684 -0.000706673  0.0305359 -0.0907198 -0.000421047  0.0299139 -0.0846831 -0.000886917  0.0249668 -0.0900696 -0.000355005  0.0244843 -0.084026 -0.000741959  0.029909 -0.0847921 -0.000444174  0.0244857 -0.0841359 -0.000371218  0.0257827 -0.102226 -0.000640392  0.0316234 -0.102951 -0.000378847  0.0311059 -0.0966736 -0.000806808  0.0257863 -0.102315 -0.000322342  0.0253992 -0.0960298 -0.000672817  0.0311086 -0.0967731 -0.000404358  0.025401 -0.0961313 -0.000337839  0.0264149 -0.114942 -0.000576019  0.0324931 -0.115643 -0.000346422  0.032086 -0.109153 -0.000727177  0.026418 -0.115022 -0.000285625  0.0261222 -0.108522 -0.00060606  0.0320863 -0.109242 -0.000363827  0.0261238 -0.108612 -0.000304461  0.0268718 -0.128059 -0.0005126  0.0331644 -0.128742 -0.000302553  0.0328511 -0.122064 -0.000648975  0.0268756 -0.128133 -0.000252724  0.0266632 -0.121449 -0.000545025  0.0328519 -0.122144 -0.000324965  0.0266687 -0.12153 -0.000272512  0.0271678 -0.141539 -0.000457764  0.0336494 -0.142197 -0.000276089  0.0334302 -0.135355 -0.00057888  0.0271704 -0.141602 -0.000228882  0.027038 -0.134751 -0.000485897  0.0334287 -0.135428 -0.000289917  0.0270435 -0.134824 -0.000242233  0.0273097 -0.155322 -0.000401974  0.0339572 -0.15596 -0.000239372  0.0338218 -0.148978 -0.000514507  0.027313 -0.155378 -0.000202417  0.0272589 -0.148387 -0.000431061  0.0338218 -0.14904 -0.000256777  0.0272598 -0.148451 -0.000215054  0.0273123 -0.16937 -0.000350952  0.034106 -0.169986 -0.000208616  0.0340497 -0.162886 -0.000449657  0.0273166 -0.169417 -0.000175714  0.027328 -0.162308 -0.000378132  0.0340521 -0.162938 -0.00022459  0.0273316 -0.162363 -0.000188828  0.0271883 -0.183636 -0.000303745  0.0341039 -0.184233 -0.000176907  0.0341187 -0.177033 -0.000388145  0.0271909 -0.183676 -0.000151157  0.0272663 -0.176468 -0.000326633  0.0341232 -0.177083 -0.000195026  0.027271 -0.17652 -0.000163317  0.0269444 -0.198086 -0.00026083  0.0339708 -0.198668 -0.000157356  0.0340493 -0.191386 -0.000335217  0.0269492 -0.198122 -0.00013113  0.0270829 -0.190838 -0.000282764  0.0340555 -0.191428 -0.000164986  0.0270844 -0.190878 -0.000137806  0.026597 -0.212691 -0.000219822  0.0337133 -0.213252 -0.0001297  0.0338523 -0.205906 -0.00028801  0.0266011 -0.212721 -0.000107288  0.0267875 -0.205371 -0.000239372  0.0338557 -0.205943 -0.000139952  0.026788 -0.205403 -0.00012064  0.0261552 -0.227409 -0.000181675  0.0333431 -0.227952 -0.000113726  0.0335398 -0.220557 -0.000239849  0.0261588 -0.227431 -9.05991e-05  0.0263867 -0.220031 -0.000198841  0.0335431 -0.220588 -0.000121355  0.0263913 -0.220063 -9.75132e-05  0.0256259 -0.242216 -0.00014782  0.0328758 -0.24274 -8.63075e-05  0.0331175 -0.23531 -0.00019455  0.0256312 -0.242233 -7.31945e-05  0.0259044 -0.234797 -0.000166416  0.0331211 -0.235334 -9.91821e-05  0.0259042 -0.23482 -7.9155e-05  0.0250268 -0.257081 -0.000117779  0.0323205 -0.25759 -7.10487e-05  0.0326071 -0.250136 -0.000154972  0.0250313 -0.257096 -6.03199e-05  0.0253372 -0.249632 -0.000132084  0.0326087 -0.250157 -7.65324e-05  0.0253406 -0.249655 -6.50883e-05  0.0243621 -0.271987 -8.91685e-05  0.0316887 -0.272481 -5.55515e-05  0.0320106 -0.265012 -0.000123501  0.0243659 -0.271994 -4.52995e-05  0.0247037 -0.264522 -0.000103474  0.0320165 -0.265029 -6.29425e-05  0.0247066 -0.264538 -5.19753e-05  0.0236413 -0.286909 -6.48499e-05  0.0309992 -0.287387 -4.62532e-05  0.0313473 -0.279918 -9.29832e-05  0.0236483 -0.28691 -3.0756e-05  0.0240114 -0.279438 -8.01086e-05  0.0313513 -0.279931 -4.43459e-05  0.0240145 -0.27945 -3.95775e-05  0.0228794 -0.301826 -4.95911e-05  0.0302501 -0.302296 -2.98023e-05  0.0306299 -0.294832 -6.62804e-05  0.0228829 -0.301827 -2.52724e-05  0.0232663 -0.294362 -5.76973e-05  0.0306315 -0.29484 -3.05176e-05  0.0232694 -0.29437 -2.93255e-05  0.0220795 -0.316733 -3.43323e-05  0.0294604 -0.31719 -1.74046e-05  0.0298584 -0.309739 -4.673e-05  0.0220828 -0.316733 -1.7643e-05  0.0224884 -0.309277 -4.05312e-05  0.0298591 -0.309743 -2.7895e-05  0.0224886 -0.309283 -2.00272e-05  0.0212536 -0.331613 -1.95503e-05  0.0286384 -0.332061 -1.19209e-05  0.0290461 -0.324625 -2.90871e-05  0.0212557 -0.33161 -1.04904e-05  0.0216696 -0.324168 -2.47955e-05  0.0290506 -0.324631 -1.4782e-05  0.0216727 -0.324175 -1.45435e-05  0.0204062 -0.346455 -9.53674e-06  0.027792 -0.346898 -2.38419e-07  0.0282145 -0.339481 -1.66893e-05  0.0204134 -0.346454 -1.90735e-06  0.0208309 -0.339032 -1.62125e-05  0.0282173 -0.339484 -9.29832e-06  0.0208373 -0.339034 -7.62939e-06  0.0195498 -0.361263 -1.43051e-06  0.0269327 -0.361697 -1.43051e-06  0.0273623 -0.3543 -7.62939e-06  0.0195541 -0.361259 2.38419e-07  0.0199809 -0.353856 -5.72205e-06  0.0273638 -0.354302 -5.24521e-06  0.0199845 -0.353858 4.76837e-07  0.0186839 -0.37602 6.19888e-06  0.0260677 -0.376474 1.66893e-06  0.0264969 -0.369084 1.90735e-06  0.0186901 -0.376023 5.24521e-06  0.0191152 -0.368641 9.53674e-07  0.0265028 -0.369086 2.38419e-07  0.0191207 -0.368641 -2.14577e-06  0.00265647 -0.00473231 -0.000897884  0 0 0  0.00384331 -0.00666022 -0.000497818  0.00136492 -0.0038805 -0.000567913  0 0 0  0.00265285 -0.00479889 -0.000439644  0.000799283 -0.00253487 -0.000479221  0 0 0  0.00136911 -0.00392503 -0.000282049  0.000799291 -0.00256884 -0.000235081  0.00690335 -0.00846148 -0.00146103  0.00861576 -0.00989091 -0.000819445  0.00633827 -0.00802821 -0.0013938  0.00688586 -0.00858819 -0.000718355  0.00480323 -0.00652903 -0.00122356  0.00635281 -0.00814313 -0.00068903  0.00479473 -0.00662833 -0.000605345  0.0110903 -0.0126029 -0.0017314  0.0131557 -0.0140048 -0.000982285  0.010876 -0.0116681 -0.00185156  0.0110558 -0.0127592 -0.000860929  0.00900224 -0.0104055 -0.00162983  0.0108567 -0.0118227 -0.000916719  0.00897092 -0.0105529 -0.000808239  0.0151163 -0.0177482 -0.00179529  0.0176734 -0.0190511 -0.00101399  0.0154739 -0.0162073 -0.00202465  0.0150827 -0.0179154 -0.000894308  0.0131357 -0.0150363 -0.00178432  0.0154465 -0.0163822 -0.00100636  0.0131008 -0.0152035 -0.000887156  0.0188556 -0.0239416 -0.00174618  0.0219188 -0.0251703 -0.000995874  0.0198646 -0.0217982 -0.00202417  0.0188313 -0.0241046 -0.000871181  0.0170247 -0.0207061 -0.00178099  0.0198312 -0.0219747 -0.00100946  0.0169958 -0.0208798 -0.000888824  0.0222732 -0.0311435 -0.00164986  0.0258242 -0.0323068 -0.000935316  0.023936 -0.0284425 -0.00193596  0.0222566 -0.0313018 -0.000824928  0.0206083 -0.0274138 -0.00170183  0.0239178 -0.0286137 -0.000969648  0.0205848 -0.027582 -0.00084877  0.0253602 -0.0392751 -0.00153399  0.029362 -0.0403814 -0.000868797  0.0276573 -0.0360652 -0.00181103  0.025349 -0.0394235 -0.000768661  0.0238556 -0.0350883 -0.00159502  0.0276372 -0.0362297 -0.000903368  0.0238454 -0.0352513 -0.000794888  0.0281205 -0.048261 -0.00141478  0.0325418 -0.0493165 -0.000802279  0.0310143 -0.0445924 -0.0016799  0.028115 -0.0484027 -0.000706673  0.0267798 -0.0436611 -0.00147533  0.0309945 -0.044746 -0.00083971  0.0267718 -0.0438114 -0.000737906  0.0305713 -0.0580306 -0.00130033  0.0353755 -0.0590435 -0.000743628  0.0340109 -0.0539445 -0.00154638  0.0305672 -0.0581635 -0.000649691  0.0293857 -0.0530474 -0.00135708  0.0339968 -0.0540856 -0.000776529  0.0293785 -0.0531881 -0.000678778  0.0327239 -0.0685133 -0.00118923  0.0378753 -0.0694811 -0.00067997  0.0366706 -0.0640438 -0.00142002  0.0327224 -0.0686345 -0.000596285  0.0316838 -0.0631822 -0.00124645  0.0366666 -0.064177 -0.000710726  0.0316817 -0.0633125 -0.000622034  0.0345931 -0.0796364 -0.00108528  0.0400621 -0.080564 -0.000619888  0.0390112 -0.0748252 -0.00129461  0.0345918 -0.0797462 -0.000540018  0.033693 -0.0739924 -0.00113869  0.0390086 -0.074947 -0.000646591  0.033691 -0.0741136 -0.000568151  0.0361917 -0.0913403 -0.000981808  0.0419487 -0.0922328 -0.000562668  0.0410459 -0.086219 -0.00117731  0.0361925 -0.0914422 -0.000492811  0.0354269 -0.0854169 -0.00103235  0.0410364 -0.086328 -0.000587702  0.0354259 -0.0855234 -0.000514269  0.0375414 -0.103563 -0.000888348  0.0435494 -0.104418 -0.000502586  0.0427874 -0.0981638 -0.00106668  0.0375394 -0.103653 -0.000445604  0.0368955 -0.0973868 -0.000936031  0.0427845 -0.098262 -0.000535011  0.0368966 -0.0974843 -0.000467062  0.0386462 -0.116245 -0.000799179  0.0448885 -0.117062 -0.000457287  0.0442553 -0.110596 -0.000962734  0.0386475 -0.116323 -0.000402451  0.0381236 -0.109844 -0.000844002  0.0442525 -0.110684 -0.000479698  0.0381228 -0.109932 -0.000424147  0.039524 -0.129335 -0.000711918  0.0459735 -0.130119 -0.000411987  0.0454626 -0.123463 -0.000864506  0.0395248 -0.129404 -0.000356197  0.0391138 -0.122736 -0.000757217  0.0454637 -0.12354 -0.000429869  0.0391141 -0.122815 -0.000378847  0.0401926 -0.142778 -0.000633717  0.0468214 -0.143528 -0.000356913  0.0464264 -0.136709 -0.000765324  0.040195 -0.142839 -0.000315428  0.0398864 -0.136005 -0.000674725  0.0464263 -0.13678 -0.000381231  0.0398858 -0.13608 -0.000337362  0.0406649 -0.156534 -0.000557423  0.0474536 -0.157246 -0.000319004  0.0471673 -0.15029 -0.000680447  0.040669 -0.156582 -0.000278711  0.0404532 -0.149614 -0.000596523  0.0471637 -0.150353 -0.000338554  0.0404561 -0.149674 -0.000296354  0.040956 -0.170547 -0.000484943  0.0478802 -0.171234 -0.000276566  0.0476954 -0.164153 -0.000596523  0.0409596 -0.170591 -0.000243664  0.040833 -0.1635 -0.000522137  0.0476949 -0.164208 -0.000297785  0.0408351 -0.163554 -0.00026083  0.0410757 -0.184781 -0.000419617  0.0481153 -0.185441 -0.000240326  0.0480161 -0.178264 -0.000515938  0.041079 -0.184823 -0.000209093  0.0410364 -0.177633 -0.000452995  0.0480237 -0.178309 -0.000258207  0.0410395 -0.17768 -0.000226021  0.0410421 -0.199207 -0.000360012  0.0481825 -0.199834 -0.000205517  0.0481722 -0.192573 -0.000444889  0.0410459 -0.199239 -0.000181913  0.0410776 -0.191968 -0.00039053  0.048171 -0.192616 -0.000221252  0.04108 -0.192009 -0.000195742  0.0408692 -0.21378 -0.000301838  0.0480876 -0.214378 -0.000171423  0.0481508 -0.207057 -0.000376701  0.0408709 -0.213805 -0.000150204  0.0409718 -0.20647 -0.000330448  0.0481532 -0.20709 -0.00019002  0.040976 -0.206504 -0.000167131  0.0405705 -0.228463 -0.000249386  0.0478532 -0.229043 -0.00013566  0.047986 -0.221669 -0.000313282  0.0405724 -0.22849 -0.00012207  0.0407345 -0.221103 -0.000275612  0.0479858 -0.2217 -0.000154018  0.0407364 -0.221133 -0.000137329  0.0401547 -0.243246 -0.000202656  0.0474877 -0.243794 -0.000122786  0.0476913 -0.236385 -0.000256062  0.0401592 -0.243262 -0.000101089  0.0403776 -0.235839 -0.000226021  0.0476863 -0.236412 -0.000128031  0.0403798 -0.235867 -0.000115395  0.039644 -0.258085 -0.000162125  0.0470116 -0.258614 -9.75132e-05  0.0472674 -0.251178 -0.000206947  0.0396469 -0.258096 -8.41618e-05  0.0399113 -0.25065 -0.000183582  0.0472627 -0.251195 -0.000104666  0.0399134 -0.250671 -8.89301e-05  0.0390439 -0.272963 -0.000127792  0.0464406 -0.273469 -6.67572e-05  0.0467372 -0.26602 -0.000163078  0.0390494 -0.272973 -6.38962e-05  0.0393558 -0.265513 -0.000143051  0.0467405 -0.266038 -8.22544e-05  0.0393586 -0.26553 -7.15256e-05  0.0383706 -0.287861 -9.39369e-05  0.0457814 -0.288348 -5.22137e-05  0.0461192 -0.280898 -0.000122547  0.0383739 -0.287868 -4.31538e-05  0.0387182 -0.280404 -0.000106335  0.0461178 -0.28091 -5.98431e-05  0.0387204 -0.280418 -5.34058e-05  0.037636 -0.302761 -6.48499e-05  0.0450537 -0.303234 -3.74317e-05  0.0454233 -0.295785 -9.05991e-05  0.0376377 -0.302767 -3.0756e-05  0.0380108 -0.295308 -7.77245e-05  0.0454245 -0.29579 -4.33922e-05  0.0380137 -0.295315 -3.88622e-05  0.0368514 -0.31765 -4.19617e-05  0.0442693 -0.318106 -2.69413e-05  0.0446661 -0.310667 -6.00815e-05  0.0368543 -0.317651 -2.5034e-05  0.0372481 -0.310202 -5.34058e-05  0.044668 -0.310673 -3.40939e-05  0.0372529 -0.310208 -2.7895e-05  0.036026 -0.332515 -2.57492e-05  0.0434387 -0.332958 -1.07288e-05  0.0438535 -0.325531 -4.1008e-05  0.0360303 -0.33251 -1.40667e-05  0.0364454 -0.325081 -3.43323e-05  0.0438614 -0.325537 -2.52724e-05  0.0364444 -0.325085 -1.64509e-05  0.0351803 -0.347346 -1.23978e-05  0.042583 -0.347786 -1.07288e-05  0.0430107 -0.340372 -2.0504e-05  0.0351815 -0.347341 -3.57628e-06  0.0356061 -0.339927 -2.09808e-05  0.0430121 -0.340375 -8.82149e-06  0.0356085 -0.339931 -7.86781e-06  0.0343163 -0.362142 -5.24521e-06  0.0417111 -0.362577 -1.90735e-06  0.0421481 -0.355183 -1.14441e-05  0.0343187 -0.36214 -9.53674e-07  0.0347495 -0.354743 -9.05991e-06  0.0421495 -0.355183 -5.00679e-06  0.0347536 -0.354744 -3.33786e-06  0.0334425 -0.376922 9.53674e-06  0.0408363 -0.377364 -1.66893e-06  0.0412724 -0.36997 -6.67572e-06  0.0334511 -0.376918 1.19209e-06  0.0338812 -0.369529 4.76837e-07  0.0412736 -0.369971 -2.38419e-06  0.0338845 -0.36953 -2.86102e-06  -0.0038252 -0.00605815 0.00165939  -0.00136766 -0.00339869 0.0012784  0 0 0  -0.00262687 -0.00404105 0.00197458  0 0 0  -0.00180829 -0.00291858 0.00121641  -0.000577074 -0.00134004 0.000944614  0 0 0  -0.00138542 -0.00353995 0.000912666  -0.00261152 -0.00424031 0.00143337  -0.00079779 -0.0021214 0.00107241  0 0 0  -0.000560913 -0.00143033 0.000678062  -0.000789754 -0.00222938 0.000768185  -0.00860292 -0.00891037 0.00263929  -0.0062868 -0.00700556 0.00306082  -0.00688367 -0.00730066 0.00316334  -0.0053293 -0.00647241 0.0019927  -0.00352871 -0.00436118 0.0022912  -0.00630501 -0.00732948 0.00222349  -0.00683774 -0.00766598 0.00231695  -0.0047624 -0.00557991 0.00266695  -0.00347792 -0.00462188 0.00166702  -0.00473289 -0.0058736 0.00194168  -0.0132372 -0.0127001 0.00310135  -0.0109264 -0.0102395 0.00397921  -0.0111108 -0.011107 0.0036664  -0.00905731 -0.0105184 0.0023365  -0.0072816 -0.0080033 0.00299501  -0.0108906 -0.0106778 0.00292587  -0.0110486 -0.0115361 0.00271559  -0.00900018 -0.00907108 0.00348473  -0.00721422 -0.00837771 0.00220966  -0.00894377 -0.00947719 0.00256538  -0.0178694 -0.0174414 0.00318956  -0.0156285 -0.0144564 0.00426626  -0.0151986 -0.0159772 0.00373793  -0.0126142 -0.0155394 0.00240374  -0.0109115 -0.0124795 0.00321388  -0.0155781 -0.0149278 0.00317955  -0.0151551 -0.0164226 0.00279808  -0.0131826 -0.0133976 0.00374079  -0.010857 -0.0128997 0.00239801  -0.0131259 -0.0138451 0.00278711  -0.0222875 -0.0232464 0.00309038  -0.0201425 -0.0197462 0.00421047  -0.0190642 -0.0219101 0.00359869  -0.0159867 -0.0215765 0.00232124  -0.0143446 -0.0180046 0.00316477  -0.0201076 -0.0202111 0.00315285  -0.0190561 -0.0223471 0.00270271  -0.0171595 -0.0188127 0.00368643  -0.0143244 -0.0184326 0.00237417  -0.0171325 -0.0192559 0.00276423  -0.0264606 -0.0300475 0.00289202  -0.0244085 -0.0260831 0.00398922  -0.0227191 -0.0288537 0.00337219  -0.0191742 -0.0285925 0.00218344  -0.0175922 -0.0245508 0.00299883  -0.0244071 -0.0265241 0.00299883  -0.0227386 -0.0292624 0.00253725  -0.020919 -0.025259 0.00349474  -0.017603 -0.0249669 0.00225258  -0.0209245 -0.025685 0.00262547  -0.0303778 -0.03777 0.00268078  -0.0284312 -0.0333903 0.00370884  -0.0261648 -0.0367074 0.00311661  -0.0221851 -0.0365156 0.00201035  -0.0206672 -0.0320511 0.00278711  -0.0284474 -0.033797 0.0027895  -0.0262036 -0.0370921 0.00234413  -0.0244686 -0.0326665 0.00324869  -0.0207006 -0.0324435 0.0020957  -0.0244973 -0.0330658 0.00244284  -0.0340521 -0.0463446 0.00245285  -0.0322082 -0.0415822 0.00341272  -0.0294195 -0.0454177 0.00285578  -0.0250276 -0.0452773 0.00183916  -0.0235763 -0.0404289 0.00255775  -0.0322457 -0.0419535 0.00256634  -0.0294672 -0.0457646 0.00215006  -0.0278161 -0.0409568 0.00298786  -0.0236257 -0.0407948 0.00192547  -0.0278597 -0.0413262 0.00224543  -0.0374993 -0.0557026 0.00224733  -0.0357649 -0.0505875 0.00312233  -0.0324863 -0.0548907 0.00261211  -0.0277215 -0.0548066 0.00167894  -0.0263368 -0.0496127 0.00234032  -0.0358046 -0.0509304 0.00234699  -0.0325394 -0.0552163 0.00196457  -0.0309744 -0.0500588 0.0027318  -0.0263956 -0.049949 0.00175858  -0.0310253 -0.0503962 0.00205183  -0.0407381 -0.0657681 0.002038  -0.0390981 -0.0603365 0.00285149  -0.0353823 -0.0650809 0.00237036  -0.0302694 -0.0650448 0.00152063  -0.0289479 -0.0595296 0.00213242  -0.0391431 -0.0606501 0.00214338  -0.0354354 -0.0653702 0.00178289  -0.0339515 -0.0598962 0.00249243  -0.029013 -0.0598418 0.00160217  -0.0340097 -0.0602082 0.00187016  -0.0437738 -0.0764858 0.00184822  -0.0422319 -0.0707668 0.00258636  -0.03811 -0.0759042 0.00215006  -0.0326837 -0.0759189 0.00137758  -0.0314304 -0.0701224 0.0019331  -0.0422803 -0.0710509 0.00194263  -0.038166 -0.0761711 0.00161314  -0.0367664 -0.0704115 0.00225973  -0.0314919 -0.0704053 0.00145149  -0.0368187 -0.0706959 0.00169611  -0.0466224 -0.0877947 0.00167322  -0.0451711 -0.0818141 0.00233984  -0.0406829 -0.0873233 0.00194359  -0.0349736 -0.0873804 0.00124645  -0.033785 -0.0813261 0.00174904  -0.0452205 -0.0820721 0.00175905  -0.0407389 -0.087559 0.00145626  -0.0394148 -0.0815403 0.00204515  -0.0338427 -0.0815807 0.00131512  -0.0394729 -0.0817968 0.00153542  -0.0492948 -0.0996397 0.00149679  -0.0479343 -0.0934253 0.00210762  -0.0431111 -0.0992675 0.00174475  -0.0371438 -0.0993716 0.00111675  -0.0360183 -0.0930825 0.00157309  -0.0479792 -0.0936559 0.0015831  -0.0431635 -0.0994831 0.00130653  -0.0419133 -0.0932277 0.00184107  -0.0360727 -0.093312 0.00118303  -0.0419683 -0.0934587 0.00138187  -0.0517999 -0.111973 0.00133991  -0.0505258 -0.105542 0.00188875  -0.0453979 -0.111694 0.00155973  -0.0391994 -0.111832 0.00100279  -0.0381337 -0.105338 0.00141096  -0.050567 -0.105749 0.00142288  -0.0454471 -0.111881 0.00116825  -0.0442713 -0.105421 0.00164986  -0.0381858 -0.105545 0.00105906  -0.0443219 -0.105623 0.00123835  -0.0541444 -0.124726 0.00119543  -0.0529504 -0.118117 0.00169086  -0.0475514 -0.12454 0.00138807  -0.0411475 -0.124717 0.000889778  -0.0401345 -0.11804 0.00125837  -0.0529884 -0.1183 0.00126982  -0.0475935 -0.124706 0.00104237  -0.0464902 -0.118059 0.00147295  -0.0401877 -0.118226 0.000944138  -0.0465369 -0.118245 0.00110435  -0.0563369 -0.137868 0.00105143  -0.0552244 -0.131092 0.00149393  -0.0495771 -0.137757 0.00122547  -0.0429937 -0.137973 0.000782967  -0.0420344 -0.131137 0.00111532  -0.0552589 -0.131258 0.00112247  -0.0496161 -0.137907 0.000918388  -0.0485768 -0.131098 0.00130367  -0.0420836 -0.1313 0.000835419  -0.048622 -0.131264 0.0009799  -0.0583804 -0.151344 0.000926495  -0.0573401 -0.144421 0.00131559  -0.0514753 -0.151309 0.00107336  -0.0447342 -0.151556 0.000690937  -0.0438275 -0.144584 0.000980377  -0.0573788 -0.144565 0.000987053  -0.0515158 -0.151437 0.000808239  -0.0505407 -0.144489 0.00114727  -0.0438778 -0.144725 0.000739574  -0.0505793 -0.144632 0.000863552  -0.0602911 -0.16511 0.000794888  -0.0593212 -0.158066 0.00114536  -0.0532625 -0.165147 0.000926495  -0.0463865 -0.165422 0.000593185  -0.0455334 -0.158331 0.000857353  -0.0593526 -0.15819 0.000859261  -0.0532961 -0.165255 0.000695229  -0.0523825 -0.158189 0.00100136  -0.0455723 -0.158458 0.000643253  -0.0524201 -0.158314 0.000751495  -0.0620706 -0.179129 0.000686169  -0.0611656 -0.171981 0.000988007  -0.0549369 -0.179225 0.000796318  -0.0479438 -0.179532 0.000510693  -0.0471387 -0.172339 0.000738144  -0.0611966 -0.17209 0.000741482  -0.0549705 -0.179324 0.000597954  -0.0541155 -0.172152 0.000862122  -0.0471761 -0.172448 0.000555515  -0.0541453 -0.17226 0.000644684  -0.0637267 -0.193358 0.000580788  -0.0628896 -0.186125 0.000844479  -0.0565116 -0.193519 0.000677586  -0.0494192 -0.193843 0.000438213  -0.048656 -0.18657 0.000629902  -0.0629129 -0.186215 0.00063324  -0.0565381 -0.193594 0.000507355  -0.0557365 -0.186341 0.000740051  -0.048691 -0.186663 0.000473022  -0.0557671 -0.186434 0.000552177  -0.0652723 -0.207763 0.000492573  -0.0644872 -0.200464 0.000715256  -0.0579872 -0.207973 0.000567436  -0.0508118 -0.20832 0.000365257  -0.0500958 -0.200985 0.00053072  -0.0645161 -0.200538 0.000534058  -0.0580084 -0.208039 0.000426769  -0.05726 -0.200719 0.000621319  -0.0501246 -0.201064 0.000399113  -0.0572863 -0.200797 0.000466824  -0.0667098 -0.222316 0.00040102  -0.0659785 -0.214959 0.000591278  -0.0593653 -0.222567 0.000463963  -0.0521231 -0.222935 0.000297546  -0.0514505 -0.215547 0.000440121  -0.0660059 -0.215023 0.000444889  -0.0593872 -0.222624 0.000349045  -0.0586891 -0.215251 0.000514507  -0.0514784 -0.215612 0.000332355  -0.0587099 -0.215315 0.000388145  -0.0680428 -0.236974 0.000327587  -0.0673709 -0.229579 0.000481606  -0.0606608 -0.237272 0.000376701  -0.0533676 -0.237657 0.00024271  -0.052731 -0.230231 0.000358105  -0.0673904 -0.229633 0.000359535  -0.0606806 -0.237315 0.000283718  -0.0600245 -0.229903 0.000419617  -0.0527549 -0.230284 0.000270367  -0.0600443 -0.229959 0.000313282  -0.0692918 -0.25172 0.000258446  -0.0686622 -0.244298 0.000384808  -0.0618799 -0.252053 0.000296116  -0.0545437 -0.252452 0.000190258  -0.0539424 -0.245002 0.000284672  -0.0686793 -0.244342 0.000290871  -0.0618975 -0.252087 0.000220776  -0.0612798 -0.24465 0.00033474  -0.0539649 -0.245044 0.000216484  -0.0612991 -0.244694 0.00025034  -0.0704541 -0.266532 0.000185013  -0.0698681 -0.259088 0.000292778  -0.063026 -0.266893 0.00022316  -0.0556674 -0.2673 0.000147343  -0.0550983 -0.259836 0.000221729  -0.0698843 -0.259122 0.000220776  -0.0630407 -0.266914 0.000169754  -0.0624635 -0.259461 0.000260353  -0.0551128 -0.259869 0.000164032  -0.062479 -0.259497 0.000195026  -0.0715454 -0.281374 0.000141621  -0.0710032 -0.273928 0.000217915  -0.0641081 -0.281765 0.000162601  -0.0567293 -0.28218 0.000104904  -0.0561874 -0.274709 0.000164986  -0.0710089 -0.27395 0.000170708  -0.0641208 -0.28178 0.00012207  -0.0635717 -0.27432 0.000194073  -0.0562048 -0.274736 0.000120163  -0.0635881 -0.274345 0.000146866  -0.0725684 -0.296238 9.77516e-05  -0.0720608 -0.288789 0.000158787  -0.065135 -0.296645 0.000114441  -0.0577452 -0.297069 6.96182e-05  -0.0572283 -0.289605 0.000116825  -0.0720642 -0.288807 0.000125408  -0.0651431 -0.296656 8.53539e-05  -0.0646276 -0.289198 0.000135422  -0.0572426 -0.289623 8.72612e-05  -0.0646393 -0.289218 0.000105858  -0.0735424 -0.311101 6.1512e-05  -0.0730531 -0.303658 0.000104904  -0.0661111 -0.311521 7.15256e-05  -0.0587153 -0.311955 4.95911e-05  -0.0582259 -0.304501 7.77245e-05  -0.0730634 -0.303672 8.10623e-05  -0.0661197 -0.311534 5.38826e-05  -0.0656257 -0.304083 8.91685e-05  -0.0582347 -0.304512 5.57899e-05  -0.0656383 -0.304094 6.67572e-05  -0.0744686 -0.325955 3.8147e-05  -0.0740075 -0.31852 6.29425e-05  -0.0670516 -0.326387 4.19617e-05  -0.0596566 -0.326822 2.71797e-05  -0.0591826 -0.31938 4.91142e-05  -0.0740101 -0.318531 4.76837e-05  -0.0670569 -0.326389 3.48091e-05  -0.0665851 -0.318959 5.48363e-05  -0.0591877 -0.319389 3.62396e-05  -0.066591 -0.318962 4.1008e-05  -0.0753691 -0.340784 1.7643e-05  -0.0749168 -0.333366 3.38554e-05  -0.0679626 -0.341223 1.90735e-05  -0.0605719 -0.341656 1.62125e-05  -0.0601091 -0.334235 2.43187e-05  -0.074924 -0.333371 2.81334e-05  -0.0679646 -0.341224 1.43051e-05  -0.0675106 -0.333804 3.09944e-05  -0.0601196 -0.33424 1.7643e-05  -0.0675132 -0.333808 2.52724e-05  -0.0762525 -0.355585 9.53674e-06  -0.075804 -0.348186 1.52588e-05  -0.0688488 -0.356027 2.38419e-06  -0.0614684 -0.356457 -9.53674e-07  -0.0610135 -0.349057 5.72205e-06  -0.0758126 -0.348191 1.19209e-05  -0.0688553 -0.356023 1.43051e-06  -0.0684037 -0.348625 1.19209e-05  -0.0610201 -0.349061 4.76837e-06  -0.0684135 -0.348629 9.53674e-06  -0.0771263 -0.370368 -1.28746e-05  -0.0766733 -0.362978 4.76837e-07  -0.0697327 -0.370803 -1.14441e-05  -0.0623515 -0.371231 -1.28746e-05  -0.0619004 -0.363844 -5.72205e-06  -0.0766907 -0.362978 1.90735e-06  -0.0697374 -0.370803 -8.58307e-06  -0.0692906 -0.363412 -1.90735e-06  -0.0619116 -0.363849 -3.33786e-06  -0.0692971 -0.363414 -2.86102e-06  -0.00138877 -0.00190124 0.00141764  0 0 0  -0.000983611 -0.00146854 0.000825405  -0.000316978 -0.000468075 0.000637531  0 0 0  -0.0013577 -0.0020564 0.00102043  -0.000424352 -0.000818476 0.000783443  0 0 0  -0.000309523 -0.000539124 0.000452518  -0.000411145 -0.000900924 0.000561237  -0.00417814 -0.00515887 0.00229311  -0.00305583 -0.00466688 0.0013485  -0.00197221 -0.00272495 0.00155783  -0.00411209 -0.00544976 0.00167418  -0.00268738 -0.00341015 0.00192308  -0.00192393 -0.00293405 0.00112724  -0.0026328 -0.00364368 0.00139618  -0.0072788 -0.00928418 0.00264883  -0.00552675 -0.00894323 0.00158787  -0.00433964 -0.00637349 0.00203323  -0.00721443 -0.00965364 0.00196362  -0.00573739 -0.00709653 0.00251484  -0.00427663 -0.00668545 0.00149632  -0.00566518 -0.00743522 0.00185108  -0.0102562 -0.0143952 0.00268936  -0.00796357 -0.0141882 0.00161695  -0.00680381 -0.0110696 0.00216627  -0.0102193 -0.0147938 0.00201416  -0.00878873 -0.0117033 0.00269127  -0.00676373 -0.0114423 0.00161409  -0.00873485 -0.0120976 0.00200844  -0.013066 -0.0205311 0.00258064  -0.0102681 -0.0204223 0.00155878  -0.00914299 -0.0167873 0.00212145  -0.0130641 -0.0209348 0.00194216  -0.0116783 -0.0173285 0.00264454  -0.0091356 -0.0171849 0.00159311  -0.0116625 -0.017742 0.00198317  -0.0157268 -0.0276489 0.00241375  -0.0124534 -0.0276052 0.00145674  -0.0113596 -0.0235036 0.00200462  -0.0157534 -0.0280407 0.00181341  -0.0144103 -0.0239632 0.00250101  -0.0113738 -0.0238989 0.00150776  -0.0144273 -0.0243714 0.00188208  -0.0182574 -0.0356715 0.00222826  -0.0145357 -0.03568 0.00134087  -0.0134715 -0.0311518 0.0018568  -0.0183027 -0.0360428 0.00167513  -0.0170055 -0.0315464 0.00232124  -0.0135075 -0.0315351 0.00139618  -0.0170455 -0.031933 0.00174522  -0.0206657 -0.0445379 0.00203753  -0.0165257 -0.0445845 0.00122595  -0.0154899 -0.0396705 0.0017066  -0.020722 -0.0448802 0.00153399  -0.0194774 -0.0399984 0.00213289  -0.0155427 -0.0400323 0.00128269  -0.0195277 -0.0403629 0.00160408  -0.0229672 -0.0541656 0.00186205  -0.0184392 -0.0542515 0.00111866  -0.0174378 -0.0489898 0.0015564  -0.0230263 -0.0544836 0.00139761  -0.021832 -0.0492578 0.00194883  -0.0174909 -0.0493242 0.00117064  -0.0218869 -0.0495902 0.00146437  -0.0251584 -0.064502 0.00169086  -0.0202767 -0.0646171 0.00101423  -0.019307 -0.0590417 0.00141811  -0.0252228 -0.0647895 0.00126982  -0.0240752 -0.0592452 0.0017724  -0.0193682 -0.0593482 0.00106716  -0.0241374 -0.0595553 0.00133085  -0.0272558 -0.0754719 0.00152969  -0.0220463 -0.0756211 0.000917912  -0.021109 -0.0697588 0.00128603  -0.0273168 -0.0757354 0.00115108  -0.0262188 -0.0699031 0.0016098  -0.0211695 -0.07004 0.000965118  -0.0262821 -0.0701871 0.00120783  -0.0292572 -0.0870214 0.00138187  -0.0237514 -0.0871993 0.000823021  -0.0228515 -0.0810817 0.00116205  -0.0293185 -0.0872605 0.00104189  -0.0282677 -0.0811715 0.00145674  -0.022907 -0.0813397 0.000873566  -0.0283278 -0.0814275 0.00109434  -0.0311698 -0.0990975 0.00123882  -0.0253946 -0.0993034 0.000742435  -0.0245274 -0.0929573 0.00104237  -0.0312254 -0.0993104 0.000929832  -0.0302246 -0.0929909 0.00130939  -0.024583 -0.09319 0.000784874  -0.030282 -0.0932222 0.000983238  -0.0329983 -0.111639 0.00111008  -0.0269822 -0.111874 0.000664711  -0.0261409 -0.105325 0.000935078  -0.0330502 -0.111829 0.000835896  -0.032094 -0.105305 0.00117493  -0.0261946 -0.105534 0.000699043  -0.0321478 -0.105515 0.000881195  -0.0347425 -0.124599 0.000986576  -0.0285096 -0.124859 0.000588417  -0.027703 -0.118128 0.000833035  -0.0347919 -0.124767 0.000738621  -0.0338792 -0.118062 0.0010457  -0.0277541 -0.118316 0.000626564  -0.0339299 -0.118248 0.00078392  -0.0364063 -0.137926 0.000869751  -0.0299838 -0.138211 0.000517845  -0.0292075 -0.131323 0.000736713  -0.0364511 -0.138074 0.000652313  -0.0355859 -0.13121 0.000926495  -0.029254 -0.13149 0.000551224  -0.0356305 -0.131375 0.000695229  -0.0379937 -0.151572 0.000765324  -0.0314028 -0.151882 0.000454903  -0.0306559 -0.14486 0.000646114  -0.0380352 -0.151705 0.00056982  -0.0372097 -0.144705 0.000816822  -0.0307 -0.145008 0.00048399  -0.0372522 -0.14485 0.000609398  -0.0395088 -0.1655 0.000662804  -0.0327685 -0.165827 0.000392437  -0.0320547 -0.158691 0.000563145  -0.0395465 -0.165612 0.000500679  -0.0387597 -0.158496 0.00070858  -0.032093 -0.158818 0.000424862  -0.0388002 -0.158623 0.000534058  -0.0409546 -0.17966 0.000566483  -0.0340848 -0.180007 0.000340462  -0.0333993 -0.172778 0.000489235  -0.0409873 -0.179759 0.000426292  -0.0402377 -0.172545 0.000614643  -0.0334315 -0.172888 0.000367641  -0.0402768 -0.172656 0.000462055  -0.04233 -0.194025 0.000479698  -0.0353544 -0.194384 0.000286102  -0.0346947 -0.187077 0.000415802  -0.0423574 -0.194105 0.000361919  -0.0416474 -0.186812 0.00052309  -0.034723 -0.187171 0.000312328  -0.0416801 -0.186908 0.000392914  -0.0436404 -0.208548 0.000401974  -0.0365698 -0.208922 0.00024128  -0.0359399 -0.201552 0.000348091  -0.0436654 -0.208614 0.000302792  -0.0429943 -0.201263 0.000439167  -0.0359683 -0.201633 0.000259876  -0.0430202 -0.201339 0.000331402  -0.0448875 -0.223201 0.000329494  -0.0377452 -0.22359 0.000195026  -0.0371385 -0.216172 0.000288963  -0.0449147 -0.223257 0.000250816  -0.0442712 -0.215854 0.000368118  -0.037163 -0.21624 0.000217438  -0.044297 -0.215921 0.000275135  -0.046082 -0.237957 0.000265121  -0.0388744 -0.238355 0.000160217  -0.0382948 -0.230903 0.000235558  -0.046104 -0.238002 0.000197887  -0.0454922 -0.230565 0.000300407  -0.0383124 -0.230961 0.000177383  -0.045517 -0.230617 0.000221729  -0.0472221 -0.252785 0.000207901  -0.0399628 -0.25319 0.000123501  -0.0394061 -0.245716 0.000185013  -0.0472391 -0.252817 0.000155449  -0.046659 -0.245354 0.000236034  -0.0394244 -0.245762 0.000137806  -0.0466785 -0.245399 0.000174999  -0.0483096 -0.267658 0.000154972  -0.041014 -0.26807 9.53674e-05  -0.0404806 -0.260589 0.000144958  -0.0483243 -0.267683 0.000119209  -0.0477698 -0.260209 0.000183105  -0.0404911 -0.260624 0.000109673  -0.0477879 -0.260244 0.000137329  -0.0493543 -0.282564 0.000117302  -0.0420277 -0.282977 7.15256e-05  -0.0415142 -0.275495 0.000108242  -0.0493658 -0.282576 8.53539e-05  -0.0488381 -0.2751 0.000135422  -0.0415249 -0.275522 8.15392e-05  -0.0488508 -0.275127 0.000104427  -0.0503583 -0.297471 7.86781e-05  -0.0430162 -0.297889 4.81606e-05  -0.0425129 -0.290413 7.72476e-05  -0.0503666 -0.297481 5.91278e-05  -0.0498562 -0.290009 9.53674e-05  -0.0425243 -0.290431 5.81741e-05  -0.0498731 -0.290026 7.20024e-05  -0.0513258 -0.312367 5.29289e-05  -0.0439701 -0.312792 2.76566e-05  -0.0434825 -0.305329 4.95911e-05  -0.0513346 -0.312373 3.91006e-05  -0.0508449 -0.304915 6.1512e-05  -0.043493 -0.305342 3.86238e-05  -0.0508559 -0.304929 4.673e-05  -0.0522671 -0.327247 2.81334e-05  -0.0449028 -0.327669 1.62125e-05  -0.0444295 -0.320225 3.05176e-05  -0.0522742 -0.327246 2.09808e-05  -0.0517993 -0.319804 3.71933e-05  -0.0444379 -0.320233 2.24113e-05  -0.0518088 -0.31981 3.05176e-05  -0.0531805 -0.342083 1.23978e-05  -0.0458128 -0.342517 9.05991e-06  -0.0453546 -0.335089 1.43051e-05  -0.0531886 -0.342087 9.05991e-06  -0.0527294 -0.334661 2.00272e-05  -0.0453594 -0.335096 9.05991e-06  -0.052732 -0.334669 1.4782e-05  -0.0540771 -0.356893 4.76837e-07  -0.0467069 -0.357321 -1.90735e-06  -0.0462534 -0.349919 3.8147e-06  -0.0540814 -0.356891 3.8147e-06  -0.0536325 -0.349487 6.19888e-06  -0.0462594 -0.349923 0  -0.053638 -0.349491 2.38419e-06  -0.0549648 -0.371663 -1.57356e-05  -0.0475948 -0.372088 -1.23978e-05  -0.0471444 -0.364706 -9.05991e-06  -0.0549691 -0.37166 -9.53674e-06  -0.0545192 -0.364274 -5.72205e-06  -0.0471504 -0.364706 -9.05991e-06  -0.0545254 -0.364279 -6.67572e-06  -0.000707366 -0.000955135 0.000864029  0 0 0  -0.000423595 -0.000838488 0.000416279  -0.000137899 -0.000103146 0.000323772  0 0 0  -0.000685245 -0.00108343 0.000619888  -0.000215862 -0.000239909 0.000482082  0 0 0  -0.000131976 -0.000156701 0.000229359  -0.000207704 -0.000300944 0.000339508  -0.00221784 -0.003869 0.00140238  -0.00136484 -0.00374466 0.00068903  -0.000868991 -0.001941 0.000789642  -0.00217371 -0.00410596 0.00102186  -0.00139271 -0.00224793 0.00117636  -0.000845656 -0.00211561 0.000571728  -0.00135821 -0.00243527 0.000850677  -0.00403738 -0.00808826 0.00161743  -0.00254935 -0.00804511 0.000808716  -0.0019736 -0.0054872 0.00102901  -0.0039947 -0.00840381 0.00119543  -0.00311354 -0.00583583 0.00153542  -0.00194371 -0.00575915 0.000758648  -0.00306845 -0.00612888 0.00112963  -0.00584722 -0.013368 0.00163078  -0.00377885 -0.0134304 0.000823498  -0.0031876 -0.0102738 0.00110102  -0.0058285 -0.0137318 0.00122309  -0.00495222 -0.0105904 0.00163555  -0.00316668 -0.0106105 0.000822544  -0.0049215 -0.0109442 0.0012207  -0.00757331 -0.0196619 0.00155878  -0.00497323 -0.0197991 0.000787735  -0.00438052 -0.016122 0.00107384  -0.00757867 -0.0200431 0.00117111  -0.0067184 -0.0163857 0.00159836  -0.00438094 -0.0164939 0.000807762  -0.00671387 -0.0167677 0.00120211  -0.0092274 -0.0269157 0.00145435  -0.00613207 -0.0271022 0.000732422  -0.00553626 -0.022956 0.00101089  -0.00925457 -0.0272927 0.00109339  -0.00840914 -0.0231661 0.00150728  -0.00555503 -0.0233353 0.000760078  -0.0084253 -0.0235527 0.00113583  -0.0108259 -0.035064 0.00133991  -0.0072667 -0.035284 0.000669956  -0.0066722 -0.0307113 0.000929832  -0.0108661 -0.0354271 0.0010066  -0.010034 -0.0308726 0.00139523  -0.00670177 -0.0310846 0.000701427  -0.0100682 -0.0312518 0.00104952  -0.0123759 -0.0440467 0.0012269  -0.00839156 -0.0442863 0.000616074  -0.00779396 -0.0393287 0.000853062  -0.0124227 -0.0443873 0.000923634  -0.0116082 -0.0394488 0.00127983  -0.00782949 -0.0396851 0.00064373  -0.011649 -0.039806 0.000963688  -0.0138855 -0.0537904 0.00111294  -0.00950766 -0.0540499 0.000553608  -0.00890458 -0.0487442 0.000777245  -0.013939 -0.0541067 0.000838757  -0.0131348 -0.0488163 0.00116825  -0.00894988 -0.0490776 0.000585556  -0.0131847 -0.0491527 0.000876904  -0.0153642 -0.0642323 0.00100899  -0.0106174 -0.0645127 0.000503063  -0.0100201 -0.0588903 0.000704765  -0.0154155 -0.0645253 0.000761032  -0.0146295 -0.0589209 0.00106144  -0.010064 -0.0591975 0.000530243  -0.0146821 -0.0592296 0.000797272  -0.0168047 -0.0753083 0.00091362  -0.0117246 -0.0756066 0.000449181  -0.0111287 -0.0696984 0.000633717  -0.0168544 -0.0755773 0.000684738  -0.0160869 -0.0696896 0.00096035  -0.0111722 -0.0699834 0.00047636  -0.0161378 -0.0699731 0.00071907  -0.0182137 -0.0869676 0.000824451  -0.0128325 -0.0872789 0.00039959  -0.012235 -0.0811157 0.00056839  -0.0182619 -0.0872037 0.000617027  -0.0175118 -0.0810635 0.00086689  -0.0122796 -0.0813738 0.0004282  -0.017563 -0.0813224 0.000649929  -0.0195935 -0.0991402 0.000736237  -0.0139349 -0.0994666 0.000368595  -0.013345 -0.0930776 0.000513554  -0.0196373 -0.0993552 0.000553131  -0.0189075 -0.0929856 0.000777721  -0.0133821 -0.0933107 0.000388145  -0.0189534 -0.0932173 0.000583649  -0.0209382 -0.111777 0.000655651  -0.0150337 -0.112117 0.00031662  -0.0144452 -0.105528 0.000456333  -0.0209813 -0.111969 0.000490665  -0.0202682 -0.105398 0.000694752  -0.0144867 -0.105737 0.000339508  -0.0203131 -0.105607 0.00052166  -0.022252 -0.124826 0.000581264  -0.016129 -0.125177 0.000286579  -0.0155447 -0.118412 0.000406742  -0.0222937 -0.124994 0.00043869  -0.0215994 -0.118246 0.000618935  -0.0155832 -0.118598 0.000303745  -0.0216421 -0.118432 0.000464439  -0.0235381 -0.138237 0.0005126  -0.0172135 -0.138601 0.000251293  -0.0166389 -0.131678 0.000356197  -0.0235751 -0.138384 0.000384808  -0.022898 -0.13148 0.000549316  -0.0166706 -0.131847 0.000268936  -0.0229379 -0.131646 0.000410557  -0.0247917 -0.151959 0.000449657  -0.0182922 -0.152338 0.000217438  -0.0177195 -0.145281 0.000314236  -0.0248263 -0.152092 0.000337124  -0.024168 -0.145051 0.000480652  -0.0177541 -0.145432 0.000236511  -0.0242043 -0.145199 0.000358105  -0.026016 -0.165951 0.000389576  -0.0193591 -0.166343 0.000194073  -0.0188046 -0.159178 0.000268936  -0.0260453 -0.166069 0.000291348  -0.0254076 -0.158917 0.000416756  -0.0188265 -0.159307 0.000204086  -0.0254376 -0.159049 0.000315189  -0.0272043 -0.180181 0.000333309  -0.0204163 -0.180579 0.000158787  -0.0198655 -0.173321 0.000232697  -0.0272315 -0.180281 0.000247002  -0.0266097 -0.173036 0.000361919  -0.0198877 -0.173434 0.000174999  -0.0266445 -0.173146 0.000272274  -0.0283628 -0.1946 0.000282288  -0.0214598 -0.195006 0.000134468  -0.0209167 -0.187674 0.000199318  -0.0283902 -0.194683 0.000212669  -0.0277872 -0.187363 0.000307083  -0.0209394 -0.18777 0.000150204  -0.0278146 -0.187457 0.000228405  -0.0294933 -0.209175 0.000234604  -0.022491 -0.20959 0.000113964  -0.0219607 -0.202195 0.000164986  -0.029516 -0.209249 0.00017643  -0.0289302 -0.201863 0.000256062  -0.0219777 -0.202277 0.000121117  -0.0289574 -0.201945 0.000194073  -0.0305934 -0.223879 0.000193119  -0.0235064 -0.224294 9.34601e-05  -0.0229843 -0.216857 0.000137329  -0.0306108 -0.223931 0.000144958  -0.0300472 -0.216505 0.000212193  -0.0230033 -0.216925 0.000103474  -0.0300677 -0.216574 0.000159264  -0.0316598 -0.238672 0.000151157  -0.0245078 -0.23909 6.96182e-05  -0.0239928 -0.231623 0.000110149  -0.0316782 -0.238716 0.000112057  -0.0311294 -0.231255 0.000172615  -0.024008 -0.231681 8.2016e-05  -0.031148 -0.231315 0.0001297  -0.0327029 -0.253531 0.000122547  -0.0254943 -0.253955 5.62668e-05  -0.024987 -0.246469 8.39233e-05  -0.0327182 -0.253568 9.44138e-05  -0.0321853 -0.246087 0.000137806  -0.0250044 -0.246516 6.4373e-05  -0.0322008 -0.246134 0.000101566  -0.0337162 -0.268436 9.29832e-05  -0.026463 -0.268861 4.57764e-05  -0.0259714 -0.261368 6.77109e-05  -0.0337307 -0.268463 6.67572e-05  -0.0332134 -0.260974 0.000106812  -0.0259807 -0.261403 4.81606e-05  -0.0332282 -0.26101 7.82013e-05  -0.0347073 -0.283361 6.67572e-05  -0.0274165 -0.283788 2.76566e-05  -0.0269294 -0.276295 4.86374e-05  -0.0347159 -0.283379 4.95911e-05  -0.034215 -0.275893 7.48634e-05  -0.0269418 -0.276322 3.76701e-05  -0.0342262 -0.275918 5.81741e-05  -0.0356708 -0.29829 4.62532e-05  -0.0283577 -0.298717 2.19345e-05  -0.0278788 -0.291231 3.33786e-05  -0.0356772 -0.298301 3.43323e-05  -0.0351918 -0.290819 5.48363e-05  -0.0278888 -0.291251 2.86102e-05  -0.0351989 -0.290839 4.00543e-05  -0.0366099 -0.313205 2.95639e-05  -0.0292773 -0.313633 1.4782e-05  -0.0288167 -0.306161 2.14577e-05  -0.0366211 -0.31321 2.28882e-05  -0.0361438 -0.305743 3.43323e-05  -0.0288184 -0.306175 1.7643e-05  -0.0361514 -0.305755 2.86102e-05  -0.0375373 -0.328093 1.62125e-05  -0.030189 -0.328522 3.8147e-06  -0.029732 -0.321069 1.33514e-05  -0.0375426 -0.328095 1.04904e-05  -0.0370734 -0.320644 2.19345e-05  -0.0297365 -0.32108 9.05991e-06  -0.0370827 -0.320655 1.52588e-05  -0.0384433 -0.342947 4.76837e-06  -0.0310869 -0.343373 2.38419e-06  -0.0306342 -0.335943 6.19888e-06  -0.0384457 -0.342946 3.33786e-06  -0.0379927 -0.335515 1.09673e-05  -0.0306394 -0.335952 5.72205e-06  -0.0379944 -0.335523 7.15256e-06  -0.0393345 -0.357752 -3.33786e-06  -0.0319767 -0.358182 -9.53674e-07  -0.0315309 -0.35078 9.53674e-07  -0.0393367 -0.357752 -2.86102e-06  -0.0388882 -0.350348 4.76837e-07  -0.0315318 -0.350783 1.43051e-06  -0.0388949 -0.350354 -4.76837e-07  -0.0402176 -0.372507 -1.33514e-05  -0.0328538 -0.372942 -3.8147e-06  -0.0324125 -0.365562 -6.19888e-06  -0.0402224 -0.372511 -1.09673e-05  -0.0397754 -0.365136 -7.15256e-06  -0.0324175 -0.365567 0  -0.0397778 -0.365135 -7.15256e-06  -0.000193946 -0.000607729 0.000287056  0 0 0  3.65078e-05 -0.000694454 -4.76837e-07  1.18315e-05 -2.25008e-05 -3.8147e-06  0 0 0  -0.000192039 -0.000715375 0.000204086  -6.14785e-05 -3.38554e-05 0.000160217  0 0 0  1.16751e-05 -6.90818e-05 -4.76837e-06  -5.92582e-05 -8.25822e-05 0.00011301  -0.000630409 -0.00334808 0.000469685  9.9808e-05 -0.00352627 -7.15256e-06  7.47591e-05 -0.00176322 -6.19888e-06  -0.000621185 -0.00355658 0.000342846  -0.000388905 -0.00178578 0.00039196  6.73234e-05 -0.00192443 -1.43051e-06  -0.000381678 -0.0019502 0.000283241  -0.00119501 -0.0075669 0.000549316  0.000147998 -0.00783879 1.90735e-06  0.000136942 -0.00528759 4.76837e-07  -0.00118741 -0.00785771 0.000408173  -0.000905991 -0.00530574 0.000515461  0.000127345 -0.00554153 4.29153e-06  -0.000893027 -0.00556597 0.000380039  -0.00179803 -0.0129352 0.000552654  0.000149727 -0.0132852 8.58307e-06  0.000170708 -0.010114 5.24521e-06  -0.00179932 -0.0132796 0.000410557  -0.0014939 -0.0101157 0.000554085  0.000154763 -0.0104371 4.29153e-06  -0.00149041 -0.0104405 0.000416279  -0.00240886 -0.0193258 0.000528336  9.37581e-05 -0.0197237 2.86102e-06  0.000146985 -0.0160234 1.09673e-05  -0.00242281 -0.0196936 0.000393867  -0.00209856 -0.0160008 0.000540257  0.000130057 -0.0163836 1.00136e-05  -0.00211072 -0.0163644 0.000406265  -0.00303829 -0.0266626 0.000484943  -2.16365e-05 -0.0270877 6.67572e-06  6.56843e-05 -0.0229156 5.24521e-06  -0.00306284 -0.0270312 0.000370026  -0.00272256 -0.0228711 0.000507355  4.19021e-05 -0.0232911 4.29153e-06  -0.00274229 -0.0232475 0.000384331  -0.00369138 -0.0348917 0.000444889  -0.000204206 -0.0353305 -1.43051e-06  -8.18372e-05 -0.0307325 3.33786e-06  -0.003721 -0.0352521 0.000335217  -0.00336152 -0.0306633 0.00046587  -0.000104785 -0.0311017 4.76837e-06  -0.00338823 -0.0310345 0.000353813  -0.00437331 -0.0439481 0.000407219  -0.000450552 -0.0443969 -4.76837e-06  -0.000292957 -0.0394106 -1.43051e-06  -0.00440776 -0.0442891 0.000307083  -0.00402796 -0.0393158 0.000424385  -0.000319719 -0.0397635 2.86102e-06  -0.00406015 -0.0396706 0.000320435  -0.00508761 -0.0537734 0.000364304  -0.000767112 -0.0542221 -6.19888e-06  -0.00057745 -0.0488834 -6.19888e-06  -0.00512218 -0.0540882 0.000273705  -0.00472629 -0.0487631 0.000383377  -0.000600696 -0.0492174 -6.67572e-06  -0.00475919 -0.0490993 0.000290394  -0.00583279 -0.0642966 0.00032711  -0.00114441 -0.0647438 -9.53674e-06  -0.000921011 -0.0590916 -1.14441e-05  -0.00586903 -0.0645868 0.000245094  -0.00545502 -0.0589426 0.000342846  -0.000948906 -0.059399 -6.67572e-06  -0.0054909 -0.0592533 0.000257492  -0.00660801 -0.0754501 0.000289917  -0.00158441 -0.0759007 -8.10623e-06  -0.00132871 -0.069965 -1.43051e-05  -0.00664008 -0.0757129 0.000219345  -0.00621819 -0.0697895 0.000304699  -0.0013572 -0.0702462 -1.14441e-05  -0.00625265 -0.0700744 0.000230312  -0.00741255 -0.0871818 0.000261307  -0.00208306 -0.0876329 -1.57356e-05  -0.00180006 -0.0814401 -1.52588e-05  -0.0074445 -0.0874206 0.00019598  -0.00700617 -0.0812405 0.000276566  -0.00182378 -0.0816972 -1.43051e-05  -0.00703847 -0.0814965 0.000207901  -0.00824082 -0.0994242 0.000231266  -0.00263309 -0.0998773 -1.57356e-05  -0.00232756 -0.0934589 -2.0504e-05  -0.00827253 -0.0996396 0.000174999  -0.00782347 -0.0932347 0.000246048  -0.00235009 -0.0936936 -1.38283e-05  -0.00785661 -0.0934674 0.00018692  -0.00909436 -0.112128 0.000203609  -0.00323737 -0.112581 -1.66893e-05  -0.00290501 -0.105964 -2.0504e-05  -0.00912416 -0.112321 0.000153065  -0.00866616 -0.105714 0.000216484  -0.00292802 -0.106177 -1.57356e-05  -0.00869441 -0.105927 0.000162601  -0.00996804 -0.12524 0.000178814  -0.00388527 -0.125694 -1.66893e-05  -0.00353289 -0.118903 -2.09808e-05  -0.00999701 -0.12541 0.000135899  -0.0095278 -0.11863 0.000191689  -0.00355637 -0.119091 -1.33514e-05  -0.00955868 -0.118818 0.000143051  -0.0108627 -0.138703 0.000156879  -0.00457549 -0.139165 -1.62125e-05  -0.0042026 -0.132221 -2.19345e-05  -0.0108857 -0.138861 0.000118256  -0.0104131 -0.131924 0.000168324  -0.00422668 -0.132387 -1.66893e-05  -0.0104383 -0.132093 0.000126839  -0.0117669 -0.152487 0.000132084  -0.00530338 -0.152945 -1.95503e-05  -0.00491166 -0.14587 -2.52724e-05  -0.0117893 -0.152622 0.000101089  -0.0113142 -0.145556 0.000145435  -0.0049355 -0.146019 -1.62125e-05  -0.0113351 -0.145704 0.000110149  -0.0126827 -0.166534 0.000115395  -0.00606298 -0.166993 -1.90735e-05  -0.00566268 -0.159808 -2.3365e-05  -0.0127017 -0.166651 8.7738e-05  -0.0122223 -0.159473 0.000123978  -0.00567746 -0.159939 -1.90735e-05  -0.0122452 -0.159604 9.25064e-05  -0.0136099 -0.180808 9.44138e-05  -0.00684953 -0.181264 -1.7643e-05  -0.00643802 -0.17399 -2.43187e-05  -0.0136256 -0.180906 7.15256e-05  -0.0131414 -0.173639 0.000105381  -0.00645304 -0.174103 -1.90735e-05  -0.0131624 -0.173752 7.9155e-05  -0.0145421 -0.195265 7.96318e-05  -0.00766563 -0.195726 -1.04904e-05  -0.0072422 -0.188373 -2.00272e-05  -0.0145552 -0.195353 6.1512e-05  -0.0140743 -0.188009 9.20296e-05  -0.0072546 -0.188474 -1.4782e-05  -0.014091 -0.188108 6.58035e-05  -0.0154738 -0.209881 6.24657e-05  -0.00849676 -0.210338 -1.66893e-05  -0.00806832 -0.202931 -1.81198e-05  -0.0154891 -0.209952 5.00679e-05  -0.0150058 -0.202552 7.39098e-05  -0.00807881 -0.203013 -1.19209e-05  -0.0150223 -0.202634 5.34058e-05  -0.0164101 -0.224612 5.19753e-05  -0.00934505 -0.225066 -1.23978e-05  -0.00891185 -0.217617 -1.85966e-05  -0.0164213 -0.22467 4.19617e-05  -0.0159407 -0.217227 5.96046e-05  -0.0089221 -0.217688 -1.28746e-05  -0.0159545 -0.217297 4.72069e-05  -0.0173478 -0.239432 4.05312e-05  -0.0102103 -0.239885 -1.4782e-05  -0.00977135 -0.232407 -1.52588e-05  -0.0173531 -0.239477 2.95639e-05  -0.0168762 -0.232006 4.76837e-05  -0.00977468 -0.232464 -1.14441e-05  -0.0168881 -0.232064 3.43323e-05  -0.0182765 -0.254313 3.19481e-05  -0.0110841 -0.254769 -1.43051e-05  -0.010639 -0.247273 -1.43051e-05  -0.0182872 -0.254356 1.95503e-05  -0.0178106 -0.246864 3.33786e-05  -0.0106456 -0.24732 -1.23978e-05  -0.0178199 -0.246911 2.81334e-05  -0.0192053 -0.269245 2.24113e-05  -0.011966 -0.269688 -3.8147e-06  -0.0115161 -0.262186 -1.23978e-05  -0.0192103 -0.269271 1.23978e-05  -0.0187402 -0.261773 2.71797e-05  -0.0115259 -0.262225 -8.10623e-06  -0.0187485 -0.261809 2.00272e-05  -0.0201242 -0.284182 1.52588e-05  -0.0128486 -0.284627 -1.04904e-05  -0.0124047 -0.277126 -1.23978e-05  -0.0201297 -0.284202 1.28746e-05  -0.0196624 -0.276704 1.7643e-05  -0.012408 -0.277155 -1.14441e-05  -0.019671 -0.276734 1.4782e-05  -0.0210381 -0.299124 9.53674e-06  -0.0137353 -0.299565 -4.29153e-06  -0.0132871 -0.292073 -7.62939e-06  -0.0210409 -0.299137 4.29153e-06  -0.0205829 -0.291648 1.19209e-05  -0.0132909 -0.292096 -6.67572e-06  -0.0205843 -0.29167 1.04904e-05  -0.021946 -0.314055 6.19888e-06  -0.0146196 -0.314486 -1.43051e-06  -0.0141768 -0.307011 -7.15256e-06  -0.0219457 -0.314058 5.72205e-06  -0.0214922 -0.306583 5.72205e-06  -0.0141776 -0.307028 -5.72205e-06  -0.0214946 -0.3066 4.76837e-06  -0.0228422 -0.328945 2.86102e-06  -0.0155025 -0.329384 -7.62939e-06  -0.0150595 -0.321929 -3.8147e-06  -0.0228443 -0.328949 4.76837e-07  -0.0223927 -0.321496 4.29153e-06  -0.0150599 -0.321937 -2.38419e-06  -0.0223966 -0.321507 4.76837e-06  -0.0237358 -0.343805 -4.76837e-07  -0.016386 -0.344239 -3.33786e-06  -0.0159466 -0.336811 -4.29153e-06  -0.0237372 -0.343804 0  -0.023289 -0.336375 9.53674e-07  -0.0159435 -0.336813 -4.29153e-06  -0.0232923 -0.336381 0  -0.024617 -0.358613 4.76837e-07  -0.0172622 -0.359051 9.53674e-07  -0.0168262 -0.351643 -1.90735e-06  -0.0246158 -0.358615 -2.86102e-06  -0.0241785 -0.351211 -2.86102e-06  -0.0168228 -0.351645 4.76837e-07  -0.0241778 -0.351213 0  -0.0254936 -0.373367 -5.72205e-06  -0.0181351 -0.373799 4.76837e-07  -0.0176985 -0.366425 0  -0.0254967 -0.37337 -3.8147e-06  -0.0250552 -0.365993 -4.29153e-06  -0.0176992 -0.366429 2.86102e-06  -0.0250573 -0.365997 -4.76837e-07  0.000275299 -0.000668406 -0.000302792  0 0 0  0.000497535 -0.000950515 -0.000420094  0.000160471 -0.000169635 -0.000335693  0 0 0  0.000261873 -0.000770807 -0.000214577  8.44896e-05 -6.51479e-05 -0.000172138  0 0 0  0.000152603 -0.000219226 -0.000236511  8.03247e-05 -0.00011462 -0.00012207  0.000849515 -0.00345051 -0.000477314  0.00156629 -0.00394368 -0.000683784  0.00101581 -0.00210679 -0.000797749  0.000822842 -0.00365597 -0.000346184  0.000537932 -0.00187027 -0.000406742  0.000981316 -0.00227767 -0.000575542  0.000516996 -0.00203294 -0.000290871  0.00151148 -0.00770634 -0.000534058  0.00283852 -0.00831354 -0.000788689  0.00224334 -0.00572789 -0.00102282  0.00148019 -0.0079903 -0.000394344  0.00118074 -0.00542706 -0.00051403  0.00219756 -0.00599265 -0.000751972  0.00115082 -0.00568521 -0.000375748  0.0021224 -0.0131058 -0.000532627  0.00406188 -0.0137609 -0.000801563  0.00351679 -0.0105813 -0.00107527  0.0020932 -0.0134461 -0.00039959  0.00182724 -0.0102706 -0.000538826  0.00346413 -0.0109099 -0.000799179  0.00179771 -0.0105929 -0.000400543  0.00263202 -0.0195262 -0.000506401  0.00513983 -0.0201961 -0.000763416  0.00465661 -0.0164914 -0.0010457  0.00260806 -0.0198895 -0.000378609  0.00239038 -0.0161856 -0.000522137  0.00462145 -0.0168551 -0.000778675  0.00236422 -0.0165474 -0.000389099  0.00303191 -0.0268966 -0.00047636  0.00605959 -0.0275695 -0.000723362  0.00564814 -0.0233892 -0.000988007  0.00300789 -0.0272675 -0.000356197  0.00284618 -0.0230895 -0.000491619  0.00561869 -0.0237666 -0.000742912  0.00282174 -0.0234636 -0.000370026  0.00332296 -0.0351682 -0.000443459  0.00682831 -0.0358289 -0.000668049  0.0064792 -0.0312205 -0.00092268  0.00330478 -0.0355245 -0.000329971  0.00319207 -0.0309185 -0.000460625  0.00645924 -0.0315903 -0.000693321  0.00317073 -0.0312871 -0.000345707  0.0035131 -0.0442673 -0.000415325  0.00745094 -0.0449204 -0.000619888  0.00716782 -0.03992 -0.000855446  0.00349283 -0.0446045 -0.000309467  0.00342995 -0.0396116 -0.000427246  0.00715804 -0.0402742 -0.000641823  0.00341243 -0.0399666 -0.000321388  0.00359631 -0.0541341 -0.000380516  0.00793779 -0.0547742 -0.000566483  0.0077213 -0.0494184 -0.000788689  0.00358045 -0.0544512 -0.000286102  0.00356925 -0.0491012 -0.000400066  0.00770986 -0.0497528 -0.000590324  0.00354934 -0.0494358 -0.000299454  0.00358701 -0.0647001 -0.000352859  0.00829566 -0.0653254 -0.00052309  0.00813925 -0.0596559 -0.000724316  0.00356877 -0.0649895 -0.000267029  0.00360501 -0.0593268 -0.000370502  0.00813413 -0.0599619 -0.000545502  0.00358498 -0.0596346 -0.000274658  0.00347781 -0.0758995 -0.000325203  0.00852418 -0.0765134 -0.000477314  0.00843561 -0.070559 -0.00066328  0.00346553 -0.0761682 -0.000243187  0.00354469 -0.0702186 -0.000339031  0.00842607 -0.0708409 -0.000496387  0.00352824 -0.0705025 -0.000254154  0.00328684 -0.0876724 -0.000302792  0.00863802 -0.0882734 -0.000442028  0.00860357 -0.0820652 -0.000607491  0.00327241 -0.0879162 -0.000226021  0.00339496 -0.0817127 -0.000313759  0.00859594 -0.0823226 -0.000456333  0.00337899 -0.0819713 -0.00023365  0.00301039 -0.099965 -0.000275135  0.00864077 -0.100552 -0.000394344  0.00865877 -0.094115 -0.000554085  0.00299716 -0.100181 -0.000205994  0.00315905 -0.0937522 -0.000290394  0.00865364 -0.0943505 -0.000414848  0.00314391 -0.0939872 -0.000216961  0.00265741 -0.112708 -0.00025034  0.00853741 -0.113285 -0.000356197  0.00860333 -0.10665 -0.000500679  0.00264549 -0.112905 -0.000187874  0.00284553 -0.106274 -0.00026226  0.00860095 -0.106862 -0.000370979  0.00283134 -0.106487 -0.000198364  0.00223005 -0.125859 -0.000226021  0.00833189 -0.126424 -0.000321388  0.00845063 -0.119616 -0.000451088  0.0022192 -0.126032 -0.000171661  0.00244927 -0.11923 -0.000236511  0.00844574 -0.119806 -0.000337601  0.00244272 -0.119421 -0.000176907  0.00173855 -0.139362 -0.000201702  0.00803995 -0.13992 -0.000280857  0.00819981 -0.13296 -0.000402451  0.00172949 -0.139521 -0.000146866  0.00199211 -0.132562 -0.000212669  0.008196 -0.133129 -0.000301838  0.0019834 -0.132733 -0.000160217  0.00118899 -0.153178 -0.000180721  0.00766754 -0.153722 -0.000255585  0.00786734 -0.146635 -0.000357151  0.00117826 -0.153313 -0.000134468  0.00146914 -0.146232 -0.000189304  0.00786471 -0.146784 -0.000269413  0.00146484 -0.146378 -0.000143528  0.000580311 -0.167254 -0.00015831  0.00721407 -0.16779 -0.000219345  0.00745201 -0.160593 -0.000313282  0.00057435 -0.167375 -0.000121593  0.000889301 -0.160182 -0.000168324  0.00744867 -0.160726 -0.000233173  0.000883341 -0.160313 -0.000128269  -7.4625e-05 -0.181554 -0.00014019  0.00669718 -0.182079 -0.000191689  0.00696802 -0.174794 -0.000275135  -8.01086e-05 -0.181656 -0.000104904  0.000258684 -0.174374 -0.000151157  0.00696278 -0.174908 -0.000207424  0.00025177 -0.174487 -0.000111103  -0.000773907 -0.196041 -0.000119686  0.00611496 -0.196553 -0.000162601  0.00641227 -0.189196 -0.000238419  -0.000776768 -0.196127 -8.82149e-05  -0.000417233 -0.18877 -0.000128269  0.00641394 -0.189296 -0.000178337  -0.000424385 -0.18887 -9.87053e-05  -0.001508 -0.21067 -0.000105381  0.00548053 -0.211178 -0.000139713  0.00580335 -0.203764 -0.00020504  -0.00151181 -0.210746 -8.15392e-05  -0.00113654 -0.203332 -0.000112057  0.00580478 -0.203848 -0.000155926  -0.00113845 -0.203418 -8.15392e-05  -0.00227594 -0.22542 -8.7738e-05  0.00479674 -0.225916 -0.000121117  0.00514555 -0.218464 -0.000171185  -0.00227904 -0.225481 -6.53267e-05  -0.00188923 -0.218027 -9.29832e-05  0.00514221 -0.218535 -0.000127316  -0.0018909 -0.218102 -7.10487e-05  -0.00307178 -0.240261 -7.20024e-05  0.00407648 -0.240745 -9.53674e-05  0.00443935 -0.233263 -0.000144958  -0.00307131 -0.240306 -5.43594e-05  -0.00267243 -0.232824 -7.82013e-05  0.00444221 -0.233323 -0.000108242  -0.00267172 -0.232883 -6.00815e-05  -0.00388694 -0.255157 -6.19888e-05  0.00331712 -0.255634 -7.67708e-05  0.00369906 -0.248136 -0.00011301  -0.00388694 -0.255196 -4.57764e-05  -0.00347638 -0.247695 -6.62804e-05  0.00370002 -0.248183 -8.34465e-05  -0.00347662 -0.247743 -4.86374e-05  -0.00471902 -0.270089 -4.76837e-05  0.002527 -0.270559 -5.91278e-05  0.00292158 -0.263052 -9.34601e-05  -0.0047214 -0.270117 -3.48091e-05  -0.00429964 -0.262613 -5.24521e-05  0.00292611 -0.263094 -7.05719e-05  -0.0043025 -0.262653 -4.1008e-05  -0.00557113 -0.285037 -3.62396e-05  0.00171399 -0.2855 -4.57764e-05  0.00212002 -0.277999 -7.15256e-05  -0.0055685 -0.28506 -3.00407e-05  -0.0051465 -0.277556 -4.33922e-05  0.00212216 -0.278029 -5.38826e-05  -0.00514269 -0.277587 -3.33786e-05  -0.00642824 -0.299985 -2.43187e-05  0.000881672 -0.300441 -3.33786e-05  0.00129962 -0.292949 -5.38826e-05  -0.00642562 -0.299998 -2.09808e-05  -0.00599766 -0.292507 -3.24249e-05  0.00130177 -0.292973 -3.8147e-05  -0.0059967 -0.29253 -2.3365e-05  -0.00729084 -0.314913 -1.71661e-05  3.74317e-05 -0.315363 -2.19345e-05  0.000458002 -0.30789 -3.8147e-05  -0.00729275 -0.31492 -1.33514e-05  -0.00685978 -0.307448 -2.3365e-05  0.000462055 -0.307904 -2.76566e-05  -0.00685954 -0.307463 -1.71661e-05  -0.00816584 -0.329816 -1.00136e-05  -0.000820637 -0.330259 -1.09673e-05  -0.000392437 -0.322802 -2.28882e-05  -0.00816369 -0.32982 -8.58307e-06  -0.00773048 -0.322363 -1.43051e-05  -0.000390768 -0.322814 -1.95503e-05  -0.00772715 -0.322374 -9.05991e-06  -0.00903869 -0.344673 -7.62939e-06  -0.00168395 -0.345112 -7.62939e-06  -0.00125384 -0.337683 -1.23978e-05  -0.00903773 -0.344676 -7.15256e-06  -0.00860381 -0.33724 -9.53674e-06  -0.00125313 -0.337689 -1.19209e-05  -0.00860047 -0.337249 -5.72205e-06  -0.00991035 -0.359485 -1.43051e-06  -0.00254941 -0.359923 -1.43051e-06  -0.00211835 -0.352518 -4.29153e-06  -0.00990987 -0.359484 9.53674e-07  -0.00947738 -0.352078 -1.43051e-06  -0.00211549 -0.352524 -3.33786e-06  -0.00947165 -0.352083 -1.90735e-06  -0.0107782 -0.37423 3.8147e-06  -0.00341582 -0.374675 3.33786e-06  -0.00298572 -0.367302 4.76837e-06  -0.0107768 -0.374232 2.86102e-06  -0.0103457 -0.366864 0  -0.00298595 -0.367305 2.86102e-06  -0.0103438 -0.366867 4.76837e-07  0.000788286 -0.00113738 -0.000870705  0 0 0  0.00105987 -0.00169522 -0.000813484  0.000343531 -0.000603199 -0.000638485  0 0 0  0.000759929 -0.00125235 -0.00062418  0.000242539 -0.000339925 -0.000487804  0 0 0  0.000328809 -0.000669241 -0.000452042  0.000231728 -0.000398219 -0.00034523  0.0024316 -0.00417513 -0.0013895  0.00324681 -0.00505424 -0.00133038  0.0021151 -0.0030458 -0.00154018  0.00237158 -0.00440603 -0.00101089  0.00154062 -0.00249296 -0.0011735  0.00206143 -0.00324506 -0.00111485  0.00149275 -0.00267416 -0.000848293  0.0043363 -0.0084945 -0.00158405  0.00578314 -0.00945663 -0.00154686  0.00459456 -0.00683933 -0.00199413  0.00426951 -0.00880003 -0.00117302  0.00338298 -0.00619727 -0.00151539  0.00451285 -0.00713265 -0.0014658  0.00331467 -0.00647366 -0.00111485  0.00614172 -0.0138674 -0.00159311  0.00819224 -0.0148281 -0.00157833  0.00709057 -0.0116602 -0.0021143  0.00608814 -0.0142217 -0.00118971  0.00526053 -0.0110455 -0.00160027  0.00701514 -0.0120151 -0.00157452  0.00520021 -0.0113848 -0.00119162  0.00774938 -0.0202575 -0.00152493  0.0103647 -0.0212004 -0.0015192  0.00935477 -0.0175102 -0.0020771  0.00771719 -0.0206351 -0.00114393  0.00696868 -0.0169327 -0.00156498  0.00930965 -0.0178909 -0.0015521  0.00692707 -0.0173042 -0.0011754  0.00916433 -0.0276207 -0.00143528  0.0122957 -0.0285361 -0.00142908  0.0113859 -0.0243673 -0.00196695  0.00914681 -0.0279924 -0.00107479  0.00848109 -0.0238199 -0.00147963  0.0113587 -0.02475 -0.00147724  0.00845641 -0.0241948 -0.00111008  0.0103962 -0.0358868 -0.00133228  0.0140001 -0.0367733 -0.0013299  0.0131875 -0.0321706 -0.00183487  0.0103854 -0.0362455 -0.0010004  0.00980359 -0.0316388 -0.00138187  0.0131748 -0.0325443 -0.00137472  0.00978923 -0.032011 -0.00103617  0.0114467 -0.0449943 -0.00122738  0.0154867 -0.045852 -0.00122166  0.0147747 -0.0408549 -0.00169945  0.0114428 -0.0453346 -0.00092268  0.0109415 -0.0403321 -0.0012784  0.0147707 -0.0412122 -0.00127649  0.0109378 -0.0406895 -0.000960827  0.0123299 -0.0548757 -0.00112581  0.0167674 -0.0557006 -0.00112534  0.0161487 -0.0503519 -0.00156355  0.0123279 -0.0551911 -0.000844479  0.0119088 -0.049837 -0.00117826  0.0161508 -0.0506833 -0.0011735  0.0119061 -0.0501693 -0.000883102  0.0130501 -0.065456 -0.00103617  0.0178533 -0.0662543 -0.00102806  0.0173295 -0.0605863 -0.00143576  0.0130486 -0.0657476 -0.000776291  0.0127106 -0.0600732 -0.00108051  0.0173339 -0.0608919 -0.00107574  0.0127088 -0.0603819 -0.000808716  0.0136145 -0.0766706 -0.000943184  0.018751 -0.077445 -0.000945568  0.0183181 -0.0714922 -0.00131273  0.0136141 -0.076937 -0.000704765  0.0133507 -0.0709828 -0.000988483  0.0183244 -0.0717715 -0.000982761  0.0133514 -0.071263 -0.000741482  0.0140288 -0.0884645 -0.000863075  0.0194674 -0.0892103 -0.000854492  0.0191243 -0.0829995 -0.001194  0.0140308 -0.0887054 -0.000647068  0.0138397 -0.0824953 -0.000901699  0.0191286 -0.0832589 -0.0008955  0.0138396 -0.0827526 -0.000677109  0.0143048 -0.100767 -0.000779629  0.0200127 -0.101489 -0.000768185  0.0197507 -0.0950527 -0.00108433  0.0143054 -0.100987 -0.000584602  0.0141859 -0.0945458 -0.00082016  0.0197616 -0.0952882 -0.000813484  0.0141855 -0.0947855 -0.000614643  0.0144454 -0.113528 -0.000700951  0.0204023 -0.114229 -0.000697613  0.0202218 -0.107591 -0.000976086  0.0144476 -0.113726 -0.000521183  0.0143902 -0.107089 -0.000736713  0.0202278 -0.107804 -0.000726223  0.0143927 -0.1073 -0.000553131  0.014465 -0.126693 -0.000631809  0.020642 -0.127372 -0.000622749  0.0205301 -0.12056 -0.000876904  0.014469 -0.126873 -0.000471592  0.0144708 -0.120059 -0.000663757  0.0205415 -0.12075 -0.000655651  0.0144739 -0.12025 -0.000498295  0.0143723 -0.140221 -0.000557423  0.0207424 -0.140867 -0.000553131  0.0207039 -0.133909 -0.000781536  0.0143743 -0.140368 -0.000416756  0.0144311 -0.13341 -0.000594139  0.0207092 -0.134078 -0.000586987  0.0144358 -0.133577 -0.000444412  0.0141711 -0.154043 -0.000492096  0.0207169 -0.154671 -0.000492573  0.0207398 -0.147584 -0.000694275  0.0141752 -0.154176 -0.000368595  0.0142863 -0.147084 -0.000525951  0.020746 -0.147734 -0.000520229  0.014287 -0.147237 -0.000393867  0.0138707 -0.168129 -0.000430584  0.0205693 -0.16874 -0.000422955  0.0206516 -0.161545 -0.000608444  0.0138791 -0.168245 -0.00032568  0.0140331 -0.161049 -0.000462055  0.0206566 -0.161674 -0.000456333  0.0140388 -0.161178 -0.000347137  0.0134869 -0.182434 -0.000374317  0.0203159 -0.183029 -0.000368595  0.0204511 -0.175743 -0.000531197  0.0134919 -0.182536 -0.00028038  0.0136893 -0.175248 -0.000404358  0.0204558 -0.17586 -0.000398636  0.0136952 -0.175367 -0.000302792  0.0130231 -0.196926 -0.000322819  0.0199649 -0.1975 -0.00031662  0.020144 -0.190144 -0.000454426  0.0130262 -0.197012 -0.000239372  0.0132642 -0.189654 -0.000349045  0.0201542 -0.190243 -0.000341892  0.0132689 -0.189753 -0.000261307  0.0124855 -0.211567 -0.000273228  0.0195241 -0.212121 -0.000263691  0.0197487 -0.20471 -0.000387669  0.0124907 -0.211636 -0.00020504  0.012759 -0.204223 -0.000298023  0.0197539 -0.204793 -0.000290871  0.0127685 -0.204307 -0.000221729  0.011883 -0.226316 -0.00022459  0.0190034 -0.226857 -0.00022316  0.019268 -0.219403 -0.00032568  0.0118909 -0.226376 -0.00016737  0.0121939 -0.218921 -0.000248909  0.019274 -0.219473 -0.00024271  0.0121987 -0.218994 -0.000185013  0.0112262 -0.241155 -0.00018549  0.0184162 -0.241679 -0.000183105  0.0187078 -0.234199 -0.000266552  0.0112338 -0.241204 -0.00014019  0.0115623 -0.233723 -0.000203609  0.0187182 -0.234259 -0.000198841  0.0115678 -0.233781 -0.000152588  0.010525 -0.256054 -0.000146866  0.0177639 -0.256561 -0.000144005  0.0180864 -0.249063 -0.000213146  0.0105298 -0.256092 -0.000110626  0.0108826 -0.248588 -0.000165939  0.0180974 -0.249114 -0.000159264  0.0108874 -0.248641 -0.00012207  0.00977993 -0.270986 -0.000117779  0.0170622 -0.27148 -0.000108242  0.0174088 -0.263976 -0.000174046  0.00978518 -0.271013 -9.01222e-05  0.0101581 -0.263509 -0.00013113  0.0174205 -0.264015 -0.000129223  0.0101612 -0.263545 -9.77516e-05  0.00900054 -0.285934 -8.34465e-05  0.0163136 -0.286413 -8.01086e-05  0.0166845 -0.278913 -0.000129223  0.00900602 -0.285952 -6.1512e-05  0.00939703 -0.278454 -0.000101566  0.0166922 -0.278944 -9.72748e-05  0.00939918 -0.278481 -7.77245e-05  0.00819468 -0.30088 -6.29425e-05  0.0155308 -0.301345 -5.53131e-05  0.0159202 -0.293857 -9.39369e-05  0.00819969 -0.300891 -4.14848e-05  0.00859857 -0.293399 -7.43866e-05  0.0159273 -0.293879 -7.00951e-05  0.00860453 -0.293422 -5.53131e-05  0.00736737 -0.3158 -4.19617e-05  0.0147169 -0.316263 -4.00543e-05  0.0151234 -0.30879 -6.4373e-05  0.00737166 -0.315814 -3.05176e-05  0.00778294 -0.308335 -5.14984e-05  0.0151279 -0.308805 -5.24521e-05  0.00778723 -0.308351 -3.95775e-05  0.00652075 -0.330697 -2.6226e-05  0.0138822 -0.331147 -2.3365e-05  0.0142982 -0.323697 -4.05312e-05  0.00652838 -0.330702 -2.09808e-05  0.00694823 -0.323247 -3.43323e-05  0.0143044 -0.323709 -2.95639e-05  0.00695157 -0.323259 -2.43187e-05  0.00566554 -0.34555 -1.14441e-05  0.0130332 -0.345998 -1.33514e-05  0.0134537 -0.338571 -2.3365e-05  0.00566936 -0.345554 -1.09673e-05  0.00609279 -0.338123 -1.81198e-05  0.0134609 -0.338579 -2.14577e-05  0.00609875 -0.338132 -1.43051e-05  0.00480199 -0.360359 1.43051e-06  0.0121729 -0.360805 4.76837e-07  0.0125988 -0.3534 -8.10623e-06  0.00480723 -0.360361 4.76837e-07  0.00523353 -0.352957 -6.19888e-06  0.0126047 -0.353404 -4.29153e-06  0.00523829 -0.352963 -5.72205e-06  0.00394249 -0.37512 1.43051e-05  0.0113125 -0.375565 7.62939e-06  0.0117354 -0.368186 3.8147e-06  0.00394678 -0.375122 1.04904e-05  0.00436926 -0.367743 4.29153e-06  0.0117433 -0.368191 4.29153e-06  0.00437617 -0.367746 5.72205e-06  0.00147569 -0.00218886 -0.00139666  0 0 0  0.00188529 -0.00324357 -0.00118828  0.000595681 -0.00154263 -0.000921726  0 0 0  0.00143787 -0.00233471 -0.00100565  0.000449382 -0.000988662 -0.000776291  0 0 0  0.000582501 -0.00162935 -0.000659466  0.000435457 -0.00106645 -0.000552177  0.00437373 -0.00564128 -0.00224495  0.00548586 -0.00698853 -0.00193596  0.00367041 -0.00480086 -0.00223446  0.00429243 -0.00591236 -0.00163651  0.00283206 -0.0037998 -0.00189018  0.00360309 -0.005045 -0.00162363  0.00276923 -0.00401914 -0.00136995  0.00752711 -0.00992066 -0.00258255  0.0092319 -0.0112246 -0.00226831  0.00748563 -0.00864029 -0.00290489  0.00743759 -0.0102714 -0.00191116  0.00596929 -0.00765723 -0.00245523  0.00738898 -0.00898981 -0.00213957  0.0058769 -0.00797498 -0.00180626  0.0104668 -0.0151924 -0.00261593  0.0127282 -0.016449 -0.0023284  0.0110998 -0.0133121 -0.00311518  0.0103986 -0.0155741 -0.00195456  0.00902948 -0.0124207 -0.00261974  0.0110112 -0.0137047 -0.00232172  0.00894842 -0.0127928 -0.00195265  0.0131379 -0.0215115 -0.00252056  0.0159395 -0.0227113 -0.0022583  0.0144282 -0.0190479 -0.00307608  0.0130957 -0.0218951 -0.00189209  0.0118325 -0.0182166 -0.00258112  0.0143707 -0.0194509 -0.00230598  0.011782 -0.0186082 -0.00193405  0.0155436 -0.0288171 -0.00237083  0.0188529 -0.0299705 -0.00213051  0.0174668 -0.0258242 -0.0029273  0.0155241 -0.0291955 -0.00177956  0.0143756 -0.0250356 -0.00245094  0.0174325 -0.0262182 -0.00219631  0.0143442 -0.0254244 -0.00184011  0.0176954 -0.0370496 -0.00220394  0.0214754 -0.038155 -0.00197935  0.0202173 -0.0335707 -0.00274134  0.0176899 -0.0374106 -0.00165224  0.0166493 -0.0328169 -0.0022893  0.0202016 -0.0339496 -0.00205898  0.0166387 -0.0331907 -0.00171947  0.0196011 -0.046131 -0.00203466  0.0238112 -0.0471911 -0.00182867  0.0226825 -0.0422132 -0.00253534  0.0196049 -0.0464723 -0.0015254  0.0186781 -0.0414827 -0.00211906  0.0226799 -0.04257 -0.00190401  0.018677 -0.041837 -0.00159407  0.0212699 -0.0559919 -0.00186729  0.025876 -0.0570058 -0.00167561  0.0248731 -0.0516716 -0.00232983  0.0212787 -0.0563053 -0.00140142  0.0204651 -0.0509634 -0.00194979  0.0248771 -0.0520049 -0.00175047  0.020472 -0.051296 -0.00146389  0.0227109 -0.0665609 -0.00171089  0.0276747 -0.0675302 -0.00153923  0.0267965 -0.061878 -0.00214052  0.022722 -0.066848 -0.00128555  0.0220191 -0.0611845 -0.00178814  0.0268065 -0.0621848 -0.0016036  0.0220279 -0.0614946 -0.00134182  0.023934 -0.0777661 -0.00155973  0.0292202 -0.078697 -0.00139713  0.0284668 -0.0727538 -0.00195408  0.0239443 -0.0780319 -0.0011692  0.0233527 -0.0720807 -0.0016346  0.028479 -0.0730366 -0.00146484  0.0233599 -0.0723625 -0.00122595  0.0249493 -0.0895501 -0.00141621  0.0305308 -0.0904395 -0.00126743  0.0298954 -0.0842417 -0.00177717  0.0249604 -0.089789 -0.00106287  0.0244682 -0.0835831 -0.0014863  0.0299059 -0.0844986 -0.00133371  0.0244778 -0.08384 -0.00111294  0.0257678 -0.10184 -0.00127697  0.0316159 -0.102696 -0.00114727  0.0310904 -0.0962695 -0.00160885  0.0257772 -0.102058 -0.000961304  0.0253837 -0.0956261 -0.00134897  0.0310972 -0.0965047 -0.0012064  0.0253943 -0.0958603 -0.00100994  0.0263985 -0.114597 -0.0011487  0.0324857 -0.115417 -0.00102901  0.0320677 -0.108791 -0.00145388  0.0264089 -0.114791 -0.000863552  0.0261055 -0.108158 -0.00121403  0.0320765 -0.109 -0.001091  0.026116 -0.108371 -0.000909805  0.0268562 -0.127753 -0.00102854  0.0331558 -0.128538 -0.000919819  0.032835 -0.121741 -0.00130033  0.0268664 -0.127928 -0.000771999  0.0266473 -0.121121 -0.00109005  0.0328453 -0.121928 -0.000976562  0.0266583 -0.12131 -0.000818253  0.0271478 -0.141265 -0.000910759  0.0336382 -0.142014 -0.000818729  0.0334109 -0.135064 -0.00115824  0.0271609 -0.141416 -0.000681877  0.0270236 -0.134459 -0.000969887  0.0334207 -0.135233 -0.000869274  0.0270348 -0.13463 -0.000728607  0.0272923 -0.155082 -0.000806808  0.0339482 -0.155796 -0.000720024  0.0337999 -0.148719 -0.00102568  0.0273063 -0.155213 -0.000607967  0.0272391 -0.148129 -0.000861645  0.0338154 -0.148868 -0.000770569  0.0272496 -0.148277 -0.000646591  0.0272958 -0.169156 -0.000702381  0.0340979 -0.169844 -0.000631332  0.0340319 -0.162657 -0.000901222  0.0273077 -0.169272 -0.000526428  0.0273111 -0.16208 -0.000754356  0.0340443 -0.16279 -0.000674248  0.0273218 -0.162211 -0.000566483  0.027169 -0.183451 -0.000608921  0.0340996 -0.184112 -0.000546455  0.0341039 -0.176836 -0.000780106  0.0271814 -0.183555 -0.000457764  0.0272498 -0.176272 -0.000656605  0.0341165 -0.17695 -0.000584602  0.0272603 -0.176387 -0.00049305  0.0269279 -0.197935 -0.000522137  0.0339611 -0.198563 -0.000464439  0.034034 -0.191217 -0.000671864  0.0269401 -0.198018 -0.000389576  0.0270636 -0.190664 -0.000564575  0.0340452 -0.191315 -0.000500202  0.0270758 -0.190763 -0.000423908  0.0265837 -0.212557 -0.00043869  0.0337029 -0.213161 -0.000393391  0.0338361 -0.205761 -0.00056839  0.0265937 -0.212627 -0.000329494  0.0267694 -0.205222 -0.000480652  0.0338459 -0.205845 -0.000425339  0.0267808 -0.205307 -0.000360012  0.0261362 -0.227297 -0.000364304  0.0333359 -0.227875 -0.000326633  0.0335193 -0.220434 -0.000475407  0.0261497 -0.227357 -0.000276089  0.0263715 -0.21991 -0.000400543  0.033531 -0.220506 -0.000358105  0.0263844 -0.219977 -0.000301361  0.02561 -0.242124 -0.0002985  0.0328689 -0.242678 -0.000264168  0.0330992 -0.235209 -0.000392437  0.0256217 -0.24217 -0.00022316  0.025887 -0.234694 -0.000333309  0.033113 -0.235267 -0.000293255  0.0258961 -0.234753 -0.000247478  0.0250118 -0.257007 -0.000236988  0.0323131 -0.257538 -0.000205517  0.0325909 -0.250058 -0.000313282  0.0250201 -0.257044 -0.000174999  0.025321 -0.249555 -0.000266075  0.0326025 -0.250102 -0.000233173  0.0253305 -0.249599 -0.000199318  0.0243478 -0.271926 -0.000185013  0.0316834 -0.27244 -0.00015831  0.0319953 -0.26495 -0.000247955  0.0243571 -0.271955 -0.000137806  0.0246894 -0.264459 -0.000210285  0.0320053 -0.264985 -0.000187874  0.0246947 -0.264494 -0.00015974  0.0236306 -0.28686 -0.00013876  0.0309894 -0.287357 -0.000123501  0.0313315 -0.279868 -0.000187874  0.0236397 -0.286882 -9.82285e-05  0.0239935 -0.279387 -0.000159264  0.0313454 -0.279897 -0.000147343  0.0240047 -0.279415 -0.000119686  0.0228677 -0.301795 -9.67979e-05  0.030242 -0.302272 -8.29697e-05  0.0306149 -0.294795 -0.000136375  0.0228765 -0.301805 -7.15256e-05  0.0232551 -0.294325 -0.000114441  0.030623 -0.294815 -0.000103951  0.0232635 -0.294344 -8.58307e-05  0.0220673 -0.316709 -6.7234e-05  0.0294499 -0.317174 -5.67436e-05  0.0298429 -0.30971 -9.48906e-05  0.0220757 -0.316717 -4.673e-05  0.0224748 -0.309248 -8.29697e-05  0.0298519 -0.309724 -7.05719e-05  0.0224805 -0.309264 -6.29425e-05  0.0212426 -0.331595 -3.8147e-05  0.0286286 -0.33205 -3.29018e-05  0.0290368 -0.324606 -5.76973e-05  0.02125 -0.331596 -2.86102e-05  0.0216579 -0.32415 -4.91142e-05  0.0290444 -0.324616 -4.673e-05  0.0216656 -0.324161 -3.91006e-05  0.0203972 -0.34644 -2.14577e-05  0.0277848 -0.346889 -1.57356e-05  0.0282025 -0.339469 -3.33786e-05  0.0204041 -0.346443 -1.4782e-05  0.0208218 -0.339017 -2.95639e-05  0.028209 -0.339473 -2.81334e-05  0.0208282 -0.339026 -2.09808e-05  0.019536 -0.36125 -3.33786e-06  0.0269244 -0.361691 -8.10623e-06  0.0273485 -0.354288 -1.57356e-05  0.019546 -0.361245 -2.38419e-06  0.0199668 -0.353843 -1.09673e-05  0.0273554 -0.354293 -1.23978e-05  0.0199766 -0.35385 -8.58307e-06  0.0186739 -0.376013 1.19209e-05  0.0260572 -0.376462 1.57356e-05  0.0264843 -0.369076 6.19888e-06  0.0186825 -0.376014 7.62939e-06  0.0191066 -0.36863 7.15256e-06  0.0264938 -0.36908 4.29153e-06  0.0191131 -0.368636 3.33786e-06  0.00268622 -0.00440222 -0.00191307  0 0 0  0.00381407 -0.00639218 -0.00158262  0.0013399 -0.00362283 -0.00123119  0 0 0  0.00266376 -0.00459039 -0.00137997  0.000806868 -0.00234848 -0.00104284  0 0 0  0.0013494 -0.00376242 -0.000879288  0.000800483 -0.00245076 -0.00074482  0.00701281 -0.0078817 -0.00305986  0.00864047 -0.00948334 -0.00254297  0.00633712 -0.00748068 -0.00294399  0.0069457 -0.00821716 -0.00223255  0.00486848 -0.00604874 -0.00258493  0.00633812 -0.00779378 -0.00214052  0.00482668 -0.00632709 -0.00187874  0.0112463 -0.0119154 -0.00354385  0.0132384 -0.013528 -0.00298309  0.0109836 -0.0109662 -0.0038271  0.0111518 -0.0123128 -0.00262308  0.00914207 -0.0097599 -0.00336647  0.0109176 -0.0113713 -0.00281429  0.00905615 -0.0101389 -0.00247717  0.0152519 -0.0170384 -0.00361586  0.0177678 -0.0185665 -0.00307178  0.0156221 -0.0154647 -0.00411081  0.0151753 -0.0174472 -0.00270319  0.0132863 -0.0143287 -0.00361443  0.0155362 -0.0158972 -0.00305843  0.0131989 -0.0147414 -0.00269032  0.0189499 -0.0232427 -0.00349569  0.0219983 -0.0246978 -0.00298071  0.0199969 -0.0210673 -0.00406456  0.0188977 -0.0236453 -0.00262022  0.0171384 -0.0200003 -0.00357151  0.0199258 -0.0214936 -0.00304461  0.0170764 -0.0204135 -0.0026741  0.0223271 -0.0304702 -0.0032959  0.0258784 -0.0318539 -0.00281715  0.0240285 -0.0277451 -0.0038743  0.0222985 -0.0308568 -0.0024724  0.020676 -0.0267254 -0.00340605  0.0239837 -0.0281503 -0.00290728  0.0206404 -0.0271283 -0.00255346  0.0253875 -0.0386404 -0.00306511  0.0294018 -0.0399575 -0.00262308  0.0277162 -0.0354084 -0.00362492  0.0253734 -0.0390052 -0.00230074  0.0238961 -0.0344365 -0.00318527  0.0276842 -0.0357937 -0.00271845  0.0238755 -0.0348179 -0.00239134  0.0281316 -0.0476717 -0.00282907  0.0325696 -0.0489266 -0.0024147  0.0310482 -0.0439803 -0.0033617  0.0281302 -0.0480097 -0.0021224  0.0267994 -0.0430465 -0.00294876  0.031027 -0.0443374 -0.00252151  0.0267907 -0.0434031 -0.002213  0.0305727 -0.0574858 -0.00260115  0.0353929 -0.0586759 -0.00222445  0.0340363 -0.053381 -0.00309181  0.0305744 -0.0577962 -0.00195122  0.0293889 -0.0524797 -0.00271368  0.0340213 -0.0537081 -0.00232172  0.0293901 -0.0528105 -0.00203514  0.0327185 -0.0680096 -0.00237942  0.0378888 -0.0691464 -0.00203753  0.0366873 -0.0635223 -0.00283813  0.0327252 -0.0682971 -0.00178576  0.0316831 -0.0626568 -0.00249147  0.0366813 -0.0638289 -0.00213337  0.0316848 -0.062962 -0.00186872  0.0345846 -0.0791747 -0.0021677  0.040072 -0.0802599 -0.00185108  0.0390215 -0.0743511 -0.00258875  0.0345917 -0.0794409 -0.00162458  0.0336859 -0.0735139 -0.00227213  0.0390186 -0.0746296 -0.00194168  0.0336928 -0.0737904 -0.00170755  0.0361836 -0.0909199 -0.00196838  0.0419593 -0.0919515 -0.00169182  0.041052 -0.0857842 -0.00235748  0.0361912 -0.0911614 -0.00147486  0.0354171 -0.0849767 -0.002069  0.0410529 -0.0860398 -0.00176811  0.0354236 -0.0852321 -0.00154924  0.037529 -0.103185 -0.00177813  0.0435618 -0.104162 -0.00151825  0.0427928 -0.0977678 -0.00213099  0.0375376 -0.103398 -0.0013361  0.0368912 -0.0969854 -0.00187302  0.0427942 -0.0979978 -0.00159883  0.0368953 -0.097217 -0.00140572  0.038635 -0.115905 -0.00159931  0.0448951 -0.116836 -0.00136948  0.0442618 -0.110241 -0.00192308  0.0386435 -0.116097 -0.00119972  0.038113 -0.109485 -0.00169039  0.0442612 -0.110442 -0.00144482  0.0381211 -0.109692 -0.001266  0.0395143 -0.129028 -0.00142813  0.045978 -0.129914 -0.00121832  0.045467 -0.123144 -0.00172424  0.0395223 -0.1292 -0.00106907  0.0391033 -0.122413 -0.00151348  0.0454663 -0.123327 -0.00129318  0.0391091 -0.122599 -0.00113487  0.0401797 -0.142505 -0.00126743  0.0468256 -0.143345 -0.00107765  0.0464317 -0.136425 -0.0015316  0.0401914 -0.142658 -0.00094986  0.0398731 -0.135719 -0.00134516  0.0464287 -0.136589 -0.00114441  0.0398817 -0.135886 -0.00101089  0.040652 -0.156289 -0.00112009  0.0474544 -0.15709 -0.000955582  0.0471609 -0.150035 -0.00135565  0.0406635 -0.156422 -0.00083828  0.0404408 -0.149356 -0.00119209  0.0471697 -0.150188 -0.00101995  0.0404484 -0.149505 -0.000892639  0.0409417 -0.170339 -0.00097084  0.0478802 -0.171094 -0.000830173  0.0476947 -0.163934 -0.00118732  0.0409517 -0.170452 -0.000729084  0.0408204 -0.163275 -0.00104475  0.0476899 -0.164061 -0.000888824  0.0408304 -0.163407 -0.00078392  0.041064 -0.184599 -0.000841618  0.048121 -0.185321 -0.000720024  0.0480204 -0.178072 -0.00102806  0.0410757 -0.184702 -0.000628948  0.041024 -0.177438 -0.000905037  0.0480235 -0.178182 -0.000771523  0.041034 -0.177547 -0.000679493  0.0410287 -0.19905 -0.000716686  0.0481803 -0.199733 -0.000619411  0.0481641 -0.192409 -0.000883579  0.0410368 -0.199138 -0.000537395  0.0410638 -0.1918 -0.000780106  0.0481737 -0.192505 -0.000662327  0.0410759 -0.191896 -0.00058794  0.0408554 -0.213647 -0.000603676  0.0480847 -0.214293 -0.000518799  0.0481524 -0.206913 -0.000748158  0.0408642 -0.213717 -0.000453472  0.0409598 -0.206325 -0.000661373  0.0481501 -0.206999 -0.000564098  0.0409687 -0.206411 -0.00049448  0.0405562 -0.22836 -0.00050211  0.0478549 -0.228972 -0.000423431  0.0479827 -0.221551 -0.000626087  0.040566 -0.228414 -0.000377655  0.0407212 -0.220984 -0.000551701  0.0479887 -0.221619 -0.000466347  0.0407317 -0.221053 -0.000414371  0.0401471 -0.243155 -0.000408649  0.0474901 -0.243737 -0.000349998  0.0476818 -0.236289 -0.00051403  0.040154 -0.2432 -0.000302315  0.0403657 -0.235742 -0.000451565  0.0476892 -0.236343 -0.000387192  0.040374 -0.235798 -0.000339508  0.0396299 -0.258014 -0.00032568  0.0470104 -0.258564 -0.000279903  0.0472562 -0.2511 -0.000413418  0.0396392 -0.258045 -0.000240803  0.0399005 -0.250575 -0.000362873  0.0472629 -0.251143 -0.000308037  0.0399086 -0.250618 -0.000272274  0.0390277 -0.27291 -0.000247955  0.0464377 -0.273435 -0.000210762  0.0467327 -0.265964 -0.000324726  0.0390396 -0.272934 -0.000187874  0.0393395 -0.265451 -0.000285625  0.0467348 -0.265993 -0.000242233  0.0393484 -0.265485 -0.000216007  0.038357 -0.287823 -0.00018549  0.0457754 -0.288324 -0.00015831  0.0461137 -0.280856 -0.000243664  0.0383658 -0.287838 -0.000141621  0.0387013 -0.280358 -0.000217915  0.0461173 -0.280876 -0.000184059  0.0387106 -0.280385 -0.000162601  0.0376239 -0.302727 -0.000131607  0.0450478 -0.303217 -0.000114441  0.0454202 -0.295753 -0.000176907  0.0376327 -0.302744 -9.82285e-05  0.0379958 -0.295273 -0.000157833  0.0454221 -0.295768 -0.000132084  0.0380046 -0.295289 -0.000117779  0.0368385 -0.317627 -8.7738e-05  0.0442617 -0.318091 -7.43866e-05  0.044663 -0.310642 -0.00012064  0.0368469 -0.317632 -6.58035e-05  0.0372369 -0.310174 -0.000103474  0.0446596 -0.310655 -9.05991e-05  0.0372462 -0.310189 -7.9155e-05  0.0360188 -0.332499 -5.14984e-05  0.0434344 -0.332949 -4.19617e-05  0.043848 -0.325515 -7.62939e-05  0.0360227 -0.332501 -3.86238e-05  0.0364327 -0.325061 -6.91414e-05  0.0438547 -0.325525 -6.24657e-05  0.0364399 -0.32507 -4.91142e-05  0.0351663 -0.347338 -2.57492e-05  0.0425744 -0.347778 -2.38419e-05  0.0430048 -0.340361 -4.33922e-05  0.0351765 -0.347334 -2.09808e-05  0.0355942 -0.339916 -3.8147e-05  0.0430067 -0.340367 -3.24249e-05  0.0356023 -0.339921 -2.71797e-05  0.034301 -0.362134 -6.19888e-06  0.0417087 -0.362573 -1.33514e-05  0.0421288 -0.355171 -2.14577e-05  0.0343106 -0.362136 -4.76837e-06  0.0347371 -0.354732 -1.85966e-05  0.0421412 -0.355179 -1.85966e-05  0.034745 -0.354738 -1.09673e-05  0.033432 -0.376915 1.62125e-05  0.0408263 -0.377353 2.38419e-06  0.0412579 -0.369962 -2.86102e-06  0.033443 -0.376909 8.58307e-06  0.0338645 -0.369522 2.86102e-06  0.0412698 -0.369965 -5.72205e-06  0.0338767 -0.369523 3.8147e-06  -0.00376154 -0.00543077 0.00299978  -0.00134638 -0.00296701 0.0021596  0 0 0  -0.00274633 -0.00330463 0.00335169  0 0 0  -0.00190557 -0.00248352 0.00222969  -0.000626087 -0.0010071 0.00163889  0 0 0  -0.00133147 -0.00316779 0.00169182  -0.00265588 -0.0037256 0.00260019  -0.000842519 -0.00175131 0.00182676  0 0 0  -0.000586491 -0.0011969 0.00125742  -0.000795487 -0.00195033 0.0014205  -0.00867024 -0.00795232 0.00466299  -0.00637798 -0.00585795 0.00503635  -0.00716719 -0.00611684 0.00509167  -0.00552621 -0.00568681 0.00352192  -0.00380744 -0.00350108 0.0037818  -0.00629279 -0.00650205 0.00398111  -0.00699058 -0.00678508 0.00408506  -0.0049817 -0.00459259 0.00439596  -0.00363886 -0.00399045 0.00298786  -0.00483616 -0.00514746 0.00346947  -0.0133746 -0.0116145 0.00529909  -0.0111496 -0.00886016 0.0062294  -0.0113348 -0.00978134 0.00560951  -0.0092271 -0.00957494 0.00398493  -0.00758281 -0.00684174 0.00466919  -0.0110169 -0.00964661 0.00507545  -0.0112108 -0.0105233 0.00463581  -0.009289 -0.00779476 0.00543594  -0.00741386 -0.00749627 0.0038166  -0.00911954 -0.00851396 0.00444221  -0.0179575 -0.0163597 0.00535154  -0.0157622 -0.0130524 0.00647688  -0.0152679 -0.0146541 0.0056138  -0.012689 -0.0145503 0.00401735  -0.0110488 -0.0112218 0.00484419  -0.0156944 -0.0138404 0.00537395  -0.0152396 -0.015388 0.00468063  -0.0133249 -0.0120675 0.00565434  -0.0109797 -0.0119236 0.00403166  -0.0132514 -0.0128136 0.00469875  -0.022314 -0.0222072 0.00513268  -0.0201702 -0.018401 0.00631094  -0.019021 -0.0206504 0.00537348  -0.0159772 -0.0206031 0.00384998  -0.0143427 -0.0167498 0.00472307  -0.0201635 -0.019148 0.00526476  -0.0190592 -0.0213411 0.0044899  -0.0171663 -0.0175132 0.00551176  -0.0143557 -0.0174447 0.00394583  -0.0171751 -0.0182305 0.00460482  -0.0264276 -0.0290797 0.00480509  -0.0243579 -0.0248288 0.00595665  -0.0225963 -0.0276668 0.00502157  -0.0191007 -0.0276623 0.00360727  -0.0174942 -0.023348 0.004457  -0.0244007 -0.0255204 0.00497532  -0.0226766 -0.0283138 0.00420141  -0.0208309 -0.0240285 0.0052042  -0.0175598 -0.0240107 0.00373316  -0.0208928 -0.0247069 0.00435638  -0.0303032 -0.0368791 0.00443983  -0.0283116 -0.0322293 0.00552797  -0.0259954 -0.0356133 0.0046401  -0.0220698 -0.0356431 0.00332546  -0.0205047 -0.0309227 0.00413942  -0.0283948 -0.0328681 0.00462294  -0.0261013 -0.0362117 0.00387859  -0.0243187 -0.0315232 0.00483418  -0.0206025 -0.031544 0.00346708  -0.0244132 -0.0321531 0.00404358  -0.0339502 -0.0455265 0.00407076  -0.0320517 -0.0405217 0.00509071  -0.0292214 -0.0444058 0.00426006  -0.0248898 -0.0444705 0.00305033  -0.0233786 -0.0393791 0.00381088  -0.0321571 -0.041101 0.00425243  -0.0293397 -0.0449529 0.00355864  -0.0276312 -0.0398995 0.00445127  -0.0234976 -0.0399562 0.00319195  -0.0277425 -0.0404816 0.00372314  -0.0373878 -0.0549532 0.00372171  -0.0355939 -0.0496163 0.00465822  -0.0322791 -0.0539685 0.00389624  -0.0275711 -0.0540668 0.00278521  -0.0261188 -0.0486474 0.00349092  -0.0356951 -0.0501493 0.00389433  -0.0324018 -0.0544715 0.00325394  -0.0307683 -0.0490882 0.00407457  -0.026248 -0.0491749 0.00291729  -0.0308924 -0.0496195 0.003407  -0.0406207 -0.0650878 0.0033865  -0.0389206 -0.0594518 0.00425291  -0.0351721 -0.064234 0.00354719  -0.0301174 -0.0643648 0.00253248  -0.0287323 -0.0586481 0.00318575  -0.0390303 -0.0599357 0.00355387  -0.0352944 -0.064691 0.00295544  -0.0337458 -0.059013 0.00372076  -0.0288601 -0.0591302 0.00265598  -0.0338683 -0.0594942 0.00310898  -0.0436574 -0.0758674 0.00306702  -0.042051 -0.069962 0.00386333  -0.0379069 -0.075144 0.00321531  -0.0325354 -0.0753036 0.00229692  -0.0312183 -0.0693176 0.00289106  -0.0421607 -0.0703979 0.0032239  -0.0380269 -0.075554 0.00268173  -0.0365598 -0.0696079 0.0033803  -0.0313436 -0.0697573 0.00241375  -0.0366807 -0.0700447 0.00281954  -0.0465106 -0.0872411 0.0027771  -0.0450048 -0.0810894 0.00349712  -0.0404903 -0.0866361 0.00290442  -0.0348287 -0.086826 0.00207663  -0.0335788 -0.0805962 0.00261879  -0.0451055 -0.0814854 0.00292397  -0.0406027 -0.087006 0.00242567  -0.0392164 -0.0808147 0.00305796  -0.0336967 -0.0809967 0.00218678  -0.0393323 -0.0812112 0.00255108  -0.0491855 -0.0991452 0.00249386  -0.0477695 -0.0927754 0.00315237  -0.042926 -0.0986493 0.00261164  -0.0370084 -0.09887 0.00186396  -0.0358195 -0.0924277 0.00235844  -0.0478704 -0.0931267 0.0026288  -0.0430324 -0.0989863 0.00218105  -0.0417243 -0.0925765 0.0027585  -0.0359312 -0.0927862 0.00196695  -0.0418345 -0.0929319 0.00230026  -0.0516964 -0.111523 0.00223589  -0.0503691 -0.104956 0.00283098  -0.0452254 -0.111135 0.00233603  -0.0390737 -0.111387 0.00166273  -0.037946 -0.10475 0.00211382  -0.0504619 -0.105276 0.0023613  -0.045325 -0.111435 0.00194883  -0.0440921 -0.104831 0.00247383  -0.038054 -0.105072 0.00176191  -0.044196 -0.105154 0.00205994  -0.0540478 -0.124329 0.00198317  -0.0528049 -0.11759 0.0025239  -0.0473887 -0.12404 0.00207758  -0.0410292 -0.124318 0.00148249  -0.0399604 -0.117516 0.00188637  -0.0528914 -0.117877 0.00210571  -0.0474832 -0.124304 0.00173283  -0.0463276 -0.117536 0.0022049  -0.0400639 -0.117801 0.0015707  -0.0464212 -0.11782 0.00183725  -0.0562469 -0.137515 0.00174904  -0.0550857 -0.130628 0.00223684  -0.0494242 -0.137321 0.00183439  -0.0428802 -0.13762 0.00130224  -0.0418737 -0.13067 0.00167084  -0.0551642 -0.130876 0.001863  -0.0495135 -0.137554 0.00153112  -0.0484248 -0.130633 0.00195456  -0.0419652 -0.130924 0.0013895  -0.0485139 -0.130884 0.0016284  -0.0583031 -0.151035 0.00153589  -0.0572257 -0.144016 0.00196743  -0.0513396 -0.150929 0.00160646  -0.0446339 -0.151248 0.00114918  -0.0436862 -0.144173 0.00147009  -0.0572927 -0.144238 0.00164413  -0.0514188 -0.151133 0.00134134  -0.0503964 -0.14408 0.00171852  -0.043767 -0.144394 0.00122452  -0.0504792 -0.144302 0.00143147  -0.0602195 -0.164842 0.00132561  -0.0592089 -0.157718 0.00171328  -0.0531373 -0.164812 0.00139713  -0.0462925 -0.165155 0.000993252  -0.0453949 -0.157973 0.00128412  -0.0592752 -0.157904 0.00142813  -0.0532103 -0.16499 0.00116158  -0.0522504 -0.157833 0.00149822  -0.0454748 -0.158168 0.00106907  -0.0523279 -0.158025 0.00125217  -0.0620039 -0.178898 0.0011425  -0.0610669 -0.171676 0.00147915  -0.0548246 -0.178938 0.00119972  -0.0478597 -0.179299 0.000854969  -0.0470173 -0.17203 0.00110626  -0.0611277 -0.171843 0.0012331  -0.0548935 -0.17909 0.00099659  -0.0539937 -0.171844 0.00129843  -0.0470886 -0.172199 0.000920296  -0.054065 -0.172014 0.00108147  -0.0636716 -0.19316 0.000969887  -0.0628026 -0.185864 0.00126505  -0.0564077 -0.193273 0.00101709  -0.0493419 -0.193643 0.00072813  -0.048547 -0.186306 0.000947475  -0.0628548 -0.186007 0.00105619  -0.056468 -0.193397 0.000846386  -0.0556271 -0.18608 0.00110817  -0.0486107 -0.186448 0.000788689  -0.0556939 -0.18622 0.00092268  -0.0652199 -0.2076 0.000812531  -0.0644126 -0.200246 0.00106525  -0.057893 -0.207772 0.000851631  -0.0507421 -0.208154 0.000607014  -0.0499916 -0.200759 0.000795841  -0.0644605 -0.20036 0.000890255  -0.0579457 -0.207876 0.000708103  -0.0571618 -0.200497 0.000930309  -0.0500538 -0.200881 0.000665188  -0.057219 -0.200615 0.000776291  -0.0666637 -0.222179 0.000667572  -0.065912 -0.214777 0.000884056  -0.0592883 -0.222406 0.000698566  -0.0520656 -0.222801 0.000496864  -0.0513611 -0.215361 0.000658989  -0.0659542 -0.214875 0.000737667  -0.0593333 -0.222486 0.000581264  -0.0586002 -0.215064 0.00077343  -0.0514135 -0.215463 0.000549793  -0.0586503 -0.215165 0.000644684  -0.0680125 -0.236868 0.000536919  -0.0673101 -0.229431 0.000716686  -0.0605934 -0.237139 0.00056076  -0.053318 -0.237544 0.000401497  -0.0526567 -0.230079 0.000537872  -0.0673492 -0.229511 0.000604153  -0.0606349 -0.237205 0.000472069  -0.0599501 -0.229753 0.000629902  -0.0526984 -0.230157 0.000449657  -0.059994 -0.229832 0.000523567  -0.0692587 -0.251638 0.000422955  -0.0686131 -0.24418 0.000570297  -0.0618203 -0.25195 0.00043869  -0.054503 -0.25236 0.000317574  -0.0538754 -0.244881 0.000426292  -0.0686448 -0.244241 0.000478268  -0.0618558 -0.252 0.000367641  -0.0612171 -0.244532 0.000501633  -0.0539191 -0.244944 0.000355244  -0.0612538 -0.244593 0.000417233  -0.0704286 -0.266465 0.000314236  -0.069823 -0.258996 0.00043726  -0.0629759 -0.266817 0.000334263  -0.0556266 -0.267231 0.000236511  -0.0550365 -0.259742 0.000331402  -0.0698543 -0.259044 0.00036335  -0.0630052 -0.266851 0.000277996  -0.0624037 -0.25937 0.000386238  -0.0550745 -0.259791 0.000275135  -0.0624378 -0.259418 0.000320435  -0.0715234 -0.281326 0.000236511  -0.0709598 -0.273857 0.000329971  -0.0640664 -0.281704 0.000243664  -0.0566962 -0.282129 0.000174522  -0.0561416 -0.27464 0.000247002  -0.0709841 -0.273891 0.000270367  -0.06409 -0.281728 0.000201702  -0.0635297 -0.274253 0.000284672  -0.0561664 -0.274676 0.000201702  -0.0635576 -0.274285 0.000238895  -0.0725484 -0.296203 0.000160217  -0.0720229 -0.288741 0.000228405  -0.0650959 -0.29661 0.00016737  -0.0577147 -0.297032 0.000117779  -0.0571868 -0.289554 0.000173569  -0.0720422 -0.288762 0.000193119  -0.0651159 -0.296621 0.000137806  -0.0645854 -0.289153 0.000203133  -0.0572097 -0.28958 0.000141621  -0.0646107 -0.289173 0.000171185  -0.073524 -0.31108 0.000100613  -0.0730331 -0.30363 0.000151157  -0.0660851 -0.311501 0.000108242  -0.0586946 -0.311927 7.34329e-05  -0.0581934 -0.304463 0.000112534  -0.0730426 -0.303644 0.000126839  -0.0660982 -0.311508 9.10759e-05  -0.0655966 -0.304051 0.000133038  -0.058212 -0.304482 9.29832e-05  -0.0656135 -0.304067 0.000111103  -0.0744569 -0.325941 6.53267e-05  -0.0739808 -0.318507 8.82149e-05  -0.0670259 -0.326375 6.10352e-05  -0.0596397 -0.326803 4.29153e-05  -0.059159 -0.319358 7.05719e-05  -0.0739961 -0.318513 8.05855e-05  -0.0670402 -0.326376 5.05447e-05  -0.0665579 -0.318934 8.01086e-05  -0.0591722 -0.319372 6.00815e-05  -0.0665736 -0.318944 6.96182e-05  -0.0753546 -0.340775 2.52724e-05  -0.0748944 -0.33336 4.91142e-05  -0.0679407 -0.341218 2.67029e-05  -0.0605538 -0.341644 1.57356e-05  -0.0600855 -0.334222 3.43323e-05  -0.0749109 -0.333359 3.86238e-05  -0.0679493 -0.341212 2.09808e-05  -0.0674844 -0.333792 4.29153e-05  -0.0601003 -0.334228 3.14713e-05  -0.0674968 -0.333797 3.91006e-05  -0.0762341 -0.355577 1.09673e-05  -0.0757868 -0.34818 1.90735e-05  -0.068826 -0.356018 0  -0.0614467 -0.35645 -2.38419e-06  -0.0609889 -0.349051 8.10623e-06  -0.0757959 -0.348181 1.4782e-05  -0.0688379 -0.356018 1.43051e-06  -0.0683856 -0.348618 1.23978e-05  -0.0610023 -0.349052 6.67572e-06  -0.0683963 -0.348619 1.43051e-05  -0.0771132 -0.370368 -9.53674e-06  -0.0766578 -0.362975 -2.86102e-06  -0.0697081 -0.370804 -1.85966e-05  -0.0623362 -0.371226 -2.00272e-05  -0.0618775 -0.363841 -1.14441e-05  -0.0766733 -0.362974 -3.33786e-06  -0.0697188 -0.370799 -1.14441e-05  -0.0692637 -0.363409 -8.58307e-06  -0.0618908 -0.363841 -6.19888e-06  -0.0692785 -0.363409 -6.67572e-06  -0.00153514 -0.00135739 0.00244188  0 0 0  -0.00106412 -0.00112818 0.00152349  -0.00035198 -0.000210613 0.00113058  0 0 0  -0.0014488 -0.00167374 0.00187826  -0.000467163 -0.000527084 0.00137424  0 0 0  -0.000327699 -0.000369504 0.000861645  -0.000434477 -0.000702351 0.00104761  -0.00447984 -0.00422324 0.00369358  -0.00322618 -0.00403957 0.00239897  -0.00218578 -0.00203581 0.00258541  -0.00430398 -0.00474864 0.00296307  -0.00294368 -0.00264792 0.00317669  -0.00206132 -0.00243711 0.00203466  -0.00278889 -0.00308791 0.00250959  -0.00749433 -0.00813723 0.00403357  -0.0056695 -0.00812994 0.00269699  -0.00458705 -0.00539245 0.00316906  -0.00737879 -0.00877976 0.00334454  -0.00601953 -0.00603415 0.00392151  -0.00445196 -0.0059479 0.00259161  -0.00586 -0.00663184 0.00320911  -0.0103129 -0.013184 0.0040164  -0.00801843 -0.0132886 0.0026927  -0.00691962 -0.00993857 0.00325823  -0.0102888 -0.0138507 0.00335932  -0.00891936 -0.0105126 0.00405407  -0.00686014 -0.0105714 0.00271559  -0.00885373 -0.0111752 0.00337648  -0.0130075 -0.0193281 0.00383472  -0.0102494 -0.0195023 0.00257301  -0.00913692 -0.0156135 0.00315809  -0.0130485 -0.01999 0.00321245  -0.011676 -0.016116 0.00393963  -0.00914937 -0.016268 0.00264549  -0.0116866 -0.0167902 0.00329924  -0.0155939 -0.0264948 0.00358438  -0.0123776 -0.0267065 0.00240612  -0.0112693 -0.0223447 0.00297546  -0.0156746 -0.0271252 0.00300407  -0.0143115 -0.0227848 0.00371742  -0.0113247 -0.0229852 0.00249481  -0.0143787 -0.0234375 0.0031147  -0.0180788 -0.0345926 0.00331116  -0.0144239 -0.0348286 0.00221539  -0.0133201 -0.0300456 0.00275993  -0.0181845 -0.0351829 0.00277424  -0.0168481 -0.0304279 0.00345039  -0.0134097 -0.0306552 0.00231457  -0.0169447 -0.0310419 0.00289011  -0.0204687 -0.043537 0.00303793  -0.0163969 -0.0437869 0.00203276  -0.01532 -0.0386331 0.0025425  -0.0205836 -0.0440796 0.0025425  -0.0192828 -0.0389567 0.0031724  -0.0154199 -0.0392044 0.00212669  -0.0193962 -0.0395292 0.00265455  -0.0227569 -0.0532476 0.00277853  -0.0182993 -0.0535129 0.00185156  -0.0172502 -0.0480312 0.00232458  -0.0228782 -0.0537483 0.00232124  -0.0216255 -0.0482919 0.0029068  -0.0173552 -0.0485567 0.00194216  -0.0217423 -0.0488198 0.00242805  -0.0249538 -0.063655 0.00252628  -0.020135 -0.0639405 0.00167894  -0.0191181 -0.0581587 0.00211573  -0.0250711 -0.0641151 0.00210857  -0.0238682 -0.0583619 0.00265074  -0.0192254 -0.0586423 0.00176716  -0.0239866 -0.0588455 0.00221395  -0.0270569 -0.0747043 0.00229311  -0.0219098 -0.0750024 0.00152969  -0.0209229 -0.0689502 0.00192213  -0.0271701 -0.0751178 0.00191069  -0.026013 -0.0690981 0.0024085  -0.0210304 -0.0693953 0.00160074  -0.0261321 -0.0695399 0.00201082  -0.0290637 -0.0863293 0.00206804  -0.0236194 -0.0866413 0.00137615  -0.0226698 -0.0803521 0.00173759  -0.0291762 -0.086704 0.0017271  -0.0280703 -0.0804417 0.00218058  -0.0227702 -0.0807525 0.00144863  -0.0281855 -0.080841 0.00181818  -0.0309871 -0.098476 0.00185776  -0.025273 -0.0988017 0.00123692  -0.0243566 -0.0922989 0.00156212  -0.0310905 -0.0988096 0.00154543  -0.0300387 -0.0923313 0.00196123  -0.0244529 -0.092658 0.0013051  -0.030144 -0.0926936 0.00163603  -0.0328254 -0.111079 0.00166368  -0.0268636 -0.111422 0.00110579  -0.0259835 -0.104729 0.00140333  -0.0329256 -0.11138 0.00138474  -0.031917 -0.104714 0.00175953  -0.0260751 -0.105055 0.00117016  -0.0320182 -0.105038 0.00146723  -0.0345845 -0.124099 0.00147915  -0.0284021 -0.124455 0.000977039  -0.0275519 -0.1176 0.00125217  -0.0346724 -0.124364 0.00123167  -0.033716 -0.117534 0.00156784  -0.02764 -0.117888 0.00103998  -0.0338087 -0.117823 0.00130749  -0.0362583 -0.137486 0.0013032  -0.0298824 -0.137851 0.000862122  -0.0290695 -0.130854 0.00110769  -0.0363448 -0.137715 0.00108576  -0.0354307 -0.130743 0.00138903  -0.0291486 -0.13111 0.00092268  -0.0355177 -0.130999 0.00115681  -0.0378594 -0.151188 0.00114346  -0.0313072 -0.151564 0.000758648  -0.0305269 -0.144443 0.000972271  -0.0379341 -0.151389 0.000955582  -0.0370674 -0.144292 0.00121975  -0.0306008 -0.144671 0.000810146  -0.0371473 -0.144516 0.00101805  -0.0393851 -0.165162 0.000990391  -0.0326836 -0.16555 0.000655651  -0.0319331 -0.158328 0.000846863  -0.0394557 -0.16534 0.000826359  -0.0386333 -0.158137 0.00106573  -0.0320027 -0.158528 0.000703335  -0.0387044 -0.158334 0.000889778  -0.0408404 -0.179373 0.000849724  -0.0340078 -0.17977 0.000563622  -0.0332925 -0.172463 0.000731945  -0.0409012 -0.179526 0.000711441  -0.0401216 -0.172235 0.000918388  -0.0333517 -0.172633 0.000608444  -0.0401874 -0.172405 0.000768185  -0.0422263 -0.193776 0.000722885  -0.0352848 -0.194182 0.000471592  -0.0345986 -0.186806 0.00062418  -0.0422854 -0.193904 0.000603676  -0.0415413 -0.186546 0.000786781  -0.0346529 -0.186954 0.00052309  -0.0415993 -0.186691 0.000654221  -0.0435481 -0.208344 0.000604153  -0.0365098 -0.208753 0.00039959  -0.0358508 -0.201327 0.000525951  -0.0436015 -0.208449 0.00050354  -0.0428948 -0.201036 0.000664234  -0.0359039 -0.20145 0.000438213  -0.0429499 -0.201156 0.000549793  -0.0448072 -0.22303 0.000499249  -0.0376875 -0.223445 0.000326633  -0.0370634 -0.215983 0.000432491  -0.0448537 -0.223118 0.000412464  -0.0441813 -0.215665 0.00055027  -0.0371051 -0.216085 0.000361443  -0.0442333 -0.215768 0.00045681  -0.0460117 -0.237819 0.000401974  -0.0388269 -0.238237 0.000262737  -0.0382278 -0.230747 0.000356197  -0.0460517 -0.237887 0.000331402  -0.0454149 -0.230406 0.000450134  -0.0382617 -0.230832 0.000296116  -0.0454576 -0.23049 0.00037241  -0.0471628 -0.25267 0.000317574  -0.0399234 -0.253093 0.00020647  -0.0393488 -0.245592 0.000283241  -0.0471942 -0.252723 0.000264645  -0.0465901 -0.245233 0.000356197  -0.0393796 -0.245661 0.000234127  -0.046629 -0.2453 0.000296593  -0.0482593 -0.267576 0.000237465  -0.0409808 -0.267997 0.000153065  -0.0404251 -0.260489 0.000214577  -0.0482881 -0.267613 0.000200272  -0.0477164 -0.260116 0.000275612  -0.0404584 -0.260541 0.000180721  -0.0477471 -0.260165 0.000226021  -0.0493126 -0.282496 0.000172138  -0.0420032 -0.282922 0.000110626  -0.0414686 -0.275417 0.000163555  -0.0493336 -0.282526 0.000145912  -0.0487878 -0.275028 0.000203133  -0.0414941 -0.275457 0.000135899  -0.0488164 -0.275066 0.000170708  -0.0503213 -0.297419 0.000120163  -0.0429907 -0.297851 7.24792e-05  -0.0424836 -0.290356 0.000114441  -0.050343 -0.297441 9.87053e-05  -0.0498219 -0.289952 0.000144958  -0.0425029 -0.290387 9.63211e-05  -0.0498431 -0.289984 0.000119686  -0.0512984 -0.312337 7.72476e-05  -0.0439482 -0.312764 4.72069e-05  -0.0434563 -0.305289 7.34329e-05  -0.0513139 -0.312348 6.00815e-05  -0.0508151 -0.304875 9.58443e-05  -0.0434701 -0.305307 6.29425e-05  -0.050833 -0.304894 8.05855e-05  -0.0522442 -0.327224 4.43459e-05  -0.0448866 -0.327652 2.81334e-05  -0.0444071 -0.320197 4.52995e-05  -0.0522561 -0.327227 3.76701e-05  -0.0517747 -0.31978 5.96046e-05  -0.0444198 -0.320208 3.57628e-05  -0.0517869 -0.31979 4.91142e-05  -0.0531623 -0.342074 1.90735e-05  -0.0457997 -0.342502 1.28746e-05  -0.045332 -0.335076 2.28882e-05  -0.0531702 -0.342076 1.33514e-05  -0.0527072 -0.334652 2.90871e-05  -0.0453451 -0.335082 1.52588e-05  -0.0527136 -0.334656 2.43187e-05  -0.0540581 -0.356884 -9.53674e-07  -0.0466938 -0.357315 -3.33786e-06  -0.0462384 -0.349907 5.24521e-06  -0.0540679 -0.356883 -9.53674e-07  -0.0536115 -0.349482 6.19888e-06  -0.0462463 -0.349913 4.76837e-06  -0.0536211 -0.349484 8.58307e-06  -0.0549419 -0.371649 -2.28882e-05  -0.0475838 -0.372076 -2.47955e-05  -0.0471284 -0.364696 -1.04904e-05  -0.0549541 -0.37165 -2.09808e-05  -0.0544977 -0.36427 -1.43051e-05  -0.0471358 -0.364699 -1.04904e-05  -0.0545104 -0.364268 -8.58307e-06  -0.000796184 -0.000519186 0.00149345  0 0 0  -0.000465751 -0.000553876 0.000771523  -0.000154842 0.000105411 0.000572681  0 0 0  -0.000745207 -0.000772387 0.00114918  -0.000243973 -9.11951e-06 0.000851154  0 0 0  -0.000142384 -2.67625e-05 0.000436783  -0.00022551 -0.000156134 0.000645638  -0.0024129 -0.00308195 0.00225878  -0.00144862 -0.00320321 0.00122213  -0.000973165 -0.00134239 0.00130367  -0.00230199 -0.00353089 0.00181198  -0.00155327 -0.00161225 0.00194645  -0.000915989 -0.00169763 0.00103235  -0.00145866 -0.00198585 0.00153732  -0.00417817 -0.00706974 0.00245142  -0.00261813 -0.00731152 0.001369  -0.00209588 -0.00460425 0.0016017  -0.00410256 -0.00763679 0.00204229  -0.00330386 -0.00492001 0.00238943  -0.00202686 -0.00510845 0.00131321  -0.00319874 -0.00544143 0.00196123  -0.00587597 -0.0122408 0.00242329  -0.00379336 -0.0125876 0.00136328  -0.00322995 -0.00922099 0.00164366  -0.00586492 -0.0128675 0.00203085  -0.00503233 -0.00950608 0.00245285  -0.00320902 -0.00981367 0.00137758  -0.00499359 -0.010116 0.0020504  -0.00751895 -0.0185104 0.00230885  -0.0049426 -0.0189171 0.00129652  -0.00435138 -0.0149962 0.00158596  -0.00755364 -0.0191445 0.00194073  -0.00670367 -0.0152391 0.00237131  -0.00437284 -0.015624 0.00133419  -0.00671822 -0.0158784 0.00199127  -0.0091154 -0.0257878 0.00214863  -0.00606608 -0.0262224 0.00120163  -0.005458 -0.0218235 0.00149012  -0.00918198 -0.0264049 0.00180626  -0.00832331 -0.0220244 0.00223398  -0.00550592 -0.0224508 0.00125599  -0.00837511 -0.0226575 0.00187492  -0.01068 -0.0339956 0.0019846  -0.00718027 -0.0344381 0.00110626  -0.00656277 -0.0296182 0.00137901  -0.0107639 -0.0345785 0.00166559  -0.00990134 -0.0297782 0.00207043  -0.00662178 -0.0302234 0.00115728  -0.00997722 -0.0303817 0.00173664  -0.0122166 -0.0430463 0.00182056  -0.00829095 -0.043494 0.00100994  -0.00766391 -0.0382966 0.00126362  -0.0123081 -0.0435892 0.00152349  -0.0114487 -0.0384117 0.0019021  -0.00773531 -0.0388654 0.00105762  -0.0115403 -0.0389834 0.00159121  -0.0137246 -0.0528694 0.00165939  -0.00940156 -0.0533147 0.000922203  -0.00876892 -0.0477822 0.00115252  -0.0138164 -0.0533664 0.0013833  -0.012973 -0.0478592 0.00173998  -0.00884569 -0.0483113 0.000965595  -0.0130657 -0.0483865 0.00145435  -0.0151995 -0.0633924 0.00150824  -0.0105146 -0.0638331 0.000831604  -0.00987828 -0.0580046 0.00104761  -0.0152887 -0.0638452 0.00125837  -0.0144643 -0.0580397 0.00158262  -0.00995529 -0.0584897 0.000876904  -0.0145566 -0.0585219 0.00132418  -0.016644 -0.0745406 0.00135899  -0.0116255 -0.0749891 0.00074482  -0.0109929 -0.0688905 0.000946045  -0.0167339 -0.074956 0.00113535  -0.0159242 -0.0688816 0.00143576  -0.0110722 -0.0693336 0.000789642  -0.0160161 -0.0693245 0.00119638  -0.0180621 -0.0862711 0.00122786  -0.0127362 -0.0867164 0.000674725  -0.0121092 -0.0803796 0.000854969  -0.0181485 -0.0866442 0.00102854  -0.0173579 -0.0803298 0.00129747  -0.0121818 -0.0807815 0.000711441  -0.017445 -0.0807309 0.00108242  -0.0194461 -0.0985103 0.00110197  -0.0138438 -0.098958 0.000601292  -0.0132167 -0.0924098 0.000766277  -0.0195283 -0.0988497 0.000920296  -0.0187583 -0.0923212 0.00116682  -0.0132915 -0.0927769 0.000638962  -0.0188406 -0.0926857 0.000970364  -0.0208027 -0.11121 0.000984669  -0.0149473 -0.111664 0.000536442  -0.0143343 -0.104926 0.000686169  -0.0208786 -0.111515 0.000822067  -0.0201271 -0.104798 0.00104332  -0.014395 -0.105255 0.000568867  -0.0202091 -0.105128 0.000869274  -0.0221294 -0.124323 0.00087595  -0.0160468 -0.124772 0.000479698  -0.015443 -0.117875 0.000609875  -0.0221989 -0.124591 0.000730991  -0.0214688 -0.117711 0.000929356  -0.0154974 -0.118167 0.000506878  -0.0215424 -0.118001 0.000773907  -0.0234208 -0.137786 0.000769138  -0.0171397 -0.13824 0.000411987  -0.0165354 -0.131203 0.000535011  -0.0234854 -0.138026 0.000640392  -0.0227793 -0.131004 0.00082016  -0.0165937 -0.131462 0.000446796  -0.0228465 -0.131265 0.000683784  -0.024684 -0.151562 0.000676155  -0.018224 -0.152018 0.000368118  -0.0176306 -0.14486 0.000471592  -0.0247455 -0.151773 0.000563145  -0.0240545 -0.144631 0.000723839  -0.0176826 -0.145092 0.000392914  -0.0241179 -0.144864 0.000598907  -0.0259173 -0.165611 0.000586033  -0.0192993 -0.166064 0.000312805  -0.0187166 -0.158808 0.000407696  -0.0259707 -0.165794 0.000484943  -0.0253029 -0.158551 0.000628948  -0.0187628 -0.15901 0.000338078  -0.0253606 -0.158751 0.00052309  -0.0271153 -0.179883 0.000499725  -0.0203629 -0.180337 0.00026989  -0.0197895 -0.173 0.000351429  -0.0271647 -0.180039 0.000419617  -0.0265203 -0.172717 0.00053978  -0.0198307 -0.173173 0.000294209  -0.0265722 -0.17289 0.000451088  -0.0282855 -0.194344 0.000424385  -0.0214138 -0.194799 0.000233173  -0.0208514 -0.187395 0.000299931  -0.0283291 -0.194479 0.000353813  -0.0277054 -0.187089 0.000462532  -0.0208883 -0.187547 0.000249386  -0.0277507 -0.187236 0.000383377  -0.0294225 -0.208962 0.000352383  -0.022449 -0.209414 0.000189304  -0.0218997 -0.201962 0.000249386  -0.0294626 -0.209073 0.000293732  -0.0288603 -0.201632 0.000387669  -0.0219297 -0.20209 0.000205994  -0.0289004 -0.201761 0.000321388  -0.0305309 -0.223698 0.000288486  -0.0234692 -0.224147 0.000151157  -0.0229323 -0.21666 0.000205994  -0.0305653 -0.223788 0.000238895  -0.0299816 -0.216313 0.000323296  -0.0229602 -0.216764 0.000170231  -0.0300183 -0.216415 0.000264645  -0.0316103 -0.238525 0.000231266  -0.0244758 -0.23897 0.000123501  -0.0239484 -0.231462 0.000163555  -0.0316408 -0.238598 0.000192642  -0.0310738 -0.231099 0.00026083  -0.0239766 -0.23155 0.000138283  -0.0311086 -0.231184 0.000217915  -0.0326593 -0.253417 0.000181675  -0.0254667 -0.253861 9.44138e-05  -0.0249486 -0.246338 0.0001297  -0.0326831 -0.253471 0.000154495  -0.0321362 -0.245959 0.000207901  -0.0249732 -0.246407 0.000106812  -0.0321667 -0.246029 0.000172138  -0.0336797 -0.268348 0.000138283  -0.0264413 -0.268785 7.24792e-05  -0.0259361 -0.261263 0.000100136  -0.0336988 -0.268385 0.000115395  -0.033175 -0.260872 0.00015974  -0.025955 -0.261317 8.39233e-05  -0.0331943 -0.260925 0.00013113  -0.034673 -0.283296 0.000102043  -0.0273972 -0.283731 4.86374e-05  -0.0269063 -0.276216 7.24792e-05  -0.0346904 -0.283323 8.53539e-05  -0.0341787 -0.275812 0.000119686  -0.0269215 -0.276259 5.76973e-05  -0.0341973 -0.275855 9.72748e-05  -0.0356476 -0.298239 6.77109e-05  -0.0283399 -0.298675 3.67165e-05  -0.0278563 -0.291171 4.95911e-05  -0.0356567 -0.298259 5.43594e-05  -0.0351632 -0.290761 8.2016e-05  -0.0278709 -0.291202 4.1008e-05  -0.035177 -0.290792 6.58035e-05  -0.0365934 -0.313174 4.14848e-05  -0.0292645 -0.313601 2.0504e-05  -0.0287936 -0.30612 3.52859e-05  -0.0366042 -0.31318 3.24249e-05  -0.0361235 -0.305703 5.43594e-05  -0.0288055 -0.30614 2.6226e-05  -0.0361321 -0.30572 4.673e-05  -0.0375197 -0.328071 2.24113e-05  -0.0301783 -0.3285 1.14441e-05  -0.029721 -0.321039 1.90735e-05  -0.0375264 -0.328071 2.0504e-05  -0.0370562 -0.320617 3.09944e-05  -0.0297232 -0.321056 1.57356e-05  -0.0370667 -0.320631 2.86102e-05  -0.0384264 -0.342933 8.10623e-06  -0.0310791 -0.343363 4.29153e-06  -0.0306244 -0.335929 9.53674e-06  -0.038435 -0.342933 5.72205e-06  -0.0379758 -0.335501 1.62125e-05  -0.0306325 -0.335934 5.24521e-06  -0.0379827 -0.335509 1.38283e-05  -0.0393207 -0.357743 -5.72205e-06  -0.0319672 -0.358172 -6.19888e-06  -0.0315185 -0.350767 -2.38419e-06  -0.0393271 -0.357742 -9.53674e-07  -0.0388713 -0.350336 2.86102e-06  -0.0315235 -0.350772 -1.43051e-06  -0.0388818 -0.350343 1.90735e-06  -0.0402038 -0.372501 -1.71661e-05  -0.0328507 -0.372927 -1.4782e-05  -0.032402 -0.365552 -1.04904e-05  -0.0402114 -0.372503 -1.38283e-05  -0.0397596 -0.365126 -1.04904e-05  -0.0324068 -0.365555 -9.05991e-06  -0.039768 -0.365127 -1.00136e-05  -0.000219718 -0.000217319 0.000488281  0 0 0  4.36306e-05 -0.000432819 -1.43051e-05  2.03773e-05 0.000172317 -1.85966e-05  0 0 0  -0.000204086 -0.000445008 0.000377178  -6.76997e-05 0.000166297 0.000278473  0 0 0  1.31577e-05 4.51207e-05 -1.04904e-05  -6.13555e-05 3.6329e-05 0.000212669  -0.000684351 -0.00262421 0.000750542  0.00011909 -0.00301954 -9.05991e-06  9.33111e-05 -0.00119495 -1.90735e-05  -0.000654876 -0.00303486 0.000604153  -0.000432163 -0.00120789 0.0006423  7.99894e-05 -0.00153467 -1.04904e-05  -0.000407413 -0.00155306 0.000509739  -0.00122121 -0.00661048 0.000822067  0.000174761 -0.00714186 9.53674e-07  0.000168502 -0.00444093 -9.53674e-06  -0.00120923 -0.00714603 0.000687599  -0.000949353 -0.00444734 0.000797272  0.000149995 -0.00492641 -1.43051e-06  -0.000926077 -0.00494036 0.000655651  -0.00177559 -0.0118539 0.000809669  0.000186563 -0.0124687 3.33786e-06  0.000210196 -0.00909042 0  -0.00178957 -0.0124538 0.000685692  -0.00149432 -0.00908154 0.000822067  0.000186503 -0.00966763 7.62939e-06  -0.00149867 -0.00966296 0.000692368  -0.00235164 -0.0181984 0.000767708  0.000141919 -0.0188557 4.76837e-06  0.000199556 -0.014917 3.8147e-06  -0.00238591 -0.0188193 0.000651836  -0.00206161 -0.0148904 0.000794888  0.000170827 -0.0155348 6.67572e-06  -0.0020861 -0.0155094 0.000669479  -0.00295401 -0.0255511 0.000714779  3.09348e-05 -0.0262225 9.53674e-07  0.000131309 -0.0218012 -1.90735e-06  -0.00300086 -0.0261619 0.000605583  -0.00264812 -0.0217499 0.000742912  9.69768e-05 -0.0224188 5.24521e-06  -0.0026896 -0.0223719 0.000627041  -0.00359273 -0.0338308 0.000658035  -0.000145853 -0.0344937 -3.8147e-06  -1.06096e-05 -0.0296496 -5.24521e-06  -0.00364697 -0.0344104 0.000552177  -0.00327098 -0.0295771 0.000686646  -4.94719e-05 -0.0302474 -9.53674e-07  -0.0033192 -0.0301784 0.000579834  -0.00426972 -0.0429528 0.00059557  -0.000392616 -0.0436056 -5.72205e-06  -0.000222921 -0.0383842 -1.23978e-05  -0.00432724 -0.0435001 0.000500679  -0.0039255 -0.0382884 0.00062561  -0.00026089 -0.0389473 -7.62939e-06  -0.00398391 -0.0388535 0.000526905  -0.00498021 -0.0528529 0.000538826  -0.000706673 -0.0534861 -9.53674e-06  -0.000501156 -0.0479239 -1.43051e-05  -0.00503874 -0.0533534 0.000451565  -0.00462198 -0.047806 0.000567436  -0.000540733 -0.0484521 -1.00136e-05  -0.0046792 -0.0483318 0.000475883  -0.00572693 -0.0634483 0.000484943  -0.00108612 -0.0640673 -2.14577e-05  -0.000845432 -0.0582076 -2.47955e-05  -0.00578547 -0.0639062 0.000404358  -0.00534976 -0.0580601 0.000513554  -0.000886559 -0.0586916 -1.85966e-05  -0.00540936 -0.0585465 0.000427246  -0.00650656 -0.074676 0.000435352  -0.00152624 -0.0752805 -2.3365e-05  -0.00125706 -0.0691501 -2.76566e-05  -0.00656462 -0.0750947 0.000362396  -0.00611246 -0.0689809 0.000461578  -0.00129914 -0.069597 -2.24113e-05  -0.00616944 -0.0694254 0.000383854  -0.00731421 -0.0864749 0.000387192  -0.00202775 -0.0870665 -2.57492e-05  -0.00172973 -0.0806954 -3.14713e-05  -0.00736749 -0.0868565 0.000320435  -0.00690579 -0.0805011 0.00041008  -0.00176871 -0.0811024 -2.3365e-05  -0.00696349 -0.0809067 0.0003438  -0.00814784 -0.098786 0.000346184  -0.00258398 -0.0993651 -2.38419e-05  -0.00225973 -0.0927877 -3.43323e-05  -0.00820005 -0.0991301 0.000289917  -0.00772774 -0.0925653 0.000366688  -0.00229836 -0.0931566 -2.67029e-05  -0.00778031 -0.0929326 0.000307083  -0.00901067 -0.111557 0.000305176  -0.00318825 -0.112124 -3.19481e-05  -0.00284636 -0.105361 -3.52859e-05  -0.00905657 -0.111865 0.000254154  -0.0085758 -0.105114 0.00032568  -0.00288129 -0.10569 -2.6226e-05  -0.00862515 -0.105444 0.000271797  -0.00989139 -0.124732 0.000270367  -0.0038408 -0.125287 -2.81334e-05  -0.00348055 -0.11836 -3.24249e-05  -0.00993466 -0.125002 0.000222683  -0.00944829 -0.118089 0.000286579  -0.00350928 -0.118658 -2.81334e-05  -0.00949359 -0.118386 0.000240803  -0.0107871 -0.138258 0.00023365  -0.00453663 -0.138803 -2.57492e-05  -0.00415516 -0.131735 -3.62396e-05  -0.0108252 -0.138499 0.000190735  -0.0103363 -0.131444 0.00025034  -0.00418353 -0.132002 -3.05176e-05  -0.0103796 -0.131709 0.000210762  -0.0116992 -0.152087 0.000202179  -0.0052669 -0.152626 -3.00407e-05  -0.0048697 -0.145444 -3.57628e-05  -0.0117354 -0.1523 0.000167847  -0.0112402 -0.14513 0.000218391  -0.00489783 -0.145677 -2.95639e-05  -0.0112791 -0.145363 0.000182152  -0.0126235 -0.166188 0.000169277  -0.00602984 -0.166713 -2.76566e-05  -0.00562 -0.159431 -3.33786e-05  -0.0126567 -0.16637 0.000142574  -0.0121617 -0.159101 0.000187397  -0.00564337 -0.159636 -2.67029e-05  -0.0121965 -0.159304 0.000155449  -0.0135593 -0.18051 0.000145435  -0.00682712 -0.181021 -3.09944e-05  -0.00640249 -0.173664 -3.05176e-05  -0.0135839 -0.180663 0.000119686  -0.0130889 -0.173314 0.000158787  -0.00642586 -0.173839 -2.71797e-05  -0.0131207 -0.17349 0.000133038  -0.0144954 -0.19501 0.000123024  -0.00764275 -0.195516 -2.00272e-05  -0.0072155 -0.188094 -3.05176e-05  -0.0145206 -0.195146 0.000101089  -0.014025 -0.187729 0.000135422  -0.00723314 -0.188246 -2.57492e-05  -0.0140541 -0.187882 0.000110626  -0.0154378 -0.209665 9.67979e-05  -0.00847745 -0.21016 -2.81334e-05  -0.00804281 -0.20269 -2.81334e-05  -0.0154567 -0.209775 8.39233e-05  -0.0149667 -0.202315 0.000110149  -0.00805759 -0.20282 -2.43187e-05  -0.0149899 -0.202441 9.29832e-05  -0.016377 -0.224433 8.24928e-05  -0.0093317 -0.224918 -2.14577e-05  -0.00889182 -0.217416 -2.76566e-05  -0.0163946 -0.224521 6.67572e-05  -0.0159056 -0.217028 8.96454e-05  -0.00890303 -0.217525 -2.52724e-05  -0.0159261 -0.217135 7.53403e-05  -0.0173163 -0.239289 6.29425e-05  -0.0102 -0.239764 -2.00272e-05  -0.00975442 -0.23224 -2.47955e-05  -0.0173326 -0.239359 5.00679e-05  -0.0168478 -0.231842 7.10487e-05  -0.00976372 -0.23233 -1.71661e-05  -0.0168653 -0.231931 5.76973e-05  -0.0182545 -0.254196 4.95911e-05  -0.0110786 -0.254671 -1.7643e-05  -0.0106239 -0.247134 -2.24113e-05  -0.0182648 -0.25426 3.95775e-05  -0.0177848 -0.246728 5.43594e-05  -0.0106392 -0.247209 -1.7643e-05  -0.0178006 -0.246802 4.29153e-05  -0.0191851 -0.26915 3.62396e-05  -0.0119567 -0.269612 -1.57356e-05  -0.0115063 -0.262079 -1.7643e-05  -0.0191936 -0.269195 2.81334e-05  -0.0187173 -0.261666 4.14848e-05  -0.0115156 -0.262137 -1.33514e-05  -0.0187321 -0.261719 3.24249e-05  -0.0201101 -0.284113 1.95503e-05  -0.0128446 -0.284568 -1.43051e-05  -0.0123942 -0.277044 -1.66893e-05  -0.020118 -0.284147 1.81198e-05  -0.0196474 -0.276625 2.90871e-05  -0.0124013 -0.277088 -1.28746e-05  -0.0196567 -0.276668 2.19345e-05  -0.0210276 -0.299072 1.71661e-05  -0.0137296 -0.299523 -8.10623e-06  -0.0132847 -0.292013 -1.33514e-05  -0.0210311 -0.299096 1.23978e-05  -0.0205665 -0.291589 1.71661e-05  -0.0132849 -0.292044 -1.09673e-05  -0.0205727 -0.29162 1.38283e-05  -0.0219336 -0.314015 5.24521e-06  -0.0146155 -0.314458 -1.23978e-05  -0.0141714 -0.30697 -1.14441e-05  -0.0219402 -0.314027 7.62939e-06  -0.0214779 -0.30654 1.23978e-05  -0.014173 -0.306992 -8.10623e-06  -0.021488 -0.306563 7.62939e-06  -0.0228374 -0.328923 5.24521e-06  -0.0155029 -0.329361 -3.8147e-06  -0.0150604 -0.321897 -5.24521e-06  -0.0228398 -0.32893 3.33786e-06  -0.0223866 -0.321465 4.76837e-06  -0.0150595 -0.32191 -4.29153e-06  -0.0223899 -0.321481 6.19888e-06  -0.0237291 -0.343787 -2.38419e-06  -0.0163851 -0.344224 -9.53674e-07  -0.0159433 -0.336785 -7.15256e-06  -0.02373 -0.343793 -2.38419e-06  -0.0232804 -0.336356 1.90735e-06  -0.0159435 -0.336797 -7.15256e-06  -0.0232863 -0.336364 2.86102e-06  -0.024611 -0.358604 -4.29153e-06  -0.0172637 -0.359036 -9.53674e-07  -0.0168219 -0.351632 -4.29153e-06  -0.0246136 -0.358605 -6.19888e-06  -0.0241714 -0.351199 -1.90735e-06  -0.0168245 -0.351636 -4.76837e-06  -0.0241737 -0.351204 -2.38419e-06  -0.0254924 -0.373352 -1.04904e-05  -0.0181384 -0.373785 -1.43051e-06  -0.0177016 -0.366413 -1.90735e-06  -0.0254877 -0.373353 -8.10623e-06  -0.0250485 -0.365982 -5.72205e-06  -0.0177002 -0.36642 2.86102e-06  -0.0250516 -0.365986 -6.19888e-06  0.000316978 -0.000285029 -0.000535488  0 0 0  0.000552744 -0.000681221 -0.000794888  0.000181653 3.11136e-05 -0.00060606  0 0 0  0.000292927 -0.000511348 -0.000408173  9.64105e-05 0.00012666 -0.000309467  0 0 0  0.000169709 -9.75132e-05 -0.000455379  8.77753e-05 2.6226e-06 -0.000237465  0.000945508 -0.00274038 -0.000783443  0.0016849 -0.00342214 -0.00122261  0.00115117 -0.00152969 -0.0013361  0.000891358 -0.00314867 -0.00062418  0.000612631 -0.00130296 -0.000680447  0.00107384 -0.00187385 -0.00105095  0.000568777 -0.00163949 -0.000532627  0.00160989 -0.00676244 -0.000822067  0.00296029 -0.00759774 -0.00135183  0.0024204 -0.00487167 -0.00160217  0.00155723 -0.00729066 -0.000677109  0.00128186 -0.00458384 -0.000810146  0.00232556 -0.00536042 -0.00130653  0.00122845 -0.00506544 -0.000658512  0.00219715 -0.0120302 -0.000808716  0.00415385 -0.0129336 -0.00133705  0.0036436 -0.00954837 -0.00162458  0.00215787 -0.0126297 -0.000670433  0.00191545 -0.0092454 -0.000818729  0.00357646 -0.0101279 -0.00134993  0.00186774 -0.00982261 -0.000676632  0.0026933 -0.0184107 -0.000763416  0.00520188 -0.0193255 -0.00127077  0.00474137 -0.0153837 -0.00156641  0.00266093 -0.0190275 -0.00063467  0.00245851 -0.0150819 -0.000789642  0.00469631 -0.0159996 -0.00130987  0.00242406 -0.0156978 -0.000653267  0.00308734 -0.0257986 -0.000720024  0.00609958 -0.0267022 -0.001194  0.00569135 -0.0222756 -0.00147486  0.00305754 -0.0264002 -0.000596523  0.00290412 -0.0219738 -0.000741959  0.00566804 -0.0228945 -0.00123262  0.00287163 -0.022593 -0.000617981  0.00337303 -0.0341157 -0.000671387  0.00685555 -0.0349932 -0.00111055  0.00650972 -0.030138 -0.00138235  0.00334632 -0.0346867 -0.000558853  0.00324279 -0.0298354 -0.000694752  0.00649577 -0.0307361 -0.00114965  0.00321543 -0.0304334 -0.000579834  0.00355947 -0.043276 -0.000628471  0.00747371 -0.0441292 -0.00103188  0.00719291 -0.0388933 -0.00128222  0.00353396 -0.0438159 -0.000520229  0.00348181 -0.038583 -0.000648975  0.00718236 -0.0394577 -0.00106859  0.00345212 -0.0391491 -0.000537872  0.00364363 -0.0532111 -0.000576973  0.0079577 -0.0540349 -0.000945568  0.00773942 -0.0484615 -0.00118637  0.00362051 -0.0537126 -0.000481129  0.00361192 -0.0481436 -0.000600338  0.0077318 -0.048988 -0.000986099  0.00359118 -0.0486712 -0.000500202  0.00362885 -0.0638493 -0.000537872  0.00831127 -0.0646441 -0.000870705  0.00815749 -0.0587678 -0.001091  0.00360584 -0.0643108 -0.000445843  0.00365078 -0.0584417 -0.000555992  0.00815058 -0.059256 -0.000907421  0.00362408 -0.0589284 -0.000461102  0.00352383 -0.0751243 -0.000490665  0.0085417 -0.0758892 -0.000798225  0.00844562 -0.0697436 -0.00100088  0.00349951 -0.0755468 -0.000407219  0.00358737 -0.0694063 -0.000512123  0.00844073 -0.0701904 -0.000830173  0.00356424 -0.0698517 -0.000423431  0.00332928 -0.0869676 -0.000453949  0.0086509 -0.0877074 -0.000728607  0.00861645 -0.0813214 -0.000916958  0.00330687 -0.0873494 -0.000377655  0.00343692 -0.0809696 -0.000473022  0.00861037 -0.0817298 -0.000761509  0.00341415 -0.0813771 -0.000392914  0.00304902 -0.0993239 -0.000411034  0.00864875 -0.100037 -0.00066185  0.00867188 -0.0934391 -0.000831127  0.00302935 -0.0996681 -0.000342369  0.00319946 -0.0930791 -0.000435352  0.00866342 -0.09381 -0.000694275  0.0031786 -0.0934469 -0.000362873  0.00269186 -0.112134 -0.000374317  0.00854456 -0.112821 -0.000598431  0.00861585 -0.106043 -0.000752926  0.00267267 -0.112442 -0.00030899  0.00287628 -0.105669 -0.000393867  0.00860834 -0.106374 -0.000626564  0.00286245 -0.106001 -0.000329018  0.00225806 -0.125344 -0.000339985  0.00834179 -0.126013 -0.000533581  0.00845718 -0.119071 -0.000678539  0.00224411 -0.125623 -0.000282764  0.0024848 -0.118687 -0.000355244  0.00845325 -0.119368 -0.000564575  0.00246775 -0.118984 -0.000295639  0.00176501 -0.138906 -0.000300407  0.00804687 -0.139554 -0.00047636  0.00820923 -0.132475 -0.000605583  0.00175071 -0.139153 -0.000251293  0.00202155 -0.13208 -0.000321865  0.00820553 -0.132741 -0.000506878  0.00200605 -0.132346 -0.000264168  0.00120711 -0.152776 -0.000270367  0.00766683 -0.1534 -0.000417709  0.00786901 -0.146204 -0.000535965  0.00119567 -0.152992 -0.000226021  0.00149155 -0.145801 -0.000287056  0.00786781 -0.14644 -0.000448227  0.00148034 -0.146035 -0.000237465  0.000598431 -0.166904 -0.000238419  0.00721622 -0.167508 -0.000370026  0.00744915 -0.160217 -0.00047493  0.00058794 -0.167091 -0.000198841  0.00090909 -0.159807 -0.000255108  0.00745106 -0.160422 -0.000395775  0.000898838 -0.160009 -0.000211239  -6.19888e-05 -0.181248 -0.000207901  0.00669408 -0.181835 -0.000318527  0.00696301 -0.174466 -0.000416756  -6.74725e-05 -0.181412 -0.000170708  0.000273705 -0.174046 -0.00022459  0.00696349 -0.174645 -0.000347614  0.000266075 -0.174225 -0.000185966  -0.000760317 -0.195777 -0.000180721  0.00611496 -0.196344 -0.000278473  0.00641298 -0.188913 -0.000360489  -0.000768185 -0.195915 -0.00014782  -0.000405073 -0.188488 -0.000194073  0.00641298 -0.189066 -0.000298023  -0.000409842 -0.18864 -0.000162601  -0.00149941 -0.210451 -0.000155926  0.00547767 -0.211001 -0.000234127  0.00580001 -0.203522 -0.000306129  -0.00150776 -0.210568 -0.000133991  -0.00112557 -0.203091 -0.000169277  0.00580144 -0.203653 -0.000258923  -0.00113058 -0.203224 -0.000141144  -0.0022707 -0.225237 -0.000127792  0.00479269 -0.225771 -0.000196457  0.00513148 -0.218261 -0.000259876  -0.00227308 -0.225333 -0.000108719  -0.00188351 -0.217828 -0.000143051  0.00514102 -0.218371 -0.00021553  -0.0018847 -0.217937 -0.000118256  -0.00306678 -0.240106 -0.000108242  0.00406814 -0.240625 -0.000166416  0.00442791 -0.233093 -0.000216007  -0.00306749 -0.240187 -8.82149e-05  -0.00266194 -0.232658 -0.000118256  0.00443697 -0.233187 -0.000180721  -0.00266862 -0.232748 -9.91821e-05  -0.00388479 -0.255037 -8.82149e-05  0.00330901 -0.255535 -0.00013113  0.00368977 -0.247999 -0.00017786  -0.00388455 -0.255099 -7.67708e-05  -0.00347185 -0.247559 -9.91821e-05  0.0036931 -0.248074 -0.000144482  -0.00347209 -0.247634 -8.53539e-05  -0.00472212 -0.269993 -6.91414e-05  0.00251889 -0.270481 -0.000101089  0.00291395 -0.262947 -0.000138283  -0.0047214 -0.270039 -5.91278e-05  -0.00430036 -0.262507 -7.77245e-05  0.00291753 -0.263005 -0.000114918  -0.00430059 -0.262564 -6.91414e-05  -0.00557089 -0.284966 -5.72205e-05  0.00170493 -0.285441 -8.15392e-05  0.00211453 -0.277915 -0.000107288  -0.00556993 -0.284999 -4.673e-05  -0.00514817 -0.277475 -6.53267e-05  0.00211573 -0.277959 -8.86917e-05  -0.00514412 -0.277519 -5.43594e-05  -0.00643349 -0.299932 -4.00543e-05  0.000874519 -0.300395 -5.38826e-05  0.00128913 -0.292884 -8.05855e-05  -0.00642776 -0.299956 -2.90871e-05  -0.00600243 -0.292445 -4.81606e-05  0.00129294 -0.292918 -6.53267e-05  -0.00599766 -0.292478 -3.91006e-05  -0.00729823 -0.314875 -2.86102e-05  2.83718e-05 -0.315332 -3.86238e-05  0.000446796 -0.307839 -5.57899e-05  -0.00729632 -0.314894 -2.47955e-05  -0.00686216 -0.307402 -3.38554e-05  0.000453711 -0.307867 -4.62532e-05  -0.00686193 -0.307426 -2.6226e-05  -0.0081706 -0.329788 -2.00272e-05  -0.000826836 -0.330234 -2.71797e-05  -0.000401735 -0.322772 -3.62396e-05  -0.00816536 -0.329796 -1.57356e-05  -0.00773478 -0.322331 -2.3365e-05  -0.000397444 -0.322787 -2.81334e-05  -0.00773072 -0.322346 -1.66893e-05  -0.00904441 -0.344656 -1.23978e-05  -0.00169277 -0.345097 -9.05991e-06  -0.00126457 -0.337658 -1.90735e-05  -0.0090394 -0.344658 -9.53674e-06  -0.00860786 -0.337221 -1.43051e-05  -0.00125885 -0.337672 -1.90735e-05  -0.00860238 -0.337233 -1.09673e-05  -0.00991678 -0.359469 -1.43051e-06  -0.00255919 -0.359911 -2.86102e-06  -0.00213408 -0.352502 -5.24521e-06  -0.00991344 -0.35947 -5.72205e-06  -0.00947928 -0.352066 -6.19888e-06  -0.00212717 -0.352507 -6.67572e-06  -0.00947666 -0.35207 -1.43051e-06  -0.010787 -0.37422 1.19209e-05  -0.00342321 -0.374663 1.19209e-05  -0.00300097 -0.367288 7.62939e-06  -0.0107834 -0.374223 2.38419e-06  -0.0103507 -0.366848 4.76837e-07  -0.00299168 -0.367292 4.29153e-06  -0.0103469 -0.366853 9.53674e-07  0.000893921 -0.000721037 -0.00152826  0 0 0  0.00115284 -0.00137293 -0.00152683  0.000383496 -0.000366271 -0.00114775  0 0 0  0.000836417 -0.000959456 -0.00116682  0.000272714 -0.000128806 -0.000878334  0 0 0  0.000354633 -0.00050962 -0.000867367  0.000252448 -0.000262141 -0.000665665  0.0026719 -0.00342739 -0.00225449  0.00345218 -0.00445968 -0.00236559  0.00236538 -0.00239486 -0.00257349  0.0025363 -0.00385451 -0.00180531  0.00173202 -0.0018869 -0.00196028  0.00222148 -0.00277507 -0.00201941  0.00162227 -0.0022456 -0.00154114  0.0045439 -0.00751114 -0.00242567  0.00598085 -0.00867748 -0.00263977  0.00489616 -0.00590312 -0.00312281  0.00443339 -0.00806075 -0.00200462  0.0036256 -0.00530916 -0.00237179  0.00473034 -0.00643492 -0.00254965  0.0034906 -0.00581545 -0.00193691  0.00626588 -0.0127715 -0.00239182  0.00832343 -0.0139608 -0.00264072  0.00728521 -0.0105747 -0.00320005  0.00620288 -0.0133805 -0.00199413  0.00542799 -0.00999177 -0.0024209  0.00718012 -0.0111839 -0.00266027  0.00534108 -0.0105841 -0.00201178  0.00781494 -0.019134 -0.00228214  0.0104355 -0.0203086 -0.00253057  0.00946242 -0.0163718 -0.0031085  0.0077849 -0.0197536 -0.00190401  0.00706077 -0.0158139 -0.00234222  0.00940716 -0.0170047 -0.00259638  0.00701737 -0.0164366 -0.00195694  0.0091933 -0.0265149 -0.00214243  0.0123274 -0.027658 -0.00237846  0.0114247 -0.0232356 -0.00294161  0.00918245 -0.0271209 -0.00179005  0.00852513 -0.0226929 -0.002213  0.0114083 -0.0238614 -0.00245619  0.00850624 -0.0233183 -0.00184679  0.0104035 -0.0348307 -0.0019908  0.0140072 -0.0359338 -0.00220823  0.0131906 -0.031082 -0.00274277  0.0104005 -0.0354097 -0.00166178  0.00981909 -0.0305546 -0.00206757  0.013193 -0.0316823 -0.00229263  0.00981361 -0.0311524 -0.00172615  0.0114439 -0.0440035 -0.00184107  0.0154825 -0.0450594 -0.00203514  0.0147517 -0.0398285 -0.00254202  0.0114502 -0.0445429 -0.00153351  0.0109454 -0.0393081 -0.00191593  0.0147696 -0.0403937 -0.00212383  0.0109468 -0.0398719 -0.00159597  0.0123217 -0.0539505 -0.00169182  0.0167564 -0.054966 -0.00187683  0.0161259 -0.0493914 -0.00234604  0.012329 -0.0544507 -0.00141382  0.011902 -0.0488763 -0.00176573  0.0161448 -0.0499184 -0.00195551  0.0119106 -0.0494042 -0.00146961  0.0130379 -0.0646042 -0.00155449  0.0178339 -0.0655738 -0.00171804  0.0172977 -0.0596979 -0.00215292  0.0130466 -0.0650642 -0.00129366  0.0127017 -0.0591859 -0.00162411  0.0173196 -0.0601869 -0.00179482  0.0127078 -0.0596765 -0.0013504  0.0135995 -0.0758916 -0.00141716  0.0187287 -0.0768222 -0.00156403  0.0182815 -0.0706756 -0.00196838  0.0136086 -0.0763146 -0.00118017  0.0133381 -0.0701681 -0.00148582  0.0183043 -0.0711221 -0.00163889  0.0133473 -0.0706125 -0.00123787  0.0140138 -0.0877522 -0.00129223  0.0194446 -0.0886434 -0.00142527  0.0190866 -0.0822565 -0.00179482  0.014025 -0.0881395 -0.00107622  0.0138264 -0.0817504 -0.00135279  0.0191089 -0.0826654 -0.00149393  0.0138352 -0.0821567 -0.00112772  0.0142878 -0.100127 -0.00116968  0.0199916 -0.100975 -0.00128126  0.0197166 -0.0943792 -0.00163031  0.0142976 -0.100473 -0.000977993  0.0141678 -0.0938751 -0.0012331  0.0197397 -0.0947475 -0.00135851  0.0141789 -0.0942435 -0.00102615  0.0144314 -0.112954 -0.00105572  0.0203799 -0.113762 -0.00115299  0.0201824 -0.106984 -0.0014677  0.0144416 -0.113263 -0.00087738  0.0143737 -0.106481 -0.00111246  0.0202055 -0.107316 -0.0012207  0.0143855 -0.106812 -0.000923157  0.0144517 -0.12618 -0.000945568  0.0206199 -0.126958 -0.00103855  0.0204985 -0.120014 -0.00131702  0.0144603 -0.126456 -0.000785828  0.0144557 -0.119513 -0.000998497  0.0205181 -0.120314 -0.00109625  0.014466 -0.119812 -0.000832081  0.0143545 -0.139755 -0.000841618  0.0207231 -0.140502 -0.00092268  0.0206679 -0.133423 -0.00117779  0.0143635 -0.140002 -0.000701904  0.0144165 -0.132923 -0.00089407  0.0206896 -0.133688 -0.000978947  0.0144258 -0.133187 -0.000741959  0.0141497 -0.153639 -0.000740051  0.0206952 -0.15435 -0.000814915  0.0207024 -0.147152 -0.00104094  0.0141656 -0.153851 -0.000617027  0.0142634 -0.146655 -0.000792503  0.0207257 -0.147388 -0.000866413  0.0142779 -0.14689 -0.000659466  0.0138505 -0.167775 -0.000648022  0.0205479 -0.168455 -0.000713348  0.0206122 -0.161162 -0.000914574  0.0138662 -0.167962 -0.000540733  0.0140142 -0.16067 -0.000696659  0.0206378 -0.161372 -0.000757694  0.0140259 -0.160877 -0.000577927  0.0134673 -0.182128 -0.000563622  0.0202928 -0.182782 -0.00061655  0.0204139 -0.175415 -0.000797749  0.0134788 -0.182294 -0.000468731  0.0136683 -0.174919 -0.000607491  0.0204334 -0.175592 -0.000664234  0.0136828 -0.175101 -0.000504494  0.0129993 -0.196663 -0.000483036  0.0199435 -0.197291 -0.000526905  0.0201063 -0.189858 -0.000682831  0.0130138 -0.196802 -0.000403881  0.0132444 -0.189373 -0.000524521  0.0201297 -0.190015 -0.00056839  0.0132539 -0.189523 -0.000433922  0.0124629 -0.21134 -0.000409126  0.0195043 -0.211942 -0.000449181  0.0197089 -0.204464 -0.000579834  0.0124743 -0.211459 -0.000341892  0.0127413 -0.203977 -0.000446796  0.0197349 -0.204598 -0.000483036  0.0127535 -0.204112 -0.000369072  0.0118597 -0.226133 -0.000341892  0.0189824 -0.226706 -0.000370979  0.0192311 -0.219199 -0.000489235  0.011873 -0.226229 -0.000280857  0.0121703 -0.218718 -0.000373363  0.0192494 -0.219312 -0.000405788  0.0121818 -0.218829 -0.000310421  0.0112071 -0.241001 -0.000279427  0.0183892 -0.241555 -0.000305653  0.0186729 -0.234029 -0.000401974  0.0112181 -0.241081 -0.000234127  0.0115399 -0.233551 -0.000309944  0.0186956 -0.234121 -0.00033474  0.0115528 -0.233643 -0.000256062  0.0105023 -0.255929 -0.00022459  0.0177424 -0.25646 -0.000238419  0.0180581 -0.248929 -0.000324726  0.0105159 -0.255989 -0.000183105  0.0108621 -0.248457 -0.000252247  0.0180733 -0.249001 -0.000270367  0.0108728 -0.248528 -0.000207424  0.00976038 -0.270886 -0.00017786  0.0170417 -0.271399 -0.000190735  0.0173821 -0.263868 -0.000259399  0.00977206 -0.270934 -0.000143528  0.0101366 -0.263399 -0.000199318  0.0173976 -0.263927 -0.0002141  0.010149 -0.263459 -0.000165462  0.00897956 -0.285856 -0.000133038  0.0162961 -0.286353 -0.000141621  0.0166595 -0.27883 -0.000196457  0.00899291 -0.285893 -0.000106812  0.00937366 -0.278366 -0.000153065  0.0166743 -0.278874 -0.000164509  0.00938582 -0.278413 -0.000127792  0.00817561 -0.300819 -9.87053e-05  0.0155134 -0.301299 -9.72748e-05  0.0158927 -0.293793 -0.000144482  0.00818849 -0.300841 -8.01086e-05  0.00858212 -0.293333 -0.000110626  0.0159066 -0.293826 -0.000120163  0.00859451 -0.293369 -9.29832e-05  0.00735235 -0.315766 -6.4373e-05  0.0147042 -0.316227 -6.81877e-05  0.015099 -0.308741 -0.000100136  0.00736117 -0.315775 -5.14984e-05  0.00776792 -0.30829 -7.86781e-05  0.0151114 -0.308766 -8.4877e-05  0.00777721 -0.308314 -6.58035e-05  0.00650835 -0.330671 -3.8147e-05  0.0138707 -0.331128 -4.24385e-05  0.014276 -0.323663 -6.29425e-05  0.00651598 -0.330678 -2.90871e-05  0.00693226 -0.323216 -4.91142e-05  0.014291 -0.323682 -4.86374e-05  0.00694203 -0.323233 -3.91006e-05  0.00565505 -0.345535 -1.7643e-05  0.0130193 -0.345982 -2.09808e-05  0.013438 -0.338549 -3.38554e-05  0.00565958 -0.345539 -1.4782e-05  0.00608206 -0.338101 -2.71797e-05  0.0134456 -0.338559 -2.67029e-05  0.0060904 -0.338113 -2.57492e-05  0.00478697 -0.36035 9.53674e-07  0.0121591 -0.36079 4.76837e-07  0.0125794 -0.353385 -1.14441e-05  0.00479555 -0.360353 9.53674e-07  0.00522304 -0.352943 -8.10623e-06  0.0125911 -0.353395 -9.53674e-06  0.0052278 -0.352949 -9.05991e-06  0.00392723 -0.375105 2.00272e-05  0.0112996 -0.375554 1.23978e-05  0.0117145 -0.368175 7.62939e-06  0.00393438 -0.375106 1.85966e-05  0.00435567 -0.36773 7.15256e-06  0.0117276 -0.368178 9.05991e-06  0.00436497 -0.367734 4.29153e-06  0.00164105 -0.00167716 -0.00243616  0 0 0  0.00199974 -0.00282568 -0.00218582  0.000651501 -0.0012238 -0.00162935  0 0 0  0.00154363 -0.00197136 -0.00186014  0.000498913 -0.000716865 -0.0013833  0 0 0  0.000610836 -0.00140613 -0.00123453  0.000462532 -0.000877202 -0.00104809  0.00472102 -0.00475502 -0.00363016  0.00572428 -0.0062533 -0.00342751  0.00398421 -0.00399023 -0.00370407  0.00452092 -0.00525892 -0.00290585  0.00312334 -0.00308257 -0.00314093  0.00379702 -0.00445032 -0.00291491  0.00295004 -0.00349569 -0.00247049  0.00781026 -0.00884157 -0.00394773  0.00945815 -0.0103431 -0.00386763  0.00783703 -0.00755203 -0.00454187  0.00765675 -0.00944483 -0.0032649  0.00630763 -0.0066545 -0.00383997  0.00763619 -0.00816464 -0.00371218  0.00611645 -0.00721884 -0.0031352  0.010624 -0.014038 -0.00393438  0.0128777 -0.0155196 -0.00390244  0.0113193 -0.0121309 -0.00471973  0.0105431 -0.0146764 -0.00327635  0.00924677 -0.011292 -0.0039649  0.0112001 -0.0127898 -0.00391769  0.00913247 -0.0119207 -0.00329304  0.0132048 -0.0203496 -0.00376892  0.0160264 -0.0217879 -0.00375891  0.014541 -0.017857 -0.00461626  0.0131775 -0.0209866 -0.00314713  0.0119429 -0.0170556 -0.00386429  0.0144865 -0.018519 -0.00384808  0.0118926 -0.0177007 -0.00322628  0.0155548 -0.0276992 -0.00354624  0.0188901 -0.029075 -0.00353813  0.0175045 -0.0246679 -0.00437784  0.0155548 -0.0283076 -0.00295782  0.014408 -0.0238915 -0.00366211  0.0174907 -0.0253062 -0.00365686  0.0143963 -0.0245274 -0.00305891  0.0176737 -0.0359877 -0.00329971  0.0214791 -0.0373074 -0.00329113  0.0202007 -0.0324727 -0.00409317  0.0176926 -0.0365657 -0.00275612  0.0166411 -0.0317227 -0.00342131  0.0202181 -0.0330782 -0.00341749  0.0166563 -0.0323254 -0.00285769  0.0195609 -0.0451355 -0.00304604  0.0237972 -0.0464001 -0.00303555  0.0226431 -0.0411835 -0.00379372  0.019588 -0.0456788 -0.00254011  0.0186456 -0.0404537 -0.00317049  0.0226738 -0.0417513 -0.00316668  0.01867 -0.0410215 -0.00264645  0.0212206 -0.0550711 -0.00280285  0.0258499 -0.0562737 -0.00279331  0.0248195 -0.0507185 -0.00349331  0.0212545 -0.0555753 -0.00233459  0.0204173 -0.0500081 -0.00292349  0.0248541 -0.0512431 -0.00291586  0.0204496 -0.0505317 -0.00243568  0.0226597 -0.065713 -0.00256586  0.0276424 -0.0668564 -0.00255537  0.0267413 -0.0609964 -0.00320673  0.0226936 -0.0661727 -0.002141  0.0219684 -0.0603015 -0.00268412  0.0267799 -0.0614792 -0.00267315  0.0220013 -0.0607865 -0.00223351  0.023882 -0.0769883 -0.00234079  0.0291876 -0.0780794 -0.00233221  0.0284082 -0.0719469 -0.00293159  0.0239152 -0.0774108 -0.00195074  0.0232984 -0.0712684 -0.00245285  0.0284456 -0.072392 -0.00244284  0.023331 -0.0717155 -0.0020442  0.0248966 -0.0888393 -0.00212908  0.030498 -0.0898745 -0.00211525  0.0298365 -0.0835055 -0.00267124  0.02493 -0.0892211 -0.00177193  0.0244143 -0.0828438 -0.00223351  0.0298712 -0.083908 -0.00222349  0.0244483 -0.0832477 -0.00186062  0.0257137 -0.101202 -0.00192261  0.0315814 -0.102187 -0.0019145  0.0310285 -0.0956025 -0.00241995  0.0257471 -0.101545 -0.0016017  0.0253307 -0.0949553 -0.00202513  0.031065 -0.0959672 -0.00201273  0.0253621 -0.0953224 -0.00168705  0.0263464 -0.114017 -0.00172758  0.0324525 -0.114956 -0.00172091  0.0320069 -0.108184 -0.00217819  0.026379 -0.114329 -0.00143528  0.0260533 -0.107552 -0.00182343  0.0320426 -0.108515 -0.00181675  0.0260838 -0.107883 -0.0015192  0.0268061 -0.127236 -0.00154638  0.0331264 -0.128125 -0.00153923  0.0327808 -0.121196 -0.00195408  0.0268389 -0.127517 -0.00128841  0.0265975 -0.120578 -0.00163889  0.0328139 -0.121494 -0.00162649  0.0266305 -0.120875 -0.00136375  0.0271015 -0.140803 -0.00137377  0.0336089 -0.141647 -0.00136232  0.0333505 -0.134578 -0.00173903  0.0271323 -0.14105 -0.0011425  0.0269735 -0.133972 -0.00145864  0.0333898 -0.134845 -0.00144863  0.0270057 -0.13424 -0.00121403  0.0272434 -0.154673 -0.00121069  0.0339165 -0.155475 -0.00120831  0.0337508 -0.148291 -0.00153875  0.0272729 -0.15489 -0.00100899  0.0271926 -0.147696 -0.00129223  0.0337839 -0.148525 -0.00128126  0.0272212 -0.147933 -0.00107908  0.0272484 -0.168804 -0.00105667  0.0340655 -0.169562 -0.00104523  0.0339797 -0.162282 -0.0013504  0.027276 -0.168987 -0.000880241  0.0272624 -0.161703 -0.00113344  0.0340106 -0.162488 -0.00112677  0.0272915 -0.161909 -0.000944614  0.0271225 -0.183148 -0.000916481  0.0340652 -0.183867 -0.000908375  0.0340517 -0.17651 -0.00116968  0.0271511 -0.183308 -0.0007658  0.027204 -0.175942 -0.000984192  0.034086 -0.17669 -0.000977039  0.0272303 -0.176121 -0.000822067  0.0268826 -0.19767 -0.000785828  0.0339317 -0.198355 -0.000770092  0.0339818 -0.190938 -0.00100803  0.0269103 -0.197809 -0.000653267  0.0270178 -0.19038 -0.000849247  0.0340161 -0.19109 -0.000839233  0.0270441 -0.190538 -0.000708103  0.0265362 -0.212335 -0.000658989  0.0336738 -0.212985 -0.00065136  0.0337896 -0.20552 -0.000856876  0.0265641 -0.212452 -0.000554085  0.0267217 -0.204979 -0.000720501  0.0338178 -0.205653 -0.000711918  0.0267513 -0.205113 -0.000598907  0.0261006 -0.227111 -0.000546932  0.0333052 -0.227729 -0.000542164  0.0334733 -0.220233 -0.000717163  0.0261216 -0.227205 -0.00045681  0.0263307 -0.219706 -0.00060463  0.0335011 -0.220342 -0.000597  0.0263565 -0.219815 -0.000501633  0.0255721 -0.24197 -0.000445843  0.0328386 -0.242558 -0.000442982  0.0330582 -0.235043 -0.000585556  0.0255959 -0.242047 -0.000370979  0.0258443 -0.234525 -0.000498295  0.0330861 -0.235134 -0.000488281  0.0258684 -0.234618 -0.000413895  0.0249722 -0.25688 -0.000355244  0.0322859 -0.257444 -0.000349045  0.0325494 -0.249921 -0.000472069  0.0249965 -0.256947 -0.000294209  0.0252798 -0.249415 -0.000398159  0.0325732 -0.249994 -0.000392914  0.0253046 -0.249489 -0.000329971  0.0243118 -0.271832 -0.000276089  0.0316572 -0.272363 -0.000269413  0.031961 -0.264842 -0.000370502  0.0243337 -0.271876 -0.000230312  0.0246477 -0.264349 -0.00031662  0.0319803 -0.264898 -0.000308514  0.0246747 -0.264408 -0.000263691  0.0235987 -0.286787 -0.00020504  0.0309646 -0.2873 -0.000202179  0.0312994 -0.279787 -0.000280857  0.0236175 -0.286823 -0.000171185  0.0239618 -0.279302 -0.000239849  0.0313194 -0.279829 -0.000236034  0.0239825 -0.279347 -0.000199318  0.0228391 -0.301744 -0.000146866  0.0302207 -0.302231 -0.000141144  0.0305846 -0.294734 -0.000203133  0.0228562 -0.301763 -0.000118732  0.0232248 -0.294258 -0.000174522  0.0305994 -0.294766 -0.000169754  0.023243 -0.294291 -0.000144482  0.0220456 -0.316671 -9.77516e-05  0.029433 -0.317145 -9.67979e-05  0.0298147 -0.309669 -0.00013876  0.022059 -0.316684 -7.9155e-05  0.0224495 -0.309204 -0.000120163  0.0298324 -0.309692 -0.000113964  0.0224617 -0.309225 -0.00010252  0.02122 -0.331567 -5.81741e-05  0.0286117 -0.33203 -6.1512e-05  0.0290129 -0.324573 -8.72612e-05  0.0212326 -0.331579 -4.76837e-05  0.0216355 -0.324118 -7.62939e-05  0.0290253 -0.32459 -7.29561e-05  0.0216496 -0.324134 -6.38962e-05  0.0203764 -0.346429 -2.67029e-05  0.0277693 -0.346877 -2.6226e-05  0.0281775 -0.339446 -4.76837e-05  0.0203872 -0.346429 -2.00272e-05  0.020803 -0.338996 -4.33922e-05  0.0281928 -0.339456 -4.33922e-05  0.0208135 -0.339005 -3.71933e-05  0.0195167 -0.361232 -9.53674e-07  0.0269094 -0.361679 -2.38419e-06  0.0273266 -0.354275 -1.81198e-05  0.0195282 -0.361236 -2.86102e-06  0.0199471 -0.353829 -1.62125e-05  0.0273416 -0.354282 -1.71661e-05  0.0199592 -0.353837 -1.38283e-05  0.0186539 -0.376002 2.6226e-05  0.0260444 -0.37645 2.52724e-05  0.0264633 -0.369061 1.00136e-05  0.0186672 -0.376003 1.90735e-05  0.0190833 -0.368619 1.04904e-05  0.0264761 -0.36907 8.58307e-06  0.0190976 -0.368623 7.62939e-06  0.00283366 -0.0036993 -0.00328255  0 0 0  0.00379208 -0.00578767 -0.00288916  0.00133685 -0.00318003 -0.00212193  0 0 0  0.00273025 -0.00409311 -0.0025301  0.000859372 -0.00198281 -0.00180769  0 0 0  0.00131527 -0.00339299 -0.00164318  0.000811502 -0.00217849 -0.00139141  0.00735602 -0.00677323 -0.00492859  0.0087679 -0.00858533 -0.00449371  0.00649659 -0.00640869 -0.00486708  0.0071488 -0.0073927 -0.00395441  0.00514019 -0.00512296 -0.00427961  0.00638226 -0.00700623 -0.00384283  0.00496762 -0.00564349 -0.00337219  0.0115402 -0.0106882 -0.00543308  0.0134462 -0.012529 -0.00510216  0.0112896 -0.00970066 -0.00599861  0.0113761 -0.0113748 -0.00448418  0.00949055 -0.00857931 -0.00526333  0.0111059 -0.0104181 -0.00488901  0.00929108 -0.00924456 -0.0042963  0.0154251 -0.0157994 -0.00545359  0.0179373 -0.0175676 -0.00516272  0.015854 -0.0141737 -0.00625134  0.0153363 -0.0164837 -0.0045352  0.013517 -0.0130928 -0.00548124  0.0157302 -0.0148982 -0.00517511  0.0133933 -0.0137833 -0.00454521  0.0190303 -0.0220479 -0.00524187  0.022114 -0.0237342 -0.00497437  0.0201379 -0.0198162 -0.00612211  0.0189979 -0.0227031 -0.0043745  0.0172619 -0.0187821 -0.00536633  0.0200698 -0.0205131 -0.00509501  0.0172053 -0.0194562 -0.00446987  0.0223471 -0.0293299 -0.00493097  0.0259511 -0.0309455 -0.00469685  0.0241052 -0.0265563 -0.0058074  0.0223495 -0.0299549 -0.00411558  0.0207264 -0.0255558 -0.00509596  0.0240755 -0.0272121 -0.00484562  0.0207129 -0.026202 -0.004251  0.0253675 -0.0375724 -0.00458813  0.0294426 -0.0391067 -0.00437069  0.0277441 -0.0343021 -0.0054307  0.02539 -0.0381526 -0.00382805  0.0238966 -0.0333337 -0.0047636  0.0277391 -0.0349103 -0.00452948  0.0239086 -0.0339408 -0.00397682  0.0280921 -0.0466779 -0.00424004  0.0325881 -0.0481347 -0.0040226  0.0310455 -0.042951 -0.00502872  0.0281206 -0.0472194 -0.0035367  0.0267667 -0.0420156 -0.0044136  0.0310578 -0.0435185 -0.00419569  0.0267937 -0.0425833 -0.00368166  0.0305232 -0.0565692 -0.00390053  0.0353987 -0.0579519 -0.00370455  0.0340157 -0.0524277 -0.00463295  0.0305598 -0.0570658 -0.00324726  0.0293441 -0.051524 -0.00406742  0.0340356 -0.0529504 -0.00386715  0.0293778 -0.0520505 -0.00338984  0.0326633 -0.0671694 -0.00356817  0.037889 -0.0684805 -0.0033927  0.0366631 -0.0626515 -0.00425339  0.0327015 -0.0676245 -0.00297689  0.0316294 -0.0617759 -0.00373363  0.0366844 -0.0631303 -0.00354862  0.0316664 -0.0622622 -0.00311184  0.034531 -0.0784096 -0.00325489  0.0400709 -0.0796505 -0.0030899  0.0389948 -0.0735533 -0.00388241  0.0345652 -0.078827 -0.00271082  0.0336323 -0.0727082 -0.00340986  0.0390162 -0.0739877 -0.00323868  0.033667 -0.073149 -0.00283861  0.0361303 -0.0902223 -0.00295687  0.0419518 -0.0914003 -0.00281  0.0410191 -0.0850598 -0.00353146  0.0361677 -0.0905997 -0.00246143  0.0353616 -0.0842444 -0.00310469  0.0410476 -0.085457 -0.0029459  0.0353982 -0.0846447 -0.00258398  0.0374758 -0.102551 -0.00266743  0.043552 -0.103662 -0.00253487  0.0427583 -0.0971102 -0.00320339  0.037513 -0.102892 -0.0022254  0.0368346 -0.0963188 -0.00281096  0.0427846 -0.0974689 -0.00266981  0.036873 -0.0966846 -0.0023427  0.0385803 -0.115335 -0.0024004  0.0448865 -0.116385 -0.0022831  0.0442297 -0.109643 -0.00288486  0.0386165 -0.115642 -0.00199699  0.0380573 -0.108882 -0.00253153  0.0442514 -0.109971 -0.00240517  0.0380943 -0.109213 -0.00210953  0.0394613 -0.128517 -0.00214291  0.045967 -0.129512 -0.00203276  0.0454351 -0.122608 -0.00258398  0.0394976 -0.128793 -0.00178766  0.0390472 -0.121871 -0.00226879  0.0454569 -0.122904 -0.00215197  0.0390841 -0.122171 -0.00189161  0.0401306 -0.142054 -0.00190163  0.0468171 -0.142988 -0.00180674  0.0463954 -0.13595 -0.00229979  0.0401649 -0.142295 -0.00158167  0.0398227 -0.135239 -0.00202084  0.046422 -0.13621 -0.00191784  0.039857 -0.135501 -0.0016818  0.0406022 -0.155894 -0.00167656  0.0474439 -0.156772 -0.00158882  0.0471327 -0.14962 -0.00203037  0.0406353 -0.156101 -0.00139666  0.0403876 -0.148932 -0.00178528  0.0471594 -0.149847 -0.00169277  0.0404243 -0.149163 -0.00149012  0.0408931 -0.169987 -0.00146198  0.0478687 -0.170821 -0.00138187  0.0476537 -0.163566 -0.00177908  0.0409253 -0.170175 -0.00121689  0.0407708 -0.162903 -0.00156784  0.047683 -0.163769 -0.0014863  0.0407999 -0.163107 -0.00130749  0.0410171 -0.184303 -0.00125933  0.0481009 -0.185083 -0.00119448  0.0479836 -0.177752 -0.00154352  0.0410457 -0.18446 -0.00105095  0.0409744 -0.177115 -0.00135851  0.0480061 -0.177927 -0.00128889  0.0410073 -0.177291 -0.00113297  0.0409827 -0.198795 -0.00107908  0.048166 -0.199528 -0.00102091  0.0481362 -0.192138 -0.00132751  0.041014 -0.198927 -0.000899315  0.0410168 -0.191522 -0.0011692  0.0481534 -0.192288 -0.00110674  0.0410497 -0.191675 -0.000972748  0.0408103 -0.21343 -0.000906944  0.0480707 -0.214124 -0.000855923  0.0481148 -0.206681 -0.00112247  0.0408382 -0.213544 -0.000754356  0.040915 -0.206091 -0.000988483  0.0481389 -0.206809 -0.000936508  0.0409431 -0.206218 -0.000824928  0.0405138 -0.228175 -0.000754833  0.0478361 -0.228832 -0.00070858  0.0479503 -0.22136 -0.000937939  0.0405397 -0.228272 -0.000624657  0.0406764 -0.220784 -0.000826836  0.0479674 -0.221464 -0.000781059  0.0407045 -0.220893 -0.000691414  0.0401022 -0.243011 -0.000610352  0.0474727 -0.243626 -0.000573158  0.0476506 -0.236134 -0.000770569  0.0401275 -0.243084 -0.000510216  0.0403221 -0.235577 -0.000680447  0.0476716 -0.236216 -0.000645638  0.0403481 -0.235669 -0.000569344  0.0395911 -0.257899 -0.000482082  0.0469961 -0.258478 -0.000458241  0.0472269 -0.250975 -0.000612259  0.0396154 -0.257956 -0.000401974  0.0398591 -0.250443 -0.000544071  0.0472503 -0.251045 -0.000513077  0.0398829 -0.250512 -0.000452518  0.0389981 -0.272819 -0.000371933  0.0464201 -0.273369 -0.000347137  0.0467024 -0.265864 -0.000476837  0.0390177 -0.272862 -0.000310421  0.0393038 -0.265346 -0.000425339  0.0467176 -0.265919 -0.00040102  0.0393269 -0.265404 -0.000357628  0.0383248 -0.287753 -0.000275612  0.0457659 -0.288272 -0.000259399  0.0460861 -0.280776 -0.000361443  0.0383463 -0.287785 -0.000228405  0.0386717 -0.280278 -0.000320435  0.0461025 -0.280821 -0.000300407  0.0386906 -0.280321 -0.000270844  0.0375915 -0.302688 -0.000193119  0.0450349 -0.30318 -0.000179291  0.0453935 -0.295697 -0.000259876  0.037611 -0.302705 -0.000160217  0.0379665 -0.295213 -0.000231266  0.0454051 -0.295725 -0.000219345  0.037986 -0.295244 -0.000195503  0.036813 -0.317593 -0.000127316  0.0442476 -0.318067 -0.000119209  0.0446339 -0.310604 -0.00017643  0.0368278 -0.317606 -0.000108719  0.0372093 -0.310137 -0.000160694  0.0446491 -0.310624 -0.000150204  0.037226 -0.310157 -0.000130653  0.035991 -0.332479 -7.29561e-05  0.0434165 -0.332933 -6.62804e-05  0.0438249 -0.325489 -0.000110626  0.0360067 -0.332482 -6.38962e-05  0.0364072 -0.325034 -9.77516e-05  0.0438356 -0.325503 -9.25064e-05  0.0364211 -0.325048 -8.44002e-05  0.0351429 -0.347325 -3.57628e-05  0.0425608 -0.347761 -3.57628e-05  0.0429804 -0.340346 -5.62668e-05  0.0351579 -0.347321 -3.05176e-05  0.0355697 -0.339899 -5.29289e-05  0.0429904 -0.340356 -5.24521e-05  0.0355856 -0.339908 -4.52995e-05  0.0342782 -0.362126 -8.10623e-06  0.0416803 -0.362561 -1.00136e-05  0.042109 -0.355162 -2.47955e-05  0.0342913 -0.36212 -9.05991e-06  0.0347118 -0.354721 -2.28882e-05  0.0421247 -0.355164 -2.3365e-05  0.0347266 -0.354724 -2.00272e-05  0.0334115 -0.376892 2.0504e-05  0.0408082 -0.377335 1.28746e-05  0.0412357 -0.369947 -3.33786e-06  0.0334196 -0.376894 1.57356e-05  0.0338433 -0.369506 5.72205e-06  0.0412416 -0.369952 -1.43051e-06  0.0338569 -0.369511 5.24521e-06  -0.00399183 -0.00435889 0.0049305  -0.00188415 -0.00222799 0.00381422  0 0 0  -0.00387387 -0.00200772 0.00570393  0 0 0  -0.00234538 -0.00165292 0.00378895  -0.00110562 -0.00035426 0.00303555  0 0 0  -0.00133925 -0.00241394 0.0028019  -0.0030387 -0.00278004 0.00437021  -0.00139113 -0.00106395 0.00328827  0 0 0  -0.000714645 -0.000733443 0.00217295  -0.000893526 -0.00138462 0.002388  -0.00907755 -0.00632434 0.00697947  -0.00746897 -0.0040229 0.00739765  -0.00800669 -0.00425994 0.0069375  -0.00604427 -0.00434267 0.00524092  -0.00486964 -0.00205245 0.00550413  -0.00671878 -0.00515932 0.00620222  -0.00751226 -0.00529769 0.00608826  -0.00617644 -0.00298586 0.00645685  -0.00424209 -0.00286928 0.00465441  -0.00542122 -0.003918 0.0054183  -0.0135865 -0.00990178 0.00755072  -0.0115691 -0.00676137 0.0084753  -0.0115315 -0.00783395 0.00747585  -0.0094493 -0.00805043 0.0056181  -0.00800869 -0.00506049 0.00625277  -0.0113267 -0.00795686 0.00738478  -0.0114403 -0.00890168 0.00656414  -0.00973073 -0.00587165 0.00731516  -0.00777358 -0.00604139 0.00550461  -0.00948331 -0.00694114 0.00642014  -0.0179904 -0.0146855 0.00748968  -0.0157939 -0.0110202 0.00863075  -0.015151 -0.012753 0.0073967  -0.0126935 -0.0130041 0.00558138  -0.0110764 -0.00936301 0.00638676  -0.0158137 -0.012139 0.0075717  -0.0152474 -0.0137802 0.00652409  -0.0133436 -0.0101312 0.00748253  -0.0110826 -0.0103728 0.00563812  -0.0133655 -0.0111862 0.00658703  -0.0222039 -0.0206427 0.00714111  -0.0199529 -0.0164992 0.00834417  -0.018714 -0.018862 0.00707722  -0.0158306 -0.0191077 0.00533342  -0.0141333 -0.0149417 0.00620222  -0.0201197 -0.0175273 0.00734091  -0.0189155 -0.0198134 0.00623322  -0.0169361 -0.0156559 0.00725603  -0.0142729 -0.0159167 0.00547647  -0.0170978 -0.0166586 0.00639915  -0.0262296 -0.0276328 0.00666761  -0.0240058 -0.0230818 0.00786114  -0.0221974 -0.0260059 0.00662565  -0.0188668 -0.0262548 0.00498772  -0.0171558 -0.0216426 0.00586605  -0.0242414 -0.024013 0.0069108  -0.0224466 -0.0268887 0.00582647  -0.020469 -0.0223025 0.0068574  -0.0173617 -0.0225581 0.00517178  -0.0206993 -0.0232287 0.00604248  -0.0300583 -0.0355502 0.00616598  -0.027915 -0.0306227 0.00730753  -0.0255619 -0.0340841 0.00614023  -0.021791 -0.034339 0.00461388  -0.0201157 -0.0293365 0.00546169  -0.0281686 -0.0314794 0.00642443  -0.025823 -0.0348958 0.00539207  -0.0238913 -0.0299269 0.00638247  -0.0203452 -0.0301851 0.004807  -0.0241547 -0.0307793 0.00561142  -0.0336875 -0.0443159 0.00566101  -0.0316326 -0.0390472 0.00673532  -0.0287791 -0.0430042 0.0056448  -0.0245933 -0.0432657 0.0042429  -0.0229675 -0.0379202 0.00504398  -0.0318987 -0.0398274 0.0059166  -0.02904 -0.043746 0.00495338  -0.0271917 -0.0384418 0.00588894  -0.0232067 -0.0387003 0.00443029  -0.0274507 -0.0392158 0.00516939  -0.0371166 -0.0538511 0.00518179  -0.0351609 -0.0482808 0.00617456  -0.0318416 -0.052696 0.00517178  -0.0272697 -0.0529644 0.00388336  -0.0257099 -0.0473114 0.00463057  -0.0354321 -0.0489878 0.00541592  -0.0320985 -0.0533679 0.00453091  -0.0303288 -0.0477576 0.005404  -0.0259473 -0.0480217 0.00405979  -0.0305887 -0.0484625 0.00474167  -0.0403483 -0.0640872 0.00471354  -0.0385053 -0.05824 0.00564718  -0.0347474 -0.0630796 0.00471258  -0.0298216 -0.0633634 0.0035367  -0.0283326 -0.0574302 0.00423336  -0.0387524 -0.0588805 0.00494814  -0.0349962 -0.0636895 0.00412941  -0.0333155 -0.057799 0.00493717  -0.0285599 -0.0580789 0.00370932  -0.0335672 -0.058445 0.00433159  -0.0433974 -0.0749585 0.00428247  -0.0416553 -0.0688633 0.00513077  -0.0375016 -0.0740945 0.0042758  -0.0322478 -0.0743944 0.00320911  -0.0308326 -0.0682114 0.00384808  -0.0418949 -0.0694472 0.00449657  -0.037739 -0.0746471 0.00374508  -0.0361412 -0.0685073 0.0044899  -0.0310501 -0.0688006 0.00337124  -0.0363866 -0.0690893 0.00393534  -0.0462626 -0.0864232 0.00386238  -0.0446168 -0.0801039 0.00463772  -0.0401108 -0.0856871 0.00386429  -0.0345597 -0.0860011 0.00289631  -0.0332062 -0.0795955 0.00348473  -0.0448536 -0.0806226 0.00406933  -0.0403299 -0.0861853 0.00338507  -0.0388298 -0.0798202 0.00406456  -0.0334188 -0.0801283 0.00305319  -0.0390517 -0.080345 0.00356054  -0.0489554 -0.0984104 0.00347662  -0.0474149 -0.0918786 0.00419092  -0.042569 -0.0978039 0.00347996  -0.0367517 -0.0981302 0.00260401  -0.0354725 -0.0915227 0.0031414  -0.0476273 -0.0923522 0.00367498  -0.042776 -0.0982455 0.00304794  -0.0413535 -0.0916759 0.00367165  -0.0356709 -0.0920044 0.0027523  -0.0415699 -0.0921551 0.00321054  -0.0514786 -0.110866 0.00311232  -0.0500288 -0.104159 0.00376368  -0.0448866 -0.110386 0.00311852  -0.0388317 -0.110723 0.00232792  -0.0376204 -0.103942 0.00282145  -0.0502381 -0.104578 0.00330448  -0.045083 -0.110778 0.00272703  -0.0437465 -0.10403 0.00329399  -0.0378046 -0.104372 0.00246525  -0.0439469 -0.104454 0.00288582  -0.0538465 -0.12375 0.00276613  -0.0524817 -0.116886 0.00335312  -0.0470757 -0.123376 0.00277138  -0.0408059 -0.123731 0.00207472  -0.0396557 -0.1168 0.00251865  -0.0526838 -0.117256 0.00293732  -0.047258 -0.123722 0.00242233  -0.0459974 -0.116824 0.00293875  -0.0398308 -0.117177 0.00220203  -0.0461879 -0.117196 0.00257206  -0.0560633 -0.137004 0.0024457  -0.0547988 -0.130006 0.0029707  -0.0491357 -0.136736 0.00244665  -0.0426747 -0.137102 0.00183105  -0.0415887 -0.13004 0.00223064  -0.0549726 -0.130329 0.00260782  -0.0493027 -0.137038 0.00214195  -0.0481211 -0.13001 0.00260353  -0.0417529 -0.130371 0.00194979  -0.0482955 -0.130336 0.00227833  -0.0581298 -0.150587 0.00213432  -0.0569458 -0.143467 0.00261688  -0.0510702 -0.150415 0.00214148  -0.0444415 -0.150794 0.00160646  -0.0434206 -0.143615 0.00196171  -0.0571144 -0.143755 0.00228739  -0.0512247 -0.150678 0.00187349  -0.0501156 -0.143532 0.00229216  -0.0435696 -0.143911 0.00171423  -0.0502799 -0.143821 0.00200224  -0.0600562 -0.164452 0.00185871  -0.0589581 -0.157237 0.00227737  -0.0528865 -0.16437 0.00186253  -0.0461173 -0.164763 0.00139618  -0.0451529 -0.15749 0.00171041  -0.0591106 -0.15749 0.00199413  -0.0530319 -0.164598 0.00163031  -0.0519903 -0.15736 0.00200129  -0.0452912 -0.157744 0.00149632  -0.0521455 -0.157607 0.00174475  -0.0618644 -0.178568 0.00159597  -0.0608385 -0.171267 0.00197363  -0.054599 -0.178562 0.00160027  -0.0477004 -0.178963 0.00119877  -0.0467944 -0.17161 0.00147676  -0.0609763 -0.17148 0.00172472  -0.0547299 -0.17876 0.00139952  -0.0537539 -0.171434 0.00173044  -0.0469193 -0.171832 0.00129461  -0.0538917 -0.171649 0.00151062  -0.0635445 -0.192884 0.00134993  -0.0625892 -0.185521 0.00168467  -0.0562027 -0.192953 0.00135469  -0.0491972 -0.193359 0.00101519  -0.048346 -0.185951 0.00126457  -0.0627191 -0.185699 0.00147057  -0.0563247 -0.193118 0.0011878  -0.0554118 -0.185732 0.00147343  -0.0484579 -0.186136 0.00110674  -0.0555398 -0.185913 0.00129223  -0.0651045 -0.207368 0.00112247  -0.0642257 -0.199956 0.00141621  -0.0577095 -0.207506 0.00113249  -0.050612 -0.207914 0.000852108  -0.049809 -0.200465 0.00106573  -0.0643401 -0.200107 0.00124025  -0.0578172 -0.207638 0.000991344  -0.0569701 -0.200207 0.00124502  -0.0499146 -0.200621 0.000930309  -0.0570829 -0.200359 0.00108576  -0.0665607 -0.221988 0.000931263  -0.0657432 -0.214533 0.00117207  -0.0591199 -0.222186 0.000931263  -0.0519533 -0.2226 0.000696182  -0.0511949 -0.215115 0.000883579  -0.0658431 -0.214662 0.00103092  -0.0592177 -0.222296 0.0008111  -0.0584259 -0.214826 0.00103045  -0.0512903 -0.215245 0.000770569  -0.0585287 -0.214951 0.000902176  -0.0679181 -0.236715 0.000749588  -0.0671542 -0.229247 0.000944614  -0.0604477 -0.236964 0.000746727  -0.0532162 -0.237385 0.000559807  -0.0525105 -0.22988 0.000721931  -0.0672526 -0.229342 0.000828743  -0.0605323 -0.237048 0.000650883  -0.0597951 -0.229563 0.000836849  -0.0525918 -0.229981 0.000629425  -0.0598836 -0.229659 0.000732422  -0.0691798 -0.251519 0.000582695  -0.0684738 -0.244041 0.000754356  -0.0616949 -0.251824 0.00058794  -0.0544136 -0.252239 0.000444889  -0.0537555 -0.244724 0.000572205  -0.0685565 -0.244113 0.000661373  -0.0617673 -0.251883 0.000511646  -0.0610812 -0.24438 0.000668526  -0.0538242 -0.244804 0.000500202  -0.0611584 -0.244457 0.000583649  -0.0703599 -0.266377 0.000445843  -0.069715 -0.258887 0.000579834  -0.0628672 -0.266715 0.000444889  -0.0555503 -0.267139 0.000335693  -0.0549257 -0.259624 0.000439167  -0.0697796 -0.258945 0.000505924  -0.0629311 -0.266761 0.000388622  -0.0622854 -0.259258 0.000516415  -0.0549889 -0.259684 0.000384808  -0.0623586 -0.259316 0.000452518  -0.0714662 -0.281264 0.000315666  -0.0708687 -0.27378 0.000433922  -0.0639772 -0.281638 0.000321865  -0.0566332 -0.282059 0.000244617  -0.0560441 -0.274551 0.000329494  -0.0709205 -0.273816 0.000375271  -0.0640247 -0.281666 0.000282764  -0.0634303 -0.274168 0.000384331  -0.0561006 -0.274597 0.000286102  -0.0634866 -0.274208 0.000337124  -0.0725052 -0.296166 0.000216484  -0.071943 -0.288686 0.000304222  -0.0650258 -0.296565 0.000218868  -0.0576658 -0.296986 0.000166893  -0.0571063 -0.289495 0.00023365  -0.0719953 -0.288714 0.000264168  -0.0650685 -0.296578 0.000191212  -0.0645092 -0.289092 0.00027132  -0.0571532 -0.289522 0.000203133  -0.064553 -0.289122 0.000237465  -0.0734887 -0.311056 0.000126839  -0.0729699 -0.303599 0.000193119  -0.0660253 -0.311477 0.000137329  -0.0586565 -0.311899 0.000104427  -0.0581365 -0.304426 0.000150204  -0.0730033 -0.303614 0.000174522  -0.0660577 -0.311478 0.00012064  -0.0655291 -0.304012 0.00017643  -0.0581651 -0.304443 0.000130653  -0.0655718 -0.304032 0.000156403  -0.0744271 -0.325929 7.15256e-05  -0.0739415 -0.318489 0.00011158  -0.066983 -0.326366 7.39098e-05  -0.0596077 -0.326787 6.00815e-05  -0.0591145 -0.319336 8.91685e-05  -0.0739653 -0.318495 0.000101089  -0.0670059 -0.32636 6.58035e-05  -0.0665035 -0.318921 0.000105381  -0.0591373 -0.319346 8.05855e-05  -0.0665374 -0.318923 9.25064e-05  -0.0753253 -0.34077 2.57492e-05  -0.074851 -0.333364 5.00679e-05  -0.0679038 -0.341206 3.05176e-05  -0.0605285 -0.341635 2.38419e-05  -0.0600533 -0.334211 4.33922e-05  -0.0748785 -0.333357 5.19753e-05  -0.067919 -0.341204 3.29018e-05  -0.0674486 -0.333791 5.24521e-05  -0.0600712 -0.334216 4.00543e-05  -0.0674675 -0.333789 4.86374e-05  -0.0762086 -0.355575 -5.72205e-06  -0.0757537 -0.348171 2.3365e-05  -0.0688004 -0.356013 -4.76837e-07  -0.0614262 -0.356445 -4.29153e-06  -0.0609632 -0.34904 1.33514e-05  -0.0757723 -0.348176 1.7643e-05  -0.0688143 -0.356013 3.8147e-06  -0.0683556 -0.348607 1.71661e-05  -0.0609798 -0.349043 8.10623e-06  -0.0683692 -0.348612 1.28746e-05  -0.0770769 -0.370352 -1.52588e-05  -0.0766339 -0.362964 -8.58307e-06  -0.06968 -0.370785 -2.90871e-05  -0.0623078 -0.371218 -2.6226e-05  -0.0618582 -0.363834 -1.4782e-05  -0.076642 -0.362966 -7.15256e-06  -0.0696959 -0.370791 -2.09808e-05  -0.0692451 -0.3634 -1.33514e-05  -0.0618663 -0.363835 -1.19209e-05  -0.0692542 -0.363401 -1.04904e-05  -0.00235704 -0.000305682 0.00413847  0 0 0  -0.00136524 -0.000420719 0.00260544  -0.000664793 0.000392199 0.00206137  0 0 0  -0.00181737 -0.000914931 0.00320196  -0.000865187 8.68887e-05 0.00250769  0 0 0  -0.000417721 -1.22339e-05 0.0014987  -0.000542704 -0.000304595 0.0018177  -0.00511594 -0.00266908 0.00500107  -0.00360261 -0.00289562 0.00357437  -0.00288819 -0.000713646 0.00374365  -0.00475898 -0.00352909 0.00441504  -0.00382091 -0.00128593 0.00461054  -0.00248106 -0.00146395 0.00318146  -0.00330551 -0.00205474 0.0039072  -0.00765389 -0.00637057 0.00531483  -0.00584105 -0.00675134 0.0037818  -0.00487757 -0.00375566 0.00419283  -0.00758159 -0.00733539 0.00470209  -0.00637698 -0.00434792 0.00522375  -0.00472394 -0.00466275 0.00372362  -0.00618508 -0.00527534 0.00461531  -0.0102144 -0.0113831 0.00525522  -0.00801656 -0.0118347 0.00372505  -0.00692841 -0.00817707 0.004251  -0.010287 -0.0123572 0.00465488  -0.0089362 -0.00871393 0.00531816  -0.00693813 -0.00914367 0.00377703  -0.00894508 -0.00969239 0.00470924  -0.0127579 -0.0175894 0.00502682  -0.0101249 -0.0180636 0.00355434  -0.00897419 -0.01386 0.0041194  -0.0129108 -0.0185253 0.00444221  -0.0114875 -0.0143435 0.00515604  -0.00907594 -0.0148102 0.00365019  -0.0116096 -0.0153013 0.00456047  -0.0152638 -0.0248565 0.00471497  -0.0121847 -0.0253292 0.00331736  -0.011005 -0.0206672 0.00389576  -0.015461 -0.0257352 0.00415659  -0.0140163 -0.0210969 0.00487947  -0.0111628 -0.0215719 0.00344133  -0.0141946 -0.0220046 0.00430346  -0.0177183 -0.0330753 0.00436974  -0.0141947 -0.03353 0.00307703  -0.0130243 -0.0284725 0.00363064  -0.0179259 -0.0338856 0.00384331  -0.0165008 -0.0288495 0.00454092  -0.013194 -0.0293194 0.00319576  -0.0167028 -0.0296989 0.00399876  -0.0200998 -0.0421388 0.00402498  -0.0161504 -0.0425848 0.00282097  -0.0150017 -0.0371754 0.00334978  -0.0203064 -0.0428779 0.00353432  -0.018916 -0.037498 0.00419426  -0.0151786 -0.0379571 0.00294971  -0.0191279 -0.0382801 0.00368643  -0.0223891 -0.051968 0.00368118  -0.0180492 -0.0524094 0.0025754  -0.0169262 -0.0466855 0.00307465  -0.0225972 -0.0526445 0.00322866  -0.0212536 -0.0469521 0.00385332  -0.0171065 -0.0474048 0.00270224  -0.0214623 -0.0476682 0.00338268  -0.0245962 -0.0624904 0.00335836  -0.0198913 -0.0629289 0.00234556  -0.018804 -0.0569303 0.00281096  -0.0247953 -0.0631078 0.00294399  -0.0235038 -0.0571423 0.00351906  -0.0189794 -0.0575864 0.00246525  -0.0237077 -0.0577916 0.00308561  -0.0267152 -0.0736486 0.00304747  -0.0216713 -0.0740846 0.00213242  -0.0206217 -0.0678339 0.00255156  -0.0269041 -0.0742047 0.00267076  -0.0256674 -0.0679892 0.00320148  -0.0207894 -0.0684312 0.00223589  -0.0258623 -0.0685786 0.00280619  -0.0287446 -0.0853747 0.00275421  -0.023393 -0.0858125 0.00192451  -0.0223819 -0.0793411 0.00231314  -0.0289232 -0.085876 0.0024147  -0.0277382 -0.0794357 0.0029006  -0.0225407 -0.0798814 0.00202942  -0.0279248 -0.0799712 0.00253868  -0.0306866 -0.0976175 0.00248051  -0.0250604 -0.0980509 0.00172663  -0.0240824 -0.0913848 0.00208759  -0.0308543 -0.0980608 0.00216913  -0.0297263 -0.0914239 0.00261545  -0.0242333 -0.0918694 0.00182056  -0.0298989 -0.0919098 0.0022893  -0.0325453 -0.110309 0.00221825  -0.0266647 -0.110752 0.00154543  -0.0257307 -0.103906 0.00186443  -0.0327003 -0.110714 0.00194311  -0.0316254 -0.103902 0.00234604  -0.0258695 -0.104348 0.00163174  -0.0317878 -0.104335 0.00205088  -0.0343171 -0.12341 0.00197363  -0.0282146 -0.123859 0.00137329  -0.0273126 -0.11687 0.00166464  -0.0344639 -0.123775 0.0017271  -0.0334419 -0.116813 0.00209427  -0.0274448 -0.117258 0.00145864  -0.0335926 -0.117196 0.00183392  -0.0360149 -0.136882 0.0017395  -0.0297095 -0.137325 0.00120974  -0.0288476 -0.130204 0.00147629  -0.0361502 -0.137198 0.00152111  -0.0351758 -0.130103 0.00185347  -0.0289708 -0.13055 0.00128889  -0.0353163 -0.130443 0.00162411  -0.0376332 -0.15066 0.00152826  -0.0311518 -0.151103 0.00106621  -0.0303223 -0.143876 0.00129509  -0.0377595 -0.150933 0.00133467  -0.0368364 -0.143727 0.00163317  -0.0304387 -0.144177 0.00113249  -0.0369632 -0.144029 0.00142527  -0.0391817 -0.164704 0.00132608  -0.0325401 -0.165151 0.000918388  -0.0317552 -0.157831 0.00112963  -0.0392914 -0.164944 0.00115681  -0.0384123 -0.157647 0.00142193  -0.0318501 -0.158095 0.000989437  -0.0385344 -0.157906 0.00124454  -0.0406501 -0.17898 0.00113583  -0.033874 -0.179423 0.000792503  -0.0331206 -0.172033 0.000975132  -0.040755 -0.179184 0.000993252  -0.0399218 -0.17181 0.00122881  -0.033211 -0.17226 0.000854969  -0.0400324 -0.172035 0.00107527  -0.0420527 -0.193443 0.000968933  -0.0351665 -0.193887 0.000667095  -0.0344479 -0.186435 0.000833035  -0.0421495 -0.193613 0.000844955  -0.0413623 -0.186182 0.00105095  -0.0345285 -0.186633 0.00072813  -0.0414596 -0.186375 0.000920773  -0.0433941 -0.208065 0.000808716  -0.0364032 -0.208505 0.000557899  -0.0357122 -0.201015 0.000696659  -0.0434785 -0.208204 0.000705719  -0.0427351 -0.200731 0.00088644  -0.0357888 -0.201178 0.000609398  -0.0428219 -0.200891 0.000772476  -0.0446723 -0.2228 0.000667095  -0.0375967 -0.223244 0.000460148  -0.0369372 -0.215721 0.000585556  -0.0447466 -0.222915 0.000583172  -0.0440402 -0.215415 0.00073719  -0.0370066 -0.215858 0.000504971  -0.0441189 -0.215545 0.000642776  -0.0458932 -0.237636 0.000536919  -0.0387461 -0.238075 0.000370026  -0.0381186 -0.230535 0.000475883  -0.045958 -0.237724 0.000468254  -0.0452878 -0.230205 0.000599861  -0.0381768 -0.230647 0.000416279  -0.0453606 -0.230312 0.000524998  -0.0470536 -0.252527 0.000418663  -0.0398529 -0.252967 0.000286579  -0.0392494 -0.245427 0.00038147  -0.0471151 -0.252601 0.000372887  -0.0464787 -0.245074 0.000480652  -0.0393033 -0.245511 0.000331879  -0.0465426 -0.245153 0.000417709  -0.0481687 -0.267465 0.000313759  -0.0409191 -0.267899 0.000217915  -0.0403466 -0.260356 0.000288963  -0.0482171 -0.267515 0.000277042  -0.0476177 -0.259988 0.000369072  -0.0403903 -0.260425 0.000254631  -0.0476711 -0.260054 0.000321388  -0.0492375 -0.282414 0.00023365  -0.0419533 -0.282848 0.000165939  -0.0414059 -0.275319 0.000222206  -0.0492785 -0.282455 0.000203609  -0.0487051 -0.274934 0.000274181  -0.0414419 -0.27537 0.000190258  -0.0487547 -0.274982 0.000239372  -0.050266 -0.297371 0.000164032  -0.0429494 -0.297797 0.000106812  -0.0424221 -0.290283 0.000154018  -0.0502951 -0.297389 0.000142097  -0.0497539 -0.289887 0.000196457  -0.0424566 -0.29032 0.000131607  -0.0497918 -0.28992 0.000167847  -0.0512514 -0.312304 0.00010252  -0.0439198 -0.312727 6.58035e-05  -0.0434158 -0.30524 0.000104427  -0.0512757 -0.312316 8.96454e-05  -0.0507586 -0.304834 0.000128746  -0.0434384 -0.305266 8.7738e-05  -0.050791 -0.304852 0.000112057  -0.0522106 -0.327205 5.81741e-05  -0.0448618 -0.327628 3.95775e-05  -0.0443819 -0.320165 6.29425e-05  -0.0522277 -0.327209 5.19753e-05  -0.0517304 -0.319752 7.96318e-05  -0.0443933 -0.320182 5.38826e-05  -0.0517545 -0.319764 6.91414e-05  -0.0531344 -0.342065 1.90735e-05  -0.0457802 -0.34249 1.95503e-05  -0.0453062 -0.335056 3.14713e-05  -0.0531466 -0.342065 1.81198e-05  -0.0526731 -0.334631 3.95775e-05  -0.0453248 -0.335066 2.3365e-05  -0.052691 -0.33464 3.71933e-05  -0.0540323 -0.356882 -4.29153e-06  -0.0466752 -0.357305 -7.62939e-06  -0.0462127 -0.349898 2.86102e-06  -0.0540469 -0.356876 -6.67572e-06  -0.0535862 -0.349471 7.15256e-06  -0.0462308 -0.349903 4.76837e-06  -0.053597 -0.349475 8.58307e-06  -0.0549178 -0.371647 -3.19481e-05  -0.0475614 -0.372069 -2.81334e-05  -0.0471075 -0.364695 -1.66893e-05  -0.0549304 -0.371642 -3.09944e-05  -0.0544779 -0.364267 -1.66893e-05  -0.0471139 -0.364693 -1.7643e-05  -0.0544891 -0.364266 -1.4782e-05  -0.00128014 0.000489324 0.00249863  0 0 0  -0.000609383 9.57847e-05 0.00130081  -0.000303332 0.000704527 0.00103188  0 0 0  -0.000968948 -0.000102133 0.00195312  -0.000479214 0.000588894 0.00153589  0 0 0  -0.000184525 0.000290722 0.00075388  -0.00029169 0.000176698 0.00112009  -0.00278434 -0.00161555 0.00302935  -0.00162753 -0.00214815 0.00179911  -0.00130953 -4.66108e-05 0.00186968  -0.0025776 -0.00244126 0.00269079  -0.00206633 -0.000304133 0.00279999  -0.00111395 -0.000794321 0.00159693  -0.00176962 -0.00105426 0.00238705  -0.00425664 -0.00537062 0.00320101  -0.00268829 -0.00601488 0.00189829  -0.00221378 -0.00300652 0.00209904  -0.00422421 -0.00630924 0.00284767  -0.00350285 -0.0033038 0.00314522  -0.00215301 -0.00390667 0.00187397  -0.00339556 -0.00420347 0.00280094  -0.00579101 -0.0104962 0.00314617  -0.00376782 -0.0111886 0.00186539  -0.00320742 -0.00749961 0.00211954  -0.00585175 -0.0114447 0.00279665  -0.00502807 -0.00777298 0.0031867  -0.00322846 -0.00844949 0.00189352  -0.00504339 -0.00872475 0.0028367  -0.00733578 -0.0168026 0.00300312  -0.00484478 -0.0175102 0.00177574  -0.00423294 -0.0132703 0.00204849  -0.00744468 -0.0177251 0.00266266  -0.00656009 -0.0135023 0.00308466  -0.00430715 -0.0142133 0.00182533  -0.00665194 -0.0144463 0.00273943  -0.00888067 -0.0241653 0.00281334  -0.00592709 -0.0248637 0.00165939  -0.00528312 -0.0201637 0.00193739  -0.00901467 -0.0250376 0.00248718  -0.00810051 -0.0203527 0.00291109  -0.00538361 -0.0210619 0.00171804  -0.00823259 -0.0212568 0.0025773  -0.0104157 -0.032472 0.00261354  -0.00701523 -0.0331523 0.00152636  -0.00635481 -0.0280535 0.0017972  -0.010567 -0.0332879 0.00230122  -0.00964636 -0.0282058 0.0027113  -0.00647199 -0.0288949 0.00159359  -0.00979358 -0.0290511 0.00239563  -0.0119444 -0.0416423 0.00240088  -0.00811744 -0.042293 0.0014019  -0.00743675 -0.0368377 0.00166225  -0.0120944 -0.0423876 0.00211239  -0.011184 -0.0369549 0.00250578  -0.00756395 -0.0376222 0.00146341  -0.0113351 -0.0377361 0.0022068  -0.0134532 -0.0515779 0.00219393  -0.00922906 -0.0522061 0.00127029  -0.00855172 -0.0464362 0.00152016  -0.0136026 -0.0522631 0.00192451  -0.0127019 -0.0465119 0.00229931  -0.00867367 -0.047158 0.00133514  -0.0128512 -0.0472333 0.00201845  -0.0149405 -0.0622121 0.00200176  -0.0103408 -0.0628195 0.00116014  -0.00966573 -0.0567679 0.00138378  -0.0150807 -0.0628331 0.00175524  -0.0142019 -0.0568056 0.00209427  -0.00978458 -0.0574275 0.00121546  -0.0143454 -0.0574644 0.00184011  -0.0163965 -0.0734693 0.00181198  -0.0114598 -0.074065 0.0010457  -0.0107849 -0.067765 0.00125456  -0.0165337 -0.0740377 0.00158644  -0.0156734 -0.0677572 0.00190496  -0.0108986 -0.0683652 0.00110245  -0.0158097 -0.0683582 0.00166893  -0.0178262 -0.0852977 0.00163698  -0.0125786 -0.0858784 0.000946522  -0.0119094 -0.0793542 0.00113106  -0.0179532 -0.0858115 0.00143147  -0.0171126 -0.0793144 0.00172567  -0.0120198 -0.0799009 0.000994682  -0.0172472 -0.0798578 0.00151062  -0.0192258 -0.097634 0.00146914  -0.0136951 -0.0982013 0.000841141  -0.0130424 -0.0914832 0.00102091  -0.0193446 -0.0980955 0.00128841  -0.0185266 -0.0914016 0.00155163  -0.0131359 -0.0919796 0.000892162  -0.0186536 -0.0918916 0.00136089  -0.0205965 -0.110427 0.00131226  -0.0148077 -0.110983 0.000750065  -0.0141603 -0.104095 0.000916481  -0.0207081 -0.110838 0.00115204  -0.0199146 -0.103973 0.00139093  -0.0142524 -0.104538 0.00080204  -0.0200305 -0.104414 0.0012188  -0.0219349 -0.123625 0.00116587  -0.0159216 -0.124166 0.000665665  -0.0152735 -0.11713 0.0008111  -0.0220379 -0.123987 0.00101709  -0.021268 -0.116974 0.0012393  -0.0153641 -0.117526 0.000707626  -0.0213772 -0.117368 0.00108814  -0.0232434 -0.137171 0.00102758  -0.0170197 -0.137703 0.000586987  -0.0163901 -0.13054 0.000717163  -0.0233392 -0.137491 0.000899315  -0.0225905 -0.130345 0.00109673  -0.0164711 -0.130891 0.000621319  -0.0226929 -0.1307 0.000957489  -0.0245202 -0.151024 0.000901699  -0.0181119 -0.151548 0.000513077  -0.0174966 -0.144277 0.000632763  -0.0246093 -0.151307 0.000789165  -0.0238814 -0.144056 0.000963211  -0.0175672 -0.144589 0.000554085  -0.023977 -0.144362 0.000843048  -0.0257654 -0.165143 0.000780582  -0.0192006 -0.165654 0.000443459  -0.0185914 -0.158298 0.000546932  -0.0258484 -0.165385 0.000680923  -0.0251422 -0.158046 0.000841618  -0.0186565 -0.158568 0.000473499  -0.0252326 -0.158313 0.000734329  -0.0269802 -0.179482 0.00067234  -0.0202725 -0.179985 0.000380039  -0.0196722 -0.172559 0.000468731  -0.0270562 -0.17969 0.000581741  -0.0263779 -0.172279 0.000724316  -0.0197387 -0.172794 0.000410557  -0.0264561 -0.172511 0.000632286  -0.0281672 -0.194008 0.000565052  -0.0213342 -0.194495 0.000322342  -0.020741 -0.187018 0.000400066  -0.0282297 -0.19418 0.000495911  -0.0275724 -0.186715 0.000619888  -0.0208049 -0.187218 0.000349998  -0.0276473 -0.186913 0.00054121  -0.0293174 -0.208675 0.000471592  -0.0223792 -0.209158 0.000264645  -0.0218089 -0.201638 0.000333786  -0.0293746 -0.208822 0.000411034  -0.0287457 -0.20132 0.000520229  -0.0218616 -0.20181 0.000291824  -0.0288041 -0.201483 0.000452042  -0.0304399 -0.223462 0.000387669  -0.0234084 -0.223933 0.000215054  -0.0228469 -0.21639 0.000274181  -0.0304885 -0.223581 0.000335693  -0.0298841 -0.216046 0.000430584  -0.0228958 -0.216535 0.000236988  -0.0299339 -0.216189 0.000377178  -0.0315268 -0.238337 0.000313759  -0.0244246 -0.238798 0.00016737  -0.0238731 -0.231244 0.000224113  -0.0315707 -0.238429 0.000272751  -0.0309823 -0.23088 0.000350475  -0.0239189 -0.231358 0.000193119  -0.031033 -0.230994 0.000305176  -0.0325856 -0.253264 0.00025034  -0.0254223 -0.253721 0.000132084  -0.0248909 -0.246161 0.000174522  -0.0326262 -0.253337 0.000214577  -0.032059 -0.245785 0.000277519  -0.0249274 -0.246254 0.000148773  -0.0321016 -0.245876 0.000242233  -0.0336182 -0.268224 0.000185966  -0.026402 -0.268678 0.000101089  -0.0258915 -0.261124 0.000135899  -0.0336525 -0.268282 0.000161648  -0.0331066 -0.260739 0.000216961  -0.0259156 -0.261197 0.000119209  -0.0331426 -0.260806 0.000185966  -0.0346229 -0.283202 0.000134945  -0.0273685 -0.283646 7.10487e-05  -0.0268633 -0.276106 9.87053e-05  -0.0346496 -0.283245 0.000119209  -0.0341234 -0.275707 0.000162125  -0.0268872 -0.276162 8.44002e-05  -0.0341549 -0.275764 0.000140667  -0.0356054 -0.298177 9.67979e-05  -0.0283153 -0.298616 5.14984e-05  -0.0278277 -0.291091 6.7234e-05  -0.0356255 -0.298205 8.29697e-05  -0.0351164 -0.290686 0.000115871  -0.0278461 -0.291134 6.1512e-05  -0.0351384 -0.290723 9.82285e-05  -0.0365641 -0.313129 5.67436e-05  -0.0292501 -0.313562 2.71797e-05  -0.0287726 -0.306064 4.43459e-05  -0.0365775 -0.313145 4.673e-05  -0.0360866 -0.30565 7.48634e-05  -0.0287864 -0.306093 4.29153e-05  -0.0361044 -0.305679 6.67572e-05  -0.0374966 -0.328044 3.67165e-05  -0.0301652 -0.328476 1.90735e-05  -0.0296981 -0.321003 2.47955e-05  -0.0375082 -0.328051 2.86102e-05  -0.0370302 -0.320586 4.3869e-05  -0.0297098 -0.321025 1.85966e-05  -0.0370421 -0.320602 4.1008e-05  -0.0384128 -0.342918 9.53674e-06  -0.0310678 -0.343347 8.10623e-06  -0.0306118 -0.335908 1.43051e-05  -0.0384221 -0.342918 7.15256e-06  -0.0379572 -0.335483 2.52724e-05  -0.0306189 -0.335916 1.09673e-05  -0.0379677 -0.335488 1.71661e-05  -0.0393064 -0.357744 -6.19888e-06  -0.0319593 -0.358163 -3.33786e-06  -0.0315075 -0.350758 1.43051e-06  -0.039314 -0.357732 -5.24521e-06  -0.0388641 -0.350328 4.29153e-06  -0.0315158 -0.350761 -1.43051e-06  -0.038868 -0.35033 5.72205e-06  -0.0401893 -0.372493 -3.19481e-05  -0.0328405 -0.372915 -2.24113e-05  -0.0323913 -0.365549 -1.19209e-05  -0.0401957 -0.372495 -2.6226e-05  -0.0397472 -0.36512 -1.81198e-05  -0.0324004 -0.365549 -9.05991e-06  -0.0397573 -0.365118 -1.66893e-05  -0.000371225 0.000787377 0.000796795  0 0 0  5.57154e-05 0.00019753 -3.76701e-05  2.09138e-05 0.000756562 -3.57628e-05  0 0 0  -0.000271618 0.000191987 0.000632763  -0.000139866 0.000757784 0.000495911  0 0 0  1.64956e-05 0.000342667 -2.38419e-05  -8.23401e-05 0.000341982 0.000364304  -0.000783488 -0.0011749 0.000983238  0.000146955 -0.00199342 -3.14713e-05  0.000117451 8.58903e-05 -4.673e-05  -0.000727654 -0.002002 0.000887394  -0.000589922 7.88271e-05 0.000909328  0.00010173 -0.000658095 -3.14713e-05  -0.000496268 -0.000666082 0.000782013  -0.00120726 -0.0049465 0.00104856  0.00022158 -0.00587252 -1.57356e-05  0.00021103 -0.00286239 -3.48091e-05  -0.00121909 -0.00586876 0.000944138  -0.000986218 -0.00286204 0.00102854  0.000190765 -0.00375432 -2.19345e-05  -0.000967383 -0.00375655 0.000925541  -0.00169635 -0.0101288 0.00103331  0.000247121 -0.0110943 -5.24521e-06  0.00028044 -0.00738767 -2.3365e-05  -0.00174293 -0.0110721 0.000927448  -0.00144815 -0.00736937 0.00104761  0.000242561 -0.00833032 -1.00136e-05  -0.00147697 -0.00831649 0.000943661  -0.00223011 -0.0165057 0.000985622  0.000214934 -0.0174667 -1.09673e-05  0.000286043 -0.0132089 -2.19345e-05  -0.00229818 -0.0174235 0.000883102  -0.00195616 -0.0131739 0.0010128  0.000237226 -0.0141435 -5.24521e-06  -0.00201803 -0.0141111 0.000908375  -0.00280952 -0.0239394 0.000921726  0.000114799 -0.0248696 -1.62125e-05  0.000228047 -0.0201422 -2.00272e-05  -0.00289249 -0.0248077 0.000818253  -0.00251335 -0.0200913 0.000952721  0.000175178 -0.0210422 -1.09673e-05  -0.00259119 -0.0209918 0.000851631  -0.00343162 -0.0323203 0.000851154  -5.54323e-05 -0.0332142 -1.57356e-05  9.60231e-05 -0.0280836 -2.47955e-05  -0.00352257 -0.0331279 0.000757694  -0.00311464 -0.0280112 0.000883102  3.98755e-05 -0.0289283 -1.04904e-05  -0.00320286 -0.0288541 0.000790596  -0.00410378 -0.0415514 0.000781059  -0.000297666 -0.0424074 -1.95503e-05  -0.000107944 -0.0369233 -2.67029e-05  -0.00419366 -0.0423004 0.000688553  -0.00376439 -0.036827 0.000813484  -0.00016892 -0.0377085 -1.66893e-05  -0.0038498 -0.0376121 0.000723362  -0.00481927 -0.0515648 0.00070858  -0.000613093 -0.052377 -2.95639e-05  -0.000386357 -0.0465773 -3.00407e-05  -0.00490654 -0.0522443 0.000621319  -0.00445318 -0.0464576 0.000742912  -0.000445724 -0.0472996 -2.09808e-05  -0.00454521 -0.0471797 0.000658035  -0.00556731 -0.0622621 0.000638008  -0.000994086 -0.0630473 -3.76701e-05  -0.000733972 -0.0569643 -3.91006e-05  -0.00565398 -0.062891 0.000561714  -0.00518668 -0.0568221 0.000671387  -0.000795722 -0.0576269 -3.05176e-05  -0.0052768 -0.0574824 0.000591278  -0.00635505 -0.0735961 0.000573635  -0.00143945 -0.0743488 -3.38554e-05  -0.00115323 -0.0680148 -4.24385e-05  -0.00643384 -0.0741693 0.000507355  -0.00595641 -0.0678462 0.00060606  -0.00121021 -0.0686237 -3.52859e-05  -0.00603938 -0.0684525 0.000534058  -0.00717318 -0.0854989 0.000513554  -0.00194192 -0.0862235 -4.14848e-05  -0.00162852 -0.0796664 -4.81606e-05  -0.00724924 -0.0860151 0.000448704  -0.00675762 -0.0794732 0.000547886  -0.00168395 -0.0802185 -4.05312e-05  -0.00683916 -0.0800209 0.000474453  -0.00801826 -0.097905 0.00045681  -0.00250483 -0.0986056 -3.86238e-05  -0.00217068 -0.0918546 -5.14984e-05  -0.00808764 -0.0983725 0.000401974  -0.00758612 -0.0916356 0.000487804  -0.00221527 -0.0923523 -4.3869e-05  -0.00766647 -0.0921305 0.000426769  -0.00888574 -0.110763 0.000407219  -0.00311732 -0.111439 -4.14848e-05  -0.00275826 -0.104522 -5.00679e-05  -0.0089519 -0.111182 0.00035429  -0.00844443 -0.104279 0.000435829  -0.00280476 -0.104967 -4.19617e-05  -0.00851548 -0.104722 0.0003829  -0.00977278 -0.124024 0.000357628  -0.00377727 -0.124672 -3.95775e-05  -0.00340009 -0.117609 -4.76837e-05  -0.00983644 -0.124395 0.000311852  -0.00932705 -0.117342 0.000382423  -0.00344205 -0.118009 -3.8147e-05  -0.00939178 -0.117739 0.000335693  -0.0106801 -0.137635 0.000310421  -0.00447631 -0.138257 -4.1008e-05  -0.00408304 -0.131068 -5.19753e-05  -0.0107366 -0.137958 0.00027132  -0.0102258 -0.130781 0.000333786  -0.00412297 -0.131425 -4.43459e-05  -0.0102845 -0.131134 0.000292301  -0.0116034 -0.151538 0.000270844  -0.00521159 -0.152146 -4.57764e-05  -0.00480461 -0.144853 -5.05447e-05  -0.0116553 -0.151828 0.00024128  -0.0111377 -0.144543 0.000294209  -0.00483918 -0.145167 -4.19617e-05  -0.0111971 -0.144857 0.000254631  -0.012536 -0.165701 0.000229836  -0.00598502 -0.166297 -3.76701e-05  -0.00556421 -0.158916 -4.48227e-05  -0.0125818 -0.16596 0.000199795  -0.0120671 -0.158588 0.000252247  -0.00559425 -0.159191 -3.86238e-05  -0.0121152 -0.15886 0.000218391  -0.0134821 -0.180089 0.000197887  -0.00678444 -0.180661 -3.67165e-05  -0.0063591 -0.173214 -4.29153e-05  -0.0135236 -0.180306 0.000172138  -0.0130105 -0.17287 0.000212193  -0.00638103 -0.173452 -4.05312e-05  -0.0130513 -0.173107 0.000185966  -0.0144298 -0.194649 0.000164032  -0.00760937 -0.195206 -3.71933e-05  -0.00716805 -0.187706 -4.00543e-05  -0.0144644 -0.194838 0.000145912  -0.0139568 -0.187348 0.000179291  -0.00719547 -0.187912 -3.38554e-05  -0.0139937 -0.18755 0.000156879  -0.0153768 -0.209356 0.000132084  -0.00845265 -0.2099 -3.52859e-05  -0.00800443 -0.202363 -4.00543e-05  -0.0154088 -0.209518 0.000112057  -0.0149035 -0.201983 0.000148296  -0.00802803 -0.202538 -3.76701e-05  -0.0149372 -0.202162 0.0001297  -0.016325 -0.22418 0.000106812  -0.00930953 -0.224701 -2.52724e-05  -0.00886226 -0.217141 -3.76701e-05  -0.0163546 -0.224305 9.34601e-05  -0.0158556 -0.216754 0.000118732  -0.00887918 -0.217285 -3.00407e-05  -0.0158808 -0.216899 0.000104427  -0.0172737 -0.239088 8.4877e-05  -0.0101805 -0.239585 -2.47955e-05  -0.00972962 -0.232016 -3.19481e-05  -0.0172954 -0.239182 7.15256e-05  -0.0168006 -0.231619 9.53674e-05  -0.00974393 -0.232133 -3.09944e-05  -0.0168238 -0.231738 8.44002e-05  -0.0182176 -0.254043 6.53267e-05  -0.0110602 -0.254524 -2.24113e-05  -0.0106096 -0.24695 -2.86102e-05  -0.0182352 -0.254114 5.53131e-05  -0.0177455 -0.246544 7.67708e-05  -0.0106192 -0.247049 -2.3365e-05  -0.0177674 -0.246644 6.34193e-05  -0.0191565 -0.269027 4.33922e-05  -0.0119452 -0.269498 -2.6226e-05  -0.0114985 -0.261934 -2.0504e-05  -0.0191698 -0.269083 4.1008e-05  -0.0186863 -0.261524 5.48363e-05  -0.0115035 -0.262009 -1.85966e-05  -0.0187035 -0.261597 4.72069e-05  -0.0200868 -0.284014 3.00407e-05  -0.0128357 -0.284485 -1.66893e-05  -0.0123818 -0.276932 -2.3365e-05  -0.0201001 -0.284058 2.76566e-05  -0.0196211 -0.276514 4.05312e-05  -0.0123911 -0.276991 -2.09808e-05  -0.0196345 -0.276572 3.14713e-05  -0.0210102 -0.299004 2.09808e-05  -0.0137267 -0.299462 -1.7643e-05  -0.0132787 -0.29193 -1.62125e-05  -0.021019 -0.299035 1.95503e-05  -0.02055 -0.291508 2.67029e-05  -0.0132804 -0.291972 -1.66893e-05  -0.0205605 -0.291549 1.95503e-05  -0.0219195 -0.313972 7.62939e-06  -0.0146136 -0.314416 -1.43051e-05  -0.0141714 -0.306911 -1.57356e-05  -0.0219262 -0.313988 5.72205e-06  -0.0214612 -0.306485 1.62125e-05  -0.0141695 -0.306937 -1.19209e-05  -0.0214744 -0.30651 1.14441e-05  -0.0228295 -0.328899 8.58307e-06  -0.0155022 -0.329333 -8.10623e-06  -0.0150592 -0.321855 -7.62939e-06  -0.0228329 -0.328903 3.33786e-06  -0.0223751 -0.321427 7.62939e-06  -0.0150554 -0.321877 -7.62939e-06  -0.0223804 -0.321448 9.05991e-06  -0.0237238 -0.343778 -4.29153e-06  -0.0163856 -0.344208 -1.00136e-05  -0.0159481 -0.336763 -1.00136e-05  -0.0237255 -0.343776 -5.24521e-06  -0.023278 -0.336333 6.19888e-06  -0.0159466 -0.336775 -6.19888e-06  -0.0232811 -0.336345 9.53674e-07  -0.0246141 -0.358602 -4.29153e-06  -0.0172637 -0.359026 -9.53674e-07  -0.0168293 -0.351621 -5.72205e-06  -0.0246098 -0.358595 -6.19888e-06  -0.0241649 -0.351187 -4.76837e-07  -0.016824 -0.351622 -6.19888e-06  -0.0241699 -0.35119 -4.29153e-06  -0.0254872 -0.373341 -1.14441e-05  -0.0181372 -0.373775 -2.86102e-06  -0.0177104 -0.366412 -2.38419e-06  -0.0254862 -0.373339 -1.04904e-05  -0.0250506 -0.365978 -8.58307e-06  -0.0177 -0.366409 -2.38419e-06  -0.0250533 -0.365977 -6.67572e-06  0.000494182 0.000698805 -0.000908375  0 0 0  0.000717551 -5.16772e-05 -0.00137091  0.000343725 0.000601828 -0.00109386  0 0 0  0.00038068 0.000116289 -0.000704765  0.000181444 0.000705242 -0.000560284  0 0 0  0.000214502 0.000202179 -0.000797272  0.000114024 0.000296235 -0.00041151  0.00111285 -0.00131309 -0.00107145  0.00191593 -0.00239277 -0.00183296  0.00152628 -0.000263751 -0.0019474  0.00102139 -0.00212485 -0.000939369  0.000814706 -2.63453e-05 -0.000999451  0.00131594 -0.000995994 -0.00164509  0.00069879 -0.000768483 -0.00083828  0.00170973 -0.00510859 -0.00110817  0.00312051 -0.00632602 -0.0019145  0.00262839 -0.00330651 -0.00214672  0.00165784 -0.00602716 -0.000965595  0.00140697 -0.00301057 -0.00109434  0.00252217 -0.00418723 -0.00189161  0.00134203 -0.00389838 -0.000962257  0.00227207 -0.0103227 -0.00107384  0.00424838 -0.0115588 -0.0018692  0.00374752 -0.00785226 -0.00215054  0.00223774 -0.0112566 -0.000940323  0.00200269 -0.00754803 -0.00109196  0.00369838 -0.00879037 -0.001894  0.00196064 -0.00849015 -0.000956059  0.00275522 -0.0167242 -0.00102425  0.00525445 -0.0179341 -0.00177765  0.00478667 -0.0136799 -0.00207472  0.00272536 -0.0176369 -0.000893593  0.00252837 -0.0133805 -0.00105286  0.00476813 -0.0146109 -0.00182199  0.00249285 -0.0143101 -0.000919342  0.00314224 -0.0241887 -0.000969887  0.00613368 -0.0253504 -0.00166416  0.00571632 -0.020622 -0.00196314  0.0031153 -0.0250497 -0.00083971  0.00296259 -0.0203211 -0.000992298  0.00571096 -0.0215188 -0.00171995  0.00293219 -0.0212203 -0.000865936  0.00343287 -0.0325986 -0.000905991  0.00687939 -0.0337101 -0.00155735  0.00652736 -0.0285742 -0.0018425  0.00340313 -0.0334062 -0.000785351  0.00330067 -0.0282695 -0.000935555  0.00652343 -0.0294176 -0.00161266  0.00327229 -0.0291153 -0.000816345  0.00361931 -0.0418651 -0.000840664  0.00749147 -0.0429296 -0.00144911  0.00720519 -0.0374339 -0.00171232  0.00358939 -0.0426177 -0.000732422  0.00353378 -0.0371252 -0.000872135  0.0072028 -0.0382156 -0.00149727  0.00351042 -0.037909 -0.000761509  0.00370014 -0.0519179 -0.00078249  0.00797093 -0.0529248 -0.00133181  0.0077498 -0.0471063 -0.00158596  0.00367248 -0.0526013 -0.000680923  0.00367403 -0.0467913 -0.000809193  0.00774801 -0.0478336 -0.0013833  0.00364232 -0.047516 -0.00070715  0.00368834 -0.0626554 -0.000720024  0.00832367 -0.0636243 -0.00122595  0.0081656 -0.0575224 -0.00146389  0.00365853 -0.0632917 -0.000626087  0.00370646 -0.057197 -0.000753403  0.00816143 -0.0581903 -0.00127411  0.00367939 -0.0578635 -0.000654221  0.00357854 -0.074042 -0.000666618  0.00855148 -0.0749581 -0.00112057  0.00845611 -0.0686083 -0.00134182  0.00355101 -0.0746126 -0.000579357  0.00364506 -0.06827 -0.000693798  0.00845313 -0.0692136 -0.00117064  0.00361586 -0.0688772 -0.000602245  0.00337732 -0.0859776 -0.000609398  0.00866055 -0.0868582 -0.00102139  0.00862575 -0.0802869 -0.00122595  0.00335228 -0.0865033 -0.000535965  0.00349081 -0.0799376 -0.000637531  0.00862134 -0.0808402 -0.00106907  0.00346375 -0.0804902 -0.000553608  0.00309575 -0.0984339 -0.000556469  0.00865877 -0.0992705 -0.00092411  0.00867128 -0.0925041 -0.00111341  0.00307012 -0.0989023 -0.000484467  0.00324714 -0.0921443 -0.000581741  0.00867367 -0.0930037 -0.000972748  0.0032208 -0.0926413 -0.000506878  0.00272977 -0.111339 -0.000500679  0.00855219 -0.112135 -0.000835419  0.00861359 -0.105195 -0.00100803  0.00271034 -0.111756 -0.00043869  0.00292242 -0.104824 -0.000529766  0.00861669 -0.105648 -0.000881195  0.00290227 -0.105276 -0.000459194  0.00229597 -0.124631 -0.000454903  0.00834274 -0.125398 -0.000749111  0.00846028 -0.118315 -0.000905514  0.00227761 -0.125006 -0.000396252  0.00252044 -0.117931 -0.000479698  0.00845861 -0.118719 -0.000794411  0.00250292 -0.118335 -0.00041914  0.0017941 -0.138278 -0.000407696  0.00804567 -0.139008 -0.00066328  0.00819969 -0.131799 -0.000808716  0.00178051 -0.138607 -0.000355244  0.00205231 -0.131406 -0.000432491  0.00820494 -0.13216 -0.000707626  0.00203657 -0.131766 -0.000376701  0.00123334 -0.152217 -0.000360489  0.00766563 -0.152919 -0.00058794  0.00785804 -0.145606 -0.00071764  0.00122046 -0.15251 -0.00031662  0.00152349 -0.145208 -0.000388145  0.00786471 -0.145925 -0.000626564  0.001508 -0.145523 -0.000335217  0.000618219 -0.166418 -0.000318527  0.00721025 -0.167087 -0.000520706  0.00744247 -0.159692 -0.000635624  0.000607967 -0.166671 -0.000279427  0.000933886 -0.159282 -0.000343323  0.0074482 -0.15997 -0.000556469  0.000920534 -0.15956 -0.000295162  -4.52995e-05 -0.180825 -0.000279903  0.00669098 -0.18147 -0.000454426  0.00695252 -0.174012 -0.000556469  -5.45979e-05 -0.181049 -0.000244617  0.000296593 -0.173595 -0.000299931  0.0069592 -0.174253 -0.000487328  0.000283718 -0.173834 -0.000259876  -0.000749111 -0.195417 -0.000240326  0.00610399 -0.196032 -0.000386715  0.00639558 -0.188522 -0.00048542  -0.000756025 -0.195606 -0.000213146  -0.000391483 -0.188098 -0.000259399  0.00640607 -0.188732 -0.000423431  -0.000398397 -0.188306 -0.000228405  -0.00149298 -0.210147 -0.000208855  0.00546384 -0.210734 -0.000331879  0.00578141 -0.203188 -0.000410557  -0.00149798 -0.210304 -0.00018549  -0.00111771 -0.202764 -0.000223637  0.00579166 -0.203366 -0.000361919  -0.00112081 -0.202937 -0.000198841  -0.00226474 -0.224987 -0.000175476  0.00478029 -0.225549 -0.000273228  0.00511718 -0.217978 -0.00034523  -0.00226831 -0.225114 -0.000154018  -0.00187707 -0.217552 -0.000195503  0.00512815 -0.218126 -0.000300884  -0.00187945 -0.217693 -0.000164986  -0.00306702 -0.239903 -0.000151157  0.00405478 -0.240442 -0.000230789  0.0044117 -0.232863 -0.000287533  -0.00306511 -0.240004 -0.000129223  -0.00266242 -0.232427 -0.000159264  0.00442433 -0.232987 -0.000254154  -0.00266123 -0.232549 -0.00014019  -0.00389123 -0.254877 -0.000117302  0.00329518 -0.255391 -0.000182629  0.0036664 -0.247813 -0.000236511  -0.00388598 -0.254948 -0.000106335  -0.00347519 -0.247373 -0.0001297  0.00367785 -0.24791 -0.000205994  -0.00347018 -0.247471 -0.000114918  -0.00472498 -0.269868 -9.63211e-05  0.00250459 -0.270369 -0.000139713  0.0028913 -0.262798 -0.000187874  -0.00472283 -0.269928 -8.10623e-05  -0.00430655 -0.262359 -0.000107288  0.00290298 -0.262874 -0.000164032  -0.00430393 -0.262434 -9.25064e-05  -0.0055759 -0.284871 -7.05719e-05  0.00169182 -0.285356 -0.000110626  0.00209379 -0.277806 -0.000144005  -0.00557399 -0.284917 -6.7234e-05  -0.00514555 -0.277361 -8.44002e-05  0.00210118 -0.277861 -0.000126839  -0.00514483 -0.277419 -7.53403e-05  -0.00644064 -0.299862 -5.62668e-05  0.000859737 -0.300333 -7.9155e-05  0.00127101 -0.292806 -0.000108719  -0.00643539 -0.299893 -4.91142e-05  -0.00600195 -0.292361 -6.62804e-05  0.00127649 -0.292846 -9.58443e-05  -0.00600433 -0.292405 -5.57899e-05  -0.00730324 -0.314828 -3.95775e-05  1.66893e-05 -0.315287 -5.96046e-05  0.000430346 -0.307785 -7.72476e-05  -0.00730014 -0.314847 -3.43323e-05  -0.00687242 -0.307344 -4.673e-05  0.000443697 -0.307815 -6.91414e-05  -0.00686765 -0.307372 -4.24385e-05  -0.00817752 -0.329759 -2.19345e-05  -0.000840664 -0.330207 -3.38554e-05  -0.000422239 -0.322735 -4.673e-05  -0.00817227 -0.329767 -1.7643e-05  -0.00774002 -0.322289 -2.95639e-05  -0.000413418 -0.32275 -4.05312e-05  -0.00773668 -0.32231 -2.57492e-05  -0.00905514 -0.34464 -1.52588e-05  -0.00170493 -0.34508 -1.7643e-05  -0.00127172 -0.337636 -3.14713e-05  -0.00904512 -0.344643 -1.43051e-05  -0.00861216 -0.337198 -1.71661e-05  -0.00127292 -0.337646 -2.6226e-05  -0.00860929 -0.33721 -1.95503e-05  -0.00992393 -0.359465 1.43051e-06  -0.00257492 -0.3599 -3.8147e-06  -0.00214481 -0.352495 -3.33786e-06  -0.00991774 -0.359461 -9.53674e-07  -0.00948882 -0.352058 -8.58307e-06  -0.00214076 -0.352496 -8.10623e-06  -0.00948262 -0.352058 -4.29153e-06  -0.0107963 -0.374221 1.28746e-05  -0.00343657 -0.374651 1.7643e-05  -0.00301433 -0.367282 1.14441e-05  -0.0107908 -0.374208 9.53674e-06  -0.0103605 -0.366848 6.67572e-06  -0.00300217 -0.367282 8.58307e-06  -0.0103562 -0.366843 3.8147e-06  0.00138944 0.000244081 -0.0025816  0 0 0  0.00146808 -0.000709534 -0.00263786  0.000683427 0.000201225 -0.00209713  0 0 0  0.00107309 -0.000321805 -0.00200796  0.00050623 0.000442505 -0.00158501  0 0 0  0.000443354 -0.000179946 -0.00152683  0.000321299 4.85778e-05 -0.00116158  0.00308865 -0.00200528 -0.00307512  0.00387543 -0.00337338 -0.00355005  0.00307922 -0.00114053 -0.00376892  0.0028607 -0.00280476 -0.00270462  0.00227766 -0.000634313 -0.00285578  0.0026715 -0.00185382 -0.00318384  0.00196223 -0.00135231 -0.00241661  0.00472909 -0.00586385 -0.00322056  0.00623876 -0.00735813 -0.00373507  0.00526112 -0.00433677 -0.00418282  0.00464222 -0.00677061 -0.00283718  0.00390401 -0.00374985 -0.00317097  0.00506949 -0.00520861 -0.0036869  0.00375688 -0.00462216 -0.0027957  0.00633544 -0.0110612 -0.00315571  0.00844538 -0.0125583 -0.00368881  0.00742564 -0.00887537 -0.00422764  0.00630975 -0.0119935 -0.00278091  0.00554958 -0.00830078 -0.00319719  0.00736505 -0.00980711 -0.00372505  0.00549573 -0.00923109 -0.00281715  0.00782359 -0.0174438 -0.00301695  0.01047 -0.0189047 -0.00352049  0.00947654 -0.0146655 -0.00410128  0.0078311 -0.0183595 -0.00265408  0.00709593 -0.0141104 -0.00309515  0.00947905 -0.0155925 -0.0036087  0.00708973 -0.0150381 -0.00272322  0.00917071 -0.0249017 -0.00283957  0.0123141 -0.026301 -0.0033145  0.0113853 -0.021584 -0.00389671  0.00919247 -0.0257678 -0.00248909  0.00851536 -0.0210458 -0.00293398  0.0114153 -0.0224752 -0.00342226  0.00853139 -0.0219372 -0.00257492  0.010366 -0.0333161 -0.00265074  0.0139663 -0.0346485 -0.00308228  0.0131102 -0.0295187 -0.00364304  0.0103917 -0.0341247 -0.00231981  0.00979048 -0.0289934 -0.00274706  0.0131645 -0.0303607 -0.0031929  0.00981146 -0.0298327 -0.0024085  0.0114042 -0.0425931 -0.00245857  0.0154287 -0.0438612 -0.00285196  0.0146677 -0.03837 -0.00338507  0.0114303 -0.0433459 -0.00215197  0.0109079 -0.0378485 -0.00255442  0.0147252 -0.039153 -0.0029664  0.0109295 -0.0386315 -0.0022316  0.0122786 -0.0526515 -0.00226021  0.0166986 -0.0538563 -0.00262022  0.0160294 -0.0480416 -0.00312614  0.0123078 -0.053342 -0.00197744  0.0118605 -0.0475242 -0.00235844  0.0160897 -0.0487655 -0.00273418  0.011889 -0.0482495 -0.0020628  0.0129963 -0.0634157 -0.00207758  0.0177764 -0.0645553 -0.00240278  0.0172101 -0.0584557 -0.00287533  0.0130222 -0.0640437 -0.00181532  0.01266 -0.0579417 -0.00217199  0.0172621 -0.0591207 -0.00251245  0.0126837 -0.0586099 -0.00189829  0.0135601 -0.0748042 -0.00190115  0.0186708 -0.0758891 -0.00219727  0.0181981 -0.0695367 -0.00263214  0.0135863 -0.0753831 -0.00165987  0.0132961 -0.0690273 -0.00198841  0.0182458 -0.0701455 -0.00229979  0.0133228 -0.0696371 -0.00173712  0.0139744 -0.0867676 -0.00172663  0.0193886 -0.0877975 -0.00199938  0.0190046 -0.0812201 -0.00239706  0.0139992 -0.0872921 -0.00150824  0.0137866 -0.0807145 -0.00181246  0.019053 -0.0817742 -0.00209379  0.0138104 -0.0812672 -0.00158358  0.014249 -0.099235 -0.00156641  0.0199373 -0.100213 -0.00180674  0.0196359 -0.0934377 -0.00218201  0.0142733 -0.0997075 -0.00136948  0.0141326 -0.0929355 -0.00164747  0.0196829 -0.0939425 -0.00190067  0.0141543 -0.0934372 -0.00143623  0.0143923 -0.112152 -0.00141621  0.0203269 -0.113077 -0.00162172  0.0201042 -0.106136 -0.00196505  0.0144137 -0.112576 -0.00123262  0.0143367 -0.105637 -0.00148821  0.0201519 -0.106589 -0.00171232  0.0143589 -0.106085 -0.0012989  0.0144103 -0.125466 -0.001266  0.0205659 -0.126343 -0.00146055  0.0204163 -0.119255 -0.00176191  0.0144337 -0.125841 -0.00110817  0.0144173 -0.118755 -0.00133944  0.0204639 -0.119661 -0.00153923  0.0144397 -0.119161 -0.00116825  0.0143106 -0.139117 -0.00112343  0.0206685 -0.139952 -0.0012908  0.020591 -0.132745 -0.00157642  0.0143373 -0.139457 -0.000984669  0.0143772 -0.132245 -0.00119448  0.0206339 -0.133108 -0.00137711  0.0143995 -0.132607 -0.00104189  0.0141087 -0.153077 -0.000992775  0.0206401 -0.153865 -0.00114298  0.0206311 -0.146554 -0.00139236  0.0141325 -0.15337 -0.000871181  0.0142236 -0.146055 -0.00105858  0.0206699 -0.146873 -0.00121498  0.0142465 -0.146375 -0.000926018  0.0138113 -0.167283 -0.000872135  0.0204961 -0.168034 -0.000997543  0.020541 -0.160638 -0.00122499  0.0138369 -0.167539 -0.000762939  0.0139735 -0.160145 -0.000934124  0.0205824 -0.160921 -0.00107241  0.0139961 -0.160425 -0.000813007  0.0134251 -0.181705 -0.000757694  0.0202429 -0.182416 -0.000863552  0.0203421 -0.174955 -0.00106478  0.0134501 -0.181926 -0.000663757  0.0136337 -0.174465 -0.000814915  0.0203846 -0.175201 -0.000933647  0.0136518 -0.174706 -0.000709057  0.0129614 -0.196296 -0.000648022  0.0198905 -0.196976 -0.000738144  0.0200441 -0.189469 -0.000918388  0.0129836 -0.19649 -0.000563622  0.0131998 -0.188982 -0.000703335  0.0200787 -0.189676 -0.000800133  0.0132248 -0.189186 -0.000609398  0.0124202 -0.211037 -0.000547409  0.019454 -0.211675 -0.000627041  0.0196426 -0.204133 -0.000779152  0.0124433 -0.211192 -0.000482082  0.0126958 -0.203646 -0.000597477  0.0196817 -0.204308 -0.000680923  0.0127237 -0.203823 -0.000519276  0.0118208 -0.225876 -0.000457287  0.0189347 -0.226487 -0.000518799  0.0191681 -0.218919 -0.000654697  0.0118437 -0.226005 -0.000396729  0.0121279 -0.218439 -0.00050354  0.019206 -0.219067 -0.000574112  0.012151 -0.218583 -0.000438213  0.0111656 -0.240798 -0.000377655  0.0183487 -0.241375 -0.000422955  0.0186203 -0.233798 -0.000540733  0.011188 -0.240899 -0.000326633  0.0115011 -0.233317 -0.000415325  0.0186515 -0.233918 -0.000467777  0.0115232 -0.233442 -0.000365257  0.0104642 -0.255763 -0.000302315  0.0177002 -0.256317 -0.000333309  0.0180008 -0.248744 -0.000435829  0.0104854 -0.255846 -0.000262737  0.0108216 -0.248268 -0.00033617  0.0180306 -0.248838 -0.000380993  0.0108438 -0.248366 -0.000292778  0.0097208 -0.270761 -0.000236034  0.0170016 -0.271288 -0.000270844  0.0173309 -0.263722 -0.00034523  0.0097425 -0.270822 -0.000207901  0.0100963 -0.263248 -0.000272751  0.0173578 -0.263798 -0.000304222  0.0101213 -0.263329 -0.000235558  0.00895309 -0.285761 -0.000178814  0.016257 -0.286267 -0.000192642  0.0165997 -0.278717 -0.000267982  0.00896788 -0.285808 -0.000154495  0.00934434 -0.278259 -0.000206947  0.0166368 -0.278778 -0.000230789  0.00936031 -0.278314 -0.000174999  0.00814772 -0.300753 -0.000125885  0.0154829 -0.301238 -0.00014019  0.0158477 -0.293715 -0.000196457  0.00816703 -0.300782 -0.000114441  0.00855184 -0.293254 -0.000153065  0.015873 -0.293753 -0.000170231  0.00857353 -0.293295 -0.000134468  0.00732565 -0.315719 -8.91685e-05  0.0146761 -0.316187 -9.39369e-05  0.015065 -0.30869 -0.000133514  0.00734091 -0.315733 -7.39098e-05  0.00774169 -0.308232 -0.000110149  0.0150845 -0.308715 -0.000117302  0.00775242 -0.308262 -9.58443e-05  0.00648546 -0.33064 -5.43594e-05  0.0138483 -0.331098 -6.1512e-05  0.0142465 -0.323633 -8.24928e-05  0.00649881 -0.330648 -4.43459e-05  0.00691104 -0.323179 -6.7234e-05  0.0142627 -0.323646 -7.10487e-05  0.00692391 -0.323198 -6.00815e-05  0.00563145 -0.345521 -2.43187e-05  0.0129981 -0.345964 -2.67029e-05  0.0134168 -0.338528 -4.62532e-05  0.00564456 -0.34552 -2.00272e-05  0.00605893 -0.338077 -3.67165e-05  0.0134251 -0.338535 -3.76701e-05  0.00607085 -0.338089 -3.29018e-05  0.00476885 -0.360347 4.76837e-07  0.0121365 -0.360782 -4.29153e-06  0.0125573 -0.353373 -1.4782e-05  0.00477982 -0.360339 1.43051e-06  0.00520039 -0.352934 -1.28746e-05  0.012569 -0.353378 -1.4782e-05  0.00521159 -0.352937 -7.15256e-06  0.00390482 -0.375102 2.67029e-05  0.0112777 -0.375538 2.71797e-05  0.0116904 -0.368165 1.04904e-05  0.00391769 -0.37509 2.09808e-05  0.00433564 -0.367726 1.43051e-05  0.0117075 -0.368167 1.23978e-05  0.00434875 -0.367725 9.05991e-06  0.00242881 -0.000702798 -0.00416136  0 0 0  0.00243118 -0.00205266 -0.00375509  0.00108942 -0.000626922 -0.00302601  0 0 0  0.00191487 -0.00126708 -0.00321054  0.000866845 -0.00014472 -0.00252724  0 0 0  0.000733189 -0.000971973 -0.00217247  0.000569195 -0.000511527 -0.00183535  0.0053803 -0.00329882 -0.00496435  0.006273 -0.00500888 -0.00511885  0.00500801 -0.00264996 -0.00543785  0.00501388 -0.00410914 -0.00434923  0.00399081 -0.00180346 -0.00459957  0.00440416 -0.003411 -0.00457525  0.00348772 -0.0025273 -0.00387716  0.00807452 -0.00715733 -0.00526333  0.00976679 -0.00891602 -0.00548553  0.00830883 -0.0058921 -0.00613689  0.00794309 -0.0080809 -0.0046196  0.00672436 -0.00505722 -0.00516987  0.00805548 -0.00680691 -0.00537062  0.00650117 -0.00593978 -0.00453615  0.0106878 -0.0123105 -0.00520325  0.0130132 -0.0140509 -0.00546217  0.011488 -0.0103709 -0.00627375  0.0106731 -0.0132466 -0.00457859  0.00939953 -0.0095675 -0.00525713  0.0114163 -0.0113304 -0.00551033  0.00933385 -0.0105094 -0.0046258  0.0131598 -0.0186554 -0.00499153  0.0160412 -0.0203482 -0.00524569  0.0145288 -0.0161213 -0.00611401  0.0132 -0.0195683 -0.00438595  0.011942 -0.015336 -0.00511122  0.0145562 -0.0170597 -0.00537348  0.0119618 -0.0162681 -0.00449562  0.0154544 -0.0260849 -0.00470448  0.0188454 -0.0277038 -0.00493574  0.0173954 -0.0230011 -0.00580883  0.0155231 -0.0269477 -0.00412655  0.0143309 -0.0222363 -0.00485229  0.0174743 -0.0239007 -0.00509596  0.0143895 -0.0231304 -0.00426102  0.0175489 -0.0344738 -0.0043869  0.0213982 -0.0360225 -0.00459671  0.020059 -0.0309042 -0.00544071  0.0176274 -0.0352814 -0.00383949  0.0165237 -0.030156 -0.00454378  0.020152 -0.0317477 -0.00476885  0.0166026 -0.0310002 -0.00398207  0.0194324 -0.0437284 -0.00405788  0.0237007 -0.0452033 -0.00424623  0.0224767 -0.0397229 -0.00504971  0.0195101 -0.0444807 -0.00355196  0.0185153 -0.0389941 -0.00422001  0.0225806 -0.0405058 -0.00442171  0.0185959 -0.0397771 -0.00369549  0.0210898 -0.0537748 -0.00374317  0.0257452 -0.0551676 -0.00391006  0.0246512 -0.049367 -0.00466299  0.0211684 -0.0544625 -0.0032711  0.0202867 -0.0486553 -0.00389719  0.0247537 -0.0500901 -0.00407791  0.0203656 -0.0493808 -0.00340843  0.0225271 -0.0645198 -0.00342941  0.0275376 -0.0658394 -0.00357914  0.026575 -0.0597557 -0.00428104  0.0226057 -0.0651531 -0.00299406  0.0218364 -0.0590585 -0.00358057  0.0266738 -0.0604196 -0.00374556  0.0219148 -0.0597242 -0.00313234  0.0237542 -0.0759068 -0.00313091  0.0290864 -0.0771502 -0.0032692  0.0282429 -0.0708094 -0.00391245  0.0238307 -0.07648 -0.00273371  0.0231671 -0.0701295 -0.00327539  0.02834 -0.071419 -0.00342512  0.0232455 -0.0707387 -0.00286293  0.024776 -0.0878525 -0.00284052  0.0303977 -0.089032 -0.00296593  0.0296763 -0.0824695 -0.00356627  0.0248457 -0.0883781 -0.00248241  0.0242934 -0.0818052 -0.00298452  0.0297705 -0.0830225 -0.00311518  0.0243667 -0.0823578 -0.00260687  0.0255971 -0.100308 -0.00257158  0.0314848 -0.101423 -0.00268126  0.0308778 -0.0946653 -0.00323248  0.0256652 -0.100786 -0.00224781  0.0252078 -0.0940177 -0.00270653  0.0309697 -0.0951664 -0.00282431  0.0252795 -0.0945187 -0.00236416  0.0262318 -0.11322 -0.00231552  0.0323595 -0.114267 -0.0024128  0.0318586 -0.107339 -0.00291204  0.026301 -0.113643 -0.00202417  0.0259401 -0.106707 -0.00244093  0.0319484 -0.107791 -0.0025444  0.0260024 -0.107156 -0.00213194  0.0266973 -0.126526 -0.002069  0.0330294 -0.127511 -0.00215387  0.0326368 -0.120437 -0.00261354  0.0267606 -0.126899 -0.00181055  0.0264846 -0.119818 -0.00219154  0.0327169 -0.120842 -0.0022831  0.0265541 -0.120223 -0.00191164  0.0269964 -0.140163 -0.00183773  0.0335169 -0.141103 -0.00191498  0.0332153 -0.133907 -0.00232649  0.0270569 -0.140503 -0.00160074  0.0268636 -0.133301 -0.0019536  0.0332959 -0.134266 -0.00203276  0.0269289 -0.133661 -0.00170851  0.0271401 -0.154114 -0.00161743  0.0338302 -0.154994 -0.00168371  0.0336223 -0.147696 -0.00205278  0.0271986 -0.154407 -0.00141335  0.0270875 -0.1471 -0.00172949  0.0336957 -0.148014 -0.00179577  0.0271466 -0.147418 -0.00150871  0.0271461 -0.168311 -0.00141716  0.0339828 -0.16914 -0.00147057  0.0338445 -0.161758 -0.00180483  0.0272052 -0.168566 -0.00123644  0.0271626 -0.16118 -0.00151539  0.0339248 -0.162037 -0.00157642  0.0272202 -0.161458 -0.00132704  0.0270278 -0.182719 -0.00122452  0.0339842 -0.183503 -0.00126648  0.033931 -0.176056 -0.00156546  0.0270851 -0.182942 -0.00107098  0.0271029 -0.175488 -0.00131989  0.0340052 -0.176299 -0.001369  0.027159 -0.175731 -0.00115156  0.0267906 -0.197307 -0.00105  0.0338538 -0.198041 -0.00109148  0.0338702 -0.190542 -0.00134754  0.0268438 -0.197492 -0.000916958  0.0269237 -0.189991 -0.00113583  0.0339363 -0.190752 -0.00117826  0.0269773 -0.190197 -0.000991821  0.0264471 -0.212026 -0.000886917  0.0336018 -0.212721 -0.000912666  0.0336769 -0.205191 -0.00114775  0.0265012 -0.212185 -0.000774384  0.0266328 -0.204645 -0.000964642  0.0337424 -0.205365 -0.00100183  0.0266836 -0.204822 -0.000841618  0.0260153 -0.226858 -0.000733376  0.0332377 -0.22751 -0.000760078  0.0333722 -0.219956 -0.000956535  0.0260627 -0.226988 -0.0006423  0.0262461 -0.219425 -0.000812531  0.0334325 -0.220103 -0.000835896  0.0262938 -0.219574 -0.000704288  0.0254941 -0.241759 -0.000597477  0.032773 -0.242378 -0.000621796  0.0329592 -0.234814 -0.000784397  0.0255411 -0.241868 -0.00052309  0.0257659 -0.234296 -0.000663757  0.0330164 -0.234935 -0.000688553  0.0258131 -0.234416 -0.000580788  0.0248992 -0.256717 -0.000477791  0.0322251 -0.257302 -0.000491142  0.0324607 -0.249737 -0.000632763  0.0249441 -0.256805 -0.000416756  0.0252106 -0.249232 -0.000538826  0.0325108 -0.249833 -0.000546455  0.0252488 -0.249328 -0.000467777  0.0242484 -0.271702 -0.000371933  0.0316038 -0.272256 -0.000376701  0.0318782 -0.264704 -0.000497818  0.0242872 -0.271765 -0.000325203  0.0245788 -0.264208 -0.000425339  0.0319226 -0.264777 -0.000434399  0.0246222 -0.264281 -0.000370979  0.0235384 -0.286693 -0.00027895  0.0309181 -0.287219 -0.000277996  0.031225 -0.279682 -0.000376225  0.0235739 -0.286739 -0.000240803  0.0238998 -0.279192 -0.000321388  0.0312691 -0.279736 -0.000330925  0.023936 -0.279252 -0.000281811  0.0227895 -0.301676 -0.000198364  0.0301783 -0.302172 -0.000198364  0.0305142 -0.294656 -0.000271797  0.022819 -0.301704 -0.000173092  0.0231698 -0.294185 -0.000236034  0.0305526 -0.294696 -0.000237942  0.023201 -0.294223 -0.000203609  0.0220015 -0.316626 -0.000130177  0.0293941 -0.317105 -0.000132084  0.0297651 -0.309617 -0.00018549  0.0220268 -0.316645 -0.000117302  0.0223994 -0.309149 -0.000164032  0.0297887 -0.309642 -0.000162125  0.0224254 -0.309175 -0.00013876  0.0211849 -0.331541 -7.86781e-05  0.0285807 -0.332004 -7.72476e-05  0.0289674 -0.324543 -0.000116348  0.0212042 -0.331551 -6.81877e-05  0.0215986 -0.32409 -0.000103951  0.0289922 -0.32456 -0.000101566  0.0216188 -0.3241 -8.82149e-05  0.0203416 -0.346411 -3.76701e-05  0.0277369 -0.346861 -3.52859e-05  0.0281382 -0.339428 -6.4373e-05  0.0203633 -0.346413 -3.33786e-05  0.020767 -0.338978 -5.48363e-05  0.0281594 -0.339437 -5.57899e-05  0.0207856 -0.338984 -5.14984e-05  0.01949 -0.361229 1.43051e-06  0.0268826 -0.361667 -4.76837e-06  0.0272942 -0.354264 -2.09808e-05  0.019506 -0.361222 9.53674e-07  0.0199237 -0.353819 -1.62125e-05  0.0273151 -0.35427 -1.85966e-05  0.0199354 -0.353824 -1.4782e-05  0.0186248 -0.375981 3.62396e-05  0.026021 -0.376439 2.00272e-05  0.0264304 -0.369051 8.10623e-06  0.0186391 -0.375992 3.24249e-05  0.0190573 -0.368608 1.4782e-05  0.0264504 -0.369056 1.33514e-05  0.0190706 -0.368608 1.28746e-05  0.00386164 -0.00249285 -0.00561333  0 0 0  0.00404942 -0.00476253 -0.00477362  0.00181339 -0.00245595 -0.00380182  0 0 0  0.00311214 -0.00320041 -0.00429296  0.00134923 -0.00133908 -0.00327682  0 0 0  0.00134213 -0.00267011 -0.00278044  0.000907741 -0.00164306 -0.00237656  0.00818217 -0.00508142 -0.00677633  0.00924155 -0.00709659 -0.00672817  0.00754315 -0.00474501 -0.00719881  0.00770602 -0.00602472 -0.00590324  0.00625253 -0.00365281 -0.00633574  0.00684817 -0.00575864 -0.00600338  0.00556675 -0.00450146 -0.00528669  0.0118483 -0.00888336 -0.00730085  0.013755 -0.0109571 -0.0072937  0.0117709 -0.00780231 -0.00820017  0.0116948 -0.00987327 -0.00637531  0.00998798 -0.00681436 -0.00713825  0.0114945 -0.008874 -0.00711298  0.00971594 -0.00779325 -0.00622702  0.0154836 -0.0140046 -0.00724649  0.018104 -0.0160144 -0.00726795  0.0160317 -0.012298 -0.00838518  0.0154822 -0.0149754 -0.00635624  0.013687 -0.0112863 -0.0073123  0.0159652 -0.0133297 -0.00732327  0.0136221 -0.0122719 -0.0064106  0.0189458 -0.020321 -0.00695801  0.0221666 -0.0222566 -0.00696516  0.0201304 -0.0180255 -0.00814295  0.0190235 -0.0212423 -0.0061059  0.0172404 -0.0170138 -0.00712633  0.0201704 -0.0189981 -0.00713968  0.0172837 -0.0179697 -0.00625181  0.0221946 -0.0277131 -0.0065546  0.0259392 -0.0295597 -0.00655317  0.0240011 -0.0248715 -0.00773096  0.022305 -0.0285736 -0.00574303  0.0205996 -0.0238816 -0.00676394  0.0240919 -0.0257789 -0.00677156  0.0206965 -0.0247852 -0.00593233  0.0251828 -0.0360627 -0.00610781  0.0293885 -0.0378237 -0.00609159  0.0275816 -0.0327337 -0.00722361  0.0253074 -0.0368674 -0.00534821  0.0237262 -0.0317605 -0.00633097  0.0277056 -0.0335706 -0.00632811  0.0238416 -0.0326055 -0.00555038  0.0278963 -0.0452775 -0.00564528  0.0325176 -0.0469472 -0.00563145  0.0308576 -0.0415032 -0.00668907  0.0280249 -0.0460244 -0.00494385  0.0265778 -0.0405614 -0.00587702  0.0309926 -0.0422788 -0.00586128  0.0267025 -0.0413417 -0.00514412  0.0303298 -0.0552772 -0.005198  0.0353241 -0.0568558 -0.00518036  0.0338342 -0.0510898 -0.00617313  0.0304513 -0.0559641 -0.00454855  0.0291462 -0.0501827 -0.00541735  0.0339645 -0.0518081 -0.00540113  0.0292749 -0.0508993 -0.00474262  0.0324739 -0.0659871 -0.00475931  0.0378071 -0.0674748 -0.00474262  0.0364902 -0.0614275 -0.00566101  0.0325935 -0.0666121 -0.00416565  0.0314337 -0.0605439 -0.00498009  0.0366042 -0.0620831 -0.00495481  0.031558 -0.061203 -0.00435781  0.0343456 -0.0773318 -0.00434303  0.0399858 -0.0787368 -0.00432301  0.0388147 -0.0724245 -0.00518036  0.0344611 -0.0779022 -0.00379848  0.0334429 -0.071579 -0.00455332  0.038934 -0.0730296 -0.00453043  0.03356 -0.072182 -0.00398016  0.0359534 -0.0892459 -0.00394392  0.0418715 -0.0905707 -0.00392962  0.0408491 -0.0840389 -0.0047102  0.0360639 -0.0897634 -0.00345182  0.0351837 -0.0832134 -0.00414324  0.040965 -0.0845831 -0.00411844  0.0352964 -0.0837627 -0.00362587  0.0373051 -0.101662 -0.00355959  0.0434753 -0.102914 -0.00354767  0.0425974 -0.0961798 -0.00427008  0.0374137 -0.102133 -0.00311422  0.0366615 -0.0953881 -0.00375223  0.0427107 -0.0966761 -0.00373268  0.03677 -0.0958865 -0.0032835  0.0384151 -0.114535 -0.00320864  0.0448126 -0.11571 -0.00318432  0.044067 -0.108807 -0.00384712  0.0385206 -0.114955 -0.00279856  0.0378896 -0.10804 -0.00337982  0.0441788 -0.109255 -0.00336313  0.0379955 -0.108489 -0.00295544  0.0393027 -0.127808 -0.0028615  0.0458971 -0.128909 -0.00284719  0.0452861 -0.121859 -0.00344372  0.0394001 -0.128181 -0.00250196  0.0388887 -0.121116 -0.00303078  0.0453864 -0.122258 -0.00301123  0.0389895 -0.121522 -0.00265026  0.0399737 -0.141423 -0.00253963  0.0467432 -0.142461 -0.00252199  0.0462461 -0.135283 -0.00306654  0.0400729 -0.141755 -0.00221968  0.0396663 -0.134567 -0.00270271  0.0463511 -0.135638 -0.00268412  0.0397615 -0.134926 -0.00235939  0.0404572 -0.155337 -0.00223303  0.0473714 -0.156305 -0.00222015  0.0469933 -0.14903 -0.00269985  0.0405476 -0.155626 -0.00195599  0.040242 -0.148333 -0.00238466  0.0470827 -0.149346 -0.00236893  0.0403349 -0.148654 -0.00208044  0.0407531 -0.169501 -0.00194788  0.0477974 -0.170409 -0.00193405  0.0475192 -0.163052 -0.0023694  0.040839 -0.169755 -0.00170374  0.0406287 -0.162382 -0.00209188  0.0476096 -0.163327 -0.00207663  0.0407147 -0.162662 -0.00182819  0.0408845 -0.18388 -0.00168276  0.0480349 -0.184733 -0.00167179  0.0478573 -0.177309 -0.00205708  0.0409636 -0.184101 -0.00147009  0.0408406 -0.176663 -0.00181532  0.047941 -0.177547 -0.00179768  0.0409207 -0.176903 -0.00158691  0.0408552 -0.198436 -0.00143576  0.0481009 -0.199229 -0.0014267  0.0480082 -0.191752 -0.00176859  0.040935 -0.198619 -0.00125885  0.0408869 -0.191135 -0.00155926  0.0480897 -0.191958 -0.00154686  0.0409689 -0.191341 -0.00136471  0.0406959 -0.21313 -0.00120401  0.0480149 -0.213871 -0.00119686  0.0479984 -0.206367 -0.00149107  0.0407643 -0.213283 -0.00105572  0.0407932 -0.20576 -0.00132799  0.0480733 -0.206528 -0.00131083  0.0408671 -0.205933 -0.00115871  0.0404007 -0.22793 -0.00100088  0.0477769 -0.22862 -0.00098753  0.0478415 -0.221095 -0.00124359  0.0404704 -0.228055 -0.000877857  0.0405643 -0.220513 -0.00110054  0.047915 -0.221235 -0.00108671  0.0406313 -0.220657 -0.000964642  0.0399983 -0.242811 -0.000813007  0.0474143 -0.243455 -0.000803947  0.0475433 -0.235917 -0.00101376  0.0400636 -0.242905 -0.000711918  0.0402124 -0.235358 -0.000907421  0.0476127 -0.236029 -0.000895977  0.0402787 -0.235469 -0.00079298  0.0394971 -0.257738 -0.000644207  0.046946 -0.258342 -0.000629425  0.0471356 -0.250796 -0.000813484  0.0395567 -0.257814 -0.000561237  0.0397618 -0.250259 -0.000724792  0.0471931 -0.25089 -0.000715256  0.0398214 -0.250354 -0.000633717  0.0389123 -0.272699 -0.000497818  0.0463731 -0.273265 -0.000481606  0.0466137 -0.265732 -0.000630856  0.0389638 -0.272754 -0.000432014  0.0392153 -0.265208 -0.00056982  0.0466721 -0.2658 -0.000557423  0.0392694 -0.265283 -0.000498772  0.0382514 -0.28767 -0.000368118  0.0457234 -0.288198 -0.000350475  0.0460114 -0.280676 -0.000477791  0.0382972 -0.287706 -0.000319481  0.0385926 -0.280176 -0.000431061  0.0460596 -0.280729 -0.000416279  0.0386381 -0.280228 -0.000375748  0.0375276 -0.302622 -0.000256062  0.0449936 -0.303125 -0.000240326  0.045325 -0.29563 -0.000339985  0.0375667 -0.302649 -0.000226498  0.0378983 -0.29514 -0.000304699  0.0453653 -0.295665 -0.000298023  0.0379386 -0.295178 -0.00026989  0.0367551 -0.317565 -0.000167847  0.0442131 -0.318036 -0.000152588  0.0445786 -0.310564 -0.000230312  0.0367901 -0.317568 -0.000146866  0.0371482 -0.310091 -0.000212193  0.0446074 -0.310584 -0.000200272  0.0371833 -0.310111 -0.00018692  0.0359442 -0.332452 -9.63211e-05  0.0433834 -0.332916 -8.86917e-05  0.0437751 -0.325465 -0.000133514  0.0359716 -0.332458 -8.24928e-05  0.0363569 -0.325006 -0.000131607  0.0438027 -0.325476 -0.000125408  0.0363853 -0.325016 -0.000116348  0.0351081 -0.347309 -4.43459e-05  0.042527 -0.347758 -4.673e-05  0.0429428 -0.34033 -7.48634e-05  0.0351245 -0.347309 -4.1008e-05  0.0355234 -0.339882 -6.91414e-05  0.0429587 -0.340339 -6.00815e-05  0.0355525 -0.339891 -6.19888e-05  0.0342484 -0.362114 -4.29153e-06  0.0416548 -0.362554 -1.04904e-05  0.0420794 -0.35516 -2.86102e-05  0.034266 -0.362112 -5.72205e-06  0.0346847 -0.35471 -2.71797e-05  0.0420918 -0.355157 -3.14713e-05  0.0346956 -0.354718 -2.57492e-05  0.0333819 -0.376887 2.43187e-05  0.0407805 -0.377321 1.62125e-05  0.0411997 -0.369932 4.76837e-07  0.0333967 -0.376881 1.85966e-05  0.0338149 -0.369495 5.24521e-06  0.041213 -0.369943 3.33786e-06  0.0338309 -0.369499 4.29153e-06  
SCALARS smooth_stress float 1
LOOKUP_TABLE default
258.984 481.723 472.764 549.526 518.697 455.028 438.064 427.714 526.174 609.88 597.88 537.863 409.53 406.495 434.603 378.175 459.263 446.12 385.171 455.907 435.434 465.454 475.071 424.095 454.368 518.974 486.198 455.729 500.031 380.7 327.153 390.302 204.299 511.35 932.534 947.699 1022.07 931.539 873.527 834.525 886.942 1032.16 1119.13 1119.29 1051.52 880.643 835.332 859.736 790.855 940.596 963.847 869.277 849.41 788.28 874.44 866.457 764.823 755.021 906.462 1004.19 881.185 785.588 664.539 727.605 852.058 414.712 459.32 874.09 947.79 941.599 854.394 910.112 865.808 940.861 985.798 971.774 984.633 950.916 909.902 833.39 888.469 872.256 889.854 939.167 970.109 921.956 793.073 876.748 898.824 778.931 697.281 808.569 997.777 826.772 617.486 661.185 828.296 890.947 410.458 371.24 809.956 894.856 899.485 920.903 1005.94 932.851 940.409 892.059 793.917 856.974 914.738 925.102 819.039 837.284 830.609 770.1 799.658 831.575 905.231 906.531 880.043 950.35 922.942 807.313 838.161 955.682 771.525 677.367 836.101 794.302 747.218 390.478 342.25 805.321 821.637 903.879 999.216 937.138 885.761 878.225 850.302 709.658 783.782 883.438 825.922 731.972 770.452 844.605 813.405 850.77 819.574 771.393 761.951 794.265 914.205 928.262 801.569 725.22 780.357 704.777 677.662 839.598 770.466 723.628 413.636 342.576 876.717 890.687 862.796 892.69 789.011 797.708 815.464 886.893 803.068 730.958 777.788 830.62 830.52 812.64 858.487 874.057 857.903 874.531 939.833 869.756 824.293 833.664 813.692 811.264 685.958 700.565 724.657 665.763 894.116 923.5 789.794 406.228 407.393 955.47 970.807 832.439 800.422 825.187 820.973 809.535 921.691 928.317 801.891 780.65 978.716 956.173 803.839 848.318 886.125 841.47 919.167 1093.39 1012.85 836.56 711.272 710.115 860.433 818.817 833.598 845.812 774.997 932.385 954.533 778.604 334.532 507.628 1076.5 1042.88 987.21 982.042 940.657 892.611 821.551 897.966 917.717 910.493 891.137 887.264 983.117 926.274 851.745 862.07 890.724 910.798 850.295 817.003 870.336 867.797 799.784 821.122 815.991 814.507 874.059 873.328 889.634 893.719 781.17 334.12 264.848 579.101 563.127 544.117 554.445 481.667 447.089 408.031 425.111 414.201 449.526 482.314 399.559 539.978 538.57 388.342 398.176 434.605 392.161 302.127 378.264 476.084 518.896 459.839 381.069 374.992 377.016 418.336 431.87 470.522 458.679 386.76 182.614 467.439 1018.2 1059.7 1024.9 998.592 915.242 969.251 951.304 908.859 1004.82 984.827 937.896 866.818 855.007 819.126 779.641 910.517 862.599 769.345 922.164 932.23 887.758 897.53 891.203 983.584 1057.71 931.414 892.743 953.733 814.477 790.987 833.609 405.318 879.814 1907.75 2071.54 2035.47 1945.88 1798.84 1833 1893.03 1790.4 1905.46 2014.5 1902.29 1779 1681.36 1586.5 1580.19 1813.33 1829.37 1656.52 1663.24 1658.98 1722.84 1701.28 1648.71 1668.43 1805.49 1826.1 1772.81 1722.3 1529.92 1602.71 1724.14 850.615 743.069 1689.45 1979.57 1942.59 1868.38 1883.01 1820.72 1860.72 1825.59 1861.02 1867.09 1715.67 1690.32 1592.73 1652.75 1675.27 1697.54 1750.76 1740 1624.52 1527.15 1705.58 1707.62 1586.78 1521.19 1594.14 1792.22 1774.51 1586.64 1464 1595.18 1750.85 856.565 718.739 1641.3 1881.63 1809.66 1758.76 1899.89 1847.41 1805.82 1793.94 1744.45 1656.79 1649.68 1681.33 1594.49 1708.43 1691.44 1626.48 1605.24 1576.05 1641.81 1662.21 1682.1 1719.13 1758.17 1784.9 1745.06 1807.31 1604.62 1497.73 1650.75 1536.3 1553.68 821.002 715.034 1667.4 1834.76 1830.55 1755.11 1726.6 1807.86 1791.53 1757.8 1674.66 1639.07 1673.14 1650.67 1585.48 1667.69 1719.09 1711.14 1707.2 1563.09 1522.48 1515.75 1498.13 1632.01 1732.07 1753.86 1593.67 1530.7 1369.16 1381.63 1748.71 1571.93 1472.02 823.794 644.221 1603.82 1831.51 1803.52 1686.41 1606.17 1736.71 1761.68 1831.38 1747.24 1573.25 1590.66 1658.74 1701.67 1707.25 1702.41 1692.03 1573.25 1567.64 1656.1 1614.47 1547.03 1616.64 1626.7 1639.19 1492.5 1414.26 1419.53 1388.07 1685.34 1708.39 1519.23 726.712 813.826 1702.68 1810.67 1833.15 1707.57 1703.9 1717.47 1678.27 1874.91 1807.36 1604.63 1669.28 1862.21 1861.23 1712.94 1711.49 1685.77 1595.25 1737.18 1837.07 1865.98 1791.61 1603.27 1621.55 1693.18 1553.34 1595.37 1686.23 1592.53 1680.2 1696.92 1504.34 662.529 1020.89 2070.04 1980.86 2061.69 1991.33 1743.12 1743.62 1656.1 1818.84 1792.86 1680.31 1779.64 1875.5 1919.78 1778.6 1784.54 1773.24 1783.01 1864.66 1673.75 1651.95 1791.41 1744.52 1670.57 1618.15 1594.21 1634.19 1723.15 1731.44 1707.54 1631.07 1486.61 698.863 524.296 1145.16 1080.85 1079.15 1052.74 819.262 845.445 834.808 867.402 842.165 829.228 926.265 924.554 1002.86 928.279 873.09 900.125 875.063 855.248 728.679 746.491 860.3 941.14 872.558 758.852 838.403 832.16 797.466 825.011 866.18 823.453 722.843 348.986 406.227 1009.35 1107.56 972.607 912.799 814.484 977.837 1022.85 843.665 816.672 774.875 843.674 971.866 908.216 826.524 811.348 802.422 777.345 696.774 768.756 898.441 781.032 700.43 843.153 902.474 895.375 815.781 833.137 852.663 845.116 879.528 830.825 404.071 746.72 1820.18 2039.62 1896.84 1861.66 1697.19 1861.49 1984.87 1728.68 1689.56 1730.37 1732.09 1829.96 1746.81 1650.41 1749.79 1722.2 1623.57 1519.18 1566.54 1722.17 1601.33 1507.92 1701.22 1692.64 1699.68 1652.29 1671.85 1716.92 1677.07 1643.71 1610.47 843.097 660.348 1617.03 1890.72 1874.36 1878.88 1785.21 1792.48 1861.19 1780.66 1757.22 1730.8 1619.18 1649.46 1659.62 1652.13 1754.65 1726.24 1643.32 1655.88 1625.61 1564.43 1556.74 1614.66 1694.1 1665.11 1602.8 1598.38 1740.77 1836.48 1666.34 1471.57 1557.53 847.426 773.685 1689.56 1834.14 1807.29 1699.33 1659.37 1663.96 1683.71 1725.9 1720.38 1642.94 1556.06 1614.44 1672.67 1673.04 1673.8 1714.57 1618.92 1586.08 1646.43 1573.52 1577.63 1608.46 1684.07 1765.62 1709.56 1651.03 1636.65 1665.07 1598.75 1454.82 1530.3 818.555 802.108 1707.87 1846.24 1805.31 1617.72 1622.84 1713.2 1678.11 1681.4 1785.7 1725.93 1589.31 1687.54 1759.35 1746.2 1709.62 1720.54 1608.8 1539.43 1628.35 1610.52 1573.15 1562.31 1558.41 1707.72 1691.44 1578.33 1548.69 1491 1574.76 1572.03 1489.36 728.836 729.502 1574.42 1766.82 1831.33 1727.18 1719.77 1749.29 1698.51 1716.87 1794.16 1709.35 1577.82 1631.32 1744.99 1783.88 1709.53 1599.48 1468.02 1500.72 1569.81 1628.32 1527.19 1566.68 1615.8 1640.66 1562.32 1431.71 1575.11 1554.99 1475.31 1551.33 1450.5 606.515 880.548 1626.96 1674.86 1961.61 1925.14 1739.87 1625.98 1613.31 1693.74 1645.5 1594.09 1622.83 1621.03 1683.84 1690.58 1660.47 1579.53 1529.95 1628.28 1540.77 1707.25 1810.68 1711.3 1764.53 1669.34 1593.87 1573.53 1638.8 1626.13 1428.54 1428.23 1436.09 668.068 980.913 1930.72 1911.93 2113.59 2017.56 1669.66 1698.31 1752.99 1762.02 1636.79 1550.87 1677.15 1796.4 1713.38 1569.93 1669.05 1682.15 1654.84 1752.9 1645.12 1644.95 1862.23 1803.3 1641.88 1579.14 1686.23 1656.7 1574.9 1637.23 1551.18 1418.79 1397.62 714.248 481.589 1053.69 1033.13 1035.15 971.178 783.584 863.561 944.626 933.99 835.795 807.834 868.122 942.232 866.827 761.83 866.081 889.665 805.933 838.518 864.414 788.324 846.789 897.655 782.782 733.401 874.302 825.702 697.111 767.936 787.564 717.292 675.071 334.014 420.406 906.107 1022.28 1136.37 1066.31 917.694 951.497 900.367 867.487 863.659 845.214 955.459 955.902 936.127 938.423 789.453 682.115 755.359 746.635 715.458 814.108 782.06 718.915 825.837 756.939 671.193 712.608 723.128 755.74 828.158 856.302 774.927 370.484 849.238 1780.72 1892.09 2012.47 1965.38 1759.19 1766.38 1777.96 1854.15 1862.46 1798.39 1849.9 1730.84 1748.43 1874.34 1789.53 1576.39 1499.12 1583.46 1623.1 1675.96 1592.78 1553.27 1767.55 1564.13 1414.32 1486.38 1433.84 1488 1577.29 1588.67 1482.85 724.434 809.16 1765.56 1815.16 1809.16 1783.24 1606.67 1652.27 1801.75 1923.21 1881.01 1747.96 1670.75 1605.59 1726.41 1831.92 1862.78 1741.17 1561.23 1668.04 1769 1601.11 1542.12 1690.17 1792.03 1652.6 1532.03 1513.41 1452.64 1580.91 1657.64 1484.43 1458.82 789.263 821.099 1711.18 1762.29 1805.28 1671.41 1494.36 1500.24 1642.67 1827.14 1773.04 1676.37 1601.42 1651.77 1713.67 1595.68 1625.72 1635.27 1550.96 1581.35 1669.89 1597.34 1590.76 1803.66 1742.79 1589.22 1619.09 1559.93 1524.22 1642.56 1601.92 1450.94 1535.14 835.814 825.924 1687.29 1748.03 1750.05 1648.02 1662.58 1593.93 1524.59 1659.85 1726.73 1761.06 1678.96 1629.43 1619.68 1537.41 1545.85 1578.17 1517.78 1520.64 1599.65 1599.45 1662.4 1825.49 1729.94 1655.77 1659.28 1509.36 1650.13 1653.71 1400.41 1491.4 1629.02 806.695 864.078 1763.13 1760.86 1790.77 1859.94 1856.64 1752.63 1619.75 1525.5 1616.77 1724.6 1632.25 1579.77 1671.57 1720.59 1577.03 1550.9 1645.29 1580.22 1582.83 1645.45 1654.36 1684.81 1669.68 1764.16 1673.46 1494.67 1747.41 1714.04 1376.61 1394.9 1438.23 698.664 883.673 1757.17 1810.02 1967.79 1966.41 1771.03 1751.57 1691.91 1540.7 1597.13 1616.11 1609.12 1608.77 1638.81 1637.81 1571.83 1538.33 1651.27 1661.49 1610.07 1705.25 1672.36 1628.44 1696.43 1746.35 1750.39 1612.29 1637.93 1672.83 1436.08 1366.03 1373.96 687.182 888.835 1877.58 1987.67 2000.34 1983.73 1789.1 1845.01 1939.69 1865.81 1722.32 1585.3 1768.67 1754.25 1567.34 1429.42 1484.79 1611.14 1620.17 1657.73 1627.62 1564.42 1686.99 1738.62 1667.49 1636.34 1639.85 1462.41 1396.98 1548.29 1567.4 1529.34 1508.39 776.403 484.087 1016.49 1007.43 945.477 1016.49 941.32 914.986 1061.45 1081.35 906.056 814.312 937.964 916.932 779.988 674.469 707.154 833.912 829.897 805.964 809.262 763.253 865.942 917.341 803.277 742.203 733.821 655.714 638.619 729.705 800.919 765.67 727.878 381.691 479.891 945.385 1030.49 1228.71 1263.05 1144.4 1003.51 892.521 888.474 895.198 914.104 1055.01 1031.09 954.592 959.776 832.101 770.437 890.997 919.686 844.369 873.037 823.099 805.471 867.486 718.717 673.654 732.863 670.118 683.314 836.911 907.628 775.309 348.311 915.824 1871.63 2013.99 2197.26 2249.9 2109.87 1914.01 1798.51 1844.33 1914.61 1909.58 1927.17 1766.35 1712.55 1805.98 1669.82 1565.98 1653.46 1758.21 1702.01 1679.98 1667.01 1687.91 1795.55 1525.48 1377.45 1508.96 1427.67 1421.39 1562.79 1650.87 1521.81 690.435 769.671 1735.06 1874.55 1871.38 1914.06 1828.83 1846.9 1883.47 1936.53 1967.23 1796 1630.02 1541.37 1675.41 1806 1704.13 1645.09 1632.13 1648.78 1675.75 1551.67 1579.78 1696.98 1701.13 1589.19 1509.84 1570.83 1542.72 1482.52 1497.53 1543.55 1543.34 764.069 734.641 1562.29 1687.61 1745.39 1706.83 1584.11 1622.43 1729.32 1900.49 1891.23 1656.4 1536.66 1573.67 1703.71 1696.8 1593.16 1588.21 1662.54 1627.32 1686.44 1616.45 1563.06 1704.49 1609.55 1635.18 1665.64 1505.05 1512.87 1512.77 1490.93 1526.18 1557.6 799.977 807.865 1622.62 1699.52 1724.25 1690.11 1594.39 1441.22 1516.75 1745.27 1742.44 1675.56 1582.43 1421.65 1518.52 1578.83 1467.19 1524.25 1599.71 1597.04 1634.81 1623.8 1620.41 1731 1668.79 1670.48 1635.79 1355.77 1462.39 1650.46 1553.42 1459.68 1581.03 852.438 836.114 1767.99 1811.07 1801.89 1894.59 1830.49 1651.98 1632.75 1536.29 1503.68 1596.94 1625.77 1516.91 1549.79 1675.13 1456.01 1545.75 1811.37 1666.44 1550.4 1603.98 1742.95 1775.18 1637.94 1649.11 1682.14 1514.25 1519.54 1629.04 1535.41 1380.8 1411.35 775.86 776.479 1691.91 1871.2 1880.54 1849.72 1826.1 1940.66 1827.83 1548.66 1628.33 1614.87 1632.2 1648.01 1577.15 1684.37 1619.15 1607.56 1843.76 1728.01 1629.99 1639.05 1636.99 1788.14 1826.71 1747.73 1633.98 1451.51 1455.66 1505.13 1446.82 1443.6 1392.92 705.325 857.732 1770.44 1903.04 1897.41 1913.84 1824.43 2023.37 2073.6 1925.96 1883.68 1587.23 1726.21 1745.71 1568.07 1589.65 1647.71 1710.73 1813.62 1831.37 1627.89 1426.28 1500.72 1714.07 1907.99 1774.89 1413.85 1202.36 1334.64 1493.42 1546.62 1587.71 1557.64 807.14 510.405 977.374 939.939 937.07 1048.23 955.182 979.498 1113.61 1088.14 960.002 749.613 916.152 960.515 808.454 738.596 744.125 863.329 974.396 989.818 781.816 639.138 813.453 860.069 886.912 858.548 685.811 619.656 663.835 735.195 801.075 791.104 755.804 403.271 517.012 1013.74 1012.67 1066.33 1144.41 1100.82 992.993 984.576 918.803 918.817 934.926 992.852 1029.5 895.313 927.742 908.619 882.037 897.271 821.091 845.515 942.68 877.678 795.249 800.779 725.112 765.831 857.23 760.981 730.254 861.277 837.319 659.343 280.708 906.731 1889.49 2113.29 2130.22 2134.88 2064.9 1923.29 1930.38 1810.34 1927.7 1987.11 1924.3 1863.83 1734.73 1707.47 1664.82 1725.65 1726.81 1649.86 1672.53 1761.35 1683.58 1666.81 1672.84 1502.57 1549.63 1697.84 1612.35 1464.62 1519.63 1534.22 1450.87 704.925 706.187 1587.08 1904.26 1959.87 2001.04 1990.35 1922.49 1896.34 1832.12 1948.88 1863.62 1715.19 1743.61 1799.7 1772.99 1660.31 1694.2 1804.24 1764.25 1678.34 1616.69 1551.1 1591.9 1622.39 1590.52 1588.14 1637.21 1631.23 1445.47 1308.58 1451.57 1579.35 782.956 757.981 1549.75 1613.26 1752.92 1919.75 1840.55 1774.44 1817.07 1846.5 1743.18 1614.09 1637.37 1688.71 1798.18 1893.45 1779.35 1635.86 1717.09 1736.26 1734.68 1674.7 1623.67 1571.36 1590.61 1681.85 1638.79 1518.02 1480.27 1407.41 1356.71 1566.37 1566.51 726.688 882.338 1669.09 1565.88 1627.19 1778.36 1571.9 1449.46 1667.33 1754.82 1654.19 1659.39 1625.26 1465.7 1694.76 1783.26 1622.54 1538.95 1452.85 1621.84 1784.07 1803.96 1753.51 1698.01 1650.55 1566.34 1561.63 1485.89 1541.9 1550.4 1508.22 1492.05 1489.84 778.198 853.384 1751.89 1653.46 1629.21 1815.19 1641.4 1558.02 1759.81 1677.22 1553.49 1604.39 1638.72 1579.63 1678.25 1652.32 1477.76 1549.23 1636.64 1709.96 1686.4 1754.65 1810.35 1763.92 1660.06 1512.6 1536.95 1578.37 1560.31 1549.3 1601.79 1502 1451.92 761.302 784.447 1706.62 1862.34 1813.98 1838.96 1805.6 1845.78 1938.23 1749.98 1639.88 1667.76 1680.36 1649.66 1551.53 1576.41 1588.57 1602.94 1798.1 1743.84 1580.46 1683.21 1744.15 1793.61 1811.23 1693.66 1618.3 1459.14 1466.52 1485.92 1467.89 1517.04 1483.19 739.923 807.547 1651.65 1853.03 1943.06 1884.47 1834.43 1937.76 1992.43 1803.55 1764.57 1769.15 1720.16 1753.07 1699.79 1712.44 1779.21 1738 1834.36 1876.91 1577.52 1437.82 1631.7 1773.62 1878.99 1864.2 1647.89 1414.16 1538.71 1549.58 1407.73 1444.94 1471.75 753.692 435.659 866.256 887.891 988.05 991.526 912.595 982.794 1013.22 881.896 827.181 849.042 906.891 996.763 969.643 905.284 921.098 930.616 962.453 1021.97 782.749 581.985 822.848 896.938 917.553 985.584 839.354 768.921 791.002 758.876 739.892 749.557 729.339 364.822 579.91 1060.62 999.775 1040.39 1045.15 975.896 969.397 985.402 902.298 936.732 986.252 928.182 861.222 833.072 887.005 918.26 919.407 790.952 746.428 872.252 967.808 964.862 806.046 720.232 713.909 842.688 961.433 876.477 825.412 794.763 750.452 644.79 263.66 950.742 1924.81 2117.87 2130.38 1984.81 1834.47 1775.86 1799.65 1781.14 1931.32 1982.56 1860.23 1673.79 1641.89 1717.12 1760.42 1848.2 1635.6 1583.52 1773.32 1816.12 1766.37 1683.15 1611.02 1482.83 1552.4 1708.4 1693.03 1547.75 1516.47 1532.03 1404.16 649.634 772.113 1717.75 1960.73 1968.43 1956.04 1839.29 1676.39 1625.89 1700.86 1928.84 1859.96 1706.76 1753.31 1777.56 1765.77 1778.23 1823.02 1751.05 1754.28 1771.19 1678.48 1636.27 1600.78 1637.3 1673.98 1567.72 1546.26 1611.65 1576.61 1513.35 1469.75 1508.34 771.303 837.206 1710.31 1654.47 1757.07 1946.65 1842.11 1732.25 1696.42 1676.04 1661.04 1598.3 1647.15 1812.39 1853.29 1839.6 1807.48 1667.06 1607.03 1702.28 1642.59 1643.1 1750.75 1605.92 1644.85 1712.29 1596.73 1623.53 1639.19 1653.01 1607.45 1493.73 1440.93 706.539 848.563 1649.12 1528.26 1611.82 1756.54 1602.36 1649.46 1749.35 1714.73 1717.9 1722.92 1738.44 1686.48 1811.17 1785.25 1651.63 1561.64 1492.97 1596.47 1650.07 1776.23 1895.28 1845.29 1757.12 1619.88 1559.45 1697.86 1732.51 1564.39 1543.23 1566.71 1465.67 707.411 851.497 1699.48 1583.03 1600.16 1743.1 1601.42 1702.3 1826.95 1806.4 1917.3 1835.22 1718.94 1711.18 1790.09 1730.1 1615.91 1623.62 1646.55 1678.63 1670.43 1729.92 1876.04 1798.58 1674.19 1690.37 1565.39 1657.57 1693.74 1498.66 1610.82 1655.94 1530.39 741.677 858.708 1807.72 1863.13 1806.73 1816.68 1782.58 1797.19 1890.05 1920.97 1862.63 1710.29 1632.77 1696.37 1697.48 1676 1610.09 1613.67 1755.26 1788.82 1667.54 1722.59 1818.54 1709.78 1755.85 1834.39 1672.93 1588.48 1619.84 1589.34 1680.59 1596.75 1504.48 781.895 819.456 1782.59 1925.61 1982.13 1907.31 1857.72 1860.8 1793.43 1750.97 1784.95 1838.28 1768.05 1769.84 1747.29 1723.69 1706.48 1727.53 1861.44 1837.72 1623.16 1670.13 1728.9 1738.05 1861.66 1913.3 1808.77 1677.67 1668.79 1628.41 1582.14 1440.96 1456.79 784.567 399.607 881.999 929.078 1042.36 1007.47 935.6 978.786 865.773 775.703 848.505 974.939 988.222 969.808 913.273 896.476 932.08 948.661 960.392 916.16 748.441 714.18 807.111 863.798 921.217 956.637 880.49 873.143 854.265 772.084 784.948 738.994 708.99 358.148 528.814 1056.4 1129.22 1109.44 963.309 898.557 869.053 929.689 996.826 925.23 922.426 981.877 908.75 839.565 901.085 867.601 854.528 855.503 882.087 920.366 952.216 897.09 788.807 782.803 745.166 839.601 917.972 902.615 828.189 769.163 706.497 648.617 329.171 917.055 1942.95 2161.96 2067.98 1844.31 1753.81 1652.66 1724.32 1853.04 1785.49 1794.2 1852.14 1693.07 1631.78 1717.75 1708.42 1772.7 1812.8 1804.99 1788.56 1789.92 1748.59 1640.46 1623.88 1526.06 1560.94 1713.62 1693.93 1567.72 1483.69 1499.2 1465.92 696.501 926.13 1850.96 1859.31 1800.03 1788.91 1766.67 1652.95 1623.5 1674.75 1766.11 1829.6 1741.54 1665.54 1718.26 1653.56 1677.71 1778.92 1714.94 1707.64 1728.24 1652.2 1702.08 1647.74 1530.79 1666.23 1633.69 1556 1602.41 1706.98 1657.22 1561.62 1549.37 735.423 955.748 1762.67 1635.08 1756.73 1764.3 1674.89 1695.83 1667.21 1587.04 1650.21 1709.25 1641.07 1751.54 1924.76 1788.55 1660.56 1695.97 1610.56 1687.92 1685.43 1685.59 1742.59 1627.97 1562.85 1650.75 1671.88 1663.85 1729.98 1812.87 1858.09 1569.92 1340.21 657.507 792.706 1557.29 1578.66 1700.92 1653.07 1498.12 1638.24 1746.17 1624.88 1675.26 1684.5 1621.57 1722.46 1864.72 1786.34 1610.19 1626.27 1704.62 1718.77 1592.47 1701.34 1813.57 1729.22 1679.3 1580.56 1583.45 1767.25 1679.74 1552.68 1705.94 1537.69 1304.11 642.812 766.97 1541.12 1643.25 1705.31 1625.69 1578.97 1712.47 1753.8 1759.74 1962.24 1842.13 1688.69 1716.83 1622.26 1632.42 1627.08 1570.02 1647.42 1620.58 1484.33 1548.85 1789.77 1681.22 1602.33 1743.9 1620.13 1667.25 1556.02 1476.62 1754.99 1759.45 1555.93 723.019 836.387 1758.07 1849.29 1791.71 1715.59 1725.87 1750.5 1662.6 1752.75 1972.03 1707.99 1535.27 1679.32 1650.11 1708.48 1658.09 1567.65 1656.87 1747.11 1714.01 1565.66 1591.12 1634.93 1761.13 1933.35 1740.69 1658.93 1639.88 1615.21 1848.5 1775.5 1611.41 818.715 909.064 1927.26 2004.46 1952.55 1900.43 1820.5 1801.44 1711.33 1668.66 1860.77 1752.89 1600.28 1610.85 1600.17 1714.01 1635.63 1587.96 1754.48 1786.06 1736.4 1745.53 1565.44 1622.86 1893.98 1967.45 1878.09 1784.1 1678.68 1638.3 1766.62 1525.53 1404.82 767.399 464.801 951.28 1028.28 1080.47 1013.85 938.957 951.655 894.706 819.279 920.086 953.942 901.925 796.212 706.325 803.279 818.091 799.28 893.34 843.94 739.634 898.467 842.516 771.812 929.038 962.852 933.595 928.668 833.967 792.451 882.563 772.782 653.369 318.305 208.659 497.375 613.27 545.798 432.922 442.504 393.983 437.447 531.366 454.043 414.282 503.36 487.261 423.637 478.466 405.43 377.668 465.319 471.1 462.218 466.514 410.139 413.482 445.656 421.333 403.644 422.949 444.007 406.495 415.586 326.344 275.271 165.341 428.201 971.742 1119.7 999.591 862.541 861.672 789.441 855.723 921.604 826.502 852.395 957.617 916.005 859.732 852.81 772.076 811.102 991.631 964.648 856.161 879.647 838.64 816.39 840.367 805.227 794.393 850.108 839.196 770.989 689.662 670.576 735.273 378.597 523.093 949.124 884.506 855.875 838.212 883.255 866.855 870.911 851.818 831.958 936.878 936.282 851.018 891.112 798.85 766.81 827.621 865.511 850.887 805.583 809.494 851.345 826.189 720.523 804.982 859.077 785.615 738.887 806.901 749.032 779.64 838.225 370.951 536.796 892.776 821.189 915.347 840.51 818.156 866.42 882.909 860.143 844.316 901.885 874.941 847.744 982.382 939.39 852.022 853.648 795.718 834.328 851.113 880.22 867.618 852.892 793.003 786.325 864.733 813.815 778.851 852.343 934.229 854.492 719.489 325.461 415.216 796.14 831.668 863.455 770.968 702.482 799.852 907.183 805.638 775.143 835.821 805.302 846.666 943.639 893.972 824.63 834.686 830.189 871.818 814.045 847.992 844.512 831.906 879.261 756.885 786.126 880.885 792.559 754.9 852.274 724.191 635.3 349.177 368.964 741.353 837.488 832.651 729.677 742.483 858.55 921.359 847.378 861.546 871.894 849.991 844.934 758.35 710.834 744.348 719.27 718.747 758.072 679.194 731.425 831.026 772.477 817.161 868.445 827.235 850.449 770.233 779.583 903.08 853.176 783.276 379.417 395.206 842.492 952.327 925.305 836.562 832.659 880.514 830.28 833.276 951.627 875.354 825.578 855.835 787.028 780.841 791.959 707.809 731.043 825.351 809.92 738.352 696.483 739.758 833.14 954.658 943.122 878.601 870.449 870.88 944.346 932.375 860.797 418.529 460.606 966.276 1042.57 977.286 939.218 894.688 852.739 857.974 819.948 917.392 900.775 806.207 794.445 775.237 824.933 809.189 727.867 771.394 852.574 868.823 841.352 713.362 756.389 899.724 997.697 1035.19 943.622 885.126 835.218 879.711 789.698 678.359 356.282 252.394 487.016 539.179 534.443 493.282 456.1 425.946 472.143 426.974 436.984 464.613 418.234 362.348 330.284 375.839 388.805 364.102 385.428 390.467 363.526 470.291 448.168 386.814 471.675 519.836 529.579 489.945 427.505 398.958 445.444 405.392 306.804 135.758 258.984 481.723 467.439 258.984 258.984 481.723 1018.2 467.439 511.35 932.534 879.814 511.35 258.984 258.984 481.723 467.439 258.984 511.35 258.984 222.739 472.764 550.757 472.764 1059.7 421.184 947.699 1027.93 222.739 222.739 472.764 550.757 421.184 222.739 250.025 549.526 508.942 549.526 1024.9 526.516 1022.07 1043.61 250.025 250.025 549.526 508.942 526.516 250.025 299.501 518.697 515.961 518.697 998.592 495.554 931.539 991.863 299.501 299.501 518.697 515.961 495.554 299.501 219.195 455.028 482.631 455.028 915.242 435.985 873.527 954.018 219.195 219.195 455.028 482.631 435.985 219.195 235.833 438.064 432.61 438.064 969.251 437.542 834.525 844.817 235.833 235.833 438.064 432.61 437.542 235.833 202.231 427.714 536.641 427.714 951.304 396.984 886.942 988.187 202.231 202.231 427.714 536.641 396.984 202.231 225.482 526.174 414.664 526.174 908.859 489.958 1032.16 904.848 225.482 225.482 526.174 414.664 489.958 225.482 300.691 609.88 494.195 609.88 1004.82 542.2 1119.13 885.548 300.691 300.691 609.88 494.195 542.2 300.691 309.189 597.88 510.624 597.88 984.827 576.928 1119.29 1019.92 309.189 309.189 597.88 510.624 576.928 309.189 288.692 537.863 474.203 537.863 937.896 542.36 1051.52 994.58 288.692 288.692 537.863 474.203 542.36 288.692 249.172 409.53 463.693 409.53 866.818 509.157 880.643 907.706 249.172 249.172 409.53 463.693 509.157 249.172 160.358 406.495 403.124 406.495 855.007 371.486 835.332 871.293 160.358 160.358 406.495 403.124 371.486 160.358 246.137 434.603 451.883 434.603 819.126 463.846 859.736 810.072 246.137 246.137 434.603 451.883 463.846 246.137 188.466 378.175 367.243 378.175 779.641 395.89 790.855 776.432 188.466 188.466 378.175 367.243 395.89 188.466 189.708 459.263 412.398 459.263 910.517 394.965 940.596 803.759 189.708 189.708 459.263 412.398 394.965 189.708 269.555 446.12 498.119 446.12 862.599 545.631 963.847 1009.57 269.555 269.555 446.12 498.119 545.631 269.555 176.565 385.171 364.48 385.171 769.345 418.215 869.277 819.801 176.565 176.565 385.171 364.48 418.215 176.565 208.606 455.907 404.865 455.907 922.164 451.061 849.41 836.72 208.606 208.606 455.907 404.865 451.061 208.606 247.302 435.434 517.298 435.434 932.23 398.348 788.28 826.518 247.302 247.302 435.434 517.298 398.348 247.302 188.133 465.454 414.932 465.454 887.758 389.932 874.44 832.46 188.133 188.133 465.454 414.932 389.932 188.133 277.321 475.071 472.826 475.071 897.53 484.508 866.457 890.382 277.321 277.321 475.071 472.826 484.508 277.321 197.749 424.095 424.704 424.095 891.203 381.949 764.823 810.901 197.749 197.749 424.095 424.704 381.949 197.749 226.346 454.368 466.499 454.368 983.584 382.874 755.021 837.808 226.346 226.346 454.368 466.499 382.874 226.346 228.023 518.974 517.086 518.974 1057.71 372.147 906.462 830.627 228.023 228.023 518.974 517.086 372.147 228.023 290.951 486.198 540.623 486.198 931.414 534.315 1004.19 974.863 290.951 290.951 486.198 540.623 534.315 290.951 195.247 455.729 390.791 455.729 892.743 469.877 881.185 851.242 195.247 195.247 455.729 390.791 469.877 195.247 260.482 500.031 501.952 500.031 953.733 411.307 785.588 921.566 260.482 260.482 500.031 501.952 411.307 260.482 239.549 380.7 451.781 380.7 814.477 374.28 664.539 800.739 239.549 239.549 380.7 451.781 374.28 239.549 141.151 327.153 362.696 327.153 790.987 290.259 727.605 729.185 141.151 141.151 327.153 362.696 290.259 141.151 186.003 390.302 428.291 390.302 833.609 437.346 852.058 873.526 186.003 186.003 390.302 428.291 437.346 186.003 204.299 204.299 405.318 204.299 405.318 414.712 414.712 850.615 204.299 204.299 204.299 405.318 414.712 204.299 252.367 450.811 889.55 412.375 459.32 874.09 743.069 459.32 252.367 450.811 412.375 252.367 459.32 252.367 474.936 1011.84 414.77 947.79 946.386 198.445 474.936 477.175 414.77 198.445 472.544 1010.57 533.021 941.599 1033.19 276.491 472.544 534.666 533.021 276.491 412.843 947.289 408.578 854.394 909.404 196.053 412.843 475.902 408.578 196.053 418.499 883.594 445.816 910.112 958.973 216.79 418.499 471.387 445.816 216.79 396.462 863.753 464.296 865.808 924.034 201.709 396.462 412.207 464.296 201.709 459.228 941.73 401.512 940.861 896.683 194.752 459.228 451.546 401.512 194.752 505.984 881.537 539.349 985.798 964.041 264.476 505.984 490.184 539.349 264.476 509.248 900.645 446.449 971.774 861.546 241.509 509.248 391.353 446.449 241.509 521.408 1029.67 525.325 984.633 999.477 267.739 521.408 509.292 525.325 267.739 513.653 964.39 459.308 950.916 867.616 253.668 513.653 520.377 459.308 253.668 471.113 912.182 491.608 909.902 848.057 259.985 471.113 444.013 491.608 259.985 428.837 826.357 418.294 833.39 842.262 211.128 428.837 468.169 418.294 211.128 425.133 767.378 415.096 888.469 750.464 217.709 425.133 358.189 415.096 217.709 412.681 800.55 473.373 872.256 902.289 207.424 412.681 409.189 473.373 207.424 481.334 902.813 398.883 889.854 772.98 205.257 481.334 391.361 398.883 205.257 517.727 966.774 490.971 939.167 924.559 276.077 517.727 511.452 490.971 276.077 484.106 887.176 448.196 970.109 826.201 241.65 484.106 455.322 448.196 241.65 393.502 741.075 521.912 921.956 913.797 242.456 393.502 431.855 521.912 242.456 352.846 726.748 400.043 793.073 710.719 151.047 352.846 309.22 400.043 151.047 408.986 835.084 393.03 876.748 816.434 201.799 408.986 417.528 393.03 201.799 391.386 803.753 483.718 898.824 889.149 207.186 391.386 417.556 483.718 207.186 340.728 757.506 415.107 778.931 818.473 184.2 340.728 386.197 415.107 184.2 300.653 684.85 363.824 697.281 768.303 156.529 300.653 371.309 363.824 156.529 387.488 747.781 333.456 808.569 752.892 144.124 387.488 313.541 333.456 144.124 517.994 894.691 475.112 997.777 841.253 243.364 517.994 434.24 475.112 243.364 425.456 880.066 522.664 826.772 950.971 274.63 425.456 460.451 522.664 274.63 285.557 768.572 304.108 617.486 823.537 150.826 285.557 419.615 304.108 150.826 283.839 715.446 313.379 661.185 763.099 134.731 283.839 348.957 313.379 134.731 400.452 811.724 347.807 828.296 700.897 149.108 400.452 366.489 347.807 149.108 461.757 890.531 480.489 890.947 894.284 251.344 461.757 445.235 480.489 251.344 210.413 445.296 410.458 410.458 856.565 210.413 210.413 445.296 410.458 210.413 206.954 423.279 799.905 330.694 371.24 809.956 718.739 371.24 206.954 423.279 330.694 206.954 371.24 206.954 472.854 967.731 438.717 894.856 922.558 216.325 472.854 469.211 438.717 216.325 469.055 932.022 456.139 899.485 959.075 256.529 469.055 498.52 456.139 256.529 441.552 921.088 443.345 920.903 850.586 212.526 441.552 433.502 443.345 212.526 491.613 999.413 477.558 1005.94 908.178 229.026 491.613 487.586 477.558 229.026 469.347 956.964 528.378 932.851 991.708 262.587 469.347 511.827 528.378 262.587 481.633 918.994 404.473 940.409 855.698 206.76 481.633 445.137 404.473 206.76 479.814 944.051 535.936 892.059 950.126 274.873 479.814 473.857 535.936 274.873 462.526 960.378 356.123 793.917 843.819 204.94 462.526 470.193 356.123 204.94 463.225 837.424 437.794 856.974 900.633 257.585 463.225 490.185 437.794 257.585 437.263 751.283 419.18 914.738 756.161 205.64 437.263 347.239 419.18 205.64 438.789 778.138 495.559 925.102 893.516 231.623 438.789 404.044 495.559 231.623 404.553 766.368 429.544 819.039 787.815 207.166 404.553 374.093 429.544 207.166 463.336 885.375 389.496 837.284 806.671 197.387 463.336 392.275 389.496 197.387 459.576 874.719 447.788 830.609 901.762 265.949 459.576 493.1 447.788 265.949 408.52 794.726 382.821 770.1 789.68 193.626 408.52 381.619 382.821 193.626 421.44 783.986 387.279 799.658 836.805 214.894 421.44 413.107 387.279 214.894 486.002 852.822 412.379 831.575 768.434 206.546 486.002 370.879 412.379 206.546 528.453 883.441 419.196 905.231 807.616 279.457 528.453 481.943 419.196 279.457 440.227 800.405 486.035 906.531 834.191 248.997 440.227 401.499 486.035 248.997 467.762 870.499 420.497 880.043 828.014 191.231 467.762 398.906 420.497 191.231 507.438 903.869 459.546 950.35 854.084 276.531 507.438 471.593 459.546 276.531 438.202 829.269 490.804 922.942 865.044 230.907 438.202 432.276 490.804 230.907 396.627 836.344 432.138 807.313 893.128 207.295 396.627 396.994 432.138 207.295 421.081 846.363 375.174 838.161 891.77 189.332 421.081 439.351 375.174 189.332 479.783 897.533 462.986 955.682 853.294 231.749 479.783 407.013 462.986 231.749 401.316 894.443 492.696 771.525 954.017 248.034 401.316 490.52 492.696 248.034 331.929 818.064 278.829 677.367 650.599 153.282 331.929 403.922 278.829 153.282 377.346 748.55 398.538 836.101 847.127 178.648 377.346 414.142 398.538 178.648 427.844 783.458 437.563 794.302 803.625 198.698 427.844 334.408 437.563 198.698 429.19 860.318 356.739 747.218 732.676 229.145 429.19 449.05 356.739 229.145 200.045 411.269 390.478 390.478 821.002 200.045 200.045 411.269 390.478 200.045 164.286 386.678 841.391 388.045 342.25 805.321 715.034 342.25 164.286 386.678 388.045 164.286 342.25 164.286 422.002 913.901 463.071 821.637 952.368 222.392 422.002 453.347 463.071 222.392 430.43 877.638 358.566 903.879 882.388 199.61 430.43 460.554 358.566 199.61 479.352 837.676 545.313 999.216 948.165 230.82 479.352 417.084 545.313 230.82 514.323 900.473 453.903 937.138 806.942 248.532 514.323 420.592 453.903 248.532 463.504 890.442 483.235 885.761 919.662 265.791 463.504 479.881 483.235 265.791 458.775 886.83 402.526 878.225 888.201 197.713 458.775 410.561 402.526 197.713 412.245 849.894 475.698 850.302 903.329 261.062 412.245 476.269 475.698 261.062 331.391 784.073 374.604 709.658 854.47 151.183 331.391 373.625 374.604 151.183 393.749 819.369 335.054 783.782 820.187 180.209 393.749 410.448 335.054 180.209 477.476 898.393 448.729 883.438 818.884 213.54 477.476 408.922 448.729 213.54 486.313 903.193 434.709 825.922 854.26 263.936 486.313 489.471 434.709 263.936 414.486 828.118 391.213 731.972 796.411 222.377 414.486 413.722 391.213 222.377 373.948 823.058 340.759 770.452 789.071 192.109 373.948 414.396 340.759 192.109 371.033 816.722 429.693 844.605 878.619 181.839 371.033 408.662 429.693 181.839 361.58 831.758 414.912 813.405 840.475 189.195 361.58 408.06 414.912 189.195 378.218 821.253 398.493 850.77 870.662 172.385 378.218 423.698 398.493 172.385 345.573 723.228 452.277 819.574 836.536 205.833 345.573 397.554 452.277 205.833 376.778 758.366 367.297 771.393 726.555 139.74 376.778 325.674 367.297 139.74 466.304 861.801 404.096 761.951 795.921 237.038 466.304 432.692 404.096 237.038 412.281 811.599 357.855 794.265 719.833 229.266 412.281 429.108 357.855 229.266 442.912 815.259 436.41 914.205 778.292 183.015 442.912 382.491 436.41 183.015 484.74 928.903 477.795 928.262 853.713 259.897 484.74 432.768 477.795 259.897 410.685 948.554 450.467 801.569 878.359 224.843 410.685 496.135 450.467 224.843 417.08 898.701 351.101 725.22 875.501 185.843 417.08 452.419 351.101 185.843 475.899 909.779 374.118 780.357 718.165 231.237 475.899 446.282 374.118 231.237 370.209 710.174 406.239 704.777 812.535 244.662 370.209 463.497 406.239 244.662 345.438 679.662 298.538 677.662 556.623 125.547 345.438 246.676 298.538 125.547 458.755 902.202 379.124 839.598 825.008 219.891 458.755 432.986 379.124 219.891 366.458 752.843 460.474 770.466 923.704 238.864 366.458 469.216 460.474 238.864 318.028 693.36 309.992 723.628 648.23 127.594 318.028 283.627 309.992 127.594 190.433 409.733 413.636 413.636 823.794 190.433 190.433 409.733 413.636 190.433 177.964 418.643 826.01 326.989 342.576 876.717 644.221 342.576 177.964 418.643 326.989 177.964 342.576 177.964 399.635 920.855 534.14 890.687 959.595 240.679 399.635 499.021 534.14 240.679 473.45 952.914 356.547 862.796 871.918 158.956 473.45 421.833 356.547 158.956 519.864 917.43 506.249 892.69 931.604 314.493 519.864 531.081 506.249 314.493 422.815 826.131 386.441 789.011 754.803 205.371 422.815 386.35 386.441 205.371 422.257 917.421 402.571 797.708 851.37 217.444 422.257 439.782 402.571 217.444 419.449 904.699 395.137 815.464 885.339 204.813 419.449 477.639 395.137 204.813 438.057 907.905 420.327 886.893 876.343 214.636 438.057 427.06 420.327 214.636 378.266 890.584 466.566 803.068 955.036 223.421 378.266 480.845 466.566 223.421 390.033 819.701 336.501 730.958 792.205 154.845 390.033 409.739 336.501 154.845 405.962 774.751 394.456 777.788 781.046 235.188 405.962 409.962 394.456 235.188 339.609 747.477 383.332 830.62 809.609 170.773 339.609 364.788 383.332 170.773 317.485 757.364 447.288 830.52 849.129 168.835 317.485 382.689 447.288 168.835 396.505 844.632 383.232 812.64 852.541 148.65 396.505 374.675 383.232 148.65 473.572 902.371 429.408 858.487 854.708 247.855 473.572 469.957 429.408 247.855 451.825 879.378 429.079 874.057 847.703 225.717 451.825 432.415 429.079 225.717 472.552 885.946 444.977 857.903 844.328 226.108 472.552 446.964 444.977 226.108 474.001 839.863 412.926 874.531 728.92 246.444 474.001 438.982 412.926 246.444 394.616 764.11 461.605 939.833 838.715 227.558 394.616 400.881 461.605 227.558 295.647 653.953 478.229 869.756 817.387 167.058 295.647 363.229 478.229 167.058 381.984 686.526 391.527 824.293 797.081 128.589 381.984 290.724 391.527 128.589 471.293 816.747 432.766 833.664 749.951 253.395 471.293 395.802 432.766 253.395 443.523 803.169 400.898 813.692 866.689 217.898 443.523 420.945 400.898 217.898 390.883 805.306 412.794 811.264 760.014 225.625 390.883 382.224 412.794 225.625 308.14 694.965 398.47 685.958 879.175 165.259 308.14 423.082 398.47 165.259 304.458 620.921 287.488 700.565 613.323 142.881 304.458 271.883 287.488 142.881 334.568 658.985 413.077 724.657 800.935 161.577 334.568 349.038 413.077 161.577 332.224 701.969 311.58 665.763 618.595 172.991 332.224 309.947 311.58 172.991 380.843 846.51 354.182 894.116 769.473 159.233 380.843 392.023 354.182 159.233 404.007 819.091 539.934 923.5 915.871 221.61 404.007 454.487 539.934 221.61 405.6 778.664 383.566 789.794 792.52 182.397 405.6 364.603 383.566 182.397 223.203 414.061 406.228 406.228 726.712 223.203 223.203 414.061 406.228 223.203 164.612 458.073 777.805 317.232 407.393 955.47 813.826 407.393 164.612 458.073 317.232 164.612 407.393 164.612 491.052 910.658 548.078 970.807 888.857 293.461 491.052 460.574 548.078 293.461 389.346 850.607 422.729 832.439 921.815 197.591 389.346 450.084 422.729 197.591 372.826 768.977 409.71 800.422 911.334 191.755 372.826 400.523 409.71 191.755 366.197 780.042 390.712 825.187 796.24 181.07 366.197 368.454 390.712 181.07 375.451 819.288 434.475 820.973 907.659 185.127 375.451 411.589 434.475 185.127 396.015 856.982 386.499 809.535 809.807 190.324 396.015 407.699 386.499 190.324 448.836 923.474 423.036 921.691 868.468 205.691 448.836 449.283 423.036 205.691 424.801 856.656 498.655 928.317 1006.44 243.145 424.801 474.191 498.655 243.145 340.924 753.549 429.662 801.891 800.911 181.656 340.924 382.465 429.662 181.656 371.827 815.905 372.229 780.65 803.717 159.268 371.827 371.084 372.229 159.268 491.011 911.261 408.421 978.716 865.565 212.559 491.011 444.821 408.421 212.559 513.034 944.306 570.296 956.173 996.641 278.452 513.034 466.44 570.296 278.452 416.136 862.617 385.878 803.839 864.589 234.582 416.136 477.866 385.878 234.582 384.916 800.04 417.962 848.318 848.351 181.554 384.916 384.751 417.962 181.554 422.231 812.652 430.356 886.125 863.138 203.362 422.231 415.288 430.356 203.362 385.351 687.302 455.769 841.47 822.632 218.869 385.351 397.364 455.769 218.869 400.529 727.772 385.701 919.167 772.619 166.482 400.529 289.938 385.701 166.482 545.218 891.993 533.465 1093.39 964.563 234.047 545.218 437.834 533.465 234.047 574.109 960.515 559.921 1012.85 872.503 311.171 574.109 454.159 559.921 311.171 442.309 860.506 452.928 836.56 993.473 262.938 442.309 506.357 452.928 262.938 362.371 799.893 383.632 711.272 798.141 179.371 362.371 354.149 383.632 179.371 370.17 823.535 327.64 710.115 805.131 183 370.17 445.744 327.64 183 420.381 833.884 382.475 860.433 816.42 187.17 420.381 377.79 382.475 187.17 377.818 797.534 477.958 818.817 876.761 233.211 377.818 456.094 477.958 233.211 396.107 793.337 340.859 833.598 676.575 144.607 396.107 341.44 340.859 144.607 390.09 760.545 492.74 845.812 918.793 251.5 390.09 451.897 492.74 251.5 333.538 686.098 353.073 774.997 767.433 138.589 333.538 308.648 353.073 138.589 513.273 838.834 421.924 932.385 825.094 194.949 513.273 377.45 421.924 194.949 519.493 889.301 510.461 954.533 855.105 318.324 519.493 461.384 510.461 318.324 384.194 740.568 444.072 778.604 841.81 201.169 384.194 427.917 444.072 201.169 183.025 312.651 334.532 334.532 662.529 183.025 183.025 312.651 334.532 183.025 242.781 497.397 924.878 496.594 507.628 1076.5 1020.89 507.628 242.781 497.397 496.594 242.781 507.628 242.781 479.755 900.014 568.87 1042.88 1049.15 254.617 479.755 428.283 568.87 254.617 443.093 982.542 474.012 987.21 931.712 225.139 443.093 471.73 474.012 225.139 427.597 938.597 513.198 982.042 1129.98 217.955 427.597 510.811 513.198 217.955 458.99 923.856 468.844 940.657 861.355 209.642 458.99 427.786 468.844 209.642 445.523 898.178 471.813 892.611 881.763 249.348 445.523 496.07 471.813 249.348 413.52 821.293 420.798 821.551 861.861 196.175 413.52 402.108 420.798 196.175 472.855 951.438 400.753 897.966 794.24 217.345 472.855 419.184 400.753 217.345 503.516 950.7 497.213 917.717 1024.6 255.51 503.516 532.254 497.213 255.51 460.967 851.079 420.504 910.493 768.264 248.006 460.967 418.446 420.504 248.006 408.823 853.377 489.989 891.137 912.043 212.961 408.823 432.633 489.989 212.961 487.705 950.945 401.148 887.264 867.599 195.862 487.705 420.744 401.148 195.862 443.139 916.924 486.116 983.117 1007.9 291.843 443.139 530.201 486.116 291.843 387.704 850.323 497 926.274 911.884 151.296 387.704 386.723 497 151.296 463.402 911.449 429.273 851.745 866.718 236.408 463.402 463.599 429.273 236.408 463.894 873.118 422.472 862.07 917.821 226.994 463.894 447.85 422.472 226.994 456.119 907.949 439.598 890.724 855.421 236.9 456.119 425.268 439.598 236.9 518.637 1009.41 451.126 910.798 927.591 219.219 518.637 482.681 451.126 219.219 548.168 945.073 459.672 850.295 937.066 299.418 548.168 526.729 459.672 299.418 438.74 905.461 390.623 817.003 736.686 248.75 438.74 418.344 390.623 248.75 394.251 931.109 426.38 870.336 915.266 189.99 394.251 487.116 426.38 189.99 348.902 803.379 443.955 867.797 876.143 204.262 348.902 443.992 443.955 204.262 339.945 798.016 423.842 799.784 868.375 144.64 339.945 359.387 423.842 144.64 440.053 859.297 375.943 821.122 802.199 195.305 440.053 438.629 375.943 195.305 440.999 755.802 445.179 815.991 815.95 244.747 440.999 420.667 445.179 244.747 437.491 802.031 370.812 814.507 778.256 196.251 437.491 335.135 370.812 196.251 455.723 925.682 443.695 874.059 855.935 241.239 455.723 466.896 443.695 241.239 441.458 906.429 430.364 873.328 867.212 214.483 441.458 458.785 430.364 214.483 419.112 841.365 442.964 889.634 864.229 226.975 419.112 447.644 442.964 226.975 435.04 807.614 446.669 893.719 843.316 192.137 435.04 393.721 446.669 192.137 394.41 763.771 447.05 781.17 787.751 242.903 394.41 413.893 447.05 242.903 151.507 349.877 334.12 334.12 698.863 151.507 151.507 349.877 334.12 151.507 264.848 579.101 1145.16 524.296 264.848 579.101 524.296 264.848 264.848 579.101 524.296 264.848 264.848 264.848 563.127 1080.85 314.253 563.127 620.868 314.253 563.127 620.868 314.253 314.253 544.117 1079.15 248.874 544.117 459.982 248.874 544.117 459.982 248.874 248.874 554.445 1052.74 295.243 554.445 619.167 295.243 554.445 619.167 295.243 295.243 481.667 819.262 259.202 481.667 433.569 259.202 481.667 433.569 259.202 259.202 447.089 845.445 222.465 447.089 385.693 222.465 447.089 385.693 222.465 222.465 408.031 834.808 224.623 408.031 459.752 224.623 408.031 459.752 224.623 224.623 425.111 867.402 183.408 425.111 375.056 183.408 425.111 375.056 183.408 183.408 414.201 842.165 241.703 414.201 492.346 241.703 414.201 492.346 241.703 241.703 449.526 829.228 172.498 449.526 349.818 172.498 449.526 349.818 172.498 172.498 482.314 926.265 277.028 482.314 479.41 277.028 482.314 479.41 277.028 277.028 399.559 924.554 205.286 399.559 446.855 205.286 399.559 446.855 205.286 205.286 539.978 1002.86 194.273 539.978 477.699 194.273 539.978 477.699 194.273 194.273 538.57 928.279 345.705 538.57 525.161 345.705 538.57 525.161 345.705 345.705 388.342 873.09 192.865 388.342 403.118 192.865 388.342 403.118 192.865 192.865 398.176 900.125 195.477 398.176 469.972 195.477 398.176 469.972 195.477 195.477 434.605 875.063 202.698 434.605 430.153 202.698 434.605 430.153 202.698 202.698 392.161 855.248 231.907 392.161 444.91 231.907 392.161 444.91 231.907 231.907 302.127 728.679 160.254 302.127 410.338 160.254 302.127 410.338 160.254 160.254 378.264 746.491 141.873 378.264 318.342 141.873 378.264 318.342 141.873 141.873 476.084 860.3 236.391 476.084 428.149 236.391 476.084 428.149 236.391 236.391 518.896 941.14 239.694 518.896 432.151 239.694 518.896 432.151 239.694 239.694 459.839 872.558 279.202 459.839 508.989 279.202 459.839 508.989 279.202 279.202 381.069 758.852 180.637 381.069 363.57 180.637 381.069 363.57 180.637 180.637 374.992 838.403 200.432 374.992 395.283 200.432 374.992 395.283 200.432 200.432 377.016 832.16 174.56 377.016 443.121 174.56 377.016 443.121 174.56 174.56 418.336 797.466 202.456 418.336 389.039 202.456 418.336 389.039 202.456 202.456 431.87 825.011 215.88 431.87 408.427 215.88 431.87 408.427 215.88 215.88 470.522 866.18 215.989 470.522 416.585 215.989 470.522 416.585 215.989 215.989 458.679 823.453 254.533 458.679 449.595 254.533 458.679 449.595 254.533 254.533 386.76 722.843 204.147 386.76 373.858 204.147 386.76 373.858 204.147 204.147 182.614 348.986 182.614 182.614 348.986 182.614 182.614 348.986 182.614 182.614 536.474 406.227 208.456 1009.35 406.227 975.212 746.72 368.464 208.456 536.474 406.227 208.456 368.464 208.456 586.936 603.12 1107.56 1123.84 1073.46 328.018 586.936 603.12 606.749 328.018 475.377 504.44 972.607 1013.4 966.157 258.918 475.377 504.44 517.092 258.918 479.895 468.167 912.799 1014.34 930.681 216.46 479.895 468.167 496.309 216.46 460.214 444.632 814.484 925.308 930.979 263.436 460.214 444.632 518.033 263.436 531.187 369.852 977.837 998.479 766.208 196.778 531.187 369.852 407.276 196.778 523.591 607.985 1022.85 1006.09 1095.28 334.409 523.591 607.985 591.203 334.409 382.686 414.868 843.665 758.238 889.589 189.182 382.686 414.868 414.89 189.182 394.94 428.797 816.672 786.337 839.092 193.504 394.94 428.797 343.348 193.504 386.947 387.876 774.875 895.209 850.47 201.436 386.947 387.876 442.989 201.436 400.033 386.999 843.674 850.77 879.901 185.511 400.033 386.999 452.22 185.511 457.288 456.674 971.866 898.356 852.19 214.522 457.288 456.674 398.55 214.522 448.512 515.191 908.216 846.032 977.769 242.766 448.512 515.191 499.807 242.766 384.523 393.025 826.524 726.767 769.042 205.746 384.523 393.025 346.226 205.746 401.466 433.5 811.348 789.335 881.372 178.776 401.466 433.5 380.541 178.776 451.254 377.848 802.422 872.733 868.418 222.69 451.254 377.848 408.794 222.69 416.479 424.574 777.345 865.526 853.78 228.564 416.479 424.574 463.94 228.564 384.175 352.771 696.774 787.245 769.787 187.915 384.175 352.771 401.586 187.915 466.256 344.003 768.756 813.829 749.398 196.26 466.256 344.003 385.659 196.26 496.796 424.753 898.441 870.698 817.138 269.997 496.796 424.753 428.17 269.997 422.304 473.689 781.032 848.402 905.035 226.799 422.304 473.689 442.528 226.799 422.459 307.343 700.43 834.826 696.295 195.504 422.459 307.343 405.874 195.504 467.108 393.087 843.153 883.886 811.623 226.955 467.108 393.087 428.952 226.955 529.216 450.066 902.474 913.413 889.592 240.153 529.216 450.066 454.934 240.153 538.735 452.409 895.375 899.028 803.047 289.063 538.735 452.409 458.48 289.063 445.216 442.966 815.781 821.913 896.634 249.672 445.216 442.966 440.548 249.672 437.014 372.815 833.137 891.624 755.652 195.544 437.014 372.815 381.365 195.544 453.702 460.321 852.663 936.717 916.193 241.47 453.702 460.321 510.259 241.47 433.777 392.342 845.116 865.384 800.727 212.232 433.777 392.342 426.458 212.232 463.834 452.774 879.528 875.105 876.341 221.546 463.834 452.774 438.926 221.546 443.308 426.755 830.825 872.082 767.373 242.288 443.308 426.755 436.179 242.288 201.02 404.071 404.071 435.903 843.097 201.02 201.02 404.071 435.903 201.02 810.838 340.493 815.365 660.348 283.748 438.739 340.493 160.008 283.748 160.008 932.062 1031.78 956.678 536.905 470.344 531.617 278.731 924.231 1000.99 934.04 538.024 461.717 500.166 258.175 948.861 1013.98 940.325 534.446 462.513 500.825 279.849 882.703 972.894 938.551 465.095 486.347 513.157 254.597 883.656 954.909 846.659 467.291 396.356 459.738 210.498 962.021 919.863 945.82 482.502 487.299 495.171 256.794 885.017 839.789 915.365 375.552 474.721 424.692 225.708 872.89 889.249 865.299 391.397 410.296 415.097 149.844 955.496 882.46 891.919 508.261 462.594 474.152 241.553 888.418 764.757 838.883 450.737 492.902 408.308 266.709 858.094 780.417 780.296 441.069 395.516 356.449 184.028 838.596 759.336 869.159 397.52 462.578 423.968 257.041 823.89 764.284 790.462 342.245 376.018 335.368 140.48 938.442 803.013 861.673 387.869 447.872 428.916 201.765 919.776 807.686 892.974 421.479 490.57 374.097 186.104 846.222 811.593 833.269 449.046 429.206 433.588 235.375 822.411 769.89 810.049 403.07 417.016 378.005 213.671 797.781 702.561 845.831 347.573 405.395 391.885 189.399 823.732 734.08 779.775 373.902 392.386 310.676 158.174 820.298 828.835 784.651 426.098 431.346 423.404 215.728 807.488 808.798 772.09 412.367 388.952 405.432 210.37 858.063 807.845 842.571 416.778 418.536 403.366 201.998 790.164 823.914 851.528 384.197 439.526 404.479 214.78 804.306 785.576 813.584 360.293 350.638 419.435 169.417 836.505 794.447 789.214 376.697 453.668 366.14 190.876 838.709 947.737 809.162 454.61 382.837 428.307 185.821 864.257 969.15 931.606 483.015 455.872 519.429 268.789 831.953 802.811 904.871 431.607 408.385 449.72 214.227 764.186 766.886 761.465 411.271 423.567 353.09 217.38 779.645 859.902 710.108 428.774 340.619 413.795 193.891 439.027 446.107 847.426 234.883 439.027 446.107 234.883 806.189 319.855 831.34 773.685 347.499 376.626 319.855 123.74 347.499 123.74 958.657 986.777 915.877 494.877 486.334 483.841 252.886 950.134 910.176 918.264 462.967 472.323 502.935 241.991 930.015 837.861 889.022 479.536 477.811 407.241 220.976 902.507 893.95 810.308 507.8 452.204 430.62 258.56 908.823 914.555 849.067 487.617 450.303 463.33 249.24 899.165 865.416 814.891 437.361 458.52 451.225 238.377 895.648 901.886 868.819 464.237 440.644 414.19 198.984 884.328 950.534 857.08 497.852 455.004 487.696 265.253 775.306 799.819 863.297 374.199 429.325 462.839 232.599 730.761 734.938 779.644 314.021 345.981 336.981 141.599 791.361 756.229 776.418 339.349 384.78 397.957 172.421 821.026 775.447 838.024 361.815 406.581 358.272 166.927 828.245 871.149 834.643 422.039 414.444 417.175 194.888 816.204 860.833 838.399 415.144 413.801 453.974 227.151 806.466 856.385 835.398 386.206 402.404 406.859 187.993 797.096 805.581 879.174 362.547 404.063 449.526 198.213 833.469 744.475 739.748 366.82 393.033 356.055 164.334 827.825 736.577 846.33 354.988 440.436 388.42 202.486 740.695 755.674 800.103 360.177 387.389 348.156 152.502 736.443 802.055 773.421 402.737 353.305 407.518 207.675 807.173 768.778 804.213 396.43 383.138 394.537 195.062 836.037 835.23 804.246 391.067 424.035 374.24 201.369 874.948 977.586 879.827 439.717 412.002 460.99 189.698 798.492 906.903 885.789 425.282 462.946 516.595 250.019 761.872 851.63 823.769 417.75 335.546 390.308 175.264 902.059 833.091 827.256 493.127 426.325 461.321 242.486 972.22 820.358 809.393 486.135 475.734 371.77 250.641 834.384 814.651 855.677 371.204 496.486 448.589 235.494 707.387 741.999 743.075 355.614 337.897 366.062 135.71 777.889 806.461 711.749 431.128 369.489 375.937 219.904 408.399 430.524 818.555 211.224 408.399 430.524 211.224 883.372 453.829 862.081 802.108 372.784 454.714 453.829 223.759 372.784 223.759 875.484 1013.12 905.758 491.9 429.543 489.298 230.955 857.152 926.673 940.485 447.209 445.942 523.821 260.944 769.315 755.891 864.825 358.325 411.211 402.852 186.264 756.868 789.467 752.9 386.15 358.104 353.039 172.06 755.134 922.102 869.944 426.938 398.764 436.428 214.09 784.545 913.304 843.251 428.055 356.37 485.674 212.848 830.25 907.497 834.863 437.649 428.174 427.63 215.207 836.048 965 846.537 452.682 402.076 479.866 222.443 867.635 855.289 939.159 425.621 433.972 485.133 230.239 825.301 789.706 786.77 420.917 433.662 370.155 195.381 823.081 824.749 802.543 416.88 391.638 419.551 225.536 851.641 853.51 885 413.631 431.443 405.198 191.345 844.797 897.238 874.345 449.11 420.198 448.312 222.287 857.593 874.489 871.851 445.689 424.598 448.926 226.823 908.105 897.732 837.767 470.179 432.994 425.563 218.866 821.826 856.428 882.777 443.034 475.111 472.169 251.313 752.608 743.517 726.024 377.656 346.715 384.259 191.721 818.607 751.083 813.411 381.589 405.894 359.258 185.934 832.829 753.803 814.938 395.497 412.713 391.825 195.654 841.19 703.861 795.585 399.318 420.116 361.978 199.842 801.286 717.801 777.56 372.347 421.075 341.883 199.476 848.036 803.81 784.752 444.164 380.211 375.918 172.871 890.668 952.292 773.659 537.869 467.825 427.892 271.292 911.066 868.447 934.061 481.621 422.843 524.4 266.577 889.154 750.343 757.38 433.88 488.223 344.047 215.044 734.59 664.381 820.952 339.964 400.931 406.297 218.835 692.85 703.969 727.736 334.224 333.659 258.085 121.129 764.368 909.114 763.263 443.447 359.19 445.884 213.095 747.437 801.468 811.501 386.385 405.178 463.229 230.352 752.415 748.396 760.529 375.332 342.259 338.239 156.033 410.156 410.158 728.836 219.3 410.156 410.158 219.3 824.494 348.278 727.099 729.502 301.644 407.367 348.278 149.025 301.644 149.025 970.759 940.826 844.921 521.219 476.216 425.455 258.342 948.157 940.726 921.897 479.464 494.544 515.371 262.877 848.409 793.717 909.429 397.566 453.614 425.355 216.587 865.976 817.162 817.746 403.317 394.795 368.363 180.979 958.062 939.001 902.023 495.164 471.18 448.8 222.338 893.57 946.217 847.268 485.25 486.881 490.202 272.826 851.15 944.485 851.247 469.847 406.689 456.016 212.423 949.648 944.173 865.621 512.318 444.461 488.469 257.424 858.295 842.293 928.535 429.668 505.187 455.703 254.894 764.012 812.867 780.814 368.789 353.108 386.59 174.774 864.462 828.119 797.005 407.869 410.905 426.277 194.015 907.704 871.15 834.315 439.879 453.557 401.841 213.854 901.399 894.609 910.678 448.128 454.147 469.309 226.025 852.025 843.924 873.199 428.8 447.253 425.3 222.102 812.439 817.974 836.333 427.553 404.773 418.624 206.697 786.975 715.345 763.151 413.394 407.666 399.351 220.856 786.827 693.105 704.871 365.862 379.309 315.994 192.538 809.742 716.269 795.849 369.495 407.517 377.111 173.324 777.694 744.713 773.959 358.306 402.224 339.159 196.171 731.955 722.739 854.359 304.542 375.469 405.554 162.135 761.027 782.976 672.834 345.454 356.485 317.185 142.407 710.375 813.011 893.845 359.646 404.541 465.791 203.047 817.052 827.926 721.957 414.422 305.834 347.22 156.599 780.375 806.541 918.7 386.825 511.218 480.706 257.823 689.178 713.693 643.622 316.464 269.157 325.835 129.002 814.099 694.872 788.087 324.417 420.022 387.858 187.461 798.15 722.305 787.022 369.745 394.077 307.014 136.956 810.396 791.228 767.966 465.667 404.073 415.291 232.789 824.593 784.891 707.348 415.083 406.323 375.937 232.877 736.95 729.438 843.982 373.064 418.269 408.954 182.206 318.68 320.484 606.515 190.858 318.68 320.484 190.858 749.929 381.224 747.213 880.548 406.433 319.732 381.224 152.619 406.433 152.619 796.059 839.865 746.41 419.606 368.706 340.779 167.113 883.169 1000.71 928.446 461.261 427.353 499.086 252.494 878.767 907.152 1033.17 396.151 455.816 501.624 208.768 853.793 878.712 891.979 413.846 422.951 405.528 187.384 791.229 896.493 847.894 443.837 430.842 473.184 226.462 804.945 868.74 778.083 460.967 360.387 423.309 217.375 865.718 953.221 835.225 474.638 444.558 445.431 243.592 844.507 879.039 858.518 431.855 421.16 507.79 231.046 851.054 802.737 786.983 412.625 423.348 371.249 200.809 813.807 888.632 807.106 444.078 427.706 431.488 211.816 766.858 883.49 815.727 420.25 386.101 457.144 232.262 837.289 905.057 805.301 431.272 380.757 426.345 187.988 882.478 909.1 878.541 446.482 456.531 478.712 243.284 857.507 863.17 812.039 415.124 425.947 430.389 203.198 787.046 799.645 848.434 390.421 431.56 432.782 211.926 681.047 753.781 731.097 301.951 355.485 366.863 178.495 713.893 818.016 798.857 327.243 325.562 386.918 123.456 760.067 743.68 829.419 346.775 388.332 431.098 203.787 850.624 853.127 711.351 386.406 371.735 312.582 142.988 795.238 955.054 995.903 418.197 478.89 540.545 243.418 805.652 892 814.773 437.522 316.348 414.509 174.778 905.427 911.435 896.524 453.365 489.303 477.491 262.744 823.606 832.747 868.004 413.503 416.124 433.945 190.621 781.947 734.519 801.337 419.716 407.482 398.803 222.883 742.53 761.77 792.536 397.23 374.465 335.716 196.833 761.01 840.414 780.995 370.455 368.065 426.053 200.397 756.838 817.531 857.807 352.56 392.945 414.36 170.059 664.917 747.814 768.327 325.561 363.893 403.17 182.501 726.737 742.382 660.208 369.808 301.024 344.644 143.06 713.547 725.735 768.024 356.374 425.713 397.738 226.748 287.835 327.997 668.068 129.626 287.835 327.997 129.626 877.028 499.324 993.544 980.913 513.262 427.481 499.324 253.814 513.262 253.814 878.797 937.981 949.809 420.258 377.704 480.281 173.667 1078.44 1074.48 962.118 539.448 501.093 457.7 246.592 1046.38 1009.29 1151.48 511.001 577.35 616.781 292.856 886.08 802.461 866.078 464.866 469.028 392.511 218.144 834.748 851.012 803.586 452.656 417.052 409.95 246.722 808.363 834.55 894.723 407.773 417.696 441.062 205.934 828.025 920.875 858.266 478.583 390.667 393.487 201.839 800.994 875.148 903.75 447.184 437.359 527.388 276.744 743.036 769.814 733.039 390.112 363.636 347.76 170.44 809.026 888.504 817.83 444.554 379.4 422.053 219.672 854.17 988.235 859.317 463.24 429.626 466.451 224.882 846.554 936.668 937.084 473.785 424.544 521.784 238.358 808.102 852.328 776.297 462.619 422.01 414.884 235.428 802.966 932.794 793.635 448.046 386.092 437.444 227.191 792.485 911.173 875.411 409.224 416.873 495.35 220.855 848.907 892.288 806.739 451.83 375.612 415.823 188.369 914.382 953.86 848.101 490.773 473.295 476.465 263.462 780.703 823.458 904.799 396.905 441.088 477.394 227.311 856.63 834.949 740.319 466.721 339.616 346.063 169.594 1015.44 921.073 904.635 536.858 517.014 488.885 297.127 905.644 876.721 957.593 454.477 498.424 432.188 239.731 859.1 870.79 845.706 458.07 407.22 444.533 214.746 845.735 797.027 796.175 419.244 451.88 426.256 243.324 811.926 778.214 782.96 314.803 393.855 370.771 175.92 831.001 819.684 903.267 364.54 418.071 407.444 138.883 877.792 849.088 753.436 469.959 412.93 412.24 225.657 869.296 858.113 821.468 464.971 464.862 436.848 244.302 763.618 817.911 815.764 422.253 404.434 421.265 220.669 701.496 737.348 735.419 372.574 359.184 396.646 201.584 722.546 705.444 683.369 369.361 342.312 340.701 170.99 380.234 364.743 714.248 198.371 380.234 364.743 198.371 1053.69 481.589 566.063 481.589 259.448 566.063 481.589 259.448 259.448 259.448 1033.13 517.723 572.105 517.723 572.105 306.615 306.615 1035.15 535.032 461.025 535.032 461.025 211.108 211.108 971.178 498.291 574.127 498.291 574.127 323.924 323.924 783.584 337.594 397.05 337.594 397.05 174.367 174.367 863.561 398.357 386.534 398.357 386.534 163.228 163.228 944.626 426.777 477.027 426.777 477.027 235.129 235.129 933.99 442.291 467.599 442.291 467.599 191.648 191.648 835.795 427.964 466.392 427.964 466.392 250.643 250.643 807.834 379.702 369.403 379.702 369.403 177.32 177.32 868.122 443.951 438.431 443.951 438.431 202.382 202.382 942.232 524.995 429.691 524.995 429.691 241.569 241.569 866.827 462.882 512.54 462.882 512.54 283.426 283.426 761.83 389.71 354.287 389.71 354.287 179.456 179.456 866.081 484.748 407.543 484.748 407.543 210.253 210.253 889.665 501.949 458.538 501.949 458.538 274.494 274.494 805.933 440.458 431.127 440.458 431.127 227.454 227.454 838.518 463.087 374.806 463.087 374.806 213.003 213.003 864.414 426.552 463.711 426.552 463.711 250.084 250.084 788.324 368.228 400.703 368.228 400.703 176.469 176.469 846.789 384.216 387.621 384.216 387.621 191.759 191.759 897.655 422.244 459.168 422.244 459.168 192.457 192.457 782.782 412.719 438.486 412.719 438.486 229.787 229.787 733.401 377.783 344.295 377.783 344.295 182.932 182.932 874.302 463.411 389.106 463.411 389.106 194.851 194.851 825.702 455.144 485.197 455.144 485.197 268.56 268.56 697.111 379.13 340.506 379.13 340.506 186.583 186.583 767.936 393.142 356.606 393.142 356.606 192.546 192.546 787.564 395.658 411.33 395.658 411.33 200.596 200.596 717.292 364.773 376.235 364.773 376.235 195.062 195.062 675.071 336.083 341.057 336.083 341.057 169.711 169.711 334.014 166.372 334.014 166.372 334.014 166.372 166.372 472.873 420.406 197.771 906.107 420.406 844.972 849.238 378.257 197.771 472.873 420.406 197.771 378.257 197.771 520.624 485.701 1022.28 915.78 931.481 275.102 520.624 485.701 466.715 275.102 497.23 536.575 1136.37 883.437 960.607 245.522 497.23 536.575 449.065 245.522 432.904 599.797 1066.31 847.318 1051.86 251.708 432.904 599.797 434.372 251.708 354.27 466.51 917.694 771.879 913.525 181.196 354.27 466.51 412.946 181.196 446.65 451.184 951.497 863.014 845.662 173.074 446.65 451.184 358.933 173.074 499.262 500.313 900.367 978.781 920.722 273.576 499.262 500.313 504.081 273.576 460.979 400.054 867.487 970.444 857.236 225.687 460.979 400.054 474.7 225.687 421.732 467.434 863.659 903.225 996.909 235.293 421.732 467.434 495.744 235.293 387.928 396.226 845.214 835.162 865.552 186.44 387.928 396.226 407.481 186.44 443.641 448.988 955.459 881.322 932.839 201.488 443.641 448.988 427.681 201.488 514.578 506.471 955.902 931.603 917.064 242.153 514.578 506.471 453.641 242.153 459.704 449.431 936.127 900.779 813.778 272.425 459.704 449.431 477.963 272.425 442.002 486.696 938.423 923.647 934.655 187.278 442.002 486.696 422.816 187.278 409.882 451.727 789.453 960.454 939.687 254.723 409.882 451.727 500.83 254.723 351.168 337.726 682.115 849.464 849.841 155.158 351.168 337.726 459.624 155.158 360.865 344.388 755.359 758.041 726.551 196.009 360.865 344.388 389.84 196.009 312.599 410.971 746.635 731.94 772.571 164.856 312.599 410.971 368.201 164.856 302.499 335.664 715.458 752.708 810.891 147.743 302.499 335.664 363.739 147.743 401.645 379.794 814.108 851.475 812.211 154.756 401.645 379.794 388.968 154.756 358.728 434.314 782.06 752.928 863.749 246.889 358.728 434.314 462.507 246.889 277.971 347.746 718.915 673.092 729.027 111.839 277.971 347.746 290.421 111.839 376.045 371.169 825.837 817.33 824.244 166.132 376.045 371.169 382.671 166.132 373.258 454.668 756.939 779.225 943.31 209.913 373.258 454.668 434.658 209.913 356.64 302.271 671.193 800.652 620.824 163.346 356.64 302.271 344.567 163.346 370.565 368.922 712.608 830.373 793.496 193.294 370.565 368.922 456.086 193.294 396.123 343.686 723.128 780.222 692.881 177.271 396.123 343.686 374.287 177.271 398.961 379.441 755.74 780.203 740.959 218.851 398.961 379.441 405.934 218.851 411.338 376.298 828.158 811.684 747.037 180.11 411.338 376.298 374.269 180.11 415.694 451.859 856.302 768.609 830.254 231.228 415.694 451.859 437.415 231.228 387.517 404.443 774.927 738.388 758.414 184.466 387.517 404.443 331.194 184.466 203.051 370.484 370.484 407.195 724.434 203.051 203.051 370.484 407.195 203.051 874.613 428.832 801.662 809.16 376.6 372.099 428.832 180.485 376.6 180.485 869.813 858.936 956.4 395.156 445.78 425.062 191.614 876.094 873.374 858.757 386.207 424.033 433.875 203.543 899.076 864.893 950.401 414.414 452.061 439.499 182.664 841.494 812.316 832.842 417.609 447.015 425.394 231.75 814.887 837.57 773.827 416.364 394.478 386.922 185.859 877.591 941.322 878.443 479.519 420.409 450.649 230.506 986.658 940.876 923.312 509.464 457.182 490.674 249.013 998.802 867.968 999.902 481.493 529.475 450.202 260.452 953.177 848.342 881.111 447.234 469.326 417.766 221.041 894.444 854.422 866.85 437.681 483.85 430.575 226.193 774.94 869.038 803.898 417.025 410.593 423.846 211.488 812.305 900.286 801.691 441.076 364.346 445.192 205.538 935.919 887.851 924.718 481.645 447.959 455.094 235.538 1000.08 951.633 907.2 550.573 487.96 432.757 246.107 894.278 918.557 955.579 498.297 512.115 518.876 304.466 743.762 831.725 785.589 397.176 382.163 399.681 193.831 836.827 885.991 775.643 419.341 361.6 432.044 203.345 907.645 923.045 892.395 450.208 475.227 453.946 215.996 861.852 830.347 876.607 449.83 432.418 469.099 234.212 810.716 727.906 724.499 394.2 429.435 361.248 215.618 834.356 805.863 817.626 395.121 381.281 366.658 178.582 941.717 886.255 872.545 441.285 453.075 439.205 216.539 807.195 841.198 919.482 405.967 488.642 447.05 224.746 743.127 817.222 733.116 444.012 318.553 394.148 181.221 773.769 803.929 798.917 459.807 424.574 423.074 262.792 710.712 793.032 714.496 384.099 349.194 380.855 197.016 732.257 867.327 738.142 381.242 361.518 412.176 187.083 749.133 863.526 842.766 400.346 370.739 455.151 194.159 732.365 704.687 814.877 352.915 378.395 408.375 206.187 707.921 697.632 669.557 350.871 353.971 296.313 146.727 353.95 401.319 789.263 204.144 353.95 401.319 204.144 890.947 380.328 858.221 821.099 426.185 429.563 380.328 196.115 426.185 196.115 945.344 847.365 890.083 463.78 510.619 432.035 233.448 933.064 897.111 872.207 487.167 434.725 415.329 230.332 884.166 861.469 933.07 450.479 498.34 481.781 256.835 765.175 765.425 738.341 394.707 385.826 379.688 193.644 837.383 749.402 756.02 421.206 379.349 385.737 201.063 924.164 818.293 744.218 461.803 458.034 363.665 220.143 936.556 824.012 898.451 431.411 466.129 454.628 241.661 882.211 769.843 928.692 386.476 470.427 369.384 189.751 794.784 843.122 844.346 401.107 411.785 400.459 196.725 776.303 821.124 832.023 416.741 382.999 442.663 204.382 830.649 858.213 769.398 452.013 393.304 378.461 212.359 914.104 897.22 882.37 459.21 437.344 479.752 239.654 896 801.893 831.298 406.206 476.759 417.468 219.556 862.704 812.964 764.382 401.061 419.24 384.425 186.65 846.89 858.187 861.337 420.26 443.464 428.539 214.41 817.469 813.341 773.934 434.549 403.427 429.648 205.85 831.21 841.603 777.029 466.65 414.043 383.693 228.7 861.357 909.856 804.323 472.837 417.167 457.91 237.95 739.254 817.849 865.562 380.517 444.19 451.946 234.887 731.408 775.578 731.776 333.706 295.064 365.903 145.63 855.814 839.681 858.98 410.742 436.344 409.675 188.076 850.31 848.843 944.677 444.97 419.47 430.006 222.666 845.402 788.03 798.111 435.231 430.84 418.837 222.304 788.906 802.654 791.113 373.21 414.562 369.193 212.927 739.645 799.396 827.974 344.122 374.343 433.461 160.282 741.926 803.559 731.957 408.933 365.302 365.935 183.839 848.652 844.711 792.261 486.085 376.624 437.624 225.093 908.51 784.101 850.299 463.18 472.028 407.088 260.992 752.068 712.825 751.616 351.772 436.483 377.013 202.187 750.899 723.843 699.324 346.761 315.586 335.812 149.585 435.313 388.031 835.814 197.175 435.313 388.031 197.175 820.235 440.771 845.785 825.924 429.324 428.658 440.771 230.071 429.324 230.071 816.946 833.125 861.361 383.585 379.464 416.461 198.588 872.213 878.637 886.666 409.944 437.482 416.664 184.997 787.246 861.833 863.389 410.99 434.731 461.973 224.946 729.186 833.377 784.635 370.718 352.515 399.86 186.044 662.855 791.094 877.943 328.196 376.671 433.516 184.674 718.505 764.81 715.992 356.49 286.184 357.577 143.522 890.587 773.904 808.601 392.601 432.322 407.233 212.968 890.827 820.697 851.249 383.367 458.265 366.671 179.633 881.586 870.641 875.486 442.014 432.562 454.026 203.733 825.118 799.607 885.57 404.384 449.024 416.615 238.281 821.12 862.794 793.386 406.201 376.094 382.992 166.102 799.564 905.835 836.042 438.01 445.026 479.802 240.098 699.68 848.958 783.637 395.687 354.538 426.033 197.912 763.015 835.129 753.775 411.904 345.142 422.925 197.775 788.381 822.813 792.075 437.927 417.873 412.204 214.129 733.493 752.373 786.097 378.791 370.508 410.608 223.798 750.141 795.918 731.681 374.953 362.986 341.765 154.993 808.528 877.266 788.959 437.019 387.155 454.153 219.96 858.085 856.72 810.69 437.332 421.373 423.112 217.059 859.348 869.285 788.757 441.872 436.712 433.607 220.273 947.842 844.512 873.64 428.939 422.636 435.677 221.599 892.478 754.601 951.845 403.873 525.206 408.834 207.34 743.822 755.428 778.093 352.799 367.271 345.767 196.533 830.182 822.994 877.673 429.445 376.551 409.661 156.266 820.286 827.989 781.608 455.274 453.631 413.333 273.179 782.293 884.307 727.756 394.626 366.656 414.656 182.095 793.909 787.031 922.377 358.626 415.637 469.652 212.531 693.405 665.651 731.334 320.921 378.271 317.379 146.095 698.871 770.562 669.074 361.053 315.133 348.272 174.826 784.239 740.968 822.328 377.082 383.738 422.29 186.227 400.501 318.678 806.695 190.856 400.501 318.678 190.856 867.05 385.153 847.324 864.078 427.858 417.127 385.153 199.253 427.858 199.253 931.08 825.992 899.048 449.54 481.897 419.466 217.873 877.841 890.6 861.815 468.693 449.183 406.526 231.666 860.778 933.458 928.959 450.843 428.658 484.075 237.027 933.391 902.607 930.983 462.659 432.12 449.384 213.816 931.079 810.289 925.654 462.897 501.271 453.223 248.843 806.087 752.297 826.972 408.32 429.808 357.066 214.055 769.263 772.382 792.777 381.303 376.279 395.231 194.265 835.908 849.983 732.727 437.33 392.984 377.151 187.038 879.47 867.056 884.047 428.627 442.924 472.831 250.293 853.838 764.952 840.552 395.223 436.546 394.224 178.334 808.308 803.201 791.7 456.594 417.292 370.728 216.89 820.115 873.842 788.068 467.825 391.016 432.474 239.704 837.732 889.268 883.505 453.271 429.099 441.369 228.121 782.835 865.609 837.087 423.225 408.633 447.899 225.15 789.792 781.51 739.944 384.886 374.202 417.709 198.075 784.285 752.678 810.953 373.582 415.59 363.801 186.81 770.499 807.615 834.333 420.965 368.695 388.877 186.771 791.121 853.539 745.892 440.247 401.804 418.738 234.194 741.362 883.605 836.94 419.387 389.317 434.8 206.053 803.049 804.453 808.507 427.412 352.045 448.805 213.334 877.643 783.702 845.85 415.573 451.004 355.648 214.078 837.461 802.791 838.96 350.729 426.639 428.054 201.495 911.944 812.732 830.72 402.629 410.822 374.737 149.234 829.1 755.781 933.437 393.55 501.122 437.995 253.395 689.078 718.015 740.026 372.715 327.977 317.786 140.154 867.84 880.236 754.646 489.681 361.1 400.229 232.56 859.802 832.683 992.768 428.405 506.739 480.007 257.121 707.004 684.086 721.275 344.73 353.062 352.676 171.284 792.532 766.438 655.332 409.509 353.941 331.41 173.446 844.784 721.059 739.565 363.886 438.59 435.028 236.063 406.194 286.031 698.664 127.822 406.194 286.031 127.822 896.076 478.925 879.745 883.673 474.114 430.197 478.925 228.604 474.114 228.604 829.784 834.991 873.496 376.453 417.151 405.63 201.593 912.933 960.902 936.528 421.907 412.632 429.36 174.859 999.164 1017.99 1031.27 482.615 500.301 531.542 247.048 923.246 861.161 935.141 439.948 498.864 486.451 235.567 821.547 729.484 835.885 347.392 424.382 374.71 204.38 813.661 744.567 915.683 343.977 397.164 354.774 143.011 756.241 740.522 776.226 391.08 416.497 389.793 200.966 780.866 766.463 764.475 412.653 339.743 350.728 190.114 845.129 791.353 832.659 438.429 441.123 415.734 222.539 778.414 734.201 783.456 369.729 404.006 375.618 215.89 771.459 737.538 825.66 346.608 374.407 358.582 153.838 851.458 778.786 783.114 406.017 397.052 378.956 192.77 882.86 781.48 855.698 435.997 454.406 399.83 213.247 794.196 797.302 782.111 442.383 428.454 381.65 222.749 761.105 779.886 789.718 396.624 365.742 415.652 219.634 861.001 776.173 748.616 379.096 395.363 364.234 176.99 809.725 810.26 902.653 386.65 465.638 411.939 202.106 791.711 797.09 758.842 413.292 344.088 398.322 184.545 904.084 854.127 851.226 464.218 447.623 398.768 228.747 851.307 855.622 854.025 377.041 456.462 455.358 235.471 807.166 819.297 818.334 368.13 394.845 400.264 141.57 832.219 853.092 810.106 452.062 412.321 419.033 226.559 852.213 836.593 886.325 410.102 419.898 434.059 225.503 844.363 859.353 860.029 362.231 432.315 402.534 184.599 805.594 811.761 890.361 345.3 412.048 456.819 177.632 879.575 798.388 721.93 390.555 393.546 354.942 167.668 854.241 808.603 916.004 404.278 486.029 443.446 222.886 669.604 680.721 756.821 339.356 368.213 365.157 181.392 602.365 685.85 679.259 356.929 301.391 315.564 157.964 593.445 710.358 686.775 357.173 300.975 370.286 198.964 292.47 340.072 687.182 158.209 292.47 340.072 158.209 861.093 404.748 937.179 888.835 467.651 449.548 404.748 245.51 467.651 245.51 980.241 973.946 988.743 458.538 456.345 469.528 204.037 1054.86 1039.11 998.93 538.994 523.896 504.418 254.501 967.244 1008.26 1001.41 535.377 530.966 534.697 284.493 847.781 867.203 982.32 421.214 436.278 473.567 250.884 930.021 847.297 806.781 382.092 411.503 393.636 170.33 878.247 918.439 1038.23 400.59 518.518 453.66 211.762 784.46 841.141 901.466 349.442 359.728 464.778 188.828 816.268 761.641 964.34 353.81 424.732 376.363 160.614 770.986 781.056 757.984 352.924 391.536 385.279 193.196 830.703 788.643 827.315 364.472 379.45 395.777 159.728 837.316 808.167 941.352 390.93 451.253 392.866 204.744 787.354 776.713 812.896 372.768 386.063 415.3 186.186 754.949 717.603 754.446 345.483 401.292 361.413 186.582 777.633 736.253 674.971 354.919 353.657 356.191 158.901 777.229 770.978 809.816 383.262 423.976 380.062 196.018 790.268 762.552 801.325 397.077 353.253 390.916 187.244 851.769 799.04 818.84 423.61 437.015 371.636 209.833 818.357 821.66 838.893 383.798 414.754 427.404 213.777 801.167 810.005 788.726 389.909 403.604 394.256 170.021 821.053 941.154 775.694 478.581 397.564 415.749 219.887 821.274 926.578 911.301 451.167 423.489 525.405 258.693 864.212 771.092 827.315 401.03 397.785 401.173 192.474 894.141 782.109 840.174 426.491 466.427 369.919 208.556 906.027 908.013 796.17 497.122 427.714 412.19 217.935 806.697 837.019 843.678 466.461 478.313 495.823 279.187 758.36 725.816 618.734 407.834 328.384 341.196 187.274 818.584 779.119 778.245 404.325 429.976 384.62 220.56 766.476 733.271 770.044 341.365 388.608 394.499 183.765 763.669 681.44 797.352 328.922 377.868 338.772 157.6 780.512 692.173 731.987 353.185 385.801 342.668 171.322 394.712 349.505 776.403 181.863 394.712 349.505 181.863 1016.49 484.087 487.631 484.087 222.14 487.631 484.087 222.14 222.14 222.14 1007.43 515.407 532.398 515.407 532.398 265.491 265.491 945.477 500.12 475.034 500.12 475.034 249.917 249.917 1016.49 472.887 470.443 472.887 470.443 250.203 250.203 941.32 445.99 546.043 445.99 546.043 222.683 222.683 914.986 465.204 395.278 465.204 395.278 223.306 223.306 1061.45 517.849 519.708 517.849 519.708 241.898 241.898 1081.35 491.699 541.737 491.699 541.737 275.951 275.951 906.056 407.831 539.608 407.831 539.608 215.748 215.748 814.312 428.132 366.448 428.132 366.448 192.083 192.083 937.964 424.171 447.865 424.171 447.865 236.049 236.049 916.932 417.237 490.099 417.237 490.099 188.122 188.122 779.988 403.945 426.833 403.945 426.833 229.114 229.114 674.469 372.12 353.154 372.12 353.154 174.83 174.83 707.154 381.333 321.314 381.333 321.314 197.29 197.29 833.912 387.716 385.84 387.716 385.84 184.044 184.044 829.897 365.475 448.072 365.475 448.072 203.672 203.672 805.964 375.43 381.825 375.43 381.825 161.803 161.803 809.262 437.862 424.139 437.862 424.139 213.628 213.628 763.253 420.096 385.123 420.096 385.123 224.234 224.234 865.942 462.574 378.13 462.574 378.13 195.862 195.862 917.341 475.411 487.812 475.411 487.812 266.712 266.712 803.277 370.062 429.53 370.062 429.53 208.699 208.699 742.203 355.618 373.747 355.618 373.747 161.363 161.363 733.821 410.891 368.456 410.891 368.456 194.255 194.255 655.714 370.558 365.365 370.558 365.365 216.636 216.636 638.619 317.982 290.349 317.982 290.349 153.922 153.922 729.705 374.794 348.269 374.794 348.269 164.06 164.06 800.919 391.906 381.436 391.906 381.436 210.734 210.734 765.67 352.518 419.483 352.518 419.483 181.172 181.172 727.878 338.988 346.186 338.988 346.186 171.346 171.346 381.691 167.642 381.691 167.642 381.691 167.642 167.642 433.234 479.891 222.635 945.385 479.891 935.747 915.824 470.982 222.635 433.234 479.891 222.635 470.982 222.635 501.651 465.494 1030.49 976.308 955.81 210.599 501.651 465.494 464.766 210.599 639.142 565.001 1228.71 1129.03 1058.18 291.052 639.142 565.001 511.542 291.052 633.404 663.71 1263.05 1118.07 1139.07 348.09 633.404 663.71 617.486 348.09 563.423 599.34 1144.4 987.308 1110.83 285.314 563.423 599.34 500.579 285.314 504.847 545.065 1003.51 903.369 999.043 278.109 504.847 545.065 486.729 278.109 401.105 458.45 892.521 799.177 914.969 226.738 401.105 458.45 416.64 226.738 406.508 434.071 888.474 883.701 883.539 174.367 406.508 434.071 382.536 174.367 441.927 454.402 895.198 959.236 960.793 232.141 441.927 454.402 501.165 232.141 457.286 440.796 914.104 963.228 953.813 209.786 457.286 440.796 458.071 209.786 511.818 473.308 1055.01 968.581 955.766 247.5 511.818 473.308 505.157 247.5 441.324 581.697 1031.09 799.239 971.408 264.318 441.324 581.697 463.424 264.318 476.423 449.396 954.592 847.653 794.938 177.006 476.423 449.396 335.815 177.006 496.421 505.196 959.776 950.695 917.609 299.418 496.421 505.196 511.838 299.418 379.571 454.58 832.101 829.074 888.374 197.003 379.571 454.58 438.856 197.003 330.947 377.521 770.437 726.928 781.445 182.568 330.947 377.521 390.217 182.568 394.494 392.916 890.997 741.081 784.53 148.379 394.494 392.916 336.711 148.379 434.036 498.081 919.686 851.522 868.931 246.115 434.036 498.081 404.37 246.115 412.958 421.605 844.369 870.395 889.275 187.92 412.958 421.605 447.152 187.92 412.463 422.764 873.037 824.485 812.735 225.038 412.463 422.764 423.243 225.038 423.332 450.273 823.099 839.848 867.244 187.425 423.332 450.273 401.242 187.425 440.944 372.827 805.471 880.179 799.764 235.907 440.944 372.827 438.606 235.907 449.792 432.645 867.486 950.225 888.15 205.037 449.792 432.645 441.573 205.037 383.681 434.841 718.717 784.91 907.404 244.756 383.681 434.841 508.652 244.756 314.553 283.876 673.654 613.668 618.074 138.925 314.553 283.876 276.258 138.925 342.043 389.778 732.863 656.004 759.371 175.628 342.043 389.778 337.411 175.628 327.005 343.085 670.118 653.618 749.584 166.415 327.005 343.085 318.594 166.415 356.778 327.033 683.314 707.793 678.09 160.59 356.778 327.033 335.025 160.59 416.819 356.28 836.911 765.607 743.302 196.188 416.819 356.28 372.768 196.188 440.608 480.63 907.628 820.059 819.493 220.631 440.608 480.63 392.839 220.631 387.41 426.997 775.309 744.459 831.379 219.977 387.41 426.997 427.22 219.977 167.433 348.311 348.311 317.24 690.435 167.433 167.433 348.311 317.24 167.433 926.249 435.933 963.898 769.671 432.56 502.514 435.933 248.347 432.56 248.347 983.5 956.221 965.394 474.657 490.316 531.338 254.167 968.547 935.784 909.158 489.887 493.184 424.883 220.49 986.854 918.349 962.219 484.662 475.364 510.901 269.397 965.469 794.353 951.837 423.885 511.491 407.448 215.265 910.498 814.7 876.989 398.522 453.978 386.905 208.62 905.988 860.432 969.909 398.072 456.52 427.794 189.903 955.858 982.338 913.562 477.193 449.468 432.638 208.169 1019.41 1013.04 1022.97 517.309 506.39 549.7 269.024 995.475 899.619 944.259 505.942 513.017 463.345 248.285 872.169 816.326 851.744 456.763 482.458 436.274 257.657 735.253 736.551 778.276 357.915 389.711 380.051 199.106 757.956 826.123 763.095 371.23 345.542 356.499 158.809 846.208 944.067 912.314 454.274 412.413 469.624 212.421 837.719 911.146 893.682 449.502 433.794 474.443 241.853 795.538 822.611 810.45 395.981 403.924 436.703 207.649 762.464 729.506 834.641 346.587 391.614 385.908 188.332 838.52 782.047 797.484 417.486 370.85 343.598 158.255 857.641 845.956 851.291 457.437 467.67 438.449 259.231 806.943 770.759 824.464 412.022 389.971 407.508 198.205 843.909 814.218 727.211 416.516 416.971 363.251 213.817 882.443 884.307 852.573 439.235 426.938 450.967 202.699 928.068 905.772 844.404 500.432 455.506 433.34 236.536 806.761 811.4 856.724 401.229 472.562 472.432 263.896 703.792 714.811 732.463 299.115 334.199 338.967 137.332 776.093 709.484 777.382 313.961 369.593 375.844 161.783 757.556 659.606 793.447 326.613 406.5 333.641 152.178 738.078 713.581 749.271 351.015 351.056 325.966 174.435 725.884 794.118 733.248 348.788 387.022 387.616 176.58 743.244 779.747 764.285 379.451 338.862 406.503 172.207 746.506 761.188 779.267 357.05 404.382 373.244 207.243 342.124 387.944 764.069 149.807 342.124 387.944 149.807 808.816 333.738 852.962 734.641 394.914 461.385 333.738 184.213 394.914 184.213 891.052 914.926 827.652 481.564 475.078 458.048 277.171 902.83 908.167 859.954 445.897 415.974 456.878 204.393 927.202 809.943 885.434 433.687 486.856 451.289 241.505 863.358 728.937 821.395 370.468 440.347 358.653 192.182 936.4 750.836 762.712 416.177 423.011 370.283 178.286 977.483 824.375 859.717 462.36 513.389 380.553 237.891 980.674 1003.13 869.603 505.145 464.094 443.823 224.469 947.822 1003.2 1030.89 495.736 516.58 559.308 280.676 800.527 833.248 860.346 393.677 431.242 443.888 215.06 757.85 780.297 796.057 359.563 369.285 389.36 178.617 806.118 793.555 740.601 378.636 388.565 390.937 180.946 917.454 816.448 833.071 454.893 417.553 402.618 197.69 959.789 793.787 870.642 489.793 499.901 413.83 257.203 866.413 812.755 826.158 461.644 459.888 379.957 232.59 849.553 777.084 767.001 426.63 406.525 432.798 229.053 869.661 737.622 821.214 382.92 443.027 344.286 197.577 810.255 739.749 841.322 364.561 426.634 393.336 185.343 818.113 760.029 785.997 388.52 383.621 346.413 179.217 744.732 779.489 900.443 358.737 434.492 413.616 209.303 735.876 815.178 716.008 397.702 310.24 365.873 149.434 814.534 963.976 847.055 445.072 425.636 449.305 248.268 773.06 893.945 857.439 405.34 388.898 514.671 196.804 782.427 801.194 752.116 410.171 384.162 379.274 208.536 806.053 816.433 883.065 415.696 398.265 421.92 201.635 794.736 760.536 782.577 395.523 407.789 394.513 214.061 785.162 720.66 722.477 332.993 386.947 366.023 181.462 744.441 797.849 790.392 362.566 398.215 354.637 151.531 771.649 817.814 722.376 445.331 346.226 443.212 211.035 800.308 738.114 768.557 400.296 425.423 374.602 234.295 796.829 811.295 757.626 404.138 374.885 363.512 166.001 421.945 447.783 799.977 238.138 421.945 447.783 238.138 753.478 400.903 841.5 807.865 396.6 391.577 400.903 210.701 396.6 210.701 796.554 914.902 814.755 433.361 352.574 444.9 180.876 842.559 871.418 884.768 462.27 443.98 470.002 252.485 779.627 786.191 839.48 376.256 398.579 401.416 209.785 720.749 829.201 850.628 358.469 381.048 384.775 166.471 686.029 802.841 743.758 334.659 339.701 444.426 191.997 751.837 759.783 697.464 362.015 346.328 358.414 142.661 919.817 885.946 819.282 497.986 405.509 401.368 219.354 943.412 906.038 925.992 507.46 514.307 484.578 278.632 855.876 890.415 816.447 439.571 429.104 421.46 228.828 778.808 879.349 859.115 420.734 426.772 468.955 210.743 767.553 766.634 723.32 414.919 352.036 410.394 209.991 786.259 713.844 698.334 361.554 415.517 356.24 204.928 737.012 688.454 820.182 303.994 370.742 357.604 156.627 726.746 710.721 758.644 351.111 366.27 330.85 147.367 738.662 755.36 708.551 350.454 360.476 379.871 203.744 792.875 765.406 815.697 354.702 378.186 375.489 146.71 817.064 724.723 784.014 375.189 414.689 389.917 207.993 868.327 722.383 813.027 371.509 402.376 334.806 167.196 871.719 742.727 821.781 420.752 465.951 387.577 204.314 827.187 793.113 802.018 417.476 405.768 355.15 216.439 889.96 980.974 818.392 518.904 421.419 437.963 201.037 836.495 975.337 912.61 488.605 468.541 543.011 317.867 852.754 900.338 756.184 391.023 367.954 432.326 170.738 859.589 836.287 914.291 400.737 484.8 468.012 220.285 710.319 681.375 721.498 365.012 374.789 368.275 180.452 727.708 765.825 634.269 387.667 335.53 313.1 184.56 768.328 866.68 828.125 435.283 392.178 452.725 203.107 719.284 734.757 822.337 372.483 376.15 413.955 232.176 725.875 720.84 731.082 337.818 343.134 320.802 140.307 760.774 888.055 728.595 407.156 382.741 400.038 197.511 378.033 488.016 852.438 209.645 378.033 488.016 209.645 869.143 406.962 915.802 836.114 436.22 449.923 406.962 185.899 436.22 185.899 902.969 934.872 931.873 481.54 462.181 479.582 264.024 881.69 900.174 879.198 409.148 440.788 455.29 217.517 910.481 926.484 922.69 409.935 440.902 444.884 191.632 873.637 954.031 971.901 470.732 469.58 481.6 218.303 755.194 942.337 858.592 468.182 404.057 472.431 252.429 764.909 867.452 793.388 397.767 351.137 469.906 215.753 825.457 753.121 839.359 387.96 413.772 397.546 182.014 799.027 766.792 696.934 398.578 411.685 355.575 205.946 819.685 857.544 806.742 450.844 387.342 411.216 192.632 803.626 867.3 790.199 458.615 432.343 446.328 258.212 654.101 776.566 835.571 351.715 371.284 420.972 200.402 732.257 797.731 681.343 352.29 282.817 355.594 151.312 841.813 831.324 868.451 384.46 449.44 442.136 200.978 740.448 711.423 806.683 359.61 392.373 389.188 183.483 785.585 769.387 649.326 404.906 348.075 322.235 176.127 806.836 892.608 896.425 410.703 437.511 447.152 228.779 779.977 772.609 914.944 349.534 369.326 445.456 181.924 766.481 729.293 751.492 350.874 410.651 327.153 167.61 752.079 761.841 798.904 321.975 355.83 402.139 183.264 793.222 849.903 805.079 375.637 396.249 359.702 138.711 841.042 901.107 937.87 462.07 396.973 490.201 236.926 832.3 866.888 837.312 486.732 444.069 410.906 225.144 817.721 951.425 800.625 509.315 388.23 455.983 261.588 776.2 917.682 848.48 435.55 429.491 495.443 247.727 645.449 776.657 833.659 316.363 346.709 422.239 187.823 734.687 867.178 680.594 378.158 298.739 354.417 128.54 882.134 881.36 838.946 431.397 435.948 512.761 249.618 834.135 692.521 790.093 362.274 446.187 368.6 181.779 733.802 628.459 745.314 383.022 387.948 323.922 180.495 820.258 717.17 635.485 480.898 345.853 304.537 202.527 474.405 412.633 775.86 278.371 474.405 412.633 278.371 898.844 429.152 877.424 776.479 409.558 465.879 429.152 250.321 409.558 250.321 908.103 975.033 915.431 453.331 469.692 467.866 215.558 920.199 1006.89 955.77 491.026 438.41 507.168 237.773 984.11 948.416 924.771 516.549 481.788 499.725 253.253 956.857 909.866 924.952 483.298 502.321 448.691 263.296 896.786 1022.08 901.15 474.155 454.535 461.175 220.002 867.838 947.341 1039.51 469.684 442.251 560.909 254.153 710.837 800.179 788.327 365.161 425.587 386.432 215.531 704.649 830.672 760.329 368.214 285.25 413.747 149.629 777.255 824.762 868 406.7 419.399 416.925 218.584 822.144 874.916 746.869 408.685 357.856 407.837 188.116 862.814 871.237 885.33 424.851 464.288 467.078 220.569 817.537 860.026 762.68 445.441 398.526 404.159 204.282 833.321 856.329 814.469 446.864 419.011 455.868 241.159 715.561 774.527 869.903 351.813 414.31 400.461 205.705 760.166 758.448 749.243 364.481 301.252 374.066 146.108 1004.53 875.096 858.322 481.905 458.914 384.382 218.373 886.46 851.234 985.436 423.075 545.618 490.714 263.532 783.915 812.978 742.579 378.419 340.841 360.52 159.543 851.904 851.125 887.408 439.866 443.074 452.458 218.876 949.728 816.738 751.64 474.266 408.83 398.667 220.991 934.141 809.144 885.352 439.037 540.898 418.071 253.275 805.637 843.339 902.788 380.156 393.243 391.073 185.761 831.384 909.76 923.924 442.111 412.395 452.266 194.395 905.939 891.037 823.801 482.132 418.989 457.494 247.715 868.805 800.53 810.174 460.294 486.95 433.542 234.417 784.853 839.546 641.335 489.02 381.855 366.988 225.877 746.905 864.222 814.321 449.963 402.998 472.558 263.143 701.272 755.359 690.81 330.247 343.906 391.664 186.821 646.998 680.184 756.005 245.437 357.366 363.695 143.427 591.088 663.599 687.595 236.272 289.632 316.489 102.01 301.455 347.11 705.325 134.261 301.455 347.11 134.261 793.066 347.327 940.399 857.732 421.184 411.545 347.327 159.238 421.184 159.238 963.098 1013.73 912.708 521.702 445.739 519.215 252.307 960.342 961.224 990.329 515.867 517.359 494.512 269.395 865.613 975.466 907.082 431.867 442.982 466.712 246.473 869.246 921.898 1006.76 426.567 422.631 508.753 185.394 1043.87 997.71 817.667 547.929 446.615 413.145 241.173 959.995 1021.25 1205.7 477.657 597.255 584.565 306.756 837.819 1024.67 867.901 435.018 362.741 436.688 170.901 923.68 960.683 1058.06 462.458 475.079 587.978 264.118 837.614 804.242 825.619 418.062 448.601 372.705 198.34 810.055 980.023 761.607 466.23 389.013 431.538 219.722 785.197 946.081 964.6 446.385 421.042 548.486 246.509 759.613 790.629 781.111 414.586 364.154 397.595 199.877 851.051 711.814 786.955 409.465 395.458 393.034 214.709 903.584 748.535 802.692 422.714 455.593 318.781 194.756 847.399 840.163 845.017 393.967 447.991 429.754 227.958 839.225 857.614 865.711 393.191 399.408 410.409 166.009 841.555 858.693 947.91 428.159 439.817 447.205 227.182 846.071 805.959 883.463 434.559 401.737 411.489 200.977 787.144 754.415 744.424 411.259 444.334 394.471 233.582 687.264 745.84 681.858 342.472 342.81 359.944 177.677 854 812.037 818.86 370.107 344.454 385.896 164.795 1021.08 896.396 895.209 463.182 509.546 426.142 205.312 916.342 854.235 1012.78 467.65 511.529 470.255 257.871 728.037 731.835 762.111 408.905 404.812 383.98 209.779 582.704 625.392 651.737 340.236 323.224 347.854 199.126 670.802 671.163 550.624 350.526 259.48 277.537 141.11 758.227 769.17 784.013 414.259 411.322 393.625 209.416 745.543 834.124 709.408 425.111 346.904 375.545 204.843 796.602 847.898 837.21 434.747 398.639 458.579 220.268 801.832 816.217 750.495 427.327 397.963 389.319 214.479 403.869 426.898 807.14 212.848 403.869 426.898 212.848 977.374 510.405 528.854 510.405 261.946 528.854 510.405 261.946 261.946 261.946 939.939 492.025 466.969 492.025 466.969 266.908 266.908 937.07 445.357 472.97 445.357 472.97 225.117 225.117 1048.23 543.599 464.1 543.599 464.1 220.24 220.24 955.182 495.331 584.13 495.331 584.13 323.359 323.359 979.498 449.781 371.053 449.781 371.053 171.972 171.972 1113.61 543.596 608.446 543.596 608.446 277.81 277.81 1088.14 589.647 505.16 589.647 505.16 265.787 265.787 960.002 498.225 582.983 498.225 582.983 323.86 323.86 749.613 386.18 377.018 386.18 377.018 174.365 174.365 916.152 513.793 372.594 513.793 372.594 211.816 211.816 960.515 499.696 543.558 499.696 543.558 301.977 301.977 808.454 376.043 416.957 376.043 416.957 197.719 197.719 738.596 302.349 391.497 302.349 391.497 178.324 178.324 744.125 325.821 347.099 325.821 347.099 124.025 124.025 863.329 446.196 397.026 446.196 397.026 201.796 201.796 974.396 464.422 466.303 464.422 466.303 244.4 244.4 989.818 430.534 508.092 430.534 508.092 220.022 220.022 781.816 371.4 481.726 371.4 481.726 210.512 210.512 639.138 343.156 300.09 343.156 300.09 160.888 160.888 813.453 403.368 339.047 403.368 339.047 182.268 182.268 860.069 441.93 474.406 441.93 474.406 221.1 221.1 886.912 433.214 385.663 433.214 385.663 220.83 220.83 858.548 386.585 501.25 386.585 501.25 212.384 212.384 685.811 322.93 357.299 322.93 357.299 174.201 174.201 619.656 285.156 328.512 285.156 328.512 148.729 148.729 663.835 320.637 291.144 320.637 291.144 136.427 136.427 735.195 354.911 372.691 354.911 372.691 184.21 184.21 801.075 409.013 362.504 409.013 362.504 170.702 170.702 791.104 413.151 438.571 413.151 438.571 238.311 238.311 755.804 388.89 352.532 388.89 352.532 174.84 174.84 403.271 214.05 403.271 214.05 403.271 214.05 214.05 512.151 517.012 257.256 1013.74 517.012 935.886 906.731 444.842 257.256 512.151 517.012 257.256 444.842 257.256 528.843 496.725 1012.67 1037.69 982.761 254.895 528.843 496.725 491.044 254.895 589.569 515.943 1066.33 1068.23 1130.53 273.948 589.569 515.943 546.642 273.948 629.646 550.383 1144.41 1131.84 999.686 315.62 629.646 550.383 521.587 315.62 580.981 594.03 1100.82 1122.56 1135.2 314.026 580.981 594.03 610.251 314.026 498.667 506.793 992.993 1010.64 929.701 266.955 498.667 506.793 512.314 266.955 491.416 486.2 984.576 999.332 993.588 231.712 491.416 486.2 498.329 231.712 481.965 498.376 918.803 960.63 936.796 259.704 481.965 498.376 501.003 259.704 453.271 420.427 918.817 955.37 873.543 222.261 453.271 420.427 459.628 222.261 456.818 498.39 934.926 946.351 1054.16 231.01 456.818 498.39 495.742 231.01 543.187 436.537 992.852 958.594 932.953 225.808 543.187 436.537 450.609 225.808 589.77 556.316 1029.5 967.108 991.347 317.379 589.77 556.316 507.984 317.379 478.169 473.187 895.313 864.895 872.484 272.391 478.169 473.187 459.124 272.391 463.355 422.126 927.742 855.289 862.249 205.778 463.355 422.126 405.771 205.778 452.529 505.616 908.619 840.746 845.222 257.577 452.529 505.616 449.518 257.577 439.49 403.003 882.037 839.047 819.598 194.953 439.49 403.003 391.228 194.953 496.503 479.034 897.271 912.381 906.052 244.537 496.503 479.034 447.819 244.537 485.651 418.237 821.091 906.685 820.762 251.966 485.651 418.237 464.561 251.966 431.411 402.854 845.515 831.616 829.103 233.685 431.411 402.854 442.123 233.685 460.574 442.661 942.68 855.494 843.428 197.726 460.574 442.661 389.493 197.726 399.767 500.018 877.678 827.16 917.917 262.848 399.767 500.018 466.002 262.848 364.528 377.66 795.249 807.736 765.658 136.92 364.528 377.66 361.158 136.92 417.694 417.589 800.779 845.329 901.152 227.608 417.694 417.589 446.578 227.608 335.036 383.19 725.112 740.568 771.685 190.086 335.036 383.19 398.752 190.086 359.101 341.922 765.831 763.777 730.882 144.95 359.101 341.922 341.816 144.95 390.82 423.909 857.23 852.952 818.748 214.15 390.82 423.909 421.961 214.15 343.113 433.321 760.981 774.056 879.091 176.67 343.113 433.321 430.991 176.67 326.535 327.66 730.254 713.599 733.262 166.443 326.535 327.66 343.065 166.443 420.092 402.593 861.277 797.188 731.357 160.092 420.092 402.593 370.534 160.092 467.02 458.684 837.319 830.813 788.273 259.999 467.02 458.684 426.654 259.999 387.899 378.635 659.343 777.355 745.95 207.021 387.899 378.635 404.159 207.021 180.878 280.708 280.708 373.196 704.925 180.878 180.878 280.708 373.196 180.878 875.754 389.718 771.166 706.187 337.111 423.735 389.718 187.586 337.111 187.586 1100.62 918.331 880.894 508.843 486.036 434.055 236.149 1063.89 935.593 1023.36 478.66 614.587 484.275 272.694 990.471 995.708 936.504 502.192 449.303 451.318 205.967 964.075 1034.47 1064.54 541.584 541.167 544.39 296.225 930.296 1032.2 925.811 511.975 422.907 490.084 245.359 945.808 1023.04 996.678 507.916 507.388 542.115 266.617 891.535 954.195 899.66 478.665 438.419 480.924 241.299 1008.88 954.184 932.461 502.098 453.116 473.27 237.366 1052.18 896.383 1016.42 489.533 555.768 480.914 264.732 931.447 813.694 847.204 415.406 496.416 415.47 224.801 834.328 804.82 867.99 377.338 435.031 398.224 190.605 839.42 849.286 875.623 386.726 399.297 406.596 186.733 779.729 861.93 924.074 391.934 440.123 442.69 199.993 756.202 792.986 848.917 388.216 339.606 419.239 191.941 843.614 822.48 811.395 399.557 416.596 373.747 196.275 829.543 902.619 882.806 415.878 427.018 448.733 203.282 828.774 866.729 921.433 421.034 402.525 453.886 212.595 827.015 829.798 842.82 400.205 426.249 412.843 208.439 818.665 780.915 835.515 394.92 400.766 416.956 191.766 805.897 765.566 781.171 427.392 417.899 363.96 203.154 871.561 812.67 769.933 443.208 387.998 401.606 224.238 872.058 795.356 821.969 427.636 483.563 411.064 218.97 777.455 777.788 800.425 405.533 388.495 384.292 208.666 783.799 795.034 790.1 404.677 388.96 393.496 196.866 840.609 861.344 798.041 462.132 394.839 401.538 207.81 851.371 883.112 839.173 430.943 445.769 459.806 254.321 734.365 768.938 792.06 387.063 405.601 423.305 176.622 658.353 703.415 653.405 377.096 328.764 345.632 210.442 696.904 763.805 655.176 363.793 329.59 357.783 166.655 791.532 782.147 796.392 389.456 367.314 406.023 197.139 424.217 376.124 782.956 192.317 424.217 376.124 192.317 711.327 316.469 709.332 757.981 339.728 347.431 316.469 149.525 339.728 149.525 803.636 772.681 791.769 409.488 394.858 369.604 197.906 895.978 837.222 821.492 456.933 408.778 403.077 211.582 1010.57 896.886 931.425 493.515 487.2 434.145 245.351 1026.28 855.17 988.328 492.89 523.373 462.741 248.164 992.193 871.593 852.219 520.223 502.904 392.429 244.725 950.53 904.945 922.222 515.123 489.289 479.164 275.498 940.586 897.361 894.848 475.53 461.241 425.781 239.625 939.993 888.038 951.654 452.086 479.345 471.58 235.904 811.435 823.155 791.529 406.85 460.647 416.458 216.182 783.747 756.361 822.56 398.287 350.788 406.697 190.668 909.285 780.117 814.814 427.482 432.959 349.664 207.619 960.276 887.265 873.894 462.561 476.326 430.452 219.863 993.261 903.014 924.281 469.996 483.951 456.813 242.698 904.11 780.405 969.166 404.77 509.31 446.201 227.298 850.587 811.131 810.184 422.923 394.8 334.204 177.472 974.696 924.914 825.678 486.741 455.788 476.927 245.451 935.479 887.57 891.414 445.694 518.908 447.986 241.291 851.32 926.411 844.844 429.593 416.571 439.584 204.404 798.02 836.962 889.838 385.995 434.748 486.827 225.19 745.207 747.885 784.863 338.173 363.272 350.135 160.806 720.341 740.518 838.807 369.462 381.935 397.75 177.368 750.335 715.61 732.552 367.72 338.405 342.768 192.094 813.07 833.986 858.056 372.256 411.929 372.842 175.626 804.341 849.209 823.794 390.357 401.14 461.145 196.63 796.605 744.519 814.995 399.212 403.201 388.064 193.728 779.862 792.209 703.026 452.169 393.404 356.454 205.485 711.1 714.92 777.243 381.874 386.459 435.755 246.684 650.227 673.119 630.164 326.318 324.641 279.165 135.19 754.663 788.069 726.545 400.012 325.586 393.955 191.128 787.816 746.309 839.825 392.691 429.077 394.114 208.884 358.739 352.195 726.688 183.807 358.739 352.195 183.807 838.424 441.513 781.12 882.338 411.265 361.901 441.513 190.203 411.265 190.203 809.625 784.621 786.755 363.193 396.911 369.855 171.698 856.938 852.83 779.129 380.289 412.714 414.766 191.495 909.18 903.917 848.058 403.371 444.225 438.064 188.794 814.271 765.185 930.298 362.28 464.956 465.853 214.577 782.248 638.382 641.603 351.37 349.316 299.332 147.704 866.539 756.964 807.853 389.822 432.932 339.05 203.666 905.916 859.328 859.473 421.831 433.607 417.913 186.155 803.19 836.401 895.342 435.952 472.309 441.414 235.676 802.655 785.146 758.845 416.305 330.882 394.987 200.276 853.628 703.085 900.547 358.073 471.773 390.159 216.029 779.423 655.02 724.712 352.635 381.855 312.926 142.045 837.899 804.672 740.991 424.704 397.569 342.094 210.59 900.187 890.371 953.773 433.018 440.331 462.577 214.115 875.24 756.473 829.486 375.635 459.856 427.794 218.903 785.275 768.887 793.058 388.208 415.384 328.68 156.732 742.397 834.306 745.892 438.173 369.891 440.208 231.477 800.779 872.319 706.953 441.876 372.506 394.098 206.696 883.362 912.425 914.887 496.818 428.273 478.221 235.18 876.68 881.072 869.181 450.967 455.089 434.204 261.638 878.463 827.297 934.777 409.712 421.591 446.868 189.329 851.018 750.028 818.735 371.056 456.872 380.429 220.382 840.274 693.457 879.273 347.889 394.147 369.599 150.674 868.781 770.137 771.273 461.731 446.127 323.858 197.216 834.448 799.502 795.066 458.852 422.654 446.279 264.515 721.416 674.392 766.568 345.306 411.794 353.223 194.337 700.407 696.569 719.319 340.041 309.622 321.169 150.97 696.307 783.783 822.585 333.045 390.785 375.4 189.071 706.482 818.662 727.811 346.801 305.523 408.382 143.974 811.707 738.836 780.41 388.057 400.959 410.28 202.827 778.697 692.978 711.64 353.618 410.748 328.556 185.23 367.949 364.421 778.198 168.388 367.949 364.421 168.388 830.669 440.826 852.184 853.384 399.893 419.22 440.826 221.063 399.893 221.063 756.258 876.2 898.51 421.428 389.843 452.291 198.157 770.249 901.714 754.952 472.541 366.415 423.909 223.271 869.176 968.107 874.263 500.546 403.834 477.806 249.27 757.63 876.463 940.93 402.905 465.342 490.302 251.276 667.208 709.644 700.466 287.012 292.288 386.162 151.628 800.786 765.295 857.558 367.142 374.92 323.482 135.384 848.899 783.172 902.248 437.497 425.866 441.813 231.758 850.997 736.885 774.968 400.449 423.034 341.359 205.738 856.738 739.397 778.519 368.842 427.964 395.526 194.711 771.631 758.471 825.866 345.012 428.774 343.871 174.131 686.28 740.348 812.854 302.386 342.857 414.599 170.881 856.864 752.064 766.781 379.967 343.422 325.749 131.505 883.072 843.81 911.464 457.353 513.442 426.315 248.463 747.304 744.587 740.853 380.838 369.63 417.495 208.891 753.676 776.364 736.91 380.679 377.674 327.091 171.948 710.448 918.761 812.325 396.133 376.002 449.273 208.731 821.061 893.827 824.312 430.443 334.447 469.488 187.402 900.706 821.104 885.644 415.607 486.614 424.339 243.041 927.277 842.142 800.752 430.105 414.091 396.764 172.566 875.049 893.047 953.895 417.585 513.186 445.378 257.538 846.989 874.075 856.453 378.971 361.863 447.669 160.047 810.272 771.049 907.463 345.568 485.126 426.406 218.925 697.558 697.68 752.6 308.406 325.146 344.643 126.643 727.186 764.457 760.004 340.65 372.412 353.037 181.764 764.471 737.597 776.951 329.086 354.774 411.42 158.886 841.497 652.362 801.416 356.529 409.697 326.177 170.199 854.088 747.679 758.897 450.737 431.8 326.185 186.329 801.739 842.886 790.405 471.861 422.288 421.493 264.408 680.343 752.341 811.388 350.779 379.451 421.392 207.453 711.141 694.176 690.617 339.36 300.892 330.948 143.326 410.249 363.228 761.302 196.034 410.249 363.228 196.034 921.225 412.559 814.486 784.447 366.92 432.965 412.559 178.831 366.92 178.831 897.203 896.168 922.177 454.772 508.667 447.565 254.134 858.965 873.648 940.162 429.173 388.537 448.602 200.637 946.016 901.307 873.816 467.561 470.429 425.045 228.536 883.766 916.237 965.147 473.558 475.588 476.262 239.025 890.816 918.572 840.456 422.631 408.178 439.975 234.533 959.02 880.492 1005.32 398.154 482.638 478.597 188.098 828.317 748.477 932.904 345.676 476.383 401.895 210.055 702.49 797.657 817.071 336.436 351.934 346.582 135.621 747.648 790.107 822.808 370.555 350.556 451.076 200.815 867.089 757.283 844.953 413.459 397.092 339.032 169.74 893.355 776.774 835.408 437.962 469.997 418.252 243.718 821.381 717.123 814.251 372.096 423.359 358.522 194.244 769.246 828.043 737.277 386.457 398.022 358.601 177.852 730.459 844.619 839.128 363.748 371.223 469.442 208.605 795.559 849.117 749.445 395.685 359.236 375.177 155.143 926.189 968.662 853.498 522.628 436.323 473.94 240.541 888.896 876.78 944.6 463.385 489.866 494.721 282.086 785.691 817.008 799.24 405.497 399.03 382.059 181.298 827.37 787.923 781.218 412.038 386.661 434.95 224.198 935.299 820.254 901.987 475.462 440.709 352.973 187.839 916.927 978.997 842.165 495.104 494.59 467.281 287.622 849.791 983.374 951.443 425.481 422.337 511.716 207.481 815.046 837.965 859.79 389.273 427.454 471.658 218 809.769 742.939 833.873 423.807 387.592 366.307 171.274 813.896 650.979 784.426 408.511 422.177 376.632 252.533 718.816 616.109 674.709 295.833 391.719 274.347 155.977 695.214 640.909 791.811 296.941 327.097 341.763 139.856 800.054 691.456 694.112 371.025 368.117 299.146 157.085 821.662 763.416 773.779 401.561 431.937 392.31 213.939 740.778 729.321 743.265 354.816 389.725 371.106 187.622 351.054 358.215 739.923 167.194 351.054 358.215 167.194 785.398 371.888 830.041 807.547 436.548 381.521 371.888 188.09 436.548 188.09 965.136 889.31 844.107 441.396 413.51 393.492 193.431 955.013 936.187 1008.92 444.475 551.626 495.817 247.965 892.946 938.377 934.143 433.746 403.387 440.37 196.51 921.836 902.53 950.329 442.678 489.559 498.007 237.237 954.962 1025.66 884.102 495.94 432.278 404.523 205.442 979.206 1052.35 1053.65 482.339 522.685 621.135 290.499 921.659 901.298 938.772 402.801 456.522 431.214 191.84 937.389 922.999 864.782 461.222 465.137 470.085 210.961 920.113 782.984 899.788 419.552 472.252 452.914 250.261 813.272 746.184 869.367 343.825 447.861 330.07 169.291 756.303 799.631 850.796 338.811 365.411 416.115 174.533 730.147 777.438 902.271 345.027 390.892 383.516 164.278 807.16 877.833 797.52 441.586 339.255 393.922 180.749 858.114 899.174 914.924 480.87 467.905 483.912 260.837 807.383 870.565 864.288 453.432 390.209 415.263 220.033 871.909 956.007 873.711 446.034 417.175 455.302 233.399 854.944 972.68 960.651 413.395 454.734 500.705 212.635 794.767 821.928 916.264 411.512 400.21 471.975 200.76 855.836 671.867 661.252 375.885 394.557 349.953 210.751 808.854 754.877 776.569 344.792 461.279 321.913 165.134 876.68 902.031 855.133 483.893 347.575 432.964 179.658 961.441 1011.59 918.485 557.893 529.105 469.067 304.234 878.617 920.655 960.509 448.692 432.336 542.524 253.659 808.531 682.013 903.692 319.132 446.281 378.131 195.033 645.24 576.968 744.193 242.468 362.25 303.882 124.099 747.704 663.474 669.967 320.276 282.99 273.086 118.37 790.709 724.252 868.738 343.968 464.714 390.388 201.907 667.837 712.495 680.846 320.432 325.995 333.864 142.061 695.383 739.807 726.883 361.855 341.843 378.631 178.371 742.41 741.418 718.057 374.505 353.54 361.176 183.484 388.87 380.242 753.692 191.021 388.87 380.242 191.021 866.256 435.659 448.52 435.659 248.459 448.52 435.659 248.459 248.459 248.459 887.891 447.914 430.597 447.914 430.597 200.061 200.061 988.05 491.713 457.294 491.713 457.294 247.853 247.853 991.526 504.631 530.756 504.631 530.756 243.86 243.86 912.595 459.852 460.771 459.852 460.771 260.771 260.771 982.794 529.717 451.824 529.717 451.824 199.081 199.081 1013.22 570.01 530.97 570.01 530.97 330.636 330.636 881.896 498.497 482.25 498.497 482.25 239.374 239.374 827.181 461.777 399.645 461.777 399.645 259.123 259.123 849.042 363.432 427.535 363.432 427.535 202.654 202.654 906.891 402.359 421.506 402.359 421.506 160.778 160.778 996.763 460.819 485.385 460.819 485.385 241.581 241.581 969.643 432.411 511.378 432.411 511.378 219.238 219.238 905.284 436.248 458.264 436.248 458.264 213.173 213.173 921.098 418.304 447.019 418.304 447.019 223.075 223.075 930.616 417.133 474.079 417.133 474.079 195.229 195.229 962.453 509.973 456.536 509.973 456.536 221.903 221.903 1021.97 559.285 505.917 559.285 505.917 288.07 288.07 782.749 410.416 516.054 410.416 516.054 271.214 271.214 581.985 295.981 266.695 295.981 266.695 139.202 139.202 822.848 410.085 315.29 410.085 315.29 156.779 156.779 896.938 418.138 507.558 418.138 507.558 253.306 253.306 917.553 453.698 389.38 453.698 389.38 164.833 164.833 985.584 471.963 528.173 471.963 528.173 288.866 288.866 839.354 362.881 457.411 362.881 457.411 183.097 183.097 768.921 334.5 381.944 334.5 381.944 179.783 179.783 791.002 343.198 386.977 343.198 386.977 154.717 154.717 758.876 380.284 404.024 380.284 404.024 188.481 188.481 739.892 392.063 354.852 392.063 354.852 191.803 191.803 749.557 377.952 385.04 377.952 385.04 200.26 200.26 729.339 366.914 364.517 366.914 364.517 177.692 177.692 364.822 189.221 364.822 189.221 364.822 189.221 189.221 501.586 579.91 259.756 1060.62 579.91 953.605 950.742 461.888 259.756 501.586 579.91 259.756 461.888 259.756 483.824 480.705 999.775 1075.6 974.069 241.83 483.824 480.705 491.717 241.83 476.757 519.069 1040.39 1061.99 1143.8 241.995 476.757 519.069 583.888 241.995 514.767 521.325 1045.15 1003.05 986.579 234.763 514.767 521.325 478.099 234.763 519.843 523.829 975.896 942.334 998.232 280.004 519.843 523.829 524.947 280.004 494.326 452.066 969.397 912.646 836.242 239.838 494.326 452.066 417.387 239.838 493.16 517.33 985.402 931.052 939.622 254.488 493.16 517.33 495.259 254.488 436.838 468.071 902.298 849.708 860.031 238.672 436.838 468.071 435.793 238.672 465.545 434.227 936.732 972.331 921.114 198.166 465.545 434.227 413.915 198.166 478.108 502.506 986.252 1040.76 1010.21 267.38 478.108 502.506 558.416 267.38 449.665 483.747 928.182 965.706 972.353 210.729 449.665 483.747 482.344 210.729 439.733 444.436 861.222 896.723 887.876 238.936 439.733 444.436 483.363 238.936 417.144 416.786 833.072 869.839 785.915 200.797 417.144 416.786 413.361 200.797 464.387 416.286 887.005 852.182 855.976 216.348 464.387 416.286 456.478 216.348 456.089 470.719 918.26 824.075 861.148 248.039 456.089 470.719 395.704 248.039 442.547 447.54 919.407 886.603 899.273 208.05 442.547 447.54 428.37 208.05 400.768 471.867 790.952 814.434 948.929 234.497 400.768 471.867 458.233 234.497 335.441 319.085 746.428 743.18 686.673 166.271 335.441 319.085 356.201 166.271 414.104 427.343 872.252 840.915 896.849 169.169 414.104 427.343 386.979 169.169 482.106 444.909 967.808 905.851 876.467 244.935 482.106 444.909 453.935 244.935 477.911 522.899 964.862 856.415 939.654 237.171 477.911 522.899 451.916 237.171 430.721 441.963 806.046 859.074 826.712 240.74 430.721 441.963 404.5 240.74 383.085 364.083 720.232 827.508 856.435 189.981 383.085 364.083 454.574 189.981 390.076 356.149 713.909 761.999 754.588 193.104 390.076 356.149 372.933 193.104 406.73 357.761 842.688 785.853 728.242 196.972 406.73 357.761 389.066 196.972 466.41 484.927 961.433 844.887 824.155 209.758 466.41 484.927 396.787 209.758 417.869 476.506 876.477 838.297 884.245 256.652 417.869 476.506 448.1 256.652 403.718 399.971 825.412 751.02 808.78 161.217 403.718 399.971 390.197 161.217 441.185 425.441 794.763 722.442 738.974 242.501 441.185 425.441 360.823 242.501 370.299 369.322 750.452 703.41 777.5 198.684 370.299 369.322 361.619 198.684 271.444 381.13 644.79 673.52 754.531 171.615 271.444 381.13 341.791 171.615 99.8295 263.66 263.66 331.729 649.634 99.8295 99.8295 263.66 331.729 99.8295 864.196 370.832 815.915 772.113 369.076 452.019 370.832 202.132 369.076 202.132 1118.09 985.928 945.632 591.781 493.364 446.839 249.887 1089.98 1024.28 1015.1 585.23 624.727 539.09 341.894 939.658 1005.34 953.332 488.278 465.255 485.185 243.336 858.578 955.878 1002.7 422.491 474.403 520.151 244.942 806.467 890.29 836.588 418.32 384.176 435.727 177.549 814.251 873.299 839.801 437.892 422.292 454.563 240.771 878.847 877.927 786.089 412.87 391.96 418.736 197.121 994.591 994.693 914.767 506.786 486.888 459.191 215.75 996.31 967.236 1014.08 562.651 507.704 535.502 291.036 932.046 901.5 845.882 516.041 488.606 431.734 271.615 812.568 938.793 860.878 456.99 443.44 469.766 244.426 808.819 950.41 892.436 452.694 369.128 469.027 212.564 830.12 911.061 885.124 387.796 439.691 481.383 240.13 842.162 867.326 880.649 367.986 390.429 429.678 147.665 928.795 871.721 897.577 444.056 451.733 437.648 220.32 844.65 901.62 925.442 413.665 477.062 434.073 223.736 837.094 897.525 825.604 407.74 367.589 467.547 189.93 901.063 848.537 928.677 426.81 469.505 429.978 217.81 848.312 835.77 842.518 423.745 431.558 418.559 209 801.504 785.538 835.959 378.504 416.755 417.211 214.745 877.101 779.232 800.314 428.353 384.749 368.327 163.76 890.792 827.037 800.469 444.423 492.352 410.905 264.593 768.921 812.737 836.832 371.923 398.44 416.132 179.829 709.71 793.107 837.151 379.122 370.481 396.604 192.093 746.968 775.869 730.572 378.477 339.228 396.503 187.029 816.549 748.121 815.686 420.428 407.74 379.367 191.448 722.342 676.527 795.959 347.302 408.81 368.755 228.98 721.711 605.166 780.648 281.257 313.533 307.773 118.322 781.579 687.762 732.705 333.111 408.178 297.393 162.935 759.375 797.201 737.041 402.076 373.401 390.369 170.176 385.974 406.832 771.303 231.9 385.974 406.832 231.9 853.55 401.281 840.418 837.206 418.253 363.895 401.281 166.943 418.253 166.943 842.642 840.58 873.108 394.148 452.268 422.165 196.952 878.452 915.695 781.367 439.045 390.374 418.415 197.196 1016.38 1022.87 975.706 517.058 488.078 497.28 241.849 980.714 985.378 970.949 533.387 528.302 525.587 275.208 869.921 902.848 871.162 471.97 452.412 459.79 258.178 811.639 912.125 861.092 435.407 417.509 443.058 213.792 822.009 949.141 835.331 465.057 394.13 469.067 221.615 934.251 855.145 840.707 487.907 427.879 480.074 243.441 863.648 790.935 820.328 404.585 506.372 375.071 244.465 774.715 881.013 777.968 385.459 357.276 415.864 160.119 940.746 908.591 869.178 481.803 417.439 465.149 225.34 968.741 910.911 943.207 497.716 523.308 443.442 256.463 935.653 990.434 910.083 523.266 445.433 467.469 241.253 936.064 998.945 929.513 499.34 490.22 522.965 282.013 894.224 824.731 877.967 427.665 445.844 475.98 217.328 906.396 792.179 789.089 487.954 448.38 348.751 210.337 917.187 848.688 817.936 489.785 458.016 443.428 277.617 870.131 808.271 884.347 421.726 459.171 405.26 212.168 830.165 837.738 758.243 412.025 410.96 403.01 209.559 834.77 875.785 884.862 407.034 419.205 434.728 202.466 723.681 830.841 865.89 350.879 415.565 441.057 204.567 746.509 874.999 740.031 382.615 308.117 389.784 146.311 905.062 847.864 904.814 440.814 438.392 485.215 236.303 858.014 789.58 807.479 413.984 466.67 362.649 204.511 799.29 773.502 789.246 397.392 391.344 426.931 209.474 795.096 688.06 834.289 327.694 407.947 346.571 187.919 854.265 692.487 804.898 329.225 387.15 341.488 139.775 791.642 683.59 848.112 323.909 467.116 350.999 189.451 688.167 778.302 759.338 354.651 324.527 332.591 134.458 748.969 820.204 734.39 395.125 363.641 445.711 220.193 385.329 374.493 706.539 174.932 385.329 374.493 174.932 856.763 435.924 887.972 848.563 471.073 476.523 435.924 251.31 471.073 251.31 811.833 781.262 800.559 446.432 420.839 416.899 225.213 878.622 774.357 727.699 476.649 390.993 364.363 221.219 930.275 874.439 884.125 505.809 487.628 409.994 255.43 861.397 806.716 872.416 451.991 442.647 464.445 250.379 862.333 811.074 729.94 430.878 418.75 342.271 201.612 884.784 910.362 919.519 476.718 443.583 468.803 229.266 854.029 895.487 829.826 484.085 441.201 441.559 247.452 726.784 817.786 884.901 367.238 412.828 453.928 236.633 734.649 874.246 832.998 386.35 313.956 363.858 130.605 872.432 922.173 889.923 495.554 420.693 510.388 255.744 871.639 810.682 848.518 426.789 451.74 411.786 239.81 884.548 890.092 837.96 413.195 419.899 398.897 186.979 903.943 892.887 973.21 467.169 464.649 491.195 226.216 871.417 866.07 812.045 499.605 439.294 401.692 240.953 772.832 770.063 839.584 397.066 432.123 464.378 258.652 700.629 618.539 722.057 304.224 340.709 305.684 138.414 785.096 749.521 770.91 358.903 359.92 312.855 165.811 772.458 871.643 825.56 386.544 425.176 436.666 193.093 812.94 922.886 824.505 425.713 347.283 434.977 193.452 915.983 926.215 951.725 468.751 465.658 487.909 232.262 882.24 947.98 943.552 479.962 450.325 438.306 236.489 898.337 957.088 901.738 492.384 431.915 509.674 243.473 807.232 796.201 855.385 407.05 466.422 447.414 248.911 738.712 762.132 764.493 375.596 340.81 348.787 158.138 824.245 811.495 794.962 376.11 397.902 413.345 217.457 844.091 845.334 902.899 360.366 426.343 398.15 158.653 798.745 766.613 829.614 363.262 417.749 447.184 201.714 815.808 689.559 734.775 359.681 380.997 319.428 161.548 805.56 753.214 808.454 423.65 434.811 370.13 198.133 691.96 796.86 758.26 425.079 370.749 383.084 225.518 321.21 413.776 707.411 199.561 321.21 413.776 199.561 792.358 412.639 899.71 851.497 453.491 411.449 412.639 219.763 453.491 219.763 716.425 777.262 847.984 334.83 379.719 446.219 191.686 733.202 727.5 735.044 297.708 336.706 331.043 143.144 826.265 847.086 865.115 368.63 396.496 396.457 154.564 740.959 764.933 877.987 354.725 429.769 450.629 214.066 787.126 848.38 723.431 380.196 311.19 314.304 140.659 864.561 994.511 978.871 433.644 475.936 534.076 239.537 860.698 894.044 848.081 411.403 388.625 460.435 194.107 991.114 816.602 958.32 450.548 472.073 433.609 217.295 988.273 864.988 958.978 487.896 519.042 382.994 233.253 866.009 880.249 876.246 426.619 469.231 481.995 254.643 814.839 839.287 842.698 383.894 396.778 398.254 171.976 926.622 926.182 868.481 476.897 418.061 441.032 211.918 881.312 808.507 921.611 425.719 508.561 485.15 264.979 780.213 733.176 808.486 366.465 372.751 323.357 160.739 788.81 772.871 807.42 372.997 407.461 409.819 205.726 792.338 717.876 816.197 314.315 381.349 363.052 167.27 811.374 816.129 830.354 390.618 410.99 354.824 147.045 877.607 865.293 848.28 485.098 400.385 461.305 243.573 963.29 912.505 822.149 497.173 477.222 403.988 241.525 979.294 917.301 907.776 457.464 486.067 508.517 255.647 963.05 889.841 968.267 468.018 493.227 408.784 201.817 858.786 889.014 830.312 464.704 469.823 481.057 266.201 812.646 814.924 843.876 389.151 388.963 407.957 198.503 820.742 772.498 846.498 386.536 423.683 406.967 190.648 873.616 840.77 718.89 435.385 397.06 365.531 195.888 888.422 907.951 938.681 484.968 476.556 475.24 239.497 765.644 801.623 755.06 403.351 411.865 432.712 245.471 727.421 758.907 743.599 329.878 353.778 368.912 157.88 761.154 749.664 867.219 329.564 373.643 389.995 171.998 773.712 757.743 788.716 371.781 387.511 359.669 157.566 386.201 398.074 741.677 214.215 386.201 398.074 214.215 907.122 438.858 892.138 858.708 417.526 488.26 438.858 233.728 417.526 233.728 866.603 966.172 949.011 442.432 468.264 474.612 254.532 866.957 940.33 914.121 429.792 398.338 491.56 187.899 916.837 937.655 892.61 478.456 468.619 448.77 241.893 860.459 889.366 924.071 410.208 448.218 488.885 236.563 915.175 927.206 858.504 468.184 412.24 400.481 173.645 962.391 1057.73 938.684 560.867 502.935 526.725 294.539 945.704 1001.5 951.368 482.641 459.456 531.009 266.327 926.184 842.222 969.605 366.054 486.248 470.489 216.314 846.951 877.654 893.022 377.092 439.936 371.732 149.741 852.934 923.077 817.272 453.63 407.015 505.921 227.352 896.339 872.885 815.494 455.393 445.919 417.156 226.278 863.47 834.405 880.877 449.285 450.42 455.729 229.115 848.785 748.363 816.606 382.788 413.051 378.676 220.17 835.693 743.954 859.39 366.711 435.734 369.686 162.618 834.807 753.826 750.699 399.874 399.958 374.268 204.093 854.213 829.436 862.972 403.561 434.848 379.558 195.782 867.26 867.06 892.292 425.511 419.365 449.878 207.779 792.822 763.45 896.528 380.194 447.895 417.181 217.732 766.635 895.283 771.014 415.332 344.927 346.268 162.463 896.749 923.898 951.576 459.837 421.709 549.014 252.869 835.529 814.611 866.963 421.824 475.04 374.884 206.968 815.402 827.859 842.822 424.31 360.489 439.727 214.856 877.728 855.698 913.023 425.773 454.913 388.132 209.454 744.646 875.36 921.369 385.962 422.815 467.566 216.318 783.955 808.157 751.557 405.385 321.83 407.794 169.643 805.319 850.411 836.927 422.983 462.124 400.362 235.742 733.015 845.014 782.912 398.272 343.194 450.048 187.241 883.397 776.435 806.433 429.029 389.821 394.965 211.031 894.782 753.628 874.159 420.101 493.577 381.469 217.998 756.682 753.868 722.59 385.963 401.206 372.159 202.103 355.476 381.709 781.895 183.86 355.476 381.709 183.86 900.596 419.849 821.613 819.456 370.998 403.878 419.849 183.798 370.998 183.798 996.529 963.718 963.139 523.74 480.747 450.615 220.079 939.774 1006.88 962.469 510.538 515.783 513.103 303.661 899.844 946.095 1019.67 459.199 423.991 493.772 206.877 922.117 931.901 887.645 479.158 475.853 452.322 252.322 882.013 912.099 970.072 459.022 446.264 479.579 226.836 927.66 940.078 890.726 496.868 435.749 432.52 232.186 975.268 902.256 902.707 518.857 491.912 507.558 264.682 936.442 841.571 848.265 476.167 483.357 394.698 254.175 863.343 986.171 936.683 500.561 453.085 446.873 221.992 779.833 973.979 901.599 469.447 410.258 539.297 278.57 800.032 953.436 866.456 417.492 369.575 434.681 190.878 834.013 922.352 903.384 385.12 430.457 518.754 226.614 827.211 834.61 843.902 365.574 403.556 403.598 158.506 774.396 880.037 879.786 377.243 423.656 431.012 207.068 778.864 867.434 826.691 353.951 350.74 449.025 170.175 901.051 878.354 900.834 425.875 428.124 418.409 183.776 921.56 904.235 960.609 441.548 472.927 459.945 242.099 874.72 755.589 877.111 383.255 448.633 444.29 199.45 955.954 765.955 746.05 479.951 426.087 311.299 183.806 921.79 876.824 924.084 464.061 529.867 454.656 296.145 874.255 871.587 804.817 392.787 391.923 422.169 167.916 940.443 867.403 933.237 403.548 482.333 449.418 224.871 956.664 943.546 928.424 429.925 458.111 417.985 178.677 928.281 965.872 984.877 489.399 498.554 525.561 251.248 804.529 837.192 823.894 402.771 429.727 440.311 238.151 814.52 875.231 853.779 427.428 374.802 396.881 164.62 856.33 825.333 815.006 446.741 439.718 478.35 262.807 797.194 695.234 813.408 347.406 416.612 346.983 183.934 701.967 705.132 768.735 333.528 380.582 348.252 163.472 747.803 730.331 672.226 367.905 321.384 356.881 170.056 426.419 373.45 784.567 197.849 426.419 373.45 197.849 881.999 399.607 417.736 399.607 187.2 417.736 399.607 187.2 187.2 187.2 929.078 439.978 482.392 439.978 482.392 230.536 230.536 1042.36 496.337 446.686 496.337 446.686 209.442 209.442 1007.47 486.895 595.675 486.895 595.675 286.895 286.895 935.6 452.743 411.791 452.743 411.791 200 200 978.786 453.077 523.808 453.077 523.808 252.743 252.743 865.773 443.21 454.978 443.21 454.978 200.334 200.334 775.703 383.398 410.795 383.398 410.795 242.876 242.876 848.505 365.404 364.908 365.404 364.908 140.522 140.522 974.939 485.609 483.598 485.609 483.598 224.882 224.882 988.222 504.531 491.341 504.531 491.341 260.728 260.728 969.808 535.944 496.881 535.944 496.881 243.803 243.803 913.273 537.232 472.927 537.232 472.927 292.14 292.14 896.476 469.036 440.346 469.036 440.346 245.092 245.092 932.08 502.794 456.13 502.794 456.13 223.944 223.944 948.661 513.483 475.95 513.483 475.95 278.85 278.85 960.392 452.48 472.71 452.48 472.71 234.633 234.633 916.16 462.686 487.682 462.686 487.682 217.846 217.846 748.441 372.333 428.478 372.333 428.478 244.84 244.84 714.18 286.004 319.963 286.004 319.963 127.493 127.493 807.111 412.763 394.217 412.763 394.217 158.511 158.511 863.798 478.8 412.894 478.8 412.894 254.253 254.253 921.217 463.855 450.904 463.855 450.904 224.547 224.547 956.637 513.621 470.313 513.621 470.313 239.308 239.308 880.49 476.474 486.324 476.474 486.324 274.314 274.314 873.143 434.421 394.167 434.421 394.167 202.16 202.16 854.265 447.804 478.977 447.804 478.977 232.261 232.261 772.084 378.592 375.288 378.592 375.288 215.543 215.543 784.948 347.829 396.796 347.829 396.796 163.049 163.049 738.994 371.604 388.152 371.604 388.152 184.78 184.78 708.99 362.425 350.842 362.425 350.842 186.825 186.825 358.148 175.601 358.148 175.601 358.148 175.601 175.601 559.03 528.814 320.154 1056.4 528.814 971.206 917.055 488.854 320.154 559.03 528.814 320.154 488.854 320.154 515.95 527.591 1129.22 1042.26 1025.89 238.876 515.95 527.591 482.353 238.876 563.637 601.629 1109.44 1068.39 1136.06 277.075 563.637 601.629 559.908 277.075 530.387 507.806 963.309 981.766 931.915 286.562 530.387 507.806 508.481 286.562 456.053 455.503 898.557 892.141 912.392 243.825 456.053 455.503 473.286 243.825 475.071 443.054 869.053 863.218 841.421 212.228 475.071 443.054 418.855 212.228 492.242 426 929.689 868.601 811.238 262.843 492.242 426 444.363 262.843 465.46 503.69 996.826 931.437 913.086 229.399 465.46 503.69 424.238 229.399 471.187 493.137 925.23 958.992 939.955 236.061 471.187 493.137 507.199 236.061 508.144 432.094 922.426 941.803 845.539 235.126 508.144 432.094 451.793 235.126 478.518 490.333 981.877 894.522 948.658 273.018 478.518 490.333 490.009 273.018 421.489 491.545 908.75 777.067 903.481 205.5 421.489 491.545 404.513 205.5 415.928 417.205 839.565 772.052 789.592 215.99 415.928 417.205 372.554 215.99 422.618 422.359 901.085 864.943 842.192 199.938 422.618 422.359 399.498 199.938 462.17 478.725 867.601 936.347 875.561 222.68 462.17 478.725 465.444 222.68 476.86 388.876 854.528 961.599 832.863 239.49 476.86 388.876 470.903 239.49 390.184 465.653 855.503 821.169 939.838 237.37 390.184 465.653 490.696 237.37 410.987 389.85 882.087 840.342 872.962 152.814 410.987 389.85 330.473 152.814 458.148 492.237 920.366 932.401 932.028 258.174 458.148 492.237 509.869 258.174 485.703 428.129 952.216 910.27 856.534 199.974 485.703 428.129 422.532 199.974 486.951 524.087 897.09 909.951 933.382 285.728 486.951 524.087 487.738 285.728 375.325 373.003 788.807 824.073 815.209 201.223 375.325 373.003 422.213 201.223 337.147 415.804 782.803 783.516 825.255 174.102 337.147 415.804 401.861 174.102 323.833 366.999 745.166 720.832 798.628 163.045 323.833 366.999 381.655 163.045 435.957 378.168 839.601 766.545 727.43 160.788 435.957 378.168 339.177 160.788 495.023 461.434 917.972 863.514 833.507 275.169 495.023 461.434 427.368 275.169 458.608 456.538 902.615 854.729 880.115 219.854 458.608 456.538 436.146 219.854 421.694 446.077 828.189 796.734 813.809 238.753 421.694 446.077 418.583 238.753 353.578 382.112 769.163 794.031 753.914 182.94 353.578 382.112 378.151 182.94 380.152 387.051 706.497 828.62 729.779 170.637 380.152 387.051 415.881 170.637 373.345 319.445 648.617 730.645 769.417 209.515 373.345 319.445 412.74 209.515 163.83 329.171 329.171 317.905 696.501 163.83 163.83 329.171 317.905 163.83 886.544 388.241 901.831 926.13 403.037 412.176 388.241 168.699 403.037 168.699 1032.74 974.804 924.825 526.31 498.303 498.794 243.477 958.544 944.158 934.485 504.751 534.435 476.011 282.833 880.999 950.701 865.547 451.379 424.109 468.147 221.918 855.256 883.414 923.366 436.087 456.889 482.554 229.461 783.605 786.098 843.303 388.147 398.367 400.86 206.627 794.635 752.591 809.65 376.359 385.239 385.238 181.521 856.214 822.929 813.852 465.977 409.396 367.353 194.839 860.264 934.149 860.894 487.805 446.818 455.576 271.138 871.771 892.722 905.214 433.659 413.446 478.574 216.667 870.262 805.26 924.386 416.005 458.325 414.148 216.991 784.322 814.522 817.156 355.578 411.936 391.112 199.014 792.219 827.15 848.384 356.124 372.386 423.409 156.564 816.668 854.712 869.878 442.324 419.833 403.741 199.56 840.823 910.9 783.684 474.177 396.835 450.971 242.764 918.173 951.298 894.026 484.739 443.987 459.929 231.413 957.297 849.427 884.893 430.985 474.186 491.369 253.326 922.903 856.757 830.044 429.354 483.112 358.058 177.659 868.196 922.658 877.6 474.253 439.791 498.699 251.695 837.7 842.707 850.641 424.567 428.405 423.959 222.557 851.501 850.735 801.56 423 409.295 418.748 202.01 851.657 821.551 900.52 448.748 442.206 431.987 220.99 841.08 810.263 747.219 446.369 409.451 389.564 227.759 780.892 861.246 783.567 396.998 431.629 420.7 218.61 721.336 774.616 882.662 330.587 349.263 440.547 178.388 795.651 770.389 751.032 368.491 372.073 334.07 152.199 791.31 863.524 804.971 396.121 423.578 436.319 216.291 739.535 900.08 797.44 375.04 367.733 427.205 179.83 714.53 908.187 909.541 440.454 371.802 472.875 195.21 792.699 781.984 747.678 448.468 342.728 435.312 245.243 817.301 711.143 813.946 357.299 449.971 346.672 203.225 367.33 364.471 735.423 154.074 367.33 364.471 154.074 964.412 537.889 869.895 955.748 418.952 489.655 537.889 234.338 418.952 234.338 826.573 813.895 806.922 448.495 426.522 450.943 255.317 841.488 841.378 828.162 439.406 400.05 362.952 193.178 907.914 923.788 928.563 499.322 441.438 478.426 246.228 911.413 856.733 835.735 447.327 466.477 445.362 253.093 869.348 829.406 839.154 397.951 444.936 411.371 194.234 828.868 784.298 856.672 376.232 424.411 418.035 203.718 818.532 726.897 810.536 356.952 404.457 366.263 172.514 905.844 805.89 776.504 446.344 414.076 360.633 184.438 957.828 807.362 873.702 459.063 491.768 445.257 261.906 871.281 766.134 835.544 389.256 466.061 362.105 197.157 881.218 903.794 805.53 458.944 405.22 404.029 192.099 926.043 942.379 946.008 471.025 475.998 499.765 266.845 836.894 849.162 978.752 412.388 450.045 442.614 204.18 836.888 808.535 809.799 436.724 386.849 406.548 208.207 860.747 842.325 850.757 466.56 450.039 401.987 228.516 757.64 814.846 845.216 418.442 410.708 440.338 238.043 784.741 853.595 765.348 427.402 346.933 374.508 180.399 860.044 834.319 922.575 448.405 437.808 479.087 247.004 814.501 805.367 762.857 418.14 422.236 355.232 201.401 850.58 874.967 922.729 427.736 392.265 450.134 216.739 796.083 775.08 819.856 372.803 458.314 424.833 210.997 689.706 769.847 808.116 363.894 337.768 350.247 161.805 885.336 864.43 754.734 464.248 351.938 419.6 202.089 912.358 807.145 896.021 444.029 533.399 444.83 262.159 760.353 850.033 775.857 401.898 378.959 362.315 181.87 811.1 951.128 887.991 467.403 381.394 487.718 220.028 967.446 960.523 841.988 525.04 429.707 463.41 247.375 942.689 923.861 970.878 467.733 537.739 497.113 277.665 768.925 715.426 887.212 333.516 404.95 426.747 190.069 732.068 620.725 682.707 353.844 363.975 288.679 143.447 368.093 332.046 657.507 210.397 368.093 332.046 210.397 798.259 417.859 761.149 792.706 377.49 380.24 417.859 184.614 377.49 184.614 808.511 746.995 764.583 365.4 380.4 383.659 195.626 915.237 837.466 814.08 401.972 428.112 363.336 169.774 856.384 882.101 886.841 424.466 487.126 474.13 232.198 763.476 795.64 766.228 409.406 369.258 407.971 192.268 826.478 838.385 731.894 431.455 394.218 387.669 217.138 838.339 838.983 906.344 408.067 432.26 450.716 214.317 768.507 819.24 839.823 369.945 406.079 388.267 193.749 744.362 900.112 785.055 359.546 362.428 430.973 176.195 751.418 848.676 890.201 348.299 381.935 469.14 183.351 769.794 816.268 794.296 376.878 369.484 379.536 164.948 870.321 875.795 827.275 444.85 400.31 436.732 211.93 998.718 921.078 895.187 471.354 470.011 439.063 232.92 951.658 892.368 969.53 436.774 528.707 482.014 238.433 823.669 785.559 816.809 371.812 422.951 410.353 198.341 835.226 791.579 793.38 375.766 400.718 375.206 173.471 852.924 874.428 832.885 396.404 434.508 416.373 202.295 903.182 846.949 871.732 426.192 418.416 458.054 194.11 825.387 778.422 847.035 385.914 484.766 388.894 232.083 871.085 853.344 745.432 387.227 340.621 389.528 153.831 892.006 969.062 955.903 447.231 530.464 463.815 233.396 831.889 897.31 857.67 402.278 361.542 505.246 213.836 873.143 800.035 871.545 405.953 470.347 392.063 188.442 765.418 823.677 807.75 400.182 402.796 407.971 217.51 759.52 797.323 772.812 363.116 362.622 415.706 182.671 903.495 886.365 810.637 448.135 396.898 381.617 180.445 918.879 887.178 956.614 483.725 506.598 504.749 267.69 845.42 797.776 723.123 435.484 412.281 382.429 216.035 915.4 853.671 829.553 456.127 433.139 415.347 219.449 800.994 813.5 876.392 381.91 482.262 438.324 236.679 608.146 668.811 661.299 266.88 318.732 375.176 145.231 289.414 293.635 642.812 121.649 289.414 293.635 121.649 759.03 374.847 799.771 766.97 398.006 380.909 374.847 192.876 398.006 192.876 770.152 805.766 774.154 381.595 384.183 401.765 188.033 785.684 872.659 869.1 435.494 385.969 404.001 193.562 796.685 896.016 836.21 457.635 399.715 468.658 241.932 734.646 836.485 789.483 386.234 396.97 427.358 215.703 811.76 853.921 789.485 406.93 337.676 409.127 170.531 907.827 832.441 922.986 430.917 474.083 444.795 236.399 856.371 912.358 830.814 449.295 433.743 387.646 194.518 930.893 1100.7 928.922 540.566 422.627 524.712 254.777 933.078 970.235 1033.32 500.377 508.266 575.984 285.789 851.777 838.694 808.809 439.39 424.812 394.251 214.588 852.141 871.892 879.876 430.945 426.965 444.443 224.802 865.999 863.91 836.95 449.724 425.176 427.448 206.143 834.681 921.59 785.31 455.593 440.823 436.462 243.581 786.52 882.729 847.115 413.747 393.859 485.128 212.012 791.039 850.746 779.963 415.813 392.662 397.601 201.735 851.693 928.675 790.052 478.023 398.377 453.145 214.078 815.585 862.505 857.37 420.756 453.316 475.53 263.945 767.08 805.136 763.207 392.509 362.269 386.975 156.812 830.251 817.42 721.123 466.117 404.811 418.161 235.697 921.568 958.742 827.723 521.83 425.439 399.259 230.42 897.327 908.738 962.045 495.032 496.128 559.483 291.411 806.152 785.174 719.17 394.082 401.198 349.255 203.621 815.143 875.451 883.165 423.495 404.954 435.919 190.461 823.929 792.89 860.73 434.206 410.19 439.532 233.035 863.755 816.8 759.395 438.231 413.739 353.359 201.172 760.858 785.789 907.854 403.453 450.016 463.441 237.059 707.256 697.035 648.169 362.293 310.842 322.348 166.395 790.544 851.911 828.45 397.543 396.414 374.687 195.898 736.697 906.272 926.541 431.59 394.13 477.224 201.645 695.965 772.65 832.907 401.931 342.567 429.048 229.945 353.398 343.602 723.019 171.986 353.398 343.602 171.986 782.094 392.123 915.58 836.387 441.181 418.862 392.123 205.13 441.181 205.13 873.102 896.96 921.686 424.171 389.971 474.399 213.732 919.626 866.4 927.601 437.165 483.131 422.561 210.439 829.008 879.026 864.104 438.381 436.495 443.84 226.726 844.322 893.21 851.484 450.251 392.513 435.187 211.656 900.712 869.982 874.384 446.991 451.809 458.023 238.595 845.974 832.317 876.111 401.525 448.903 411.959 208.396 903.366 919.474 786.486 463.063 397.071 420.358 193.129 1031.35 1020.4 966.265 560.13 506.295 499.116 269.934 909.051 832.64 1005.77 469.858 525.054 521.289 290.195 836.909 709.69 702.227 399.304 383.997 311.351 179.663 864.685 823.487 833.04 440.946 452.911 398.339 219.641 756.261 863.078 846.282 414.186 411.773 425.148 221.305 797.743 927.634 803.824 465.997 344.487 437.93 192.88 840.557 866.135 904.651 468.982 453.256 489.704 273.116 778.977 859.846 753.444 434.932 387.301 376.431 195.866 795.729 925.828 814.211 450.652 391.675 483.415 239.066 804.992 921.76 842.659 441.749 404.053 442.414 211.585 717.25 904.092 904.451 412.627 400.938 479.347 230.163 718.595 827.307 809.56 351.304 316.312 424.745 182.464 868.2 894.641 756.098 436.912 402.283 402.562 168.839 783.889 895.174 835.025 413.706 465.917 492.079 268.072 796.183 927.987 799.907 391.092 317.971 403.095 145.634 928.752 978.695 961.22 451.955 478.211 524.892 245.458 796.196 797.566 972.132 358.684 450.54 453.803 206.497 803.494 780.327 768.556 378.569 345.656 343.763 152.187 795.164 769.428 890.372 382.336 457.838 436.564 226.382 769.362 744.331 749.505 334.743 337.327 332.864 155.954 964.447 904.157 865.706 454.368 432.036 411.467 178.789 1022.75 843.121 982.797 474.682 532.411 492.69 275.579 859.961 750.617 792.699 370.719 490.34 350.431 199.103 369.621 400.186 818.715 171.616 369.621 400.186 171.616 975.978 444.263 960.982 909.064 448.458 496.718 444.263 236.051 448.458 236.051 976.185 961.889 1018.19 472.789 531.715 512.524 260.668 872.079 975.259 986.27 429.236 444.469 449.366 212.122 886.581 961.216 966.276 440.645 427.61 525.894 217.114 881.546 925.816 934.158 442.959 458.971 435.322 223.531 849.784 948.7 886.345 422.991 422.576 490.493 219.428 816.623 853.355 915.093 430.793 427.208 458.206 203.563 849.385 848.716 796.236 456.411 389.415 395.149 227.23 940.683 943.377 872.428 460.275 459.97 453.567 229.181 798.943 852.111 988.341 362.782 480.714 489.81 231.094 698.358 794.076 764.545 310.385 318.23 362.302 131.688 814.637 816.404 835.738 382.54 380.129 431.775 178.697 893.846 824.934 775.111 448.893 434.508 384.63 203.843 910.732 889.077 825.06 461.637 459.337 440.304 245.049 817.537 826.439 888.951 397.153 451.395 448.773 216.588 788.678 860.091 746.677 424.913 366.142 377.666 180.565 861.142 983.089 841.282 475.176 422.536 482.425 244.348 942.119 933.485 913.201 480.011 438.606 500.663 230.828 996.761 867.572 872.858 491.464 503.513 432.821 249.183 847.063 904.179 863.537 476.003 493.249 434.751 242.281 722.923 852.076 881.993 457.729 353.815 469.428 233.722 851.043 866.466 683.445 481.468 369.108 382.648 224.007 964.944 994.257 939.41 536.895 481.935 483.818 257.461 1004.6 969.755 954.571 526.739 483.009 510.439 279.433 944.492 842.898 1012.88 438.882 521.592 459.316 247.306 855.435 840.48 865.206 401.758 422.9 383.582 191.576 844.713 793.554 918.896 387.092 432.534 456.898 210.182 845.849 803.081 759.784 409.589 412.179 336.656 176.91 884.056 886.908 878.515 449.789 433.67 466.425 232.678 752.745 735.829 888.104 368.439 450.386 420.483 217.111 751.453 726.463 637.423 379.898 302.359 315.346 151.328 449.094 411.117 767.399 228.57 449.094 411.117 228.57 951.28 464.801 464.263 464.801 212.407 464.263 464.801 212.407 212.407 212.407 1028.28 489.1 486.479 489.1 486.479 251.856 251.856 1080.47 546.023 541.801 546.023 541.801 237.244 237.244 1013.85 520.571 538.666 520.571 538.666 308.78 308.78 938.957 482.857 475.187 482.857 475.187 211.791 211.791 951.655 525.709 463.77 525.709 463.77 271.065 271.065 894.706 422.563 487.885 422.563 487.885 254.643 254.643 819.279 392.305 406.82 392.305 406.82 167.919 167.919 920.086 483.102 412.458 483.102 412.458 224.386 224.386 953.942 489.329 507.627 489.329 507.627 258.716 258.716 901.925 483.691 446.315 483.691 446.315 230.614 230.614 796.212 433.864 455.61 433.864 455.61 253.077 253.077 706.325 376.041 340.603 376.041 340.603 180.787 180.787 803.279 427.44 365.723 427.44 365.723 195.255 195.255 818.091 429.286 437.556 429.286 437.556 232.185 232.185 799.28 435.178 380.535 435.178 380.535 197.101 197.101 893.34 507.912 418.746 507.912 418.746 238.077 238.077 843.94 453.473 474.595 453.473 474.595 269.835 269.835 739.634 376.108 369.345 376.108 369.345 183.638 183.638 898.467 428.176 370.289 428.176 370.289 192.47 192.47 842.516 394.347 528.178 394.347 528.178 235.706 235.706 771.812 384.998 314.337 384.998 314.337 158.641 158.641 929.038 457.363 457.475 457.363 457.475 226.357 226.357 962.852 443.016 471.563 443.016 471.563 231.006 231.006 933.595 404.016 491.289 404.016 491.289 212.01 212.01 928.668 438.722 442.306 438.722 442.306 192.006 192.006 833.967 406.462 486.362 406.462 486.362 246.716 246.716 792.451 393.492 347.605 393.492 347.605 159.745 159.745 882.563 437.119 444.845 437.119 444.845 233.747 233.747 772.782 367.39 437.718 367.39 437.718 203.372 203.372 653.369 346.565 335.064 346.565 335.064 164.018 164.018 318.305 182.548 318.305 182.548 318.305 182.548 182.548 497.375 208.659 208.659 497.375 208.659 971.742 428.201 428.201 208.659 497.375 208.659 208.659 428.201 208.659 613.27 288.716 613.27 1119.7 543.541 288.716 613.27 288.716 543.541 288.716 545.798 324.555 545.798 999.591 576.157 324.555 545.798 324.555 576.157 324.555 432.922 221.244 432.922 862.541 423.434 221.244 432.922 221.244 423.434 221.244 442.504 211.678 442.504 861.672 439.106 211.678 442.504 211.678 439.106 211.678 393.983 230.826 393.983 789.441 422.566 230.826 393.983 230.826 422.566 230.826 437.447 163.157 437.447 855.723 366.875 163.157 437.447 163.157 366.875 163.157 531.366 274.291 531.366 921.604 488.848 274.291 531.366 274.291 488.848 274.291 454.043 257.076 454.043 826.502 432.756 257.076 454.043 257.076 432.756 257.076 414.282 196.968 414.282 852.395 393.746 196.968 414.282 196.968 393.746 196.968 503.36 217.315 503.36 957.617 458.649 217.315 503.36 217.315 458.649 217.315 487.261 286.045 487.261 916.005 498.968 286.045 487.261 286.045 498.968 286.045 423.637 201.216 423.637 859.732 417.038 201.216 423.637 201.216 417.038 201.216 478.466 222.421 478.466 852.81 442.694 222.421 478.466 222.421 442.694 222.421 405.43 256.045 405.43 772.076 410.116 256.045 405.43 256.045 410.116 256.045 377.668 149.385 377.668 811.102 361.96 149.385 377.668 149.385 361.96 149.385 465.319 228.283 465.319 991.631 449.142 228.283 465.319 228.283 449.142 228.283 471.1 237.037 471.1 964.648 542.489 237.037 471.1 237.037 542.489 237.037 462.218 234.063 462.218 856.161 422.159 234.063 462.218 234.063 422.159 234.063 466.514 228.155 466.514 879.647 434.002 228.155 466.514 228.155 434.002 228.155 410.139 238.359 410.139 838.64 445.644 238.359 410.139 238.359 445.644 238.359 413.482 171.78 413.482 816.39 392.996 171.78 413.482 171.78 392.996 171.78 445.656 241.702 445.656 840.367 423.394 241.702 445.656 241.702 423.394 241.702 421.333 203.954 421.333 805.227 416.973 203.954 421.333 203.954 416.973 203.954 403.644 217.379 403.644 794.393 388.254 217.379 403.644 217.379 388.254 217.379 422.949 186.265 422.949 850.108 406.139 186.265 422.949 186.265 406.139 186.265 444.007 236.684 444.007 839.196 443.97 236.684 444.007 236.684 443.97 236.684 406.495 207.323 406.495 770.989 395.226 207.323 406.495 207.323 395.226 207.323 415.586 199.172 415.586 689.662 375.763 199.172 415.586 199.172 375.763 199.172 326.344 216.414 326.344 670.576 313.899 216.414 326.344 216.414 313.899 216.414 275.271 109.93 275.271 735.273 356.677 109.93 275.271 109.93 356.677 109.93 165.341 165.341 165.341 378.597 378.597 165.341 165.341 165.341 378.597 165.341 474.367 219.542 949.124 523.093 523.093 474.367 219.542 219.542 523.093 219.542 506.428 884.506 426.031 506.428 254.826 426.031 254.826 453.793 855.875 458.475 453.793 251.602 458.475 251.602 429.619 838.212 397.4 429.619 202.191 397.4 202.191 419.169 883.255 440.812 419.169 227.429 440.812 227.429 395.458 866.855 442.443 395.458 191.74 442.443 191.74 418.275 870.911 424.412 418.275 203.718 424.412 203.718 390.238 851.818 446.499 390.238 214.557 446.499 214.557 372.459 831.958 405.318 372.459 175.681 405.318 175.681 438.112 936.878 426.64 438.112 196.778 426.64 196.778 454.257 936.282 510.238 454.257 241.334 510.238 241.334 428.745 851.018 426.044 428.745 212.923 426.044 212.923 436.095 891.112 424.975 436.095 215.822 424.975 215.822 374.344 798.85 466.137 374.344 220.273 466.137 220.273 366.646 766.81 332.713 366.646 154.071 332.713 154.071 433.434 827.621 434.097 433.434 212.574 434.097 212.574 526.312 865.511 393.524 526.312 220.86 393.524 220.86 493.548 850.887 471.987 493.548 305.453 471.987 305.453 393.943 805.583 378.9 393.943 188.096 378.9 188.096 413.133 809.494 426.682 413.133 205.848 426.682 205.848 428.501 851.345 382.812 428.501 207.285 382.812 207.285 402.908 826.189 468.533 402.908 221.216 468.533 221.216 394.711 720.523 357.656 394.711 181.693 357.656 181.693 383.894 804.982 362.867 383.894 213.019 362.867 213.019 390.748 859.077 442.115 390.748 170.875 442.115 170.875 427.16 785.615 416.963 427.16 219.873 416.963 219.873 395.189 738.887 368.652 395.189 207.286 368.652 207.286 364.494 806.901 370.235 364.494 187.903 370.235 187.903 274.076 749.032 436.666 274.076 176.591 436.666 176.591 344.231 779.64 312.366 344.231 97.4848 312.366 97.4848 460.002 838.225 467.274 460.002 246.747 467.274 246.747 213.256 370.951 370.951 213.256 213.256 370.951 213.256 474.757 303.551 892.776 536.796 536.796 474.757 303.551 303.551 536.796 303.551 378.078 821.189 355.979 378.078 171.206 355.979 171.206 402.082 915.347 465.21 402.082 206.873 465.21 206.873 408.593 840.51 450.137 408.593 195.209 450.137 195.209 464.086 818.156 390.373 464.086 213.383 390.373 213.383 471.396 866.42 427.783 471.396 250.703 427.783 250.703 452.636 882.909 438.637 452.636 220.694 438.637 220.694 461.58 860.143 444.272 461.58 231.942 444.272 231.942 459.499 844.316 415.87 459.499 229.638 415.87 229.638 498.765 901.885 428.445 498.765 229.861 428.445 229.861 482.025 874.941 473.44 482.025 268.904 473.44 268.904 422.274 847.744 401.501 422.274 213.121 401.501 213.121 455.017 982.382 446.243 455.017 209.153 446.243 209.153 424.506 939.39 536.139 424.506 245.865 536.139 245.865 400.164 852.022 403.251 400.164 178.641 403.251 178.641 394.187 853.648 448.77 394.187 221.523 448.77 221.523 339.198 795.718 404.878 339.198 172.664 404.878 172.664 357.339 834.328 390.84 357.339 166.534 390.84 166.534 411.639 851.113 443.488 411.639 190.805 443.488 190.805 396.362 880.22 407.625 396.362 220.835 407.625 220.835 422.844 867.618 472.595 422.844 175.527 472.595 175.527 423.28 852.892 395.023 423.28 247.317 395.023 247.317 325.812 793.003 457.868 325.812 175.963 457.868 175.963 421.088 786.325 335.134 421.088 149.849 335.134 149.849 468.329 864.733 451.191 468.329 271.24 451.191 271.24 358.455 813.815 413.542 358.455 197.089 413.542 197.089 343.698 778.851 400.273 343.698 161.366 400.273 161.366 442.406 852.343 378.578 442.406 182.332 378.578 182.332 474.956 934.229 473.765 474.956 260.075 473.765 260.075 435.409 854.492 460.464 435.409 214.881 460.464 214.881 378.223 719.489 394.028 378.223 220.527 394.028 220.527 157.696 325.461 325.461 157.696 157.696 325.461 157.696 418.019 233.245 796.14 415.216 415.216 418.019 233.245 233.245 415.216 233.245 443.111 831.668 380.924 443.111 184.774 380.924 184.774 513.265 863.455 450.744 513.265 258.337 450.744 258.337 431.918 770.968 412.711 431.918 254.928 412.711 254.928 354.07 702.482 358.257 354.07 176.99 358.257 176.99 395.023 799.852 344.225 395.023 177.08 344.225 177.08 430.273 907.183 455.627 430.273 217.943 455.627 217.943 398.562 805.638 451.556 398.562 212.33 451.556 212.33 384.816 775.143 354.082 384.816 186.232 354.082 186.232 403.12 835.821 421.061 403.12 198.584 421.061 198.584 392.916 805.302 414.76 392.916 204.536 414.76 204.536 425.47 846.666 390.543 425.47 188.38 390.543 188.38 527.364 943.639 456.123 527.364 237.09 456.123 237.09 514.884 893.972 487.515 514.884 290.274 487.515 290.274 451.857 824.63 406.456 451.857 224.61 406.456 224.61 459.461 834.686 418.174 459.461 227.247 418.174 227.247 456.52 830.189 416.512 456.52 232.214 416.512 232.214 476.989 871.818 413.677 476.989 224.306 413.677 224.306 439.473 814.045 458.141 439.473 252.683 458.141 252.683 483.858 847.992 355.904 483.858 186.79 355.904 186.79 444.775 844.512 492.088 444.775 297.068 492.088 297.068 429.612 831.906 352.424 429.612 147.706 352.424 147.706 467.191 879.261 479.482 467.191 281.905 479.482 281.905 365.237 756.885 399.779 365.237 185.286 399.779 185.286 396.404 786.126 357.106 396.404 179.951 357.106 179.951 455.36 880.885 429.02 455.36 216.453 429.02 216.453 435.154 792.559 451.865 435.154 238.908 451.865 238.908 409.936 754.9 340.694 409.936 196.246 340.694 196.246 459.273 852.274 414.206 459.273 213.69 414.206 213.69 419.084 724.191 438.068 419.084 245.583 438.068 245.583 341.266 635.3 286.123 341.266 173.501 286.123 173.501 167.765 349.177 349.177 167.765 167.765 349.177 167.765 378.121 181.971 741.353 368.964 368.964 378.121 181.971 181.971 368.964 181.971 388.557 837.488 372.389 388.557 196.15 372.389 196.15 350.19 832.651 465.099 350.19 192.407 465.099 192.407 339.05 729.677 367.552 339.05 157.783 367.552 157.783 348.412 742.483 362.125 348.412 181.267 362.125 181.267 404.829 858.55 380.359 404.829 167.145 380.359 167.145 476.91 921.359 478.191 476.91 237.684 478.191 237.684 407.076 847.378 443.168 407.076 239.226 443.168 239.226 390.327 861.546 404.211 390.327 167.85 404.211 167.85 432.701 871.894 457.335 432.701 222.477 457.335 222.477 412.387 849.991 414.558 412.387 210.224 414.558 210.224 421.196 844.934 435.433 421.196 202.163 435.433 202.163 416.274 758.35 409.501 416.274 219.033 409.501 219.033 379.088 710.834 348.848 379.088 197.241 348.848 197.241 372.773 744.348 361.986 372.773 181.846 361.986 181.846 375.225 719.27 382.362 375.225 190.927 382.362 190.927 373.67 718.747 336.907 373.67 184.299 336.907 184.299 394.829 758.072 381.839 394.829 189.371 381.839 189.371 374.571 679.194 376.233 374.571 205.457 376.233 205.457 364.134 731.425 302.962 364.134 169.114 302.962 169.114 399.737 831.026 428.464 399.737 195.02 428.464 195.02 402.294 772.477 402.563 402.294 204.718 402.563 204.718 412.07 817.161 369.915 412.07 197.577 369.915 197.577 391.648 868.445 447.246 391.648 214.493 447.246 214.493 389.723 827.235 421.198 389.723 177.155 421.198 177.155 425.525 850.449 406.036 425.525 212.568 406.036 212.568 357.405 770.233 444.413 357.405 212.957 444.413 212.957 344.964 779.583 325.82 344.964 144.448 325.82 144.448 393.001 903.08 453.763 393.001 200.516 453.763 200.516 305.107 853.176 449.317 305.107 192.485 449.317 192.485 294.034 783.276 403.859 294.034 112.622 403.859 112.622 181.412 379.417 379.417 181.412 181.412 379.417 181.412 363.232 186.993 842.492 395.206 395.206 363.232 186.993 186.993 395.206 186.993 448.931 952.327 447.286 448.931 176.239 447.286 176.239 482.461 925.305 505.04 482.461 272.692 505.04 272.692 390.627 836.562 420.265 390.627 209.769 420.265 209.769 394.071 832.659 416.297 394.071 180.857 416.297 180.857 453.721 880.514 416.361 453.721 213.214 416.361 213.214 444.449 830.28 464.152 444.449 240.507 464.152 240.507 440.302 833.276 366.128 440.302 203.942 366.128 203.942 471.219 951.627 467.149 471.219 236.361 467.149 236.361 439.193 875.354 484.478 439.193 234.858 484.478 234.858 437.605 825.578 390.876 437.605 204.334 390.876 204.334 423.739 855.835 434.702 423.739 233.27 434.702 233.27 342.075 787.028 421.134 342.075 190.468 421.134 190.468 331.747 780.841 365.895 331.747 151.607 365.895 151.607 371.575 791.959 414.947 371.575 180.14 414.947 180.14 344.044 707.809 377.013 344.044 191.436 377.013 191.436 345.077 731.043 330.797 345.077 152.609 330.797 152.609 363.243 825.351 400.246 363.243 192.468 400.246 192.468 304.623 809.92 425.105 304.623 170.775 425.105 170.775 367.292 738.352 384.815 367.292 133.848 384.815 133.848 431.289 696.483 353.536 431.289 233.444 353.536 233.444 370.183 739.758 342.946 370.183 197.845 342.946 197.845 405.091 833.14 396.812 405.091 172.338 396.812 172.338 476.796 954.658 436.328 476.796 232.753 436.328 232.753 437.512 943.122 518.329 437.512 244.043 518.329 244.043 424.924 878.601 424.793 424.924 193.469 424.793 193.469 412.829 870.449 453.808 412.829 231.456 453.808 231.456 434.62 870.88 416.641 434.62 181.373 416.641 181.373 510.079 944.346 454.238 510.079 253.247 454.238 253.247 548.069 932.375 490.108 548.069 256.832 490.108 256.832 489.242 860.797 442.268 489.242 291.237 442.268 291.237 198.005 418.529 418.529 198.005 198.005 418.529 198.005 479.26 208.212 966.276 460.606 460.606 479.26 208.212 208.212 460.606 208.212 503.395 1042.57 505.67 503.395 271.048 505.67 271.048 442.844 977.286 536.904 442.844 232.348 536.904 232.348 445.936 939.218 440.382 445.936 210.496 440.382 210.496 438.587 894.688 498.835 438.587 235.44 498.835 235.44 426.793 852.739 395.852 426.793 203.148 395.852 203.148 385.831 857.974 456.887 385.831 223.645 456.887 223.645 392.974 819.948 401.087 392.974 162.186 401.087 162.186 480.408 917.392 418.861 480.408 230.788 418.861 230.788 436.162 900.775 498.531 436.162 249.62 498.531 249.62 387.973 806.207 402.243 387.973 186.542 402.243 186.542 432.097 794.445 403.964 432.097 201.431 403.964 201.431 444.953 775.237 390.481 444.953 230.665 390.481 230.665 449.094 824.933 384.756 449.094 214.288 384.756 214.288 420.384 809.189 440.178 420.384 234.807 440.178 234.807 363.765 727.867 369.011 363.765 185.577 369.011 185.577 385.966 771.394 358.856 385.966 178.188 358.856 178.188 462.107 852.574 412.538 462.107 207.778 412.538 207.778 505.297 868.823 440.036 505.297 254.329 440.036 254.329 371.06 841.352 428.787 371.06 250.968 428.787 250.968 265.194 713.362 412.565 265.194 120.093 412.565 120.093 369.575 756.389 300.797 369.575 145.101 300.797 145.101 428.049 899.724 455.592 428.049 224.474 455.592 224.474 477.861 997.697 444.132 477.861 203.575 444.132 203.575 505.61 1035.19 553.565 505.61 274.286 553.565 274.286 453.677 943.622 481.624 453.677 231.324 481.624 231.324 457.621 885.126 461.998 457.621 222.352 461.998 222.352 436.26 835.218 423.128 436.26 235.269 423.128 235.269 434.267 879.711 412.09 434.267 200.992 412.09 200.992 384.307 789.698 467.621 384.307 233.276 467.621 233.276 371.555 678.359 322.077 371.555 151.031 322.077 151.031 220.524 356.282 356.282 220.524 220.524 356.282 220.524 487.016 252.394 487.016 252.394 252.394 487.016 252.394 252.394 252.394 252.394 539.179 539.179 234.623 539.179 234.623 234.623 234.623 534.443 534.443 304.557 534.443 304.557 304.557 304.557 493.282 493.282 229.886 493.282 229.886 229.886 229.886 456.1 456.1 263.396 456.1 263.396 263.396 263.396 425.946 425.946 192.704 425.946 192.704 192.704 192.704 472.143 472.143 233.242 472.143 233.242 233.242 233.242 426.974 426.974 238.901 426.974 238.901 238.901 238.901 436.984 436.984 188.073 436.984 188.073 188.073 188.073 464.613 464.613 248.911 464.613 248.911 248.911 248.911 418.234 418.234 215.702 418.234 215.702 215.702 215.702 362.348 362.348 202.532 362.348 202.532 202.532 202.532 330.284 330.284 159.816 330.284 159.816 159.816 159.816 375.839 375.839 170.468 375.839 170.468 170.468 170.468 388.805 388.805 205.371 388.805 205.371 205.371 205.371 364.102 364.102 183.434 364.102 183.434 183.434 183.434 385.428 385.428 180.669 385.428 180.669 180.669 180.669 390.467 390.467 204.76 390.467 204.76 204.76 204.76 363.526 363.526 185.707 363.526 185.707 185.707 185.707 470.291 470.291 177.819 470.291 177.819 177.819 177.819 448.168 448.168 292.472 448.168 292.472 292.472 292.472 386.814 386.814 155.696 386.814 155.696 155.696 155.696 471.675 471.675 231.118 471.675 231.118 231.118 231.118 519.836 519.836 240.557 519.836 240.557 240.557 240.557 529.579 529.579 279.279 529.579 279.279 279.279 279.279 489.945 489.945 250.3 489.945 250.3 250.3 250.3 427.505 427.505 239.646 427.505 239.646 239.646 239.646 398.958 398.958 187.86 398.958 187.86 187.86 187.86 445.444 445.444 211.099 445.444 211.099 211.099 211.099 405.392 405.392 234.346 405.392 234.346 234.346 234.346 306.804 306.804 171.046 306.804 171.046 171.046 171.046 135.758 135.758 135.758 135.758 135.758 135.758 135.758 
CELL_DATA 2048
SCALARS stress float 1
LOOKUP_TABLE default
258.984 222.739 250.025 299.501 219.195 235.833 202.231 225.482 300.691 309.189 288.692 249.172 160.358 246.137 188.466 189.708 269.555 176.565 208.606 247.302 188.133 277.321 197.749 226.346 228.023 290.951 195.247 260.482 239.549 141.151 186.003 204.299 252.367 198.445 276.491 196.053 216.79 201.709 194.752 264.476 241.509 267.739 253.668 259.985 211.128 217.709 207.424 205.257 276.077 241.65 242.456 151.047 201.799 207.186 184.2 156.529 144.124 243.364 274.63 150.826 134.731 149.108 251.344 210.413 206.954 216.325 256.529 212.526 229.026 262.587 206.76 274.873 204.94 257.585 205.64 231.623 207.166 197.387 265.949 193.626 214.894 206.546 279.457 248.997 191.231 276.531 230.907 207.295 189.332 231.749 248.034 153.282 178.648 198.698 229.145 200.045 164.286 222.392 199.61 230.82 248.532 265.791 197.713 261.062 151.183 180.209 213.54 263.936 222.377 192.109 181.839 189.195 172.385 205.833 139.74 237.038 229.266 183.015 259.897 224.843 185.843 231.237 244.662 125.547 219.891 238.864 127.594 190.433 177.964 240.679 158.956 314.493 205.371 217.444 204.813 214.636 223.421 154.845 235.188 170.773 168.835 148.65 247.855 225.717 226.108 246.444 227.558 167.058 128.589 253.395 217.898 225.625 165.259 142.881 161.577 172.991 159.233 221.61 182.397 223.203 164.612 293.461 197.591 191.755 181.07 185.127 190.324 205.691 243.145 181.656 159.268 212.559 278.452 234.582 181.554 203.362 218.869 166.482 234.047 311.171 262.938 179.371 183 187.17 233.211 144.607 251.5 138.589 194.949 318.324 201.169 183.025 242.781 254.617 225.139 217.955 209.642 249.348 196.175 217.345 255.51 248.006 212.961 195.862 291.843 151.296 236.408 226.994 236.9 219.219 299.418 248.75 189.99 204.262 144.64 195.305 244.747 196.251 241.239 214.483 226.975 192.137 242.903 151.507 264.848 314.253 248.874 295.243 259.202 222.465 224.623 183.408 241.703 172.498 277.028 205.286 194.273 345.705 192.865 195.477 202.698 231.907 160.254 141.873 236.391 239.694 279.202 180.637 200.432 174.56 202.456 215.88 215.989 254.533 204.147 182.614 208.456 328.018 258.918 216.46 263.436 196.778 334.409 189.182 193.504 201.436 185.511 214.522 242.766 205.746 178.776 222.69 228.564 187.915 196.26 269.997 226.799 195.504 226.955 240.153 289.063 249.672 195.544 241.47 212.232 221.546 242.288 201.02 160.008 278.731 258.175 279.849 254.597 210.498 256.794 225.708 149.844 241.553 266.709 184.028 257.041 140.48 201.765 186.104 235.375 213.671 189.399 158.174 215.728 210.37 201.998 214.78 169.417 190.876 185.821 268.789 214.227 217.38 193.891 234.883 123.74 252.886 241.991 220.976 258.56 249.24 238.377 198.984 265.253 232.599 141.599 172.421 166.927 194.888 227.151 187.993 198.213 164.334 202.486 152.502 207.675 195.062 201.369 189.698 250.019 175.264 242.486 250.641 235.494 135.71 219.904 211.224 223.759 230.955 260.944 186.264 172.06 214.09 212.848 215.207 222.443 230.239 195.381 225.536 191.345 222.287 226.823 218.866 251.313 191.721 185.934 195.654 199.842 199.476 172.871 271.292 266.577 215.044 218.835 121.129 213.095 230.352 156.033 219.3 149.025 258.342 262.877 216.587 180.979 222.338 272.826 212.423 257.424 254.894 174.774 194.015 213.854 226.025 222.102 206.697 220.856 192.538 173.324 196.171 162.135 142.407 203.047 156.599 257.823 129.002 187.461 136.956 232.789 232.877 182.206 190.858 152.619 167.113 252.494 208.768 187.384 226.462 217.375 243.592 231.046 200.809 211.816 232.262 187.988 243.284 203.198 211.926 178.495 123.456 203.787 142.988 243.418 174.778 262.744 190.621 222.883 196.833 200.397 170.059 182.501 143.06 226.748 129.626 253.814 173.667 246.592 292.856 218.144 246.722 205.934 201.839 276.744 170.44 219.672 224.882 238.358 235.428 227.191 220.855 188.369 263.462 227.311 169.594 297.127 239.731 214.746 243.324 175.92 138.883 225.657 244.302 220.669 201.584 170.99 198.371 259.448 306.615 211.108 323.924 174.367 163.228 235.129 191.648 250.643 177.32 202.382 241.569 283.426 179.456 210.253 274.494 227.454 213.003 250.084 176.469 191.759 192.457 229.787 182.932 194.851 268.56 186.583 192.546 200.596 195.062 169.711 166.372 197.771 275.102 245.522 251.708 181.196 173.074 273.576 225.687 235.293 186.44 201.488 242.153 272.425 187.278 254.723 155.158 196.009 164.856 147.743 154.756 246.889 111.839 166.132 209.913 163.346 193.294 177.271 218.851 180.11 231.228 184.466 203.051 180.485 191.614 203.543 182.664 231.75 185.859 230.506 249.013 260.452 221.041 226.193 211.488 205.538 235.538 246.107 304.466 193.831 203.345 215.996 234.212 215.618 178.582 216.539 224.746 181.221 262.792 197.016 187.083 194.159 206.187 146.727 204.144 196.115 233.448 230.332 256.835 193.644 201.063 220.143 241.661 189.751 196.725 204.382 212.359 239.654 219.556 186.65 214.41 205.85 228.7 237.95 234.887 145.63 188.076 222.666 222.304 212.927 160.282 183.839 225.093 260.992 202.187 149.585 197.175 230.071 198.588 184.997 224.946 186.044 184.674 143.522 212.968 179.633 203.733 238.281 166.102 240.098 197.912 197.775 214.129 223.798 154.993 219.96 217.059 220.273 221.599 207.34 196.533 156.266 273.179 182.095 212.531 146.095 174.826 186.227 190.856 199.253 217.873 231.666 237.027 213.816 248.843 214.055 194.265 187.038 250.293 178.334 216.89 239.704 228.121 225.15 198.075 186.81 186.771 234.194 206.053 213.334 214.078 201.495 149.234 253.395 140.154 232.56 257.121 171.284 173.446 236.063 127.822 228.604 201.593 174.859 247.048 235.567 204.38 143.011 200.966 190.114 222.539 215.89 153.838 192.77 213.247 222.749 219.634 176.99 202.106 184.545 228.747 235.471 141.57 226.559 225.503 184.599 177.632 167.668 222.886 181.392 157.964 198.964 158.209 245.51 204.037 254.501 284.493 250.884 170.33 211.762 188.828 160.614 193.196 159.728 204.744 186.186 186.582 158.901 196.018 187.244 209.833 213.777 170.021 219.887 258.693 192.474 208.556 217.935 279.187 187.274 220.56 183.765 157.6 171.322 181.863 222.14 265.491 249.917 250.203 222.683 223.306 241.898 275.951 215.748 192.083 236.049 188.122 229.114 174.83 197.29 184.044 203.672 161.803 213.628 224.234 195.862 266.712 208.699 161.363 194.255 216.636 153.922 164.06 210.734 181.172 171.346 167.642 222.635 210.599 291.052 348.09 285.314 278.109 226.738 174.367 232.141 209.786 247.5 264.318 177.006 299.418 197.003 182.568 148.379 246.115 187.92 225.038 187.425 235.907 205.037 244.756 138.925 175.628 166.415 160.59 196.188 220.631 219.977 167.433 248.347 254.167 220.49 269.397 215.265 208.62 189.903 208.169 269.024 248.285 257.657 199.106 158.809 212.421 241.853 207.649 188.332 158.255 259.231 198.205 213.817 202.699 236.536 263.896 137.332 161.783 152.178 174.435 176.58 172.207 207.243 149.807 184.213 277.171 204.393 241.505 192.182 178.286 237.891 224.469 280.676 215.06 178.617 180.946 197.69 257.203 232.59 229.053 197.577 185.343 179.217 209.303 149.434 248.268 196.804 208.536 201.635 214.061 181.462 151.531 211.035 234.295 166.001 238.138 210.701 180.876 252.485 209.785 166.471 191.997 142.661 219.354 278.632 228.828 210.743 209.991 204.928 156.627 147.367 203.744 146.71 207.993 167.196 204.314 216.439 201.037 317.867 170.738 220.285 180.452 184.56 203.107 232.176 140.307 197.511 209.645 185.899 264.024 217.517 191.632 218.303 252.429 215.753 182.014 205.946 192.632 258.212 200.402 151.312 200.978 183.483 176.127 228.779 181.924 167.61 183.264 138.711 236.926 225.144 261.588 247.727 187.823 128.54 249.618 181.779 180.495 202.527 278.371 250.321 215.558 237.773 253.253 263.296 220.002 254.153 215.531 149.629 218.584 188.116 220.569 204.282 241.159 205.705 146.108 218.373 263.532 159.543 218.876 220.991 253.275 185.761 194.395 247.715 234.417 225.877 263.143 186.821 143.427 102.01 134.261 159.238 252.307 269.395 246.473 185.394 241.173 306.756 170.901 264.118 198.34 219.722 246.509 199.877 214.709 194.756 227.958 166.009 227.182 200.977 233.582 177.677 164.795 205.312 257.871 209.779 199.126 141.11 209.416 204.843 220.268 214.479 212.848 261.946 266.908 225.117 220.24 323.359 171.972 277.81 265.787 323.86 174.365 211.816 301.977 197.719 178.324 124.025 201.796 244.4 220.022 210.512 160.888 182.268 221.1 220.83 212.384 174.201 148.729 136.427 184.21 170.702 238.311 174.84 214.05 257.256 254.895 273.948 315.62 314.026 266.955 231.712 259.704 222.261 231.01 225.808 317.379 272.391 205.778 257.577 194.953 244.537 251.966 233.685 197.726 262.848 136.92 227.608 190.086 144.95 214.15 176.67 166.443 160.092 259.999 207.021 180.878 187.586 236.149 272.694 205.967 296.225 245.359 266.617 241.299 237.366 264.732 224.801 190.605 186.733 199.993 191.941 196.275 203.282 212.595 208.439 191.766 203.154 224.238 218.97 208.666 196.866 207.81 254.321 176.622 210.442 166.655 197.139 192.317 149.525 197.906 211.582 245.351 248.164 244.725 275.498 239.625 235.904 216.182 190.668 207.619 219.863 242.698 227.298 177.472 245.451 241.291 204.404 225.19 160.806 177.368 192.094 175.626 196.63 193.728 205.485 246.684 135.19 191.128 208.884 183.807 190.203 171.698 191.495 188.794 214.577 147.704 203.666 186.155 235.676 200.276 216.029 142.045 210.59 214.115 218.903 156.732 231.477 206.696 235.18 261.638 189.329 220.382 150.674 197.216 264.515 194.337 150.97 189.071 143.974 202.827 185.23 168.388 221.063 198.157 223.271 249.27 251.276 151.628 135.384 231.758 205.738 194.711 174.131 170.881 131.505 248.463 208.891 171.948 208.731 187.402 243.041 172.566 257.538 160.047 218.925 126.643 181.764 158.886 170.199 186.329 264.408 207.453 143.326 196.034 178.831 254.134 200.637 228.536 239.025 234.533 188.098 210.055 135.621 200.815 169.74 243.718 194.244 177.852 208.605 155.143 240.541 282.086 181.298 224.198 187.839 287.622 207.481 218 171.274 252.533 155.977 139.856 157.085 213.939 187.622 167.194 188.09 193.431 247.965 196.51 237.237 205.442 290.499 191.84 210.961 250.261 169.291 174.533 164.278 180.749 260.837 220.033 233.399 212.635 200.76 210.751 165.134 179.658 304.234 253.659 195.033 124.099 118.37 201.907 142.061 178.371 183.484 191.021 248.459 200.061 247.853 243.86 260.771 199.081 330.636 239.374 259.123 202.654 160.778 241.581 219.238 213.173 223.075 195.229 221.903 288.07 271.214 139.202 156.779 253.306 164.833 288.866 183.097 179.783 154.717 188.481 191.803 200.26 177.692 189.221 259.756 241.83 241.995 234.763 280.004 239.838 254.488 238.672 198.166 267.38 210.729 238.936 200.797 216.348 248.039 208.05 234.497 166.271 169.169 244.935 237.171 240.74 189.981 193.104 196.972 209.758 256.652 161.217 242.501 198.684 171.615 99.8295 202.132 249.887 341.894 243.336 244.942 177.549 240.771 197.121 215.75 291.036 271.615 244.426 212.564 240.13 147.665 220.32 223.736 189.93 217.81 209 214.745 163.76 264.593 179.829 192.093 187.029 191.448 228.98 118.322 162.935 170.176 231.9 166.943 196.952 197.196 241.849 275.208 258.178 213.792 221.615 243.441 244.465 160.119 225.34 256.463 241.253 282.013 217.328 210.337 277.617 212.168 209.559 202.466 204.567 146.311 236.303 204.511 209.474 187.919 139.775 189.451 134.458 220.193 174.932 251.31 225.213 221.219 255.43 250.379 201.612 229.266 247.452 236.633 130.605 255.744 239.81 186.979 226.216 240.953 258.652 138.414 165.811 193.093 193.452 232.262 236.489 243.473 248.911 158.138 217.457 158.653 201.714 161.548 198.133 225.518 199.561 219.763 191.686 143.144 154.564 214.066 140.659 239.537 194.107 217.295 233.253 254.643 171.976 211.918 264.979 160.739 205.726 167.27 147.045 243.573 241.525 255.647 201.817 266.201 198.503 190.648 195.888 239.497 245.471 157.88 171.998 157.566 214.215 233.728 254.532 187.899 241.893 236.563 173.645 294.539 266.327 216.314 149.741 227.352 226.278 229.115 220.17 162.618 204.093 195.782 207.779 217.732 162.463 252.869 206.968 214.856 209.454 216.318 169.643 235.742 187.241 211.031 217.998 202.103 183.86 183.798 220.079 303.661 206.877 252.322 226.836 232.186 264.682 254.175 221.992 278.57 190.878 226.614 158.506 207.068 170.175 183.776 242.099 199.45 183.806 296.145 167.916 224.871 178.677 251.248 238.151 164.62 262.807 183.934 163.472 170.056 197.849 187.2 230.536 209.442 286.895 200 252.743 200.334 242.876 140.522 224.882 260.728 243.803 292.14 245.092 223.944 278.85 234.633 217.846 244.84 127.493 158.511 254.253 224.547 239.308 274.314 202.16 232.261 215.543 163.049 184.78 186.825 175.601 320.154 238.876 277.075 286.562 243.825 212.228 262.843 229.399 236.061 235.126 273.018 205.5 215.99 199.938 222.68 239.49 237.37 152.814 258.174 199.974 285.728 201.223 174.102 163.045 160.788 275.169 219.854 238.753 182.94 170.637 209.515 163.83 168.699 243.477 282.833 221.918 229.461 206.627 181.521 194.839 271.138 216.667 216.991 199.014 156.564 199.56 242.764 231.413 253.326 177.659 251.695 222.557 202.01 220.99 227.759 218.61 178.388 152.199 216.291 179.83 195.21 245.243 203.225 154.074 234.338 255.317 193.178 246.228 253.093 194.234 203.718 172.514 184.438 261.906 197.157 192.099 266.845 204.18 208.207 228.516 238.043 180.399 247.004 201.401 216.739 210.997 161.805 202.089 262.159 181.87 220.028 247.375 277.665 190.069 143.447 210.397 184.614 195.626 169.774 232.198 192.268 217.138 214.317 193.749 176.195 183.351 164.948 211.93 232.92 238.433 198.341 173.471 202.295 194.11 232.083 153.831 233.396 213.836 188.442 217.51 182.671 180.445 267.69 216.035 219.449 236.679 145.231 121.649 192.876 188.033 193.562 241.932 215.703 170.531 236.399 194.518 254.777 285.789 214.588 224.802 206.143 243.581 212.012 201.735 214.078 263.945 156.812 235.697 230.42 291.411 203.621 190.461 233.035 201.172 237.059 166.395 195.898 201.645 229.945 171.986 205.13 213.732 210.439 226.726 211.656 238.595 208.396 193.129 269.934 290.195 179.663 219.641 221.305 192.88 273.116 195.866 239.066 211.585 230.163 182.464 168.839 268.072 145.634 245.458 206.497 152.187 226.382 155.954 178.789 275.579 199.103 171.616 236.051 260.668 212.122 217.114 223.531 219.428 203.563 227.23 229.181 231.094 131.688 178.697 203.843 245.049 216.588 180.565 244.348 230.828 249.183 242.281 233.722 224.007 257.461 279.433 247.306 191.576 210.182 176.91 232.678 217.111 151.328 228.57 212.407 251.856 237.244 308.78 211.791 271.065 254.643 167.919 224.386 258.716 230.614 253.077 180.787 195.255 232.185 197.101 238.077 269.835 183.638 192.47 235.706 158.641 226.357 231.006 212.01 192.006 246.716 159.745 233.747 203.372 164.018 182.548 208.659 288.716 324.555 221.244 211.678 230.826 163.157 274.291 257.076 196.968 217.315 286.045 201.216 222.421 256.045 149.385 228.283 237.037 234.063 228.155 238.359 171.78 241.702 203.954 217.379 186.265 236.684 207.323 199.172 216.414 109.93 165.341 219.542 254.826 251.602 202.191 227.429 191.74 203.718 214.557 175.681 196.778 241.334 212.923 215.822 220.273 154.071 212.574 220.86 305.453 188.096 205.848 207.285 221.216 181.693 213.019 170.875 219.873 207.286 187.903 176.591 97.4848 246.747 213.256 303.551 171.206 206.873 195.209 213.383 250.703 220.694 231.942 229.638 229.861 268.904 213.121 209.153 245.865 178.641 221.523 172.664 166.534 190.805 220.835 175.527 247.317 175.963 149.849 271.24 197.089 161.366 182.332 260.075 214.881 220.527 157.696 233.245 184.774 258.337 254.928 176.99 177.08 217.943 212.33 186.232 198.584 204.536 188.38 237.09 290.274 224.61 227.247 232.214 224.306 252.683 186.79 297.068 147.706 281.905 185.286 179.951 216.453 238.908 196.246 213.69 245.583 173.501 167.765 181.971 196.15 192.407 157.783 181.267 167.145 237.684 239.226 167.85 222.477 210.224 202.163 219.033 197.241 181.846 190.927 184.299 189.371 205.457 169.114 195.02 204.718 197.577 214.493 177.155 212.568 212.957 144.448 200.516 192.485 112.622 181.412 186.993 176.239 272.692 209.769 180.857 213.214 240.507 203.942 236.361 234.858 204.334 233.27 190.468 151.607 180.14 191.436 152.609 192.468 170.775 133.848 233.444 197.845 172.338 232.753 244.043 193.469 231.456 181.373 253.247 256.832 291.237 198.005 208.212 271.048 232.348 210.496 235.44 203.148 223.645 162.186 230.788 249.62 186.542 201.431 230.665 214.288 234.807 185.577 178.188 207.778 254.329 250.968 120.093 145.101 224.474 203.575 274.286 231.324 222.352 235.269 200.992 233.276 151.031 220.524 252.394 234.623 304.557 229.886 263.396 192.704 233.242 238.901 188.073 248.911 215.702 202.532 159.816 170.468 205.371 183.434 180.669 204.76 185.707 177.819 292.472 155.696 231.118 240.557 279.279 250.3 239.646 187.86 211.099 234.346 171.046 135.758 
SCALARS volume float 1
LOOKUP_TABLE default
14.7375 14.7665 14.7635 14.7643 14.7645 14.7649 14.7655 14.7663 14.7666 14.7672 14.7677 14.7685 14.7689 14.769 14.7696 14.7701 14.7704 14.7708 14.7711 14.7715 14.7719 14.772 14.7722 14.7726 14.7728 14.7728 14.7728 14.7731 14.7732 14.7731 14.7733 14.7732 14.7507 14.7659 14.7671 14.7673 14.7673 14.7676 14.7678 14.768 14.7685 14.7689 14.7692 14.7698 14.7701 14.7704 14.7707 14.771 14.7713 14.7714 14.7718 14.7722 14.7722 14.7726 14.7728 14.7727 14.7728 14.7729 14.7731 14.7731 14.7733 14.7733 14.7732 14.7733 14.7599 14.7691 14.7694 14.7697 14.7696 14.7698 14.7701 14.7702 14.7703 14.7706 14.7709 14.771 14.7714 14.7714 14.7716 14.772 14.7721 14.772 14.7726 14.7724 14.7725 14.7726 14.773 14.773 14.773 14.7733 14.7733 14.7732 14.7732 14.7733 14.7734 14.7733 14.769 14.7717 14.7719 14.7722 14.7722 14.7721 14.7722 14.7721 14.7722 14.7725 14.7725 14.7727 14.7727 14.7727 14.7727 14.7727 14.7729 14.773 14.773 14.773 14.773 14.7731 14.7731 14.7733 14.7733 14.7732 14.7732 14.7733 14.7733 14.7732 14.7735 14.7734 14.7778 14.7748 14.7745 14.7744 14.7743 14.7746 14.7745 14.7743 14.7743 14.7741 14.774 14.7741 14.7741 14.774 14.7738 14.774 14.7736 14.7736 14.7737 14.7736 14.7735 14.7736 14.7733 14.7734 14.7733 14.7733 14.7737 14.7732 14.7734 14.7733 14.7732 14.7734 14.7869 14.7771 14.777 14.7768 14.7767 14.7766 14.7765 14.7763 14.7761 14.7759 14.7758 14.7755 14.7752 14.7751 14.775 14.7746 14.7746 14.7744 14.7742 14.774 14.7742 14.7739 14.7737 14.7736 14.7737 14.7736 14.7735 14.7734 14.7734 14.7733 14.7733 14.7731 14.7965 14.7805 14.7794 14.7791 14.7791 14.7789 14.7786 14.7782 14.7779 14.7777 14.7773 14.7769 14.7766 14.7762 14.7759 14.7756 14.7755 14.775 14.7748 14.7746 14.7744 14.7741 14.7742 14.7741 14.7737 14.7738 14.7734 14.7735 14.7734 14.7735 14.7732 14.7732 14.8111 14.7802 14.7823 14.7818 14.7819 14.7813 14.7811 14.7802 14.7799 14.7793 14.7788 14.7784 14.7779 14.7776 14.777 14.7765 14.776 14.7758 14.7758 14.7753 14.7746 14.7747 14.7744 14.7743 14.7741 14.7739 14.7735 14.7733 14.7732 14.7733 14.7734 14.7734 14.7416 14.761 14.7622 14.7633 14.7641 14.7647 14.7654 14.7658 14.7667 14.767 14.7677 14.7684 14.769 14.7692 14.7696 14.7702 14.7704 14.7709 14.7713 14.7715 14.7719 14.7721 14.7724 14.7726 14.7727 14.7729 14.773 14.7731 14.7733 14.7733 14.7734 14.7733 14.7547 14.76 14.7649 14.7661 14.7666 14.7673 14.7678 14.7682 14.7687 14.769 14.7693 14.7697 14.7701 14.7704 14.7707 14.7711 14.7712 14.7714 14.7718 14.7718 14.7723 14.7721 14.7726 14.7726 14.7726 14.773 14.7731 14.7731 14.7731 14.7732 14.7733 14.7733 14.7622 14.7652 14.7678 14.7688 14.7693 14.7695 14.77 14.77 14.7704 14.7707 14.771 14.7711 14.7713 14.7716 14.7717 14.7717 14.772 14.7722 14.7724 14.7725 14.7726 14.7729 14.773 14.7728 14.773 14.773 14.7732 14.7732 14.7731 14.7732 14.7734 14.7734 14.7697 14.7705 14.7714 14.7718 14.7718 14.7719 14.7722 14.7722 14.7724 14.7722 14.7724 14.7726 14.7726 14.7728 14.7728 14.7728 14.7729 14.7729 14.7731 14.7731 14.773 14.7731 14.7731 14.7732 14.7731 14.7732 14.7734 14.7734 14.7732 14.7732 14.7732 14.7733 14.777 14.776 14.775 14.7745 14.7743 14.7744 14.7744 14.7743 14.7742 14.7742 14.7741 14.7739 14.7738 14.7738 14.7738 14.7737 14.7737 14.7737 14.7735 14.7736 14.7736 14.7736 14.7733 14.7735 14.7733 14.7734 14.7731 14.7732 14.7734 14.7733 14.7732 14.7732 14.7849 14.7815 14.7787 14.7775 14.777 14.7768 14.7763 14.7763 14.776 14.7756 14.7756 14.7755 14.7751 14.775 14.7748 14.7746 14.7744 14.7745 14.7743 14.7741 14.7741 14.7738 14.7737 14.7736 14.7735 14.7738 14.7735 14.7734 14.7733 14.7734 14.7733 14.7733 14.7931 14.786 14.7813 14.7801 14.7794 14.779 14.7786 14.7784 14.778 14.7774 14.7772 14.7768 14.7766 14.7763 14.7759 14.7757 14.7754 14.7752 14.7749 14.7747 14.7744 14.7742 14.7741 14.7738 14.7737 14.7735 14.7735 14.7734 14.7734 14.7732 14.7731 14.7733 14.8072 14.785 14.7837 14.7825 14.7821 14.7814 14.7808 14.7803 14.7796 14.7791 14.7788 14.7782 14.7777 14.7775 14.7768 14.7764 14.7763 14.7757 14.7752 14.7749 14.7747 14.7747 14.7742 14.774 14.7739 14.7737 14.7735 14.7734 14.7734 14.7732 14.7733 14.7733 14.7394 14.7607 14.7615 14.763 14.7638 14.7645 14.7651 14.7662 14.7668 14.7673 14.7678 14.7684 14.7688 14.7691 14.7697 14.7702 14.7706 14.7709 14.7712 14.7716 14.7717 14.7723 14.7723 14.7727 14.7728 14.7729 14.7731 14.7733 14.7733 14.7735 14.7734 14.7734 14.754 14.7592 14.7638 14.7652 14.7663 14.7671 14.7676 14.7681 14.7684 14.7689 14.7694 14.7699 14.7699 14.7706 14.7708 14.7711 14.7713 14.7715 14.7717 14.7719 14.7723 14.7725 14.7726 14.7729 14.7729 14.7731 14.7732 14.7732 14.7733 14.7734 14.7733 14.7732 14.7618 14.7648 14.7668 14.7684 14.7691 14.7697 14.77 14.7701 14.7703 14.7705 14.7709 14.7712 14.7714 14.7714 14.7718 14.7721 14.7721 14.7722 14.7724 14.7725 14.7726 14.7727 14.7729 14.773 14.7731 14.7732 14.7732 14.7733 14.7733 14.7733 14.7732 14.7734 14.7696 14.7705 14.771 14.7715 14.7717 14.7719 14.772 14.7722 14.7723 14.7724 14.7723 14.7724 14.7726 14.7727 14.773 14.7729 14.773 14.7729 14.7731 14.7732 14.773 14.7732 14.7731 14.7733 14.7733 14.7733 14.7733 14.7733 14.7732 14.7734 14.773 14.7734 14.7774 14.7761 14.7755 14.7748 14.7748 14.7744 14.7743 14.7741 14.7742 14.7737 14.7741 14.7738 14.774 14.774 14.774 14.7737 14.7737 14.7736 14.7737 14.7736 14.7737 14.7734 14.7735 14.7736 14.7734 14.7735 14.7735 14.7736 14.7734 14.7732 14.7733 14.7732 14.7852 14.7817 14.7793 14.7778 14.7772 14.7768 14.7768 14.7764 14.7762 14.7759 14.7756 14.7754 14.7754 14.7749 14.7749 14.7746 14.7746 14.7744 14.7741 14.7743 14.774 14.7739 14.7738 14.7737 14.7738 14.7734 14.7736 14.7735 14.7733 14.7734 14.7732 14.7731 14.7933 14.787 14.7824 14.7808 14.7798 14.7792 14.7787 14.7782 14.7778 14.7777 14.7771 14.7769 14.7765 14.7762 14.776 14.7756 14.7754 14.7751 14.7747 14.7746 14.7744 14.7742 14.7741 14.7739 14.7737 14.7737 14.7737 14.7733 14.7733 14.7734 14.7732 14.7732 14.809 14.7854 14.7846 14.7829 14.7823 14.7816 14.7809 14.7802 14.78 14.7793 14.7786 14.7782 14.7777 14.7773 14.777 14.7764 14.7758 14.7757 14.7754 14.7751 14.7749 14.7746 14.7747 14.7742 14.7738 14.7738 14.7736 14.7733 14.7735 14.7733 14.7734 14.7731 14.7386 14.7603 14.7608 14.7623 14.7634 14.7644 14.7654 14.7659 14.7666 14.7672 14.7679 14.7683 14.7687 14.7695 14.7697 14.7702 14.7706 14.7709 14.7712 14.7716 14.7718 14.7721 14.7723 14.7725 14.7728 14.7728 14.7731 14.7731 14.7733 14.7732 14.7732 14.7732 14.7539 14.759 14.7633 14.7652 14.7662 14.7669 14.7675 14.768 14.7685 14.7689 14.7693 14.7695 14.7701 14.7704 14.7708 14.7711 14.7714 14.7716 14.7719 14.7722 14.7723 14.7725 14.7724 14.7729 14.7729 14.7731 14.773 14.7731 14.7732 14.7734 14.7734 14.7734 14.7619 14.7644 14.7667 14.768 14.769 14.7695 14.7698 14.77 14.7704 14.7706 14.7711 14.7711 14.7713 14.7716 14.7716 14.7716 14.7722 14.7722 14.7722 14.7725 14.7727 14.7727 14.7729 14.7729 14.773 14.7731 14.7733 14.773 14.7733 14.7731 14.7732 14.7732 14.7695 14.7703 14.7709 14.7714 14.7717 14.7719 14.7719 14.7723 14.7721 14.7722 14.7725 14.7727 14.7725 14.7728 14.7729 14.7728 14.7729 14.7729 14.773 14.773 14.7732 14.773 14.7733 14.773 14.7732 14.7731 14.773 14.7731 14.7733 14.7732 14.7734 14.7734 14.7771 14.7764 14.7755 14.7749 14.7743 14.7743 14.7742 14.7742 14.7742 14.774 14.7741 14.7741 14.7738 14.7737 14.7736 14.774 14.7737 14.7736 14.7736 14.7734 14.7736 14.7735 14.7733 14.7734 14.7735 14.7732 14.7733 14.7733 14.7731 14.7733 14.7732 14.7731 14.785 14.7823 14.7796 14.7782 14.7772 14.7769 14.7765 14.7763 14.7759 14.7758 14.7756 14.7751 14.7752 14.7751 14.7748 14.7746 14.7746 14.7744 14.7743 14.7741 14.7741 14.7738 14.7737 14.7737 14.7735 14.7734 14.7734 14.7734 14.7732 14.7735 14.7733 14.7734 14.7934 14.7873 14.7826 14.781 14.78 14.7794 14.7788 14.7782 14.7779 14.7776 14.7772 14.7769 14.7765 14.7761 14.7759 14.7756 14.7753 14.7751 14.7749 14.7745 14.7745 14.7741 14.7742 14.7738 14.7736 14.7735 14.7736 14.7733 14.7733 14.7733 14.7733 14.7733 14.8099 14.7857 14.7847 14.7834 14.7825 14.7815 14.781 14.7804 14.7796 14.7791 14.7786 14.7781 14.7778 14.7772 14.7768 14.7765 14.7763 14.7756 14.775 14.7751 14.7748 14.7744 14.7742 14.7738 14.7739 14.7737 14.7735 14.7733 14.7733 14.7734 14.773 14.7733 14.7387 14.7603 14.761 14.7626 14.7637 14.7645 14.7653 14.766 14.7666 14.7673 14.7679 14.7685 14.7688 14.7694 14.7696 14.7702 14.7704 14.7709 14.7714 14.7716 14.7719 14.7721 14.7722 14.7725 14.7729 14.773 14.7732 14.7732 14.7733 14.7735 14.7732 14.7734 14.7539 14.7589 14.7633 14.765 14.7663 14.7669 14.7675 14.768 14.7685 14.7688 14.7693 14.7696 14.7699 14.7705 14.7706 14.7711 14.7712 14.7717 14.7717 14.7721 14.7724 14.7724 14.7728 14.7729 14.7729 14.7729 14.7731 14.7733 14.7733 14.7732 14.7733 14.7734 14.7619 14.7644 14.7669 14.768 14.7689 14.7694 14.7699 14.7703 14.7705 14.7706 14.7708 14.7712 14.7714 14.7715 14.7719 14.772 14.7721 14.7724 14.7724 14.7726 14.7727 14.7728 14.7729 14.7729 14.773 14.7733 14.7731 14.7733 14.7732 14.7735 14.7734 14.7733 14.7698 14.7705 14.7709 14.7714 14.7718 14.7721 14.7719 14.772 14.7722 14.7724 14.7724 14.7725 14.7726 14.7727 14.7728 14.7729 14.7726 14.7728 14.773 14.7731 14.7731 14.7732 14.7732 14.7732 14.7733 14.7734 14.7735 14.7734 14.7732 14.7733 14.7734 14.7735 14.7774 14.7764 14.7755 14.7748 14.7746 14.7743 14.7743 14.7743 14.7742 14.7741 14.7739 14.7739 14.774 14.7739 14.7738 14.7737 14.7738 14.7736 14.7738 14.7736 14.7737 14.7734 14.7736 14.7734 14.7733 14.7735 14.7734 14.7735 14.7734 14.7735 14.7735 14.7733 14.7852 14.7822 14.7795 14.7781 14.7774 14.7769 14.7765 14.7764 14.776 14.7759 14.7757 14.7754 14.7753 14.7752 14.7748 14.7747 14.7745 14.7743 14.7741 14.7739 14.774 14.7738 14.7739 14.7737 14.7736 14.7737 14.7734 14.7733 14.7732 14.7733 14.7732 14.7733 14.7935 14.7874 14.7828 14.7809 14.7799 14.7793 14.7788 14.7783 14.7779 14.7775 14.7772 14.7769 14.7766 14.7763 14.7757 14.7756 14.7753 14.7751 14.7748 14.7745 14.7745 14.7742 14.774 14.7739 14.7738 14.7739 14.7737 14.7736 14.7733 14.7732 14.7732 14.7731 14.8099 14.7858 14.7849 14.7833 14.7826 14.7817 14.781 14.7804 14.7798 14.7792 14.7787 14.7783 14.7778 14.7773 14.7768 14.7766 14.7762 14.7759 14.7754 14.7752 14.7749 14.7746 14.7743 14.7741 14.7739 14.7737 14.7735 14.7735 14.7734 14.7733 14.7734 14.7733 14.7394 14.7607 14.7617 14.7627 14.7637 14.7645 14.7655 14.7659 14.7667 14.7673 14.7677 14.7683 14.7688 14.7693 14.7699 14.7702 14.7705 14.7708 14.7711 14.7715 14.7718 14.7722 14.7725 14.7725 14.7728 14.7729 14.773 14.7732 14.7731 14.7732 14.7734 14.7734 14.7541 14.7591 14.7638 14.7656 14.7665 14.767 14.7675 14.7681 14.7685 14.7691 14.7695 14.7696 14.7702 14.7703 14.7708 14.7711 14.7714 14.7716 14.7717 14.7719 14.7723 14.7723 14.7726 14.7726 14.7728 14.7731 14.7732 14.773 14.7731 14.7732 14.7734 14.7735 14.762 14.7648 14.7667 14.7683 14.7691 14.7694 14.7697 14.7702 14.7703 14.7707 14.7709 14.7711 14.7713 14.7716 14.7717 14.772 14.7723 14.7721 14.7725 14.7724 14.7729 14.7727 14.773 14.7728 14.7732 14.7731 14.7731 14.7732 14.7732 14.7734 14.7733 14.7731 14.7697 14.7705 14.7712 14.7716 14.7718 14.772 14.7722 14.7722 14.7724 14.7726 14.7725 14.7725 14.7727 14.7727 14.7727 14.7729 14.773 14.7731 14.773 14.7732 14.773 14.7732 14.7733 14.7731 14.7732 14.7732 14.7732 14.7733 14.7732 14.7732 14.7734 14.7731 14.7773 14.7762 14.7752 14.7748 14.7747 14.7744 14.7744 14.7742 14.7741 14.7742 14.7741 14.774 14.7738 14.7739 14.7737 14.7739 14.7736 14.7737 14.7736 14.7735 14.7735 14.7733 14.7734 14.7736 14.7734 14.7732 14.7734 14.7733 14.7734 14.7733 14.7733 14.7731 14.7852 14.782 14.7793 14.7779 14.7772 14.7768 14.7763 14.7762 14.7761 14.7757 14.7756 14.7755 14.7752 14.775 14.7749 14.7747 14.7745 14.7744 14.7742 14.7742 14.7739 14.7737 14.7737 14.7736 14.7735 14.7734 14.7734 14.7734 14.7733 14.7731 14.7734 14.7732 14.7934 14.787 14.7824 14.7805 14.7796 14.7793 14.7786 14.7784 14.7781 14.7775 14.7771 14.7769 14.7765 14.7763 14.7759 14.7757 14.7754 14.7749 14.7749 14.7748 14.7745 14.774 14.7742 14.7739 14.7736 14.7735 14.7735 14.7733 14.7735 14.7735 14.7732 14.7731 14.8089 14.7853 14.7846 14.7831 14.7824 14.7815 14.7809 14.7803 14.7796 14.7792 14.7787 14.7781 14.7778 14.7774 14.777 14.7767 14.776 14.7757 14.7756 14.7749 14.7748 14.7747 14.7744 14.774 14.774 14.7735 14.7736 14.7733 14.7733 14.7734 14.773 14.7733 14.7415 14.7612 14.7622 14.7632 14.764 14.7648 14.7654 14.7661 14.7666 14.7673 14.7678 14.7683 14.7689 14.7694 14.7695 14.77 14.7706 14.7709 14.7715 14.7716 14.7719 14.7722 14.7724 14.7725 14.7726 14.773 14.7732 14.773 14.7732 14.7735 14.7736 14.7733 14.7547 14.7598 14.7648 14.7661 14.7666 14.7673 14.7677 14.768 14.7685 14.7689 14.7692 14.7699 14.7701 14.7704 14.7708 14.7709 14.7713 14.7716 14.7718 14.7719 14.7724 14.7726 14.7725 14.7728 14.7731 14.7731 14.773 14.7733 14.7733 14.7733 14.7732 14.7733 14.7622 14.7653 14.7678 14.7689 14.7694 14.7697 14.7698 14.7702 14.7704 14.7708 14.7709 14.771 14.7713 14.7717 14.7718 14.7719 14.7719 14.7723 14.7724 14.7725 14.7728 14.7729 14.7727 14.773 14.7728 14.7731 14.7732 14.7732 14.773 14.7733 14.7733 14.7735 14.7698 14.7704 14.7713 14.7716 14.7718 14.772 14.7723 14.7722 14.7723 14.7724 14.7725 14.7726 14.7726 14.7727 14.7728 14.7728 14.7728 14.773 14.7729 14.773 14.7732 14.7731 14.7732 14.7733 14.7731 14.7733 14.7732 14.7733 14.7733 14.7733 14.7733 14.7733 14.7771 14.7758 14.7751 14.7746 14.7744 14.7742 14.7742 14.7741 14.7742 14.7741 14.7742 14.774 14.7741 14.774 14.774 14.7739 14.7738 14.7736 14.7736 14.7736 14.7736 14.7735 14.7735 14.7732 14.7735 14.7734 14.7734 14.7734 14.7732 14.7732 14.7732 14.7732 14.7848 14.7811 14.7784 14.7775 14.777 14.7766 14.7765 14.7763 14.7761 14.7758 14.7757 14.7755 14.7751 14.775 14.7749 14.7747 14.7746 14.7744 14.7743 14.7741 14.7741 14.7739 14.7737 14.7736 14.7736 14.7734 14.7734 14.7735 14.7733 14.7733 14.7732 14.7732 14.793 14.7862 14.7814 14.78 14.7795 14.7789 14.7788 14.7781 14.7778 14.7775 14.7773 14.7767 14.7764 14.7762 14.776 14.7756 14.7753 14.7751 14.7749 14.7746 14.7745 14.7741 14.7741 14.774 14.7739 14.7737 14.7733 14.7734 14.7732 14.7734 14.7732 14.7732 14.8072 14.7849 14.7836 14.7826 14.7819 14.7815 14.7809 14.7803 14.7798 14.7792 14.7788 14.7783 14.7775 14.7774 14.777 14.7763 14.7761 14.7758 14.7754 14.7751 14.7749 14.7744 14.7742 14.7741 14.7739 14.7737 14.7737 14.7735 14.7734 14.7734 14.7734 14.7732 14.7373 14.7663 14.7634 14.7641 14.7644 14.765 14.7655 14.766 14.7667 14.7672 14.7676 14.7681 14.7689 14.7694 14.7697 14.77 14.7705 14.7711 14.771 14.7713 14.772 14.7719 14.7722 14.7726 14.7726 14.7729 14.7727 14.773 14.773 14.7732 14.7733 14.7733 14.7507 14.7659 14.7669 14.7672 14.7673 14.7675 14.7678 14.7681 14.7687 14.7689 14.7692 14.7695 14.77 14.7704 14.7707 14.7709 14.7715 14.7716 14.7719 14.772 14.772 14.7723 14.7722 14.7726 14.7728 14.7728 14.7731 14.7729 14.773 14.7732 14.7729 14.7735 14.76 14.7691 14.7693 14.7698 14.7699 14.7698 14.77 14.7703 14.7702 14.7708 14.7707 14.7714 14.7715 14.7716 14.7717 14.772 14.7721 14.7722 14.7724 14.7724 14.7725 14.7726 14.7731 14.773 14.7731 14.7733 14.7733 14.7731 14.7732 14.7733 14.7732 14.7733 14.7688 14.7719 14.772 14.7721 14.772 14.772 14.772 14.7721 14.7721 14.7723 14.7724 14.7725 14.7728 14.7727 14.7727 14.773 14.773 14.773 14.7728 14.773 14.7729 14.773 14.7733 14.7733 14.7731 14.7728 14.7732 14.7733 14.773 14.7735 14.7734 14.7734 14.7777 14.7746 14.7744 14.7742 14.7743 14.7744 14.7745 14.7747 14.7743 14.7741 14.774 14.7738 14.7741 14.7739 14.7735 14.7738 14.7736 14.7735 14.7735 14.7735 14.7735 14.7736 14.7734 14.7733 14.7733 14.7734 14.7733 14.7735 14.7734 14.7734 14.7733 14.7733 14.787 14.7774 14.7771 14.7765 14.7768 14.7767 14.7767 14.7763 14.7762 14.7757 14.7757 14.7753 14.7753 14.775 14.7749 14.7748 14.7746 14.7743 14.7743 14.7739 14.7739 14.774 14.7739 14.7738 14.7735 14.7738 14.7737 14.7735 14.7735 14.7732 14.7732 14.7734 14.7965 14.7804 14.7793 14.7792 14.779 14.779 14.7787 14.7785 14.7779 14.7775 14.7772 14.7768 14.7767 14.7763 14.776 14.7756 14.7752 14.7752 14.775 14.7745 14.7744 14.7742 14.7742 14.7739 14.7737 14.7735 14.7736 14.7735 14.7734 14.7733 14.7733 14.7732 14.811 14.7803 14.7824 14.7819 14.7817 14.7814 14.7807 14.7802 14.78 14.7794 14.7789 14.7784 14.778 14.7773 14.7769 14.7764 14.7763 14.7758 14.7755 14.7752 14.7748 14.7747 14.7745 14.7744 14.774 14.7739 14.7736 14.7737 14.7734 14.7732 14.7734 14.7733 
SCALARS volume_diff float 1
LOOKUP_TABLE default
14.7355 14.7645 14.7615 14.7623 14.7625 14.7629 14.7636 14.7644 14.7646 14.7652 14.7658 14.7665 14.7669 14.767 14.7677 14.7682 14.7685 14.7688 14.7691 14.7696 14.7699 14.7701 14.7702 14.7707 14.7709 14.7709 14.7709 14.7712 14.7713 14.7711 14.7713 14.7712 14.7487 14.7639 14.7651 14.7653 14.7654 14.7656 14.7659 14.7661 14.7665 14.7669 14.7673 14.7678 14.7681 14.7685 14.7687 14.7691 14.7694 14.7694 14.7698 14.7703 14.7703 14.7706 14.7708 14.7708 14.7708 14.7709 14.7712 14.7711 14.7713 14.7713 14.7712 14.7713 14.758 14.7671 14.7674 14.7678 14.7676 14.7679 14.7681 14.7682 14.7683 14.7686 14.769 14.7691 14.7695 14.7695 14.7697 14.77 14.7701 14.77 14.7707 14.7705 14.7706 14.7707 14.771 14.7711 14.7711 14.7713 14.7713 14.7712 14.7712 14.7713 14.7714 14.7713 14.767 14.7698 14.77 14.7702 14.7702 14.7701 14.7702 14.7701 14.7703 14.7705 14.7705 14.7707 14.7708 14.7707 14.7707 14.7708 14.771 14.771 14.771 14.7711 14.771 14.7712 14.7712 14.7713 14.7713 14.7713 14.7712 14.7713 14.7714 14.7713 14.7716 14.7714 14.7758 14.7728 14.7726 14.7725 14.7723 14.7726 14.7726 14.7723 14.7723 14.7722 14.772 14.7721 14.7721 14.772 14.7719 14.772 14.7717 14.7716 14.7718 14.7716 14.7715 14.7717 14.7714 14.7714 14.7714 14.7713 14.7717 14.7713 14.7715 14.7713 14.7712 14.7715 14.7849 14.7751 14.775 14.7748 14.7747 14.7747 14.7746 14.7744 14.7742 14.7739 14.7738 14.7736 14.7732 14.7732 14.773 14.7727 14.7726 14.7725 14.7722 14.772 14.7723 14.772 14.7718 14.7716 14.7717 14.7717 14.7715 14.7715 14.7715 14.7714 14.7713 14.7711 14.7945 14.7785 14.7775 14.7771 14.7772 14.777 14.7767 14.7762 14.7759 14.7757 14.7754 14.775 14.7746 14.7742 14.7739 14.7737 14.7735 14.773 14.7729 14.7726 14.7724 14.7721 14.7722 14.7721 14.7718 14.7719 14.7715 14.7716 14.7714 14.7716 14.7713 14.7713 14.8091 14.7782 14.7803 14.7799 14.78 14.7794 14.7791 14.7783 14.7779 14.7774 14.7768 14.7765 14.7759 14.7756 14.775 14.7745 14.774 14.7739 14.7738 14.7733 14.7727 14.7727 14.7725 14.7724 14.7721 14.7719 14.7716 14.7713 14.7713 14.7714 14.7714 14.7715 14.7396 14.7591 14.7602 14.7613 14.7622 14.7627 14.7635 14.7639 14.7647 14.765 14.7658 14.7664 14.767 14.7673 14.7677 14.7682 14.7684 14.7689 14.7694 14.7696 14.7699 14.7701 14.7704 14.7707 14.7707 14.771 14.7711 14.7711 14.7713 14.7713 14.7715 14.7714 14.7527 14.758 14.7629 14.7642 14.7647 14.7654 14.7658 14.7662 14.7667 14.7671 14.7673 14.7678 14.7681 14.7685 14.7688 14.7691 14.7692 14.7695 14.7699 14.7699 14.7704 14.7702 14.7707 14.7707 14.7706 14.771 14.7711 14.7711 14.7712 14.7713 14.7714 14.7714 14.7602 14.7633 14.7658 14.7669 14.7673 14.7676 14.768 14.7681 14.7685 14.7687 14.7691 14.7692 14.7693 14.7697 14.7698 14.7698 14.7701 14.7702 14.7705 14.7705 14.7707 14.7709 14.771 14.7708 14.7711 14.771 14.7713 14.7712 14.7711 14.7713 14.7715 14.7715 14.7678 14.7685 14.7695 14.7698 14.7699 14.77 14.7702 14.7702 14.7704 14.7703 14.7704 14.7706 14.7707 14.7708 14.7708 14.7708 14.7709 14.7709 14.7711 14.7711 14.7711 14.7712 14.7711 14.7713 14.7712 14.7712 14.7715 14.7714 14.7712 14.7713 14.7712 14.7714 14.7751 14.774 14.7731 14.7725 14.7724 14.7724 14.7725 14.7724 14.7722 14.7723 14.7721 14.772 14.7718 14.7719 14.7719 14.7718 14.7717 14.7717 14.7716 14.7716 14.7716 14.7716 14.7714 14.7716 14.7714 14.7715 14.7712 14.7712 14.7714 14.7714 14.7713 14.7713 14.7829 14.7795 14.7767 14.7755 14.775 14.7748 14.7743 14.7744 14.7741 14.7737 14.7737 14.7736 14.7732 14.773 14.7728 14.7727 14.7725 14.7726 14.7724 14.7722 14.7721 14.7718 14.7718 14.7716 14.7715 14.7718 14.7716 14.7715 14.7713 14.7714 14.7713 14.7714 14.7912 14.7841 14.7794 14.7782 14.7774 14.777 14.7767 14.7765 14.7761 14.7754 14.7752 14.7749 14.7746 14.7743 14.7739 14.7737 14.7735 14.7732 14.7729 14.7727 14.7724 14.7722 14.7721 14.7719 14.7718 14.7715 14.7716 14.7714 14.7714 14.7713 14.7712 14.7714 14.8052 14.7831 14.7817 14.7806 14.7802 14.7794 14.7788 14.7783 14.7776 14.7772 14.7768 14.7762 14.7758 14.7756 14.7749 14.7745 14.7743 14.7737 14.7733 14.773 14.7728 14.7727 14.7723 14.7721 14.772 14.7717 14.7716 14.7715 14.7715 14.7712 14.7713 14.7714 14.7374 14.7587 14.7595 14.7611 14.7619 14.7626 14.7632 14.7643 14.7649 14.7654 14.7659 14.7665 14.7668 14.7672 14.7677 14.7682 14.7686 14.769 14.7693 14.7696 14.7698 14.7703 14.7704 14.7707 14.7708 14.771 14.7712 14.7713 14.7713 14.7715 14.7714 14.7714 14.7521 14.7573 14.7618 14.7632 14.7644 14.7652 14.7657 14.7661 14.7665 14.7669 14.7674 14.7679 14.7679 14.7686 14.7688 14.7691 14.7694 14.7695 14.7698 14.77 14.7703 14.7705 14.7707 14.7709 14.7709 14.7711 14.7712 14.7713 14.7714 14.7715 14.7713 14.7712 14.7599 14.7628 14.7649 14.7665 14.7671 14.7677 14.768 14.7682 14.7684 14.7686 14.7689 14.7692 14.7694 14.7695 14.7699 14.7701 14.7702 14.7702 14.7704 14.7706 14.7706 14.7707 14.7709 14.7711 14.7712 14.7712 14.7712 14.7714 14.7713 14.7714 14.7713 14.7715 14.7677 14.7685 14.7691 14.7695 14.7698 14.7699 14.77 14.7703 14.7704 14.7704 14.7703 14.7705 14.7707 14.7708 14.771 14.7709 14.7711 14.771 14.7712 14.7713 14.771 14.7712 14.7712 14.7714 14.7713 14.7714 14.7713 14.7714 14.7712 14.7715 14.7711 14.7714 14.7754 14.7741 14.7736 14.7729 14.7728 14.7725 14.7724 14.7722 14.7723 14.7718 14.7722 14.7719 14.772 14.772 14.7721 14.7718 14.7717 14.7717 14.7717 14.7717 14.7717 14.7715 14.7715 14.7716 14.7715 14.7716 14.7715 14.7716 14.7714 14.7713 14.7713 14.7713 14.7833 14.7798 14.7773 14.7758 14.7752 14.7748 14.7749 14.7744 14.7742 14.774 14.7736 14.7734 14.7735 14.773 14.7729 14.7727 14.7726 14.7725 14.7721 14.7723 14.772 14.772 14.7719 14.7718 14.7718 14.7715 14.7717 14.7715 14.7714 14.7714 14.7713 14.7712 14.7914 14.785 14.7805 14.7788 14.7778 14.7773 14.7767 14.7762 14.7758 14.7757 14.7751 14.7749 14.7746 14.7743 14.774 14.7736 14.7734 14.7731 14.7727 14.7727 14.7725 14.7723 14.7722 14.772 14.7718 14.7717 14.7717 14.7714 14.7714 14.7715 14.7713 14.7713 14.8071 14.7835 14.7826 14.7809 14.7803 14.7796 14.7789 14.7783 14.7781 14.7773 14.7766 14.7763 14.7757 14.7753 14.7751 14.7745 14.7739 14.7737 14.7735 14.7731 14.7729 14.7726 14.7727 14.7723 14.7718 14.7719 14.7716 14.7714 14.7715 14.7714 14.7714 14.7711 14.7366 14.7583 14.7589 14.7604 14.7614 14.7624 14.7634 14.7639 14.7647 14.7653 14.7659 14.7663 14.7668 14.7675 14.7677 14.7682 14.7686 14.769 14.7693 14.7696 14.7698 14.7701 14.7704 14.7706 14.7708 14.7708 14.7711 14.7711 14.7713 14.7713 14.7713 14.7712 14.7519 14.7571 14.7613 14.7632 14.7642 14.765 14.7656 14.766 14.7666 14.7669 14.7674 14.7676 14.7681 14.7685 14.7688 14.7691 14.7695 14.7697 14.77 14.7702 14.7703 14.7706 14.7704 14.7709 14.771 14.7711 14.7711 14.7712 14.7712 14.7714 14.7714 14.7714 14.76 14.7624 14.7648 14.7661 14.7671 14.7675 14.7678 14.7681 14.7685 14.7687 14.7691 14.7692 14.7693 14.7697 14.7697 14.7697 14.7702 14.7703 14.7703 14.7705 14.7707 14.7708 14.7709 14.771 14.771 14.7712 14.7713 14.7711 14.7714 14.7712 14.7713 14.7712 14.7676 14.7683 14.769 14.7695 14.7697 14.77 14.7699 14.7704 14.7701 14.7702 14.7706 14.7708 14.7706 14.7709 14.7709 14.7709 14.771 14.771 14.7711 14.771 14.7713 14.7711 14.7714 14.7711 14.7712 14.7712 14.7711 14.7711 14.7714 14.7713 14.7715 14.7715 14.7751 14.7744 14.7736 14.773 14.7724 14.7724 14.7722 14.7723 14.7722 14.7721 14.7721 14.7721 14.7719 14.7717 14.7716 14.772 14.7718 14.7716 14.7717 14.7714 14.7716 14.7715 14.7713 14.7714 14.7716 14.7713 14.7713 14.7714 14.7712 14.7714 14.7713 14.7711 14.783 14.7803 14.7777 14.7762 14.7753 14.7749 14.7746 14.7743 14.774 14.7738 14.7736 14.7732 14.7733 14.7731 14.7728 14.7726 14.7727 14.7725 14.7724 14.7722 14.7721 14.7719 14.7718 14.7717 14.7716 14.7714 14.7715 14.7715 14.7712 14.7715 14.7713 14.7714 14.7915 14.7853 14.7807 14.7791 14.778 14.7774 14.7769 14.7763 14.776 14.7756 14.7752 14.7749 14.7745 14.7742 14.7739 14.7736 14.7734 14.7731 14.7729 14.7725 14.7726 14.7722 14.7723 14.7718 14.7716 14.7716 14.7717 14.7714 14.7713 14.7713 14.7714 14.7713 14.8079 14.7837 14.7827 14.7815 14.7805 14.7795 14.7791 14.7785 14.7777 14.7771 14.7766 14.7762 14.7758 14.7752 14.7749 14.7746 14.7743 14.7736 14.7731 14.7732 14.7728 14.7724 14.7722 14.7718 14.772 14.7718 14.7715 14.7713 14.7713 14.7714 14.771 14.7714 14.7367 14.7583 14.7591 14.7607 14.7617 14.7626 14.7633 14.764 14.7646 14.7654 14.766 14.7666 14.7669 14.7674 14.7677 14.7682 14.7684 14.769 14.7694 14.7697 14.77 14.7702 14.7703 14.7706 14.7709 14.7711 14.7713 14.7712 14.7714 14.7715 14.7713 14.7714 14.752 14.757 14.7613 14.7631 14.7644 14.765 14.7655 14.7661 14.7666 14.7668 14.7674 14.7677 14.7679 14.7686 14.7686 14.7692 14.7692 14.7697 14.7698 14.7701 14.7704 14.7704 14.7709 14.771 14.7709 14.771 14.7712 14.7713 14.7713 14.7712 14.7714 14.7714 14.7599 14.7625 14.7649 14.7661 14.767 14.7675 14.7679 14.7683 14.7685 14.7686 14.7689 14.7692 14.7695 14.7696 14.77 14.77 14.7702 14.7705 14.7705 14.7707 14.7707 14.7709 14.771 14.771 14.771 14.7714 14.7712 14.7714 14.7713 14.7716 14.7714 14.7713 14.7678 14.7685 14.769 14.7695 14.7699 14.7701 14.77 14.7701 14.7702 14.7704 14.7705 14.7706 14.7707 14.7708 14.7708 14.7709 14.7706 14.7708 14.7711 14.7711 14.7712 14.7712 14.7712 14.7713 14.7714 14.7714 14.7715 14.7714 14.7713 14.7714 14.7715 14.7715 14.7754 14.7745 14.7736 14.7729 14.7726 14.7724 14.7724 14.7723 14.7722 14.7722 14.772 14.7719 14.772 14.772 14.7719 14.7717 14.7718 14.7717 14.7718 14.7717 14.7717 14.7715 14.7717 14.7714 14.7714 14.7715 14.7715 14.7715 14.7714 14.7715 14.7715 14.7714 14.7833 14.7802 14.7776 14.7762 14.7755 14.775 14.7746 14.7744 14.774 14.7739 14.7738 14.7734 14.7733 14.7732 14.7728 14.7728 14.7725 14.7724 14.7722 14.7719 14.7721 14.7719 14.7719 14.7717 14.7716 14.7717 14.7715 14.7714 14.7712 14.7714 14.7713 14.7714 14.7916 14.7855 14.7809 14.7789 14.778 14.7773 14.7768 14.7763 14.7759 14.7755 14.7752 14.775 14.7746 14.7743 14.7737 14.7737 14.7733 14.7731 14.7729 14.7725 14.7725 14.7723 14.772 14.7719 14.7719 14.7719 14.7717 14.7716 14.7714 14.7713 14.7713 14.7711 14.8079 14.7838 14.7829 14.7814 14.7807 14.7798 14.7791 14.7785 14.7779 14.7773 14.7768 14.7764 14.7758 14.7753 14.7748 14.7746 14.7742 14.774 14.7735 14.7732 14.7729 14.7727 14.7723 14.7722 14.772 14.7718 14.7716 14.7715 14.7715 14.7713 14.7714 14.7714 14.7374 14.7587 14.7598 14.7608 14.7617 14.7625 14.7635 14.7639 14.7648 14.7653 14.7658 14.7663 14.7668 14.7674 14.768 14.7683 14.7686 14.7688 14.7692 14.7695 14.7698 14.7703 14.7705 14.7705 14.7708 14.771 14.7711 14.7712 14.7712 14.7713 14.7715 14.7715 14.7521 14.7571 14.7618 14.7636 14.7646 14.7651 14.7656 14.7662 14.7665 14.7671 14.7676 14.7677 14.7682 14.7684 14.7688 14.7691 14.7694 14.7696 14.7697 14.7699 14.7703 14.7703 14.7707 14.7706 14.7708 14.7711 14.7712 14.7711 14.7712 14.7713 14.7715 14.7715 14.76 14.7628 14.7647 14.7664 14.7672 14.7674 14.7678 14.7682 14.7684 14.7688 14.769 14.7691 14.7694 14.7697 14.7697 14.77 14.7703 14.7702 14.7705 14.7705 14.771 14.7707 14.771 14.7709 14.7713 14.7712 14.7712 14.7713 14.7712 14.7715 14.7713 14.7712 14.7678 14.7685 14.7693 14.7697 14.7699 14.77 14.7703 14.7703 14.7704 14.7706 14.7705 14.7706 14.7707 14.7707 14.7707 14.7709 14.771 14.7711 14.7711 14.7712 14.771 14.7713 14.7713 14.7711 14.7713 14.7712 14.7713 14.7713 14.7713 14.7712 14.7714 14.7711 14.7753 14.7742 14.7732 14.7728 14.7728 14.7724 14.7724 14.7722 14.7721 14.7722 14.7721 14.772 14.7719 14.7719 14.7718 14.7719 14.7717 14.7718 14.7716 14.7715 14.7716 14.7714 14.7714 14.7717 14.7715 14.7712 14.7714 14.7713 14.7714 14.7714 14.7713 14.7711 14.7833 14.7801 14.7774 14.776 14.7753 14.7749 14.7743 14.7742 14.7742 14.7737 14.7737 14.7735 14.7732 14.7731 14.773 14.7727 14.7726 14.7725 14.7722 14.7723 14.7719 14.7717 14.7718 14.7716 14.7715 14.7714 14.7714 14.7714 14.7713 14.7712 14.7714 14.7713 14.7914 14.785 14.7804 14.7786 14.7777 14.7774 14.7767 14.7765 14.7761 14.7755 14.7752 14.7749 14.7745 14.7744 14.7739 14.7737 14.7734 14.773 14.7729 14.7728 14.7726 14.7721 14.7722 14.772 14.7717 14.7715 14.7715 14.7713 14.7715 14.7715 14.7712 14.7711 14.807 14.7833 14.7827 14.7812 14.7805 14.7795 14.7789 14.7783 14.7777 14.7772 14.7768 14.7761 14.7759 14.7754 14.775 14.7747 14.7741 14.7738 14.7736 14.773 14.7728 14.7728 14.7724 14.7721 14.772 14.7715 14.7716 14.7713 14.7714 14.7715 14.7711 14.7713 14.7396 14.7592 14.7602 14.7612 14.7621 14.7629 14.7634 14.7641 14.7646 14.7654 14.7658 14.7663 14.767 14.7674 14.7676 14.768 14.7686 14.7689 14.7695 14.7697 14.7699 14.7703 14.7704 14.7706 14.7707 14.771 14.7712 14.7711 14.7712 14.7715 14.7716 14.7713 14.7527 14.7579 14.7629 14.7641 14.7647 14.7653 14.7657 14.766 14.7665 14.767 14.7673 14.768 14.7682 14.7684 14.7689 14.7689 14.7693 14.7697 14.7698 14.7699 14.7704 14.7707 14.7706 14.7708 14.7711 14.7711 14.7711 14.7714 14.7714 14.7714 14.7712 14.7713 14.7602 14.7633 14.7659 14.7669 14.7674 14.7677 14.7678 14.7682 14.7685 14.7688 14.7689 14.769 14.7693 14.7698 14.7698 14.7699 14.77 14.7704 14.7704 14.7706 14.7709 14.7709 14.7707 14.7711 14.7709 14.7712 14.7712 14.7713 14.7711 14.7714 14.7713 14.7716 14.7679 14.7685 14.7694 14.7697 14.7698 14.7701 14.7704 14.7702 14.7703 14.7704 14.7705 14.7707 14.7707 14.7708 14.7708 14.7709 14.7708 14.7711 14.7709 14.7711 14.7712 14.7712 14.7713 14.7713 14.7712 14.7714 14.7713 14.7714 14.7714 14.7713 14.7714 14.7714 14.7752 14.7739 14.7731 14.7727 14.7725 14.7723 14.7723 14.7721 14.7722 14.7721 14.7722 14.772 14.7721 14.772 14.772 14.7719 14.7718 14.7716 14.7716 14.7716 14.7716 14.7716 14.7715 14.7713 14.7716 14.7715 14.7714 14.7715 14.7712 14.7712 14.7712 14.7713 14.7828 14.7792 14.7764 14.7756 14.775 14.7746 14.7746 14.7744 14.7741 14.7738 14.7738 14.7735 14.7731 14.7731 14.773 14.7728 14.7726 14.7724 14.7724 14.7722 14.7722 14.7719 14.7717 14.7717 14.7716 14.7714 14.7715 14.7716 14.7713 14.7714 14.7712 14.7712 14.791 14.7842 14.7795 14.7781 14.7776 14.7769 14.7768 14.7762 14.7758 14.7756 14.7754 14.7748 14.7744 14.7742 14.774 14.7737 14.7734 14.7731 14.7729 14.7727 14.7725 14.7722 14.7721 14.7721 14.7719 14.7718 14.7714 14.7715 14.7713 14.7715 14.7713 14.7712 14.8052 14.7829 14.7817 14.7806 14.78 14.7795 14.779 14.7783 14.7779 14.7772 14.7768 14.7764 14.7756 14.7755 14.775 14.7744 14.7742 14.7738 14.7735 14.7732 14.7729 14.7725 14.7722 14.7721 14.7719 14.7717 14.7717 14.7715 14.7715 14.7714 14.7714 14.7713 14.7354 14.7643 14.7614 14.7621 14.7624 14.763 14.7635 14.7641 14.7648 14.7653 14.7657 14.7661 14.7669 14.7675 14.7678 14.7681 14.7685 14.7691 14.769 14.7693 14.7701 14.7699 14.7702 14.7707 14.7706 14.7709 14.7708 14.7711 14.7711 14.7713 14.7714 14.7713 14.7488 14.7639 14.765 14.7653 14.7654 14.7656 14.7658 14.7661 14.7667 14.7669 14.7673 14.7676 14.7681 14.7685 14.7688 14.769 14.7695 14.7697 14.7699 14.77 14.7701 14.7704 14.7703 14.7706 14.7709 14.7709 14.7712 14.771 14.771 14.7712 14.7709 14.7715 14.7581 14.7671 14.7673 14.7678 14.768 14.7678 14.768 14.7683 14.7682 14.7688 14.7688 14.7695 14.7695 14.7696 14.7698 14.7701 14.7701 14.7703 14.7704 14.7705 14.7705 14.7706 14.7712 14.771 14.7711 14.7714 14.7713 14.7712 14.7712 14.7713 14.7713 14.7713 14.7669 14.77 14.7701 14.7702 14.77 14.77 14.77 14.7702 14.7701 14.7703 14.7704 14.7706 14.7708 14.7708 14.7707 14.7711 14.7711 14.771 14.7708 14.7711 14.7709 14.771 14.7714 14.7714 14.7712 14.7709 14.7712 14.7714 14.7711 14.7715 14.7714 14.7714 14.7757 14.7726 14.7724 14.7723 14.7723 14.7725 14.7725 14.7728 14.7723 14.7722 14.772 14.7718 14.7721 14.772 14.7716 14.7718 14.7716 14.7716 14.7716 14.7716 14.7715 14.7716 14.7714 14.7714 14.7714 14.7715 14.7713 14.7716 14.7714 14.7715 14.7714 14.7713 14.7851 14.7755 14.7752 14.7746 14.7748 14.7748 14.7747 14.7744 14.7743 14.7737 14.7738 14.7734 14.7733 14.7731 14.7729 14.7728 14.7726 14.7724 14.7724 14.772 14.7719 14.772 14.7719 14.7718 14.7715 14.7719 14.7717 14.7715 14.7716 14.7713 14.7713 14.7715 14.7946 14.7785 14.7774 14.7772 14.7771 14.777 14.7767 14.7765 14.776 14.7756 14.7753 14.7749 14.7747 14.7744 14.774 14.7736 14.7733 14.7732 14.773 14.7726 14.7724 14.7723 14.7722 14.772 14.7718 14.7716 14.7717 14.7715 14.7714 14.7714 14.7714 14.7713 14.809 14.7783 14.7805 14.78 14.7797 14.7795 14.7787 14.7782 14.7781 14.7774 14.7769 14.7764 14.776 14.7754 14.7749 14.7745 14.7743 14.7738 14.7735 14.7732 14.7728 14.7728 14.7725 14.7725 14.772 14.7719 14.7716 14.7717 14.7715 14.7713 14.7715 14.7713 
