# vtk DataFile Version 5.1
vtk output
ASCII

DATASET UNSTRUCTURED_GRID
POINTS 18785 float
0 0 3.4
0.125 0 3.4
0.25 0 3.4
0.375 0 3.4
0.5 0 3.4
0.625 0 3.4
0.75 0 3.4
0.875 0 3.4
1 0 3.4
1.125 0 3.4
1.25 0 3.4
1.375 0 3.4
1.5 0 3.4
1.625 0 3.4
1.75 0 3.4
1.875 0 3.4
2 0 3.4
2.125 0 3.4
2.25 0 3.4
2.375 0 3.4
2.5 0 3.4
2.625 0 3.4
2.75 0 3.4
2.875 0 3.4
3 0 3.4
3.125 0 3.4
3.25 0 3.4
3.375 0 3.4
3.5 0 3.4
3.625 0 3.4
3.75 0 3.4
3.875 0 3.4
4 0 3.4
0 0.125 3.4
0.125 0.125 3.4
0.25 0.125 3.4
0.375 0.125 3.4
0.5 0.125 3.4
0.625 0.125 3.4
0.75 0.125 3.4
0.875 0.125 3.4
1 0.125 3.4
1.125 0.125 3.4
1.25 0.125 3.4
1.375 0.125 3.4
1.5 0.125 3.4
1.625 0.125 3.4
1.75 0.125 3.4
1.875 0.125 3.4
2 0.125 3.4
2.125 0.125 3.4
2.25 0.125 3.4
2.375 0.125 3.4
2.5 0.125 3.4
2.625 0.125 3.4
2.75 0.125 3.4
2.875 0.125 3.4
3 0.125 3.4
3.125 0.125 3.4
3.25 0.125 3.4
3.375 0.125 3.4
3.5 0.125 3.4
3.625 0.125 3.4
3.75 0.125 3.4
3.875 0.125 3.4
4 0.125 3.4
0 0.25 3.4
0.125 0.25 3.4
0.25 0.25 3.4
0.375 0.25 3.4
0.5 0.25 3.4
0.625 0.25 3.4
0.75 0.25 3.4
0.875 0.25 3.4
1 0.25 3.4
1.125 0.25 3.4
1.25 0.25 3.4
1.375 0.25 3.4
1.5 0.25 3.4
1.625 0.25 3.4
1.75 0.25 3.4
1.875 0.25 3.4
2 0.25 3.4
2.125 0.25 3.4
2.25 0.25 3.4
2.375 0.25 3.4
2.5 0.25 3.4
2.625 0.25 3.4
2.75 0.25 3.4
2.875 0.25 3.4
3 0.25 3.4
3.125 0.25 3.4
3.25 0.25 3.4
3.375 0.25 3.4
3.5 0.25 3.4
3.625 0.25 3.4
3.75 0.25 3.4
3.875 0.25 3.4
4 0.25 3.4
0 0.375 3.4
0.125 0.375 3.4
0.25 0.375 3.4
0.375 0.375 3.4
0.5 0.375 3.4
0.625 0.375 3.4
0.75 0.375 3.4
0.875 0.375 3.4
1 0.375 3.4
1.125 0.375 3.4
1.25 0.375 3.4
1.375 0.375 3.4
1.5 0.375 3.4
1.625 0.375 3.4
1.75 0.375 3.4
1.875 0.375 3.4
2 0.375 3.4
2.125 0.375 3.4
2.25 0.375 3.4
2.375 0.375 3.4
2.5 0.375 3.4
2.625 0.375 3.4
2.75 0.375 3.4
2.875 0.375 3.4
3 0.375 3.4
3.125 0.375 3.4
3.25 0.375 3.4
3.375 0.375 3.4
3.5 0.375 3.4
3.625 0.375 3.4
3.75 0.375 3.4
3.875 0.375 3.4
4 0.375 3.4
0 0.5 3.4
0.125 0.5 3.4
0.25 0.5 3.4
0.375 0.5 3.4
0.5 0.5 3.4
0.625 0.5 3.4
0.75 0.5 3.4
0.875 0.5 3.4
1 0.5 3.4
1.125 0.5 3.4
1.25 0.5 3.4
1.375 0.5 3.4
1.5 0.5 3.4
1.625 0.5 3.4
1.75 0.5 3.4
1.875 0.5 3.4
2 0.5 3.4
2.125 0.5 3.4
2.25 0.5 3.4
2.375 0.5 3.4
2.5 0.5 3.4
2.625 0.5 3.4
2.75 0.5 3.4
2.875 0.5 3.4
3 0.5 3.4
3.125 0.5 3.4
3.25 0.5 3.4
3.375 0.5 3.4
3.5 0.5 3.4
3.625 0.5 3.4
3.75 0.5 3.4
3.875 0.5 3.4
4 0.5 3.4
0 0.625 3.4
0.125 0.625 3.4
0.25 0.625 3.4
0.375 0.625 3.4
0.5 0.625 3.4
0.625 0.625 3.4
0.75 0.625 3.4
0.875 0.625 3.4
1 0.625 3.4
1.125 0.625 3.4
1.25 0.625 3.4
1.375 0.625 3.4
1.5 0.625 3.4
1.625 0.625 3.4
1.75 0.625 3.4
1.875 0.625 3.4
2 0.625 3.4
2.125 0.625 3.4
2.25 0.625 3.4
2.375 0.625 3.4
2.5 0.625 3.4
2.625 0.625 3.4
2.75 0.625 3.4
2.875 0.625 3.4
3 0.625 3.4
3.125 0.625 3.4
3.25 0.625 3.4
3.375 0.625 3.4
3.5 0.625 3.4
3.625 0.625 3.4
3.75 0.625 3.4
3.875 0.625 3.4
4 0.625 3.4
0 0.75 3.4
0.125 0.75 3.4
0.25 0.75 3.4
0.375 0.75 3.4
0.5 0.75 3.4
0.625 0.75 3.4
0.75 0.75 3.4
0.875 0.75 3.4
1 0.75 3.4
1.125 0.75 3.4
1.25 0.75 3.4
1.375 0.75 3.4
1.5 0.75 3.4
1.625 0.75 3.4
1.75 0.75 3.4
1.875 0.75 3.4
2 0.75 3.4
2.125 0.75 3.4
2.25 0.75 3.4
2.375 0.75 3.4
2.5 0.75 3.4
2.625 0.75 3.4
2.75 0.75 3.4
2.875 0.75 3.4
3 0.75 3.4
3.125 0.75 3.4
3.25 0.75 3.4
3.375 0.75 3.4
3.5 0.75 3.4
3.625 0.75 3.4
3.75 0.75 3.4
3.875 0.75 3.4
4 0.75 3.4
0 0.875 3.4
0.125 0.875 3.4
0.25 0.875 3.4
0.375 0.875 3.4
0.5 0.875 3.4
0.625 0.875 3.4
0.75 0.875 3.4
0.875 0.875 3.4
1 0.875 3.4
1.125 0.875 3.4
1.25 0.875 3.4
1.375 0.875 3.4
1.5 0.875 3.4
1.625 0.875 3.4
1.75 0.875 3.4
1.875 0.875 3.4
2 0.875 3.4
2.125 0.875 3.4
2.25 0.875 3.4
2.375 0.875 3.4
2.5 0.875 3.4
2.625 0.875 3.4
2.75 0.875 3.4
2.875 0.875 3.4
3 0.875 3.4
3.125 0.875 3.4
3.25 0.875 3.4
3.375 0.875 3.4
3.5 0.875 3.4
3.625 0.875 3.4
3.75 0.875 3.4
3.875 0.875 3.4
4 0.875 3.4
0 1 3.4
0.125 1 3.4
0.25 1 3.4
0.375 1 3.4
0.5 1 3.4
0.625 1 3.4
0.75 1 3.4
0.875 1 3.4
1 1 3.4
1.125 1 3.4
1.25 1 3.4
1.375 1 3.4
1.5 1 3.4
1.625 1 3.4
1.75 1 3.4
1.875 1 3.4
2 1 3.4
2.125 1 3.4
2.25 1 3.4
2.375 1 3.4
2.5 1 3.4
2.625 1 3.4
2.75 1 3.4
2.875 1 3.4
3 1 3.4
3.125 1 3.4
3.25 1 3.4
3.375 1 3.4
3.5 1 3.4
3.625 1 3.4
3.75 1 3.4
3.875 1 3.4
4 1 3.4
0 0 3.525
0.125 0 3.525
0.25 0 3.525
0.375 0 3.525
0.5 0 3.525
0.625 0 3.525
0.75 0 3.525
0.875 0 3.525
1 0 3.525
1.125 0 3.525
1.25 0 3.525
1.375 0 3.525
1.5 0 3.525
1.625 0 3.525
1.75 0 3.525
1.875 0 3.525
2 0 3.525
2.125 0 3.525
2.25 0 3.525
2.375 0 3.525
2.5 0 3.525
2.625 0 3.525
2.75 0 3.525
2.875 0 3.525
3 0 3.525
3.125 0 3.525
3.25 0 3.525
3.375 0 3.525
3.5 0 3.525
3.625 0 3.525
3.75 0 3.525
3.875 0 3.525
4 0 3.525
0 0.125 3.525
0.125 0.125 3.525
0.25 0.125 3.525
0.375 0.125 3.525
0.5 0.125 3.525
0.625 0.125 3.525
0.75 0.125 3.525
0.875 0.125 3.525
1 0.125 3.525
1.125 0.125 3.525
1.25 0.125 3.525
1.375 0.125 3.525
1.5 0.125 3.525
1.625 0.125 3.525
1.75 0.125 3.525
1.875 0.125 3.525
2 0.125 3.525
2.125 0.125 3.525
2.25 0.125 3.525
2.375 0.125 3.525
2.5 0.125 3.525
2.625 0.125 3.525
2.75 0.125 3.525
2.875 0.125 3.525
3 0.125 3.525
3.125 0.125 3.525
3.25 0.125 3.525
3.375 0.125 3.525
3.5 0.125 3.525
3.625 0.125 3.525
3.75 0.125 3.525
3.875 0.125 3.525
4 0.125 3.525
0 0.25 3.525
0.125 0.25 3.525
0.25 0.25 3.525
0.375 0.25 3.525
0.5 0.25 3.525
0.625 0.25 3.525
0.75 0.25 3.525
0.875 0.25 3.525
1 0.25 3.525
1.125 0.25 3.525
1.25 0.25 3.525
1.375 0.25 3.525
1.5 0.25 3.525
1.625 0.25 3.525
1.75 0.25 3.525
1.875 0.25 3.525
2 0.25 3.525
2.125 0.25 3.525
2.25 0.25 3.525
2.375 0.25 3.525
2.5 0.25 3.525
2.625 0.25 3.525
2.75 0.25 3.525
2.875 0.25 3.525
3 0.25 3.525
3.125 0.25 3.525
3.25 0.25 3.525
3.375 0.25 3.525
3.5 0.25 3.525
3.625 0.25 3.525
3.75 0.25 3.525
3.875 0.25 3.525
4 0.25 3.525
0 0.375 3.525
0.125 0.375 3.525
0.25 0.375 3.525
0.375 0.375 3.525
0.5 0.375 3.525
0.625 0.375 3.525
0.75 0.375 3.525
0.875 0.375 3.525
1 0.375 3.525
1.125 0.375 3.525
1.25 0.375 3.525
1.375 0.375 3.525
1.5 0.375 3.525
1.625 0.375 3.525
1.75 0.375 3.525
1.875 0.375 3.525
2 0.375 3.525
2.125 0.375 3.525
2.25 0.375 3.525
2.375 0.375 3.525
2.5 0.375 3.525
2.625 0.375 3.525
2.75 0.375 3.525
2.875 0.375 3.525
3 0.375 3.525
3.125 0.375 3.525
3.25 0.375 3.525
3.375 0.375 3.525
3.5 0.375 3.525
3.625 0.375 3.525
3.75 0.375 3.525
3.875 0.375 3.525
4 0.375 3.525
0 0.5 3.525
0.125 0.5 3.525
0.25 0.5 3.525
0.375 0.5 3.525
0.5 0.5 3.525
0.625 0.5 3.525
0.75 0.5 3.525
0.875 0.5 3.525
1 0.5 3.525
1.125 0.5 3.525
1.25 0.5 3.525
1.375 0.5 3.525
1.5 0.5 3.525
1.625 0.5 3.525
1.75 0.5 3.525
1.875 0.5 3.525
2 0.5 3.525
2.125 0.5 3.525
2.25 0.5 3.525
2.375 0.5 3.525
2.5 0.5 3.525
2.625 0.5 3.525
2.75 0.5 3.525
2.875 0.5 3.525
3 0.5 3.525
3.125 0.5 3.525
3.25 0.5 3.525
3.375 0.5 3.525
3.5 0.5 3.525
3.625 0.5 3.525
3.75 0.5 3.525
3.875 0.5 3.525
4 0.5 3.525
0 0.625 3.525
0.125 0.625 3.525
0.25 0.625 3.525
0.375 0.625 3.525
0.5 0.625 3.525
0.625 0.625 3.525
0.75 0.625 3.525
0.875 0.625 3.525
1 0.625 3.525
1.125 0.625 3.525
1.25 0.625 3.525
1.375 0.625 3.525
1.5 0.625 3.525
1.625 0.625 3.525
1.75 0.625 3.525
1.875 0.625 3.525
2 0.625 3.525
2.125 0.625 3.525
2.25 0.625 3.525
2.375 0.625 3.525
2.5 0.625 3.525
2.625 0.625 3.525
2.75 0.625 3.525
2.875 0.625 3.525
3 0.625 3.525
3.125 0.625 3.525
3.25 0.625 3.525
3.375 0.625 3.525
3.5 0.625 3.525
3.625 0.625 3.525
3.75 0.625 3.525
3.875 0.625 3.525
4 0.625 3.525
0 0.75 3.525
0.125 0.75 3.525
0.25 0.75 3.525
0.375 0.75 3.525
0.5 0.75 3.525
0.625 0.75 3.525
0.75 0.75 3.525
0.875 0.75 3.525
1 0.75 3.525
1.125 0.75 3.525
1.25 0.75 3.525
1.375 0.75 3.525
1.5 0.75 3.525
1.625 0.75 3.525
1.75 0.75 3.525
1.875 0.75 3.525
2 0.75 3.525
2.125 0.75 3.525
2.25 0.75 3.525
2.375 0.75 3.525
2.5 0.75 3.525
2.625 0.75 3.525
2.75 0.75 3.525
2.875 0.75 3.525
3 0.75 3.525
3.125 0.75 3.525
3.25 0.75 3.525
3.375 0.75 3.525
3.5 0.75 3.525
3.625 0.75 3.525
3.75 0.75 3.525
3.875 0.75 3.525
4 0.75 3.525
0 0.875 3.525
0.125 0.875 3.525
0.25 0.875 3.525
0.375 0.875 3.525
0.5 0.875 3.525
0.625 0.875 3.525
0.75 0.875 3.525
0.875 0.875 3.525
1 0.875 3.525
1.125 0.875 3.525
1.25 0.875 3.525
1.375 0.875 3.525
1.5 0.875 3.525
1.625 0.875 3.525
1.75 0.875 3.525
1.875 0.875 3.525
2 0.875 3.525
2.125 0.875 3.525
2.25 0.875 3.525
2.375 0.875 3.525
2.5 0.875 3.525
2.625 0.875 3.525
2.75 0.875 3.525
2.875 0.875 3.525
3 0.875 3.525
3.125 0.875 3.525
3.25 0.875 3.525
3.375 0.875 3.525
3.5 0.875 3.525
3.625 0.875 3.525
3.75 0.875 3.525
3.875 0.875 3.525
4 0.875 3.525
0 1 3.525
0.125 1 3.525
0.25 1 3.525
0.375 1 3.525
0.5 1 3.525
0.625 1 3.525
0.75 1 3.525
0.875 1 3.525
1 1 3.525
1.125 1 3.525
1.25 1 3.525
1.375 1 3.525
1.5 1 3.525
1.625 1 3.525
1.75 1 3.525
1.875 1 3.525
2 1 3.525
2.125 1 3.525
2.25 1 3.525
2.375 1 3.525
2.5 1 3.525
2.625 1 3.525
2.75 1 3.525
2.875 1 3.525
3 1 3.525
3.125 1 3.525
3.25 1 3.525
3.375 1 3.525
3.5 1 3.525
3.625 1 3.525
3.75 1 3.525
3.875 1 3.525
4 1 3.525
0 0 3.65
0.125 0 3.65
0.25 0 3.65
0.375 0 3.65
0.5 0 3.65
0.625 0 3.65
0.75 0 3.65
0.875 0 3.65
1 0 3.65
1.125 0 3.65
1.25 0 3.65
1.375 0 3.65
1.5 0 3.65
1.625 0 3.65
1.75 0 3.65
1.875 0 3.65
2 0 3.65
2.125 0 3.65
2.25 0 3.65
2.375 0 3.65
2.5 0 3.65
2.625 0 3.65
2.75 0 3.65
2.875 0 3.65
3 0 3.65
3.125 0 3.65
3.25 0 3.65
3.375 0 3.65
3.5 0 3.65
3.625 0 3.65
3.75 0 3.65
3.875 0 3.65
4 0 3.65
0 0.125 3.65
0.125 0.125 3.65
0.25 0.125 3.65
0.375 0.125 3.65
0.5 0.125 3.65
0.625 0.125 3.65
0.75 0.125 3.65
0.875 0.125 3.65
1 0.125 3.65
1.125 0.125 3.65
1.25 0.125 3.65
1.375 0.125 3.65
1.5 0.125 3.65
1.625 0.125 3.65
1.75 0.125 3.65
1.875 0.125 3.65
2 0.125 3.65
2.125 0.125 3.65
2.25 0.125 3.65
2.375 0.125 3.65
2.5 0.125 3.65
2.625 0.125 3.65
2.75 0.125 3.65
2.875 0.125 3.65
3 0.125 3.65
3.125 0.125 3.65
3.25 0.125 3.65
3.375 0.125 3.65
3.5 0.125 3.65
3.625 0.125 3.65
3.75 0.125 3.65
3.875 0.125 3.65
4 0.125 3.65
0 0.25 3.65
0.125 0.25 3.65
0.25 0.25 3.65
0.375 0.25 3.65
0.5 0.25 3.65
0.625 0.25 3.65
0.75 0.25 3.65
0.875 0.25 3.65
1 0.25 3.65
1.125 0.25 3.65
1.25 0.25 3.65
1.375 0.25 3.65
1.5 0.25 3.65
1.625 0.25 3.65
1.75 0.25 3.65
1.875 0.25 3.65
2 0.25 3.65
2.125 0.25 3.65
2.25 0.25 3.65
2.375 0.25 3.65
2.5 0.25 3.65
2.625 0.25 3.65
2.75 0.25 3.65
2.875 0.25 3.65
3 0.25 3.65
3.125 0.25 3.65
3.25 0.25 3.65
3.375 0.25 3.65
3.5 0.25 3.65
3.625 0.25 3.65
3.75 0.25 3.65
3.875 0.25 3.65
4 0.25 3.65
0 0.375 3.65
0.125 0.375 3.65
0.25 0.375 3.65
0.375 0.375 3.65
0.5 0.375 3.65
0.625 0.375 3.65
0.75 0.375 3.65
0.875 0.375 3.65
1 0.375 3.65
1.125 0.375 3.65
1.25 0.375 3.65
1.375 0.375 3.65
1.5 0.375 3.65
1.625 0.375 3.65
1.75 0.375 3.65
1.875 0.375 3.65
2 0.375 3.65
2.125 0.375 3.65
2.25 0.375 3.65
2.375 0.375 3.65
2.5 0.375 3.65
2.625 0.375 3.65
2.75 0.375 3.65
2.875 0.375 3.65
3 0.375 3.65
3.125 0.375 3.65
3.25 0.375 3.65
3.375 0.375 3.65
3.5 0.375 3.65
3.625 0.375 3.65
3.75 0.375 3.65
3.875 0.375 3.65
4 0.375 3.65
0 0.5 3.65
0.125 0.5 3.65
0.25 0.5 3.65
0.375 0.5 3.65
0.5 0.5 3.65
0.625 0.5 3.65
0.75 0.5 3.65
0.875 0.5 3.65
1 0.5 3.65
1.125 0.5 3.65
1.25 0.5 3.65
1.375 0.5 3.65
1.5 0.5 3.65
1.625 0.5 3.65
1.75 0.5 3.65
1.875 0.5 3.65
2 0.5 3.65
2.125 0.5 3.65
2.25 0.5 3.65
2.375 0.5 3.65
2.5 0.5 3.65
2.625 0.5 3.65
2.75 0.5 3.65
2.875 0.5 3.65
3 0.5 3.65
3.125 0.5 3.65
3.25 0.5 3.65
3.375 0.5 3.65
3.5 0.5 3.65
3.625 0.5 3.65
3.75 0.5 3.65
3.875 0.5 3.65
4 0.5 3.65
0 0.625 3.65
0.125 0.625 3.65
0.25 0.625 3.65
0.375 0.625 3.65
0.5 0.625 3.65
0.625 0.625 3.65
0.75 0.625 3.65
0.875 0.625 3.65
1 0.625 3.65
1.125 0.625 3.65
1.25 0.625 3.65
1.375 0.625 3.65
1.5 0.625 3.65
1.625 0.625 3.65
1.75 0.625 3.65
1.875 0.625 3.65
2 0.625 3.65
2.125 0.625 3.65
2.25 0.625 3.65
2.375 0.625 3.65
2.5 0.625 3.65
2.625 0.625 3.65
2.75 0.625 3.65
2.875 0.625 3.65
3 0.625 3.65
3.125 0.625 3.65
3.25 0.625 3.65
3.375 0.625 3.65
3.5 0.625 3.65
3.625 0.625 3.65
3.75 0.625 3.65
3.875 0.625 3.65
4 0.625 3.65
0 0.75 3.65
0.125 0.75 3.65
0.25 0.75 3.65
0.375 0.75 3.65
0.5 0.75 3.65
0.625 0.75 3.65
0.75 0.75 3.65
0.875 0.75 3.65
1 0.75 3.65
1.125 0.75 3.65
1.25 0.75 3.65
1.375 0.75 3.65
1.5 0.75 3.65
1.625 0.75 3.65
1.75 0.75 3.65
1.875 0.75 3.65
2 0.75 3.65
2.125 0.75 3.65
2.25 0.75 3.65
2.375 0.75 3.65
2.5 0.75 3.65
2.625 0.75 3.65
2.75 0.75 3.65
2.875 0.75 3.65
3 0.75 3.65
3.125 0.75 3.65
3.25 0.75 3.65
3.375 0.75 3.65
3.5 0.75 3.65
3.625 0.75 3.65
3.75 0.75 3.65
3.875 0.75 3.65
4 0.75 3.65
0 0.875 3.65
0.125 0.875 3.65
0.25 0.875 3.65
0.375 0.875 3.65
0.5 0.875 3.65
0.625 0.875 3.65
0.75 0.875 3.65
0.875 0.875 3.65
1 0.875 3.65
1.125 0.875 3.65
1.25 0.875 3.65
1.375 0.875 3.65
1.5 0.875 3.65
1.625 0.875 3.65
1.75 0.875 3.65
1.875 0.875 3.65
2 0.875 3.65
2.125 0.875 3.65
2.25 0.875 3.65
2.375 0.875 3.65
2.5 0.875 3.65
2.625 0.875 3.65
2.75 0.875 3.65
2.875 0.875 3.65
3 0.875 3.65
3.125 0.875 3.65
3.25 0.875 3.65
3.375 0.875 3.65
3.5 0.875 3.65
3.625 0.875 3.65
3.75 0.875 3.65
3.875 0.875 3.65
4 0.875 3.65
0 1 3.65
0.125 1 3.65
0.25 1 3.65
0.375 1 3.65
0.5 1 3.65
0.625 1 3.65
0.75 1 3.65
0.875 1 3.65
1 1 3.65
1.125 1 3.65
1.25 1 3.65
1.375 1 3.65
1.5 1 3.65
1.625 1 3.65
1.75 1 3.65
1.875 1 3.65
2 1 3.65
2.125 1 3.65
2.25 1 3.65
2.375 1 3.65
2.5 1 3.65
2.625 1 3.65
2.75 1 3.65
2.875 1 3.65
3 1 3.65
3.125 1 3.65
3.25 1 3.65
3.375 1 3.65
3.5 1 3.65
3.625 1 3.65
3.75 1 3.65
3.875 1 3.65
4 1 3.65
0 0 3.775
0.125 0 3.775
0.25 0 3.775
0.375 0 3.775
0.5 0 3.775
0.625 0 3.775
0.75 0 3.775
0.875 0 3.775
1 0 3.775
1.125 0 3.775
1.25 0 3.775
1.375 0 3.775
1.5 0 3.775
1.625 0 3.775
1.75 0 3.775
1.875 0 3.775
2 0 3.775
2.125 0 3.775
2.25 0 3.775
2.375 0 3.775
2.5 0 3.775
2.625 0 3.775
2.75 0 3.775
2.875 0 3.775
3 0 3.775
3.125 0 3.775
3.25 0 3.775
3.375 0 3.775
3.5 0 3.775
3.625 0 3.775
3.75 0 3.775
3.875 0 3.775
4 0 3.775
0 0.125 3.775
0.125 0.125 3.775
0.25 0.125 3.775
0.375 0.125 3.775
0.5 0.125 3.775
0.625 0.125 3.775
0.75 0.125 3.775
0.875 0.125 3.775
1 0.125 3.775
1.125 0.125 3.775
1.25 0.125 3.775
1.375 0.125 3.775
1.5 0.125 3.775
1.625 0.125 3.775
1.75 0.125 3.775
1.875 0.125 3.775
2 0.125 3.775
2.125 0.125 3.775
2.25 0.125 3.775
2.375 0.125 3.775
2.5 0.125 3.775
2.625 0.125 3.775
2.75 0.125 3.775
2.875 0.125 3.775
3 0.125 3.775
3.125 0.125 3.775
3.25 0.125 3.775
3.375 0.125 3.775
3.5 0.125 3.775
3.625 0.125 3.775
3.75 0.125 3.775
3.875 0.125 3.775
4 0.125 3.775
0 0.25 3.775
0.125 0.25 3.775
0.25 0.25 3.775
0.375 0.25 3.775
0.5 0.25 3.775
0.625 0.25 3.775
0.75 0.25 3.775
0.875 0.25 3.775
1 0.25 3.775
1.125 0.25 3.775
1.25 0.25 3.775
1.375 0.25 3.775
1.5 0.25 3.775
1.625 0.25 3.775
1.75 0.25 3.775
1.875 0.25 3.775
2 0.25 3.775
2.125 0.25 3.775
2.25 0.25 3.775
2.375 0.25 3.775
2.5 0.25 3.775
2.625 0.25 3.775
2.75 0.25 3.775
2.875 0.25 3.775
3 0.25 3.775
3.125 0.25 3.775
3.25 0.25 3.775
3.375 0.25 3.775
3.5 0.25 3.775
3.625 0.25 3.775
3.75 0.25 3.775
3.875 0.25 3.775
4 0.25 3.775
0 0.375 3.775
0.125 0.375 3.775
0.25 0.375 3.775
0.375 0.375 3.775
0.5 0.375 3.775
0.625 0.375 3.775
0.75 0.375 3.775
0.875 0.375 3.775
1 0.375 3.775
1.125 0.375 3.775
1.25 0.375 3.775
1.375 0.375 3.775
1.5 0.375 3.775
1.625 0.375 3.775
1.75 0.375 3.775
1.875 0.375 3.775
2 0.375 3.775
2.125 0.375 3.775
2.25 0.375 3.775
2.375 0.375 3.775
2.5 0.375 3.775
2.625 0.375 3.775
2.75 0.375 3.775
2.875 0.375 3.775
3 0.375 3.775
3.125 0.375 3.775
3.25 0.375 3.775
3.375 0.375 3.775
3.5 0.375 3.775
3.625 0.375 3.775
3.75 0.375 3.775
3.875 0.375 3.775
4 0.375 3.775
0 0.5 3.775
0.125 0.5 3.775
0.25 0.5 3.775
0.375 0.5 3.775
0.5 0.5 3.775
0.625 0.5 3.775
0.75 0.5 3.775
0.875 0.5 3.775
1 0.5 3.775
1.125 0.5 3.775
1.25 0.5 3.775
1.375 0.5 3.775
1.5 0.5 3.775
1.625 0.5 3.775
1.75 0.5 3.775
1.875 0.5 3.775
2 0.5 3.775
2.125 0.5 3.775
2.25 0.5 3.775
2.375 0.5 3.775
2.5 0.5 3.775
2.625 0.5 3.775
2.75 0.5 3.775
2.875 0.5 3.775
3 0.5 3.775
3.125 0.5 3.775
3.25 0.5 3.775
3.375 0.5 3.775
3.5 0.5 3.775
3.625 0.5 3.775
3.75 0.5 3.775
3.875 0.5 3.775
4 0.5 3.775
0 0.625 3.775
0.125 0.625 3.775
0.25 0.625 3.775
0.375 0.625 3.775
0.5 0.625 3.775
0.625 0.625 3.775
0.75 0.625 3.775
0.875 0.625 3.775
1 0.625 3.775
1.125 0.625 3.775
1.25 0.625 3.775
1.375 0.625 3.775
1.5 0.625 3.775
1.625 0.625 3.775
1.75 0.625 3.775
1.875 0.625 3.775
2 0.625 3.775
2.125 0.625 3.775
2.25 0.625 3.775
2.375 0.625 3.775
2.5 0.625 3.775
2.625 0.625 3.775
2.75 0.625 3.775
2.875 0.625 3.775
3 0.625 3.775
3.125 0.625 3.775
3.25 0.625 3.775
3.375 0.625 3.775
3.5 0.625 3.775
3.625 0.625 3.775
3.75 0.625 3.775
3.875 0.625 3.775
4 0.625 3.775
0 0.75 3.775
0.125 0.75 3.775
0.25 0.75 3.775
0.375 0.75 3.775
0.5 0.75 3.775
0.625 0.75 3.775
0.75 0.75 3.775
0.875 0.75 3.775
1 0.75 3.775
1.125 0.75 3.775
1.25 0.75 3.775
1.375 0.75 3.775
1.5 0.75 3.775
1.625 0.75 3.775
1.75 0.75 3.775
1.875 0.75 3.775
2 0.75 3.775
2.125 0.75 3.775
2.25 0.75 3.775
2.375 0.75 3.775
2.5 0.75 3.775
2.625 0.75 3.775
2.75 0.75 3.775
2.875 0.75 3.775
3 0.75 3.775
3.125 0.75 3.775
3.25 0.75 3.775
3.375 0.75 3.775
3.5 0.75 3.775
3.625 0.75 3.775
3.75 0.75 3.775
3.875 0.75 3.775
4 0.75 3.775
0 0.875 3.775
0.125 0.875 3.775
0.25 0.875 3.775
0.375 0.875 3.775
0.5 0.875 3.775
0.625 0.875 3.775
0.75 0.875 3.775
0.875 0.875 3.775
1 0.875 3.775
1.125 0.875 3.775
1.25 0.875 3.775
1.375 0.875 3.775
1.5 0.875 3.775
1.625 0.875 3.775
1.75 0.875 3.775
1.875 0.875 3.775
2 0.875 3.775
2.125 0.875 3.775
2.25 0.875 3.775
2.375 0.875 3.775
2.5 0.875 3.775
2.625 0.875 3.775
2.75 0.875 3.775
2.875 0.875 3.775
3 0.875 3.775
3.125 0.875 3.775
3.25 0.875 3.775
3.375 0.875 3.775
3.5 0.875 3.775
3.625 0.875 3.775
3.75 0.875 3.775
3.875 0.875 3.775
4 0.875 3.775
0 1 3.775
0.125 1 3.775
0.25 1 3.775
0.375 1 3.775
0.5 1 3.775
0.625 1 3.775
0.75 1 3.775
0.875 1 3.775
1 1 3.775
1.125 1 3.775
1.25 1 3.775
1.375 1 3.775
1.5 1 3.775
1.625 1 3.775
1.75 1 3.775
1.875 1 3.775
2 1 3.775
2.125 1 3.775
2.25 1 3.775
2.375 1 3.775
2.5 1 3.775
2.625 1 3.775
2.75 1 3.775
2.875 1 3.775
3 1 3.775
3.125 1 3.775
3.25 1 3.775
3.375 1 3.775
3.5 1 3.775
3.625 1 3.775
3.75 1 3.775
3.875 1 3.775
4 1 3.775
0 0 3.9
0.125 0 3.9
0.25 0 3.9
0.375 0 3.9
0.5 0 3.9
0.625 0 3.9
0.75 0 3.9
0.875 0 3.9
1 0 3.9
1.125 0 3.9
1.25 0 3.9
1.375 0 3.9
1.5 0 3.9
1.625 0 3.9
1.75 0 3.9
1.875 0 3.9
2 0 3.9
2.125 0 3.9
2.25 0 3.9
2.375 0 3.9
2.5 0 3.9
2.625 0 3.9
2.75 0 3.9
2.875 0 3.9
3 0 3.9
3.125 0 3.9
3.25 0 3.9
3.375 0 3.9
3.5 0 3.9
3.625 0 3.9
3.75 0 3.9
3.875 0 3.9
4 0 3.9
0 0.125 3.9
0.125 0.125 3.9
0.25 0.125 3.9
0.375 0.125 3.9
0.5 0.125 3.9
0.625 0.125 3.9
0.75 0.125 3.9
0.875 0.125 3.9
1 0.125 3.9
1.125 0.125 3.9
1.25 0.125 3.9
1.375 0.125 3.9
1.5 0.125 3.9
1.625 0.125 3.9
1.75 0.125 3.9
1.875 0.125 3.9
2 0.125 3.9
2.125 0.125 3.9
2.25 0.125 3.9
2.375 0.125 3.9
2.5 0.125 3.9
2.625 0.125 3.9
2.75 0.125 3.9
2.875 0.125 3.9
3 0.125 3.9
3.125 0.125 3.9
3.25 0.125 3.9
3.375 0.125 3.9
3.5 0.125 3.9
3.625 0.125 3.9
3.75 0.125 3.9
3.875 0.125 3.9
4 0.125 3.9
0 0.25 3.9
0.125 0.25 3.9
0.25 0.25 3.9
0.375 0.25 3.9
0.5 0.25 3.9
0.625 0.25 3.9
0.75 0.25 3.9
0.875 0.25 3.9
1 0.25 3.9
1.125 0.25 3.9
1.25 0.25 3.9
1.375 0.25 3.9
1.5 0.25 3.9
1.625 0.25 3.9
1.75 0.25 3.9
1.875 0.25 3.9
2 0.25 3.9
2.125 0.25 3.9
2.25 0.25 3.9
2.375 0.25 3.9
2.5 0.25 3.9
2.625 0.25 3.9
2.75 0.25 3.9
2.875 0.25 3.9
3 0.25 3.9
3.125 0.25 3.9
3.25 0.25 3.9
3.375 0.25 3.9
3.5 0.25 3.9
3.625 0.25 3.9
3.75 0.25 3.9
3.875 0.25 3.9
4 0.25 3.9
0 0.375 3.9
0.125 0.375 3.9
0.25 0.375 3.9
0.375 0.375 3.9
0.5 0.375 3.9
0.625 0.375 3.9
0.75 0.375 3.9
0.875 0.375 3.9
1 0.375 3.9
1.125 0.375 3.9
1.25 0.375 3.9
1.375 0.375 3.9
1.5 0.375 3.9
1.625 0.375 3.9
1.75 0.375 3.9
1.875 0.375 3.9
2 0.375 3.9
2.125 0.375 3.9
2.25 0.375 3.9
2.375 0.375 3.9
2.5 0.375 3.9
2.625 0.375 3.9
2.75 0.375 3.9
2.875 0.375 3.9
3 0.375 3.9
3.125 0.375 3.9
3.25 0.375 3.9
3.375 0.375 3.9
3.5 0.375 3.9
3.625 0.375 3.9
3.75 0.375 3.9
3.875 0.375 3.9
4 0.375 3.9
0 0.5 3.9
0.125 0.5 3.9
0.25 0.5 3.9
0.375 0.5 3.9
0.5 0.5 3.9
0.625 0.5 3.9
0.75 0.5 3.9
0.875 0.5 3.9
1 0.5 3.9
1.125 0.5 3.9
1.25 0.5 3.9
1.375 0.5 3.9
1.5 0.5 3.9
1.625 0.5 3.9
1.75 0.5 3.9
1.875 0.5 3.9
2 0.5 3.9
2.125 0.5 3.9
2.25 0.5 3.9
2.375 0.5 3.9
2.5 0.5 3.9
2.625 0.5 3.9
2.75 0.5 3.9
2.875 0.5 3.9
3 0.5 3.9
3.125 0.5 3.9
3.25 0.5 3.9
3.375 0.5 3.9
3.5 0.5 3.9
3.625 0.5 3.9
3.75 0.5 3.9
3.875 0.5 3.9
4 0.5 3.9
0 0.625 3.9
0.125 0.625 3.9
0.25 0.625 3.9
0.375 0.625 3.9
0.5 0.625 3.9
0.625 0.625 3.9
0.75 0.625 3.9
0.875 0.625 3.9
1 0.625 3.9
1.125 0.625 3.9
1.25 0.625 3.9
1.375 0.625 3.9
1.5 0.625 3.9
1.625 0.625 3.9
1.75 0.625 3.9
1.875 0.625 3.9
2 0.625 3.9
2.125 0.625 3.9
2.25 0.625 3.9
2.375 0.625 3.9
2.5 0.625 3.9
2.625 0.625 3.9
2.75 0.625 3.9
2.875 0.625 3.9
3 0.625 3.9
3.125 0.625 3.9
3.25 0.625 3.9
3.375 0.625 3.9
3.5 0.625 3.9
3.625 0.625 3.9
3.75 0.625 3.9
3.875 0.625 3.9
4 0.625 3.9
0 0.75 3.9
0.125 0.75 3.9
0.25 0.75 3.9
0.375 0.75 3.9
0.5 0.75 3.9
0.625 0.75 3.9
0.75 0.75 3.9
0.875 0.75 3.9
1 0.75 3.9
1.125 0.75 3.9
1.25 0.75 3.9
1.375 0.75 3.9
1.5 0.75 3.9
1.625 0.75 3.9
1.75 0.75 3.9
1.875 0.75 3.9
2 0.75 3.9
2.125 0.75 3.9
2.25 0.75 3.9
2.375 0.75 3.9
2.5 0.75 3.9
2.625 0.75 3.9
2.75 0.75 3.9
2.875 0.75 3.9
3 0.75 3.9
3.125 0.75 3.9
3.25 0.75 3.9
3.375 0.75 3.9
3.5 0.75 3.9
3.625 0.75 3.9
3.75 0.75 3.9
3.875 0.75 3.9
4 0.75 3.9
0 0.875 3.9
0.125 0.875 3.9
0.25 0.875 3.9
0.375 0.875 3.9
0.5 0.875 3.9
0.625 0.875 3.9
0.75 0.875 3.9
0.875 0.875 3.9
1 0.875 3.9
1.125 0.875 3.9
1.25 0.875 3.9
1.375 0.875 3.9
1.5 0.875 3.9
1.625 0.875 3.9
1.75 0.875 3.9
1.875 0.875 3.9
2 0.875 3.9
2.125 0.875 3.9
2.25 0.875 3.9
2.375 0.875 3.9
2.5 0.875 3.9
2.625 0.875 3.9
2.75 0.875 3.9
2.875 0.875 3.9
3 0.875 3.9
3.125 0.875 3.9
3.25 0.875 3.9
3.375 0.875 3.9
3.5 0.875 3.9
3.625 0.875 3.9
3.75 0.875 3.9
3.875 0.875 3.9
4 0.875 3.9
0 1 3.9
0.125 1 3.9
0.25 1 3.9
0.375 1 3.9
0.5 1 3.9
0.625 1 3.9
0.75 1 3.9
0.875 1 3.9
1 1 3.9
1.125 1 3.9
1.25 1 3.9
1.375 1 3.9
1.5 1 3.9
1.625 1 3.9
1.75 1 3.9
1.875 1 3.9
2 1 3.9
2.125 1 3.9
2.25 1 3.9
2.375 1 3.9
2.5 1 3.9
2.625 1 3.9
2.75 1 3.9
2.875 1 3.9
3 1 3.9
3.125 1 3.9
3.25 1 3.9
3.375 1 3.9
3.5 1 3.9
3.625 1 3.9
3.75 1 3.9
3.875 1 3.9
4 1 3.9
0 0 4.025
0.125 0 4.025
0.25 0 4.025
0.375 0 4.025
0.5 0 4.025
0.625 0 4.025
0.75 0 4.025
0.875 0 4.025
1 0 4.025
1.125 0 4.025
1.25 0 4.025
1.375 0 4.025
1.5 0 4.025
1.625 0 4.025
1.75 0 4.025
1.875 0 4.025
2 0 4.025
2.125 0 4.025
2.25 0 4.025
2.375 0 4.025
2.5 0 4.025
2.625 0 4.025
2.75 0 4.025
2.875 0 4.025
3 0 4.025
3.125 0 4.025
3.25 0 4.025
3.375 0 4.025
3.5 0 4.025
3.625 0 4.025
3.75 0 4.025
3.875 0 4.025
4 0 4.025
0 0.125 4.025
0.125 0.125 4.025
0.25 0.125 4.025
0.375 0.125 4.025
0.5 0.125 4.025
0.625 0.125 4.025
0.75 0.125 4.025
0.875 0.125 4.025
1 0.125 4.025
1.125 0.125 4.025
1.25 0.125 4.025
1.375 0.125 4.025
1.5 0.125 4.025
1.625 0.125 4.025
1.75 0.125 4.025
1.875 0.125 4.025
2 0.125 4.025
2.125 0.125 4.025
2.25 0.125 4.025
2.375 0.125 4.025
2.5 0.125 4.025
2.625 0.125 4.025
2.75 0.125 4.025
2.875 0.125 4.025
3 0.125 4.025
3.125 0.125 4.025
3.25 0.125 4.025
3.375 0.125 4.025
3.5 0.125 4.025
3.625 0.125 4.025
3.75 0.125 4.025
3.875 0.125 4.025
4 0.125 4.025
0 0.25 4.025
0.125 0.25 4.025
0.25 0.25 4.025
0.375 0.25 4.025
0.5 0.25 4.025
0.625 0.25 4.025
0.75 0.25 4.025
0.875 0.25 4.025
1 0.25 4.025
1.125 0.25 4.025
1.25 0.25 4.025
1.375 0.25 4.025
1.5 0.25 4.025
1.625 0.25 4.025
1.75 0.25 4.025
1.875 0.25 4.025
2 0.25 4.025
2.125 0.25 4.025
2.25 0.25 4.025
2.375 0.25 4.025
2.5 0.25 4.025
2.625 0.25 4.025
2.75 0.25 4.025
2.875 0.25 4.025
3 0.25 4.025
3.125 0.25 4.025
3.25 0.25 4.025
3.375 0.25 4.025
3.5 0.25 4.025
3.625 0.25 4.025
3.75 0.25 4.025
3.875 0.25 4.025
4 0.25 4.025
0 0.375 4.025
0.125 0.375 4.025
0.25 0.375 4.025
0.375 0.375 4.025
0.5 0.375 4.025
0.625 0.375 4.025
0.75 0.375 4.025
0.875 0.375 4.025
1 0.375 4.025
1.125 0.375 4.025
1.25 0.375 4.025
1.375 0.375 4.025
1.5 0.375 4.025
1.625 0.375 4.025
1.75 0.375 4.025
1.875 0.375 4.025
2 0.375 4.025
2.125 0.375 4.025
2.25 0.375 4.025
2.375 0.375 4.025
2.5 0.375 4.025
2.625 0.375 4.025
2.75 0.375 4.025
2.875 0.375 4.025
3 0.375 4.025
3.125 0.375 4.025
3.25 0.375 4.025
3.375 0.375 4.025
3.5 0.375 4.025
3.625 0.375 4.025
3.75 0.375 4.025
3.875 0.375 4.025
4 0.375 4.025
0 0.5 4.025
0.125 0.5 4.025
0.25 0.5 4.025
0.375 0.5 4.025
0.5 0.5 4.025
0.625 0.5 4.025
0.75 0.5 4.025
0.875 0.5 4.025
1 0.5 4.025
1.125 0.5 4.025
1.25 0.5 4.025
1.375 0.5 4.025
1.5 0.5 4.025
1.625 0.5 4.025
1.75 0.5 4.025
1.875 0.5 4.025
2 0.5 4.025
2.125 0.5 4.025
2.25 0.5 4.025
2.375 0.5 4.025
2.5 0.5 4.025
2.625 0.5 4.025
2.75 0.5 4.025
2.875 0.5 4.025
3 0.5 4.025
3.125 0.5 4.025
3.25 0.5 4.025
3.375 0.5 4.025
3.5 0.5 4.025
3.625 0.5 4.025
3.75 0.5 4.025
3.875 0.5 4.025
4 0.5 4.025
0 0.625 4.025
0.125 0.625 4.025
0.25 0.625 4.025
0.375 0.625 4.025
0.5 0.625 4.025
0.625 0.625 4.025
0.75 0.625 4.025
0.875 0.625 4.025
1 0.625 4.025
1.125 0.625 4.025
1.25 0.625 4.025
1.375 0.625 4.025
1.5 0.625 4.025
1.625 0.625 4.025
1.75 0.625 4.025
1.875 0.625 4.025
2 0.625 4.025
2.125 0.625 4.025
2.25 0.625 4.025
2.375 0.625 4.025
2.5 0.625 4.025
2.625 0.625 4.025
2.75 0.625 4.025
2.875 0.625 4.025
3 0.625 4.025
3.125 0.625 4.025
3.25 0.625 4.025
3.375 0.625 4.025
3.5 0.625 4.025
3.625 0.625 4.025
3.75 0.625 4.025
3.875 0.625 4.025
4 0.625 4.025
0 0.75 4.025
0.125 0.75 4.025
0.25 0.75 4.025
0.375 0.75 4.025
0.5 0.75 4.025
0.625 0.75 4.025
0.75 0.75 4.025
0.875 0.75 4.025
1 0.75 4.025
1.125 0.75 4.025
1.25 0.75 4.025
1.375 0.75 4.025
1.5 0.75 4.025
1.625 0.75 4.025
1.75 0.75 4.025
1.875 0.75 4.025
2 0.75 4.025
2.125 0.75 4.025
2.25 0.75 4.025
2.375 0.75 4.025
2.5 0.75 4.025
2.625 0.75 4.025
2.75 0.75 4.025
2.875 0.75 4.025
3 0.75 4.025
3.125 0.75 4.025
3.25 0.75 4.025
3.375 0.75 4.025
3.5 0.75 4.025
3.625 0.75 4.025
3.75 0.75 4.025
3.875 0.75 4.025
4 0.75 4.025
0 0.875 4.025
0.125 0.875 4.025
0.25 0.875 4.025
0.375 0.875 4.025
0.5 0.875 4.025
0.625 0.875 4.025
0.75 0.875 4.025
0.875 0.875 4.025
1 0.875 4.025
1.125 0.875 4.025
1.25 0.875 4.025
1.375 0.875 4.025
1.5 0.875 4.025
1.625 0.875 4.025
1.75 0.875 4.025
1.875 0.875 4.025
2 0.875 4.025
2.125 0.875 4.025
2.25 0.875 4.025
2.375 0.875 4.025
2.5 0.875 4.025
2.625 0.875 4.025
2.75 0.875 4.025
2.875 0.875 4.025
3 0.875 4.025
3.125 0.875 4.025
3.25 0.875 4.025
3.375 0.875 4.025
3.5 0.875 4.025
3.625 0.875 4.025
3.75 0.875 4.025
3.875 0.875 4.025
4 0.875 4.025
0 1 4.025
0.125 1 4.025
0.25 1 4.025
0.375 1 4.025
0.5 1 4.025
0.625 1 4.025
0.75 1 4.025
0.875 1 4.025
1 1 4.025
1.125 1 4.025
1.25 1 4.025
1.375 1 4.025
1.5 1 4.025
1.625 1 4.025
1.75 1 4.025
1.875 1 4.025
2 1 4.025
2.125 1 4.025
2.25 1 4.025
2.375 1 4.025
2.5 1 4.025
2.625 1 4.025
2.75 1 4.025
2.875 1 4.025
3 1 4.025
3.125 1 4.025
3.25 1 4.025
3.375 1 4.025
3.5 1 4.025
3.625 1 4.025
3.75 1 4.025
3.875 1 4.025
4 1 4.025
0 0 4.15
0.125 0 4.15
0.25 0 4.15
0.375 0 4.15
0.5 0 4.15
0.625 0 4.15
0.75 0 4.15
0.875 0 4.15
1 0 4.15
1.125 0 4.15
1.25 0 4.15
1.375 0 4.15
1.5 0 4.15
1.625 0 4.15
1.75 0 4.15
1.875 0 4.15
2 0 4.15
2.125 0 4.15
2.25 0 4.15
2.375 0 4.15
2.5 0 4.15
2.625 0 4.15
2.75 0 4.15
2.875 0 4.15
3 0 4.15
3.125 0 4.15
3.25 0 4.15
3.375 0 4.15
3.5 0 4.15
3.625 0 4.15
3.75 0 4.15
3.875 0 4.15
4 0 4.15
0 0.125 4.15
0.125 0.125 4.15
0.25 0.125 4.15
0.375 0.125 4.15
0.5 0.125 4.15
0.625 0.125 4.15
0.75 0.125 4.15
0.875 0.125 4.15
1 0.125 4.15
1.125 0.125 4.15
1.25 0.125 4.15
1.375 0.125 4.15
1.5 0.125 4.15
1.625 0.125 4.15
1.75 0.125 4.15
1.875 0.125 4.15
2 0.125 4.15
2.125 0.125 4.15
2.25 0.125 4.15
2.375 0.125 4.15
2.5 0.125 4.15
2.625 0.125 4.15
2.75 0.125 4.15
2.875 0.125 4.15
3 0.125 4.15
3.125 0.125 4.15
3.25 0.125 4.15
3.375 0.125 4.15
3.5 0.125 4.15
3.625 0.125 4.15
3.75 0.125 4.15
3.875 0.125 4.15
4 0.125 4.15
0 0.25 4.15
0.125 0.25 4.15
0.25 0.25 4.15
0.375 0.25 4.15
0.5 0.25 4.15
0.625 0.25 4.15
0.75 0.25 4.15
0.875 0.25 4.15
1 0.25 4.15
1.125 0.25 4.15
1.25 0.25 4.15
1.375 0.25 4.15
1.5 0.25 4.15
1.625 0.25 4.15
1.75 0.25 4.15
1.875 0.25 4.15
2 0.25 4.15
2.125 0.25 4.15
2.25 0.25 4.15
2.375 0.25 4.15
2.5 0.25 4.15
2.625 0.25 4.15
2.75 0.25 4.15
2.875 0.25 4.15
3 0.25 4.15
3.125 0.25 4.15
3.25 0.25 4.15
3.375 0.25 4.15
3.5 0.25 4.15
3.625 0.25 4.15
3.75 0.25 4.15
3.875 0.25 4.15
4 0.25 4.15
0 0.375 4.15
0.125 0.375 4.15
0.25 0.375 4.15
0.375 0.375 4.15
0.5 0.375 4.15
0.625 0.375 4.15
0.75 0.375 4.15
0.875 0.375 4.15
1 0.375 4.15
1.125 0.375 4.15
1.25 0.375 4.15
1.375 0.375 4.15
1.5 0.375 4.15
1.625 0.375 4.15
1.75 0.375 4.15
1.875 0.375 4.15
2 0.375 4.15
2.125 0.375 4.15
2.25 0.375 4.15
2.375 0.375 4.15
2.5 0.375 4.15
2.625 0.375 4.15
2.75 0.375 4.15
2.875 0.375 4.15
3 0.375 4.15
3.125 0.375 4.15
3.25 0.375 4.15
3.375 0.375 4.15
3.5 0.375 4.15
3.625 0.375 4.15
3.75 0.375 4.15
3.875 0.375 4.15
4 0.375 4.15
0 0.5 4.15
0.125 0.5 4.15
0.25 0.5 4.15
0.375 0.5 4.15
0.5 0.5 4.15
0.625 0.5 4.15
0.75 0.5 4.15
0.875 0.5 4.15
1 0.5 4.15
1.125 0.5 4.15
1.25 0.5 4.15
1.375 0.5 4.15
1.5 0.5 4.15
1.625 0.5 4.15
1.75 0.5 4.15
1.875 0.5 4.15
2 0.5 4.15
2.125 0.5 4.15
2.25 0.5 4.15
2.375 0.5 4.15
2.5 0.5 4.15
2.625 0.5 4.15
2.75 0.5 4.15
2.875 0.5 4.15
3 0.5 4.15
3.125 0.5 4.15
3.25 0.5 4.15
3.375 0.5 4.15
3.5 0.5 4.15
3.625 0.5 4.15
3.75 0.5 4.15
3.875 0.5 4.15
4 0.5 4.15
0 0.625 4.15
0.125 0.625 4.15
0.25 0.625 4.15
0.375 0.625 4.15
0.5 0.625 4.15
0.625 0.625 4.15
0.75 0.625 4.15
0.875 0.625 4.15
1 0.625 4.15
1.125 0.625 4.15
1.25 0.625 4.15
1.375 0.625 4.15
1.5 0.625 4.15
1.625 0.625 4.15
1.75 0.625 4.15
1.875 0.625 4.15
2 0.625 4.15
2.125 0.625 4.15
2.25 0.625 4.15
2.375 0.625 4.15
2.5 0.625 4.15
2.625 0.625 4.15
2.75 0.625 4.15
2.875 0.625 4.15
3 0.625 4.15
3.125 0.625 4.15
3.25 0.625 4.15
3.375 0.625 4.15
3.5 0.625 4.15
3.625 0.625 4.15
3.75 0.625 4.15
3.875 0.625 4.15
4 0.625 4.15
0 0.75 4.15
0.125 0.75 4.15
0.25 0.75 4.15
0.375 0.75 4.15
0.5 0.75 4.15
0.625 0.75 4.15
0.75 0.75 4.15
0.875 0.75 4.15
1 0.75 4.15
1.125 0.75 4.15
1.25 0.75 4.15
1.375 0.75 4.15
1.5 0.75 4.15
1.625 0.75 4.15
1.75 0.75 4.15
1.875 0.75 4.15
2 0.75 4.15
2.125 0.75 4.15
2.25 0.75 4.15
2.375 0.75 4.15
2.5 0.75 4.15
2.625 0.75 4.15
2.75 0.75 4.15
2.875 0.75 4.15
3 0.75 4.15
3.125 0.75 4.15
3.25 0.75 4.15
3.375 0.75 4.15
3.5 0.75 4.15
3.625 0.75 4.15
3.75 0.75 4.15
3.875 0.75 4.15
4 0.75 4.15
0 0.875 4.15
0.125 0.875 4.15
0.25 0.875 4.15
0.375 0.875 4.15
0.5 0.875 4.15
0.625 0.875 4.15
0.75 0.875 4.15
0.875 0.875 4.15
1 0.875 4.15
1.125 0.875 4.15
1.25 0.875 4.15
1.375 0.875 4.15
1.5 0.875 4.15
1.625 0.875 4.15
1.75 0.875 4.15
1.875 0.875 4.15
2 0.875 4.15
2.125 0.875 4.15
2.25 0.875 4.15
2.375 0.875 4.15
2.5 0.875 4.15
2.625 0.875 4.15
2.75 0.875 4.15
2.875 0.875 4.15
3 0.875 4.15
3.125 0.875 4.15
3.25 0.875 4.15
3.375 0.875 4.15
3.5 0.875 4.15
3.625 0.875 4.15
3.75 0.875 4.15
3.875 0.875 4.15
4 0.875 4.15
0 1 4.15
0.125 1 4.15
0.25 1 4.15
0.375 1 4.15
0.5 1 4.15
0.625 1 4.15
0.75 1 4.15
0.875 1 4.15
1 1 4.15
1.125 1 4.15
1.25 1 4.15
1.375 1 4.15
1.5 1 4.15
1.625 1 4.15
1.75 1 4.15
1.875 1 4.15
2 1 4.15
2.125 1 4.15
2.25 1 4.15
2.375 1 4.15
2.5 1 4.15
2.625 1 4.15
2.75 1 4.15
2.875 1 4.15
3 1 4.15
3.125 1 4.15
3.25 1 4.15
3.375 1 4.15
3.5 1 4.15
3.625 1 4.15
3.75 1 4.15
3.875 1 4.15
4 1 4.15
0 0 4.275
0.125 0 4.275
0.25 0 4.275
0.375 0 4.275
0.5 0 4.275
0.625 0 4.275
0.75 0 4.275
0.875 0 4.275
1 0 4.275
1.125 0 4.275
1.25 0 4.275
1.375 0 4.275
1.5 0 4.275
1.625 0 4.275
1.75 0 4.275
1.875 0 4.275
2 0 4.275
2.125 0 4.275
2.25 0 4.275
2.375 0 4.275
2.5 0 4.275
2.625 0 4.275
2.75 0 4.275
2.875 0 4.275
3 0 4.275
3.125 0 4.275
3.25 0 4.275
3.375 0 4.275
3.5 0 4.275
3.625 0 4.275
3.75 0 4.275
3.875 0 4.275
4 0 4.275
0 0.125 4.275
0.125 0.125 4.275
0.25 0.125 4.275
0.375 0.125 4.275
0.5 0.125 4.275
0.625 0.125 4.275
0.75 0.125 4.275
0.875 0.125 4.275
1 0.125 4.275
1.125 0.125 4.275
1.25 0.125 4.275
1.375 0.125 4.275
1.5 0.125 4.275
1.625 0.125 4.275
1.75 0.125 4.275
1.875 0.125 4.275
2 0.125 4.275
2.125 0.125 4.275
2.25 0.125 4.275
2.375 0.125 4.275
2.5 0.125 4.275
2.625 0.125 4.275
2.75 0.125 4.275
2.875 0.125 4.275
3 0.125 4.275
3.125 0.125 4.275
3.25 0.125 4.275
3.375 0.125 4.275
3.5 0.125 4.275
3.625 0.125 4.275
3.75 0.125 4.275
3.875 0.125 4.275
4 0.125 4.275
0 0.25 4.275
0.125 0.25 4.275
0.25 0.25 4.275
0.375 0.25 4.275
0.5 0.25 4.275
0.625 0.25 4.275
0.75 0.25 4.275
0.875 0.25 4.275
1 0.25 4.275
1.125 0.25 4.275
1.25 0.25 4.275
1.375 0.25 4.275
1.5 0.25 4.275
1.625 0.25 4.275
1.75 0.25 4.275
1.875 0.25 4.275
2 0.25 4.275
2.125 0.25 4.275
2.25 0.25 4.275
2.375 0.25 4.275
2.5 0.25 4.275
2.625 0.25 4.275
2.75 0.25 4.275
2.875 0.25 4.275
3 0.25 4.275
3.125 0.25 4.275
3.25 0.25 4.275
3.375 0.25 4.275
3.5 0.25 4.275
3.625 0.25 4.275
3.75 0.25 4.275
3.875 0.25 4.275
4 0.25 4.275
0 0.375 4.275
0.125 0.375 4.275
0.25 0.375 4.275
0.375 0.375 4.275
0.5 0.375 4.275
0.625 0.375 4.275
0.75 0.375 4.275
0.875 0.375 4.275
1 0.375 4.275
1.125 0.375 4.275
1.25 0.375 4.275
1.375 0.375 4.275
1.5 0.375 4.275
1.625 0.375 4.275
1.75 0.375 4.275
1.875 0.375 4.275
2 0.375 4.275
2.125 0.375 4.275
2.25 0.375 4.275
2.375 0.375 4.275
2.5 0.375 4.275
2.625 0.375 4.275
2.75 0.375 4.275
2.875 0.375 4.275
3 0.375 4.275
3.125 0.375 4.275
3.25 0.375 4.275
3.375 0.375 4.275
3.5 0.375 4.275
3.625 0.375 4.275
3.75 0.375 4.275
3.875 0.375 4.275
4 0.375 4.275
0 0.5 4.275
0.125 0.5 4.275
0.25 0.5 4.275
0.375 0.5 4.275
0.5 0.5 4.275
0.625 0.5 4.275
0.75 0.5 4.275
0.875 0.5 4.275
1 0.5 4.275
1.125 0.5 4.275
1.25 0.5 4.275
1.375 0.5 4.275
1.5 0.5 4.275
1.625 0.5 4.275
1.75 0.5 4.275
1.875 0.5 4.275
2 0.5 4.275
2.125 0.5 4.275
2.25 0.5 4.275
2.375 0.5 4.275
2.5 0.5 4.275
2.625 0.5 4.275
2.75 0.5 4.275
2.875 0.5 4.275
3 0.5 4.275
3.125 0.5 4.275
3.25 0.5 4.275
3.375 0.5 4.275
3.5 0.5 4.275
3.625 0.5 4.275
3.75 0.5 4.275
3.875 0.5 4.275
4 0.5 4.275
0 0.625 4.275
0.125 0.625 4.275
0.25 0.625 4.275
0.375 0.625 4.275
0.5 0.625 4.275
0.625 0.625 4.275
0.75 0.625 4.275
0.875 0.625 4.275
1 0.625 4.275
1.125 0.625 4.275
1.25 0.625 4.275
1.375 0.625 4.275
1.5 0.625 4.275
1.625 0.625 4.275
1.75 0.625 4.275
1.875 0.625 4.275
2 0.625 4.275
2.125 0.625 4.275
2.25 0.625 4.275
2.375 0.625 4.275
2.5 0.625 4.275
2.625 0.625 4.275
2.75 0.625 4.275
2.875 0.625 4.275
3 0.625 4.275
3.125 0.625 4.275
3.25 0.625 4.275
3.375 0.625 4.275
3.5 0.625 4.275
3.625 0.625 4.275
3.75 0.625 4.275
3.875 0.625 4.275
4 0.625 4.275
0 0.75 4.275
0.125 0.75 4.275
0.25 0.75 4.275
0.375 0.75 4.275
0.5 0.75 4.275
0.625 0.75 4.275
0.75 0.75 4.275
0.875 0.75 4.275
1 0.75 4.275
1.125 0.75 4.275
1.25 0.75 4.275
1.375 0.75 4.275
1.5 0.75 4.275
1.625 0.75 4.275
1.75 0.75 4.275
1.875 0.75 4.275
2 0.75 4.275
2.125 0.75 4.275
2.25 0.75 4.275
2.375 0.75 4.275
2.5 0.75 4.275
2.625 0.75 4.275
2.75 0.75 4.275
2.875 0.75 4.275
3 0.75 4.275
3.125 0.75 4.275
3.25 0.75 4.275
3.375 0.75 4.275
3.5 0.75 4.275
3.625 0.75 4.275
3.75 0.75 4.275
3.875 0.75 4.275
4 0.75 4.275
0 0.875 4.275
0.125 0.875 4.275
0.25 0.875 4.275
0.375 0.875 4.275
0.5 0.875 4.275
0.625 0.875 4.275
0.75 0.875 4.275
0.875 0.875 4.275
1 0.875 4.275
1.125 0.875 4.275
1.25 0.875 4.275
1.375 0.875 4.275
1.5 0.875 4.275
1.625 0.875 4.275
1.75 0.875 4.275
1.875 0.875 4.275
2 0.875 4.275
2.125 0.875 4.275
2.25 0.875 4.275
2.375 0.875 4.275
2.5 0.875 4.275
2.625 0.875 4.275
2.75 0.875 4.275
2.875 0.875 4.275
3 0.875 4.275
3.125 0.875 4.275
3.25 0.875 4.275
3.375 0.875 4.275
3.5 0.875 4.275
3.625 0.875 4.275
3.75 0.875 4.275
3.875 0.875 4.275
4 0.875 4.275
0 1 4.275
0.125 1 4.275
0.25 1 4.275
0.375 1 4.275
0.5 1 4.275
0.625 1 4.275
0.75 1 4.275
0.875 1 4.275
1 1 4.275
1.125 1 4.275
1.25 1 4.275
1.375 1 4.275
1.5 1 4.275
1.625 1 4.275
1.75 1 4.275
1.875 1 4.275
2 1 4.275
2.125 1 4.275
2.25 1 4.275
2.375 1 4.275
2.5 1 4.275
2.625 1 4.275
2.75 1 4.275
2.875 1 4.275
3 1 4.275
3.125 1 4.275
3.25 1 4.275
3.375 1 4.275
3.5 1 4.275
3.625 1 4.275
3.75 1 4.275
3.875 1 4.275
4 1 4.275
0 0 4.4
0.125 0 4.4
0.25 0 4.4
0.375 0 4.4
0.5 0 4.4
0.625 0 4.4
0.75 0 4.4
0.875 0 4.4
1 0 4.4
1.125 0 4.4
1.25 0 4.4
1.375 0 4.4
1.5 0 4.4
1.625 0 4.4
1.75 0 4.4
1.875 0 4.4
2 0 4.4
2.125 0 4.4
2.25 0 4.4
2.375 0 4.4
2.5 0 4.4
2.625 0 4.4
2.75 0 4.4
2.875 0 4.4
3 0 4.4
3.125 0 4.4
3.25 0 4.4
3.375 0 4.4
3.5 0 4.4
3.625 0 4.4
3.75 0 4.4
3.875 0 4.4
4 0 4.4
0 0.125 4.4
0.125 0.125 4.4
0.25 0.125 4.4
0.375 0.125 4.4
0.5 0.125 4.4
0.625 0.125 4.4
0.75 0.125 4.4
0.875 0.125 4.4
1 0.125 4.4
1.125 0.125 4.4
1.25 0.125 4.4
1.375 0.125 4.4
1.5 0.125 4.4
1.625 0.125 4.4
1.75 0.125 4.4
1.875 0.125 4.4
2 0.125 4.4
2.125 0.125 4.4
2.25 0.125 4.4
2.375 0.125 4.4
2.5 0.125 4.4
2.625 0.125 4.4
2.75 0.125 4.4
2.875 0.125 4.4
3 0.125 4.4
3.125 0.125 4.4
3.25 0.125 4.4
3.375 0.125 4.4
3.5 0.125 4.4
3.625 0.125 4.4
3.75 0.125 4.4
3.875 0.125 4.4
4 0.125 4.4
0 0.25 4.4
0.125 0.25 4.4
0.25 0.25 4.4
0.375 0.25 4.4
0.5 0.25 4.4
0.625 0.25 4.4
0.75 0.25 4.4
0.875 0.25 4.4
1 0.25 4.4
1.125 0.25 4.4
1.25 0.25 4.4
1.375 0.25 4.4
1.5 0.25 4.4
1.625 0.25 4.4
1.75 0.25 4.4
1.875 0.25 4.4
2 0.25 4.4
2.125 0.25 4.4
2.25 0.25 4.4
2.375 0.25 4.4
2.5 0.25 4.4
2.625 0.25 4.4
2.75 0.25 4.4
2.875 0.25 4.4
3 0.25 4.4
3.125 0.25 4.4
3.25 0.25 4.4
3.375 0.25 4.4
3.5 0.25 4.4
3.625 0.25 4.4
3.75 0.25 4.4
3.875 0.25 4.4
4 0.25 4.4
0 0.375 4.4
0.125 0.375 4.4
0.25 0.375 4.4
0.375 0.375 4.4
0.5 0.375 4.4
0.625 0.375 4.4
0.75 0.375 4.4
0.875 0.375 4.4
1 0.375 4.4
1.125 0.375 4.4
1.25 0.375 4.4
1.375 0.375 4.4
1.5 0.375 4.4
1.625 0.375 4.4
1.75 0.375 4.4
1.875 0.375 4.4
2 0.375 4.4
2.125 0.375 4.4
2.25 0.375 4.4
2.375 0.375 4.4
2.5 0.375 4.4
2.625 0.375 4.4
2.75 0.375 4.4
2.875 0.375 4.4
3 0.375 4.4
3.125 0.375 4.4
3.25 0.375 4.4
3.375 0.375 4.4
3.5 0.375 4.4
3.625 0.375 4.4
3.75 0.375 4.4
3.875 0.375 4.4
4 0.375 4.4
0 0.5 4.4
0.125 0.5 4.4
0.25 0.5 4.4
0.375 0.5 4.4
0.5 0.5 4.4
0.625 0.5 4.4
0.75 0.5 4.4
0.875 0.5 4.4
1 0.5 4.4
1.125 0.5 4.4
1.25 0.5 4.4
1.375 0.5 4.4
1.5 0.5 4.4
1.625 0.5 4.4
1.75 0.5 4.4
1.875 0.5 4.4
2 0.5 4.4
2.125 0.5 4.4
2.25 0.5 4.4
2.375 0.5 4.4
2.5 0.5 4.4
2.625 0.5 4.4
2.75 0.5 4.4
2.875 0.5 4.4
3 0.5 4.4
3.125 0.5 4.4
3.25 0.5 4.4
3.375 0.5 4.4
3.5 0.5 4.4
3.625 0.5 4.4
3.75 0.5 4.4
3.875 0.5 4.4
4 0.5 4.4
0 0.625 4.4
0.125 0.625 4.4
0.25 0.625 4.4
0.375 0.625 4.4
0.5 0.625 4.4
0.625 0.625 4.4
0.75 0.625 4.4
0.875 0.625 4.4
1 0.625 4.4
1.125 0.625 4.4
1.25 0.625 4.4
1.375 0.625 4.4
1.5 0.625 4.4
1.625 0.625 4.4
1.75 0.625 4.4
1.875 0.625 4.4
2 0.625 4.4
2.125 0.625 4.4
2.25 0.625 4.4
2.375 0.625 4.4
2.5 0.625 4.4
2.625 0.625 4.4
2.75 0.625 4.4
2.875 0.625 4.4
3 0.625 4.4
3.125 0.625 4.4
3.25 0.625 4.4
3.375 0.625 4.4
3.5 0.625 4.4
3.625 0.625 4.4
3.75 0.625 4.4
3.875 0.625 4.4
4 0.625 4.4
0 0.75 4.4
0.125 0.75 4.4
0.25 0.75 4.4
0.375 0.75 4.4
0.5 0.75 4.4
0.625 0.75 4.4
0.75 0.75 4.4
0.875 0.75 4.4
1 0.75 4.4
1.125 0.75 4.4
1.25 0.75 4.4
1.375 0.75 4.4
1.5 0.75 4.4
1.625 0.75 4.4
1.75 0.75 4.4
1.875 0.75 4.4
2 0.75 4.4
2.125 0.75 4.4
2.25 0.75 4.4
2.375 0.75 4.4
2.5 0.75 4.4
2.625 0.75 4.4
2.75 0.75 4.4
2.875 0.75 4.4
3 0.75 4.4
3.125 0.75 4.4
3.25 0.75 4.4
3.375 0.75 4.4
3.5 0.75 4.4
3.625 0.75 4.4
3.75 0.75 4.4
3.875 0.75 4.4
4 0.75 4.4
0 0.875 4.4
0.125 0.875 4.4
0.25 0.875 4.4
0.375 0.875 4.4
0.5 0.875 4.4
0.625 0.875 4.4
0.75 0.875 4.4
0.875 0.875 4.4
1 0.875 4.4
1.125 0.875 4.4
1.25 0.875 4.4
1.375 0.875 4.4
1.5 0.875 4.4
1.625 0.875 4.4
1.75 0.875 4.4
1.875 0.875 4.4
2 0.875 4.4
2.125 0.875 4.4
2.25 0.875 4.4
2.375 0.875 4.4
2.5 0.875 4.4
2.625 0.875 4.4
2.75 0.875 4.4
2.875 0.875 4.4
3 0.875 4.4
3.125 0.875 4.4
3.25 0.875 4.4
3.375 0.875 4.4
3.5 0.875 4.4
3.625 0.875 4.4
3.75 0.875 4.4
3.875 0.875 4.4
4 0.875 4.4
0 1 4.4
0.125 1 4.4
0.25 1 4.4
0.375 1 4.4
0.5 1 4.4
0.625 1 4.4
0.75 1 4.4
0.875 1 4.4
1 1 4.4
1.125 1 4.4
1.25 1 4.4
1.375 1 4.4
1.5 1 4.4
1.625 1 4.4
1.75 1 4.4
1.875 1 4.4
2 1 4.4
2.125 1 4.4
2.25 1 4.4
2.375 1 4.4
2.5 1 4.4
2.625 1 4.4
2.75 1 4.4
2.875 1 4.4
3 1 4.4
3.125 1 4.4
3.25 1 4.4
3.375 1 4.4
3.5 1 4.4
3.625 1 4.4
3.75 1 4.4
3.875 1 4.4
4 1 4.4
0.0625 0 3.4
0.125 0 3.4625
0.0625 0 3.525
0 0 3.4625
0 0.0625 3.4
0.125 0.0625 3.4
0.125 0.0625 3.525
0 0.0625 3.525
0.0625 0.125 3.4
0.125 0.125 3.4625
0.0625 0.125 3.525
0 0.125 3.4625
0.0625 0 3.4625
0.0625 0.0625 3.4
0.125 0.0625 3.4625
0.0625 0.0625 3.525
0 0.0625 3.4625
0.0625 0.125 3.4625
0.0625 0.0625 3.4625
0.1875 0 3.4
0.25 0 3.4625
0.1875 0 3.525
0.25 0.0625 3.4
0.25 0.0625 3.525
0.1875 0.125 3.4
0.25 0.125 3.4625
0.1875 0.125 3.525
0.1875 0 3.4625
0.1875 0.0625 3.4
0.25 0.0625 3.4625
0.1875 0.0625 3.525
0.1875 0.125 3.4625
0.1875 0.0625 3.4625
0.3125 0 3.4
0.375 0 3.4625
0.3125 0 3.525
0.375 0.0625 3.4
0.375 0.0625 3.525
0.3125 0.125 3.4
0.375 0.125 3.4625
0.3125 0.125 3.525
0.3125 0 3.4625
0.3125 0.0625 3.4
0.375 0.0625 3.4625
0.3125 0.0625 3.525
0.3125 0.125 3.4625
0.3125 0.0625 3.4625
0.4375 0 3.4
0.5 0 3.4625
0.4375 0 3.525
0.5 0.0625 3.4
0.5 0.0625 3.525
0.4375 0.125 3.4
0.5 0.125 3.4625
0.4375 0.125 3.525
0.4375 0 3.4625
0.4375 0.0625 3.4
0.5 0.0625 3.4625
0.4375 0.0625 3.525
0.4375 0.125 3.4625
0.4375 0.0625 3.4625
0.5625 0 3.4
0.625 0 3.4625
0.5625 0 3.525
0.625 0.0625 3.4
0.625 0.0625 3.525
0.5625 0.125 3.4
0.625 0.125 3.4625
0.5625 0.125 3.525
0.5625 0 3.4625
0.5625 0.0625 3.4
0.625 0.0625 3.4625
0.5625 0.0625 3.525
0.5625 0.125 3.4625
0.5625 0.0625 3.4625
0.6875 0 3.4
0.75 0 3.4625
0.6875 0 3.525
0.75 0.0625 3.4
0.75 0.0625 3.525
0.6875 0.125 3.4
0.75 0.125 3.4625
0.6875 0.125 3.525
0.6875 0 3.4625
0.6875 0.0625 3.4
0.75 0.0625 3.4625
0.6875 0.0625 3.525
0.6875 0.125 3.4625
0.6875 0.0625 3.4625
0.8125 0 3.4
0.875 0 3.4625
0.8125 0 3.525
0.875 0.0625 3.4
0.875 0.0625 3.525
0.8125 0.125 3.4
0.875 0.125 3.4625
0.8125 0.125 3.525
0.8125 0 3.4625
0.8125 0.0625 3.4
0.875 0.0625 3.4625
0.8125 0.0625 3.525
0.8125 0.125 3.4625
0.8125 0.0625 3.4625
0.9375 0 3.4
1 0 3.4625
0.9375 0 3.525
1 0.0625 3.4
1 0.0625 3.525
0.9375 0.125 3.4
1 0.125 3.4625
0.9375 0.125 3.525
0.9375 0 3.4625
0.9375 0.0625 3.4
1 0.0625 3.4625
0.9375 0.0625 3.525
0.9375 0.125 3.4625
0.9375 0.0625 3.4625
1.0625 0 3.4
1.125 0 3.4625
1.0625 0 3.525
1.125 0.0625 3.4
1.125 0.0625 3.525
1.0625 0.125 3.4
1.125 0.125 3.4625
1.0625 0.125 3.525
1.0625 0 3.4625
1.0625 0.0625 3.4
1.125 0.0625 3.4625
1.0625 0.0625 3.525
1.0625 0.125 3.4625
1.0625 0.0625 3.4625
1.1875 0 3.4
1.25 0 3.4625
1.1875 0 3.525
1.25 0.0625 3.4
1.25 0.0625 3.525
1.1875 0.125 3.4
1.25 0.125 3.4625
1.1875 0.125 3.525
1.1875 0 3.4625
1.1875 0.0625 3.4
1.25 0.0625 3.4625
1.1875 0.0625 3.525
1.1875 0.125 3.4625
1.1875 0.0625 3.4625
1.3125 0 3.4
1.375 0 3.4625
1.3125 0 3.525
1.375 0.0625 3.4
1.375 0.0625 3.525
1.3125 0.125 3.4
1.375 0.125 3.4625
1.3125 0.125 3.525
1.3125 0 3.4625
1.3125 0.0625 3.4
1.375 0.0625 3.4625
1.3125 0.0625 3.525
1.3125 0.125 3.4625
1.3125 0.0625 3.4625
1.4375 0 3.4
1.5 0 3.4625
1.4375 0 3.525
1.5 0.0625 3.4
1.5 0.0625 3.525
1.4375 0.125 3.4
1.5 0.125 3.4625
1.4375 0.125 3.525
1.4375 0 3.4625
1.4375 0.0625 3.4
1.5 0.0625 3.4625
1.4375 0.0625 3.525
1.4375 0.125 3.4625
1.4375 0.0625 3.4625
1.5625 0 3.4
1.625 0 3.4625
1.5625 0 3.525
1.625 0.0625 3.4
1.625 0.0625 3.525
1.5625 0.125 3.4
1.625 0.125 3.4625
1.5625 0.125 3.525
1.5625 0 3.4625
1.5625 0.0625 3.4
1.625 0.0625 3.4625
1.5625 0.0625 3.525
1.5625 0.125 3.4625
1.5625 0.0625 3.4625
1.6875 0 3.4
1.75 0 3.4625
1.6875 0 3.525
1.75 0.0625 3.4
1.75 0.0625 3.525
1.6875 0.125 3.4
1.75 0.125 3.4625
1.6875 0.125 3.525
1.6875 0 3.4625
1.6875 0.0625 3.4
1.75 0.0625 3.4625
1.6875 0.0625 3.525
1.6875 0.125 3.4625
1.6875 0.0625 3.4625
1.8125 0 3.4
1.875 0 3.4625
1.8125 0 3.525
1.875 0.0625 3.4
1.875 0.0625 3.525
1.8125 0.125 3.4
1.875 0.125 3.4625
1.8125 0.125 3.525
1.8125 0 3.4625
1.8125 0.0625 3.4
1.875 0.0625 3.4625
1.8125 0.0625 3.525
1.8125 0.125 3.4625
1.8125 0.0625 3.4625
1.9375 0 3.4
2 0 3.4625
1.9375 0 3.525
2 0.0625 3.4
2 0.0625 3.525
1.9375 0.125 3.4
2 0.125 3.4625
1.9375 0.125 3.525
1.9375 0 3.4625
1.9375 0.0625 3.4
2 0.0625 3.4625
1.9375 0.0625 3.525
1.9375 0.125 3.4625
1.9375 0.0625 3.4625
2.0625 0 3.4
2.125 0 3.4625
2.0625 0 3.525
2.125 0.0625 3.4
2.125 0.0625 3.525
2.0625 0.125 3.4
2.125 0.125 3.4625
2.0625 0.125 3.525
2.0625 0 3.4625
2.0625 0.0625 3.4
2.125 0.0625 3.4625
2.0625 0.0625 3.525
2.0625 0.125 3.4625
2.0625 0.0625 3.4625
2.1875 0 3.4
2.25 0 3.4625
2.1875 0 3.525
2.25 0.0625 3.4
2.25 0.0625 3.525
2.1875 0.125 3.4
2.25 0.125 3.4625
2.1875 0.125 3.525
2.1875 0 3.4625
2.1875 0.0625 3.4
2.25 0.0625 3.4625
2.1875 0.0625 3.525
2.1875 0.125 3.4625
2.1875 0.0625 3.4625
2.3125 0 3.4
2.375 0 3.4625
2.3125 0 3.525
2.375 0.0625 3.4
2.375 0.0625 3.525
2.3125 0.125 3.4
2.375 0.125 3.4625
2.3125 0.125 3.525
2.3125 0 3.4625
2.3125 0.0625 3.4
2.375 0.0625 3.4625
2.3125 0.0625 3.525
2.3125 0.125 3.4625
2.3125 0.0625 3.4625
2.4375 0 3.4
2.5 0 3.4625
2.4375 0 3.525
2.5 0.0625 3.4
2.5 0.0625 3.525
2.4375 0.125 3.4
2.5 0.125 3.4625
2.4375 0.125 3.525
2.4375 0 3.4625
2.4375 0.0625 3.4
2.5 0.0625 3.4625
2.4375 0.0625 3.525
2.4375 0.125 3.4625
2.4375 0.0625 3.4625
2.5625 0 3.4
2.625 0 3.4625
2.5625 0 3.525
2.625 0.0625 3.4
2.625 0.0625 3.525
2.5625 0.125 3.4
2.625 0.125 3.4625
2.5625 0.125 3.525
2.5625 0 3.4625
2.5625 0.0625 3.4
2.625 0.0625 3.4625
2.5625 0.0625 3.525
2.5625 0.125 3.4625
2.5625 0.0625 3.4625
2.6875 0 3.4
2.75 0 3.4625
2.6875 0 3.525
2.75 0.0625 3.4
2.75 0.0625 3.525
2.6875 0.125 3.4
2.75 0.125 3.4625
2.6875 0.125 3.525
2.6875 0 3.4625
2.6875 0.0625 3.4
2.75 0.0625 3.4625
2.6875 0.0625 3.525
2.6875 0.125 3.4625
2.6875 0.0625 3.4625
2.8125 0 3.4
2.875 0 3.4625
2.8125 0 3.525
2.875 0.0625 3.4
2.875 0.0625 3.525
2.8125 0.125 3.4
2.875 0.125 3.4625
2.8125 0.125 3.525
2.8125 0 3.4625
2.8125 0.0625 3.4
2.875 0.0625 3.4625
2.8125 0.0625 3.525
2.8125 0.125 3.4625
2.8125 0.0625 3.4625
2.9375 0 3.4
3 0 3.4625
2.9375 0 3.525
3 0.0625 3.4
3 0.0625 3.525
2.9375 0.125 3.4
3 0.125 3.4625
2.9375 0.125 3.525
2.9375 0 3.4625
2.9375 0.0625 3.4
3 0.0625 3.4625
2.9375 0.0625 3.525
2.9375 0.125 3.4625
2.9375 0.0625 3.4625
3.0625 0 3.4
3.125 0 3.4625
3.0625 0 3.525
3.125 0.0625 3.4
3.125 0.0625 3.525
3.0625 0.125 3.4
3.125 0.125 3.4625
3.0625 0.125 3.525
3.0625 0 3.4625
3.0625 0.0625 3.4
3.125 0.0625 3.4625
3.0625 0.0625 3.525
3.0625 0.125 3.4625
3.0625 0.0625 3.4625
3.1875 0 3.4
3.25 0 3.4625
3.1875 0 3.525
3.25 0.0625 3.4
3.25 0.0625 3.525
3.1875 0.125 3.4
3.25 0.125 3.4625
3.1875 0.125 3.525
3.1875 0 3.4625
3.1875 0.0625 3.4
3.25 0.0625 3.4625
3.1875 0.0625 3.525
3.1875 0.125 3.4625
3.1875 0.0625 3.4625
3.3125 0 3.4
3.375 0 3.4625
3.3125 0 3.525
3.375 0.0625 3.4
3.375 0.0625 3.525
3.3125 0.125 3.4
3.375 0.125 3.4625
3.3125 0.125 3.525
3.3125 0 3.4625
3.3125 0.0625 3.4
3.375 0.0625 3.4625
3.3125 0.0625 3.525
3.3125 0.125 3.4625
3.3125 0.0625 3.4625
3.4375 0 3.4
3.5 0 3.4625
3.4375 0 3.525
3.5 0.0625 3.4
3.5 0.0625 3.525
3.4375 0.125 3.4
3.5 0.125 3.4625
3.4375 0.125 3.525
3.4375 0 3.4625
3.4375 0.0625 3.4
3.5 0.0625 3.4625
3.4375 0.0625 3.525
3.4375 0.125 3.4625
3.4375 0.0625 3.4625
3.5625 0 3.4
3.625 0 3.4625
3.5625 0 3.525
3.625 0.0625 3.4
3.625 0.0625 3.525
3.5625 0.125 3.4
3.625 0.125 3.4625
3.5625 0.125 3.525
3.5625 0 3.4625
3.5625 0.0625 3.4
3.625 0.0625 3.4625
3.5625 0.0625 3.525
3.5625 0.125 3.4625
3.5625 0.0625 3.4625
3.6875 0 3.4
3.75 0 3.4625
3.6875 0 3.525
3.75 0.0625 3.4
3.75 0.0625 3.525
3.6875 0.125 3.4
3.75 0.125 3.4625
3.6875 0.125 3.525
3.6875 0 3.4625
3.6875 0.0625 3.4
3.75 0.0625 3.4625
3.6875 0.0625 3.525
3.6875 0.125 3.4625
3.6875 0.0625 3.4625
3.8125 0 3.4
3.875 0 3.4625
3.8125 0 3.525
3.875 0.0625 3.4
3.875 0.0625 3.525
3.8125 0.125 3.4
3.875 0.125 3.4625
3.8125 0.125 3.525
3.8125 0 3.4625
3.8125 0.0625 3.4
3.875 0.0625 3.4625
3.8125 0.0625 3.525
3.8125 0.125 3.4625
3.8125 0.0625 3.4625
3.9375 0 3.4
4 0 3.4625
3.9375 0 3.525
4 0.0625 3.4
4 0.0625 3.525
3.9375 0.125 3.4
4 0.125 3.4625
3.9375 0.125 3.525
3.9375 0 3.4625
3.9375 0.0625 3.4
4 0.0625 3.4625
3.9375 0.0625 3.525
3.9375 0.125 3.4625
3.9375 0.0625 3.4625
0 0.1875 3.4
0.125 0.1875 3.4
0.125 0.1875 3.525
0 0.1875 3.525
0.0625 0.25 3.4
0.125 0.25 3.4625
0.0625 0.25 3.525
0 0.25 3.4625
0.0625 0.1875 3.4
0.125 0.1875 3.4625
0.0625 0.1875 3.525
0 0.1875 3.4625
0.0625 0.25 3.4625
0.0625 0.1875 3.4625
0.25 0.1875 3.4
0.25 0.1875 3.525
0.1875 0.25 3.4
0.25 0.25 3.4625
0.1875 0.25 3.525
0.1875 0.1875 3.4
0.25 0.1875 3.4625
0.1875 0.1875 3.525
0.1875 0.25 3.4625
0.1875 0.1875 3.4625
0.375 0.1875 3.4
0.375 0.1875 3.525
0.3125 0.25 3.4
0.375 0.25 3.4625
0.3125 0.25 3.525
0.3125 0.1875 3.4
0.375 0.1875 3.4625
0.3125 0.1875 3.525
0.3125 0.25 3.4625
0.3125 0.1875 3.4625
0.5 0.1875 3.4
0.5 0.1875 3.525
0.4375 0.25 3.4
0.5 0.25 3.4625
0.4375 0.25 3.525
0.4375 0.1875 3.4
0.5 0.1875 3.4625
0.4375 0.1875 3.525
0.4375 0.25 3.4625
0.4375 0.1875 3.4625
0.625 0.1875 3.4
0.625 0.1875 3.525
0.5625 0.25 3.4
0.625 0.25 3.4625
0.5625 0.25 3.525
0.5625 0.1875 3.4
0.625 0.1875 3.4625
0.5625 0.1875 3.525
0.5625 0.25 3.4625
0.5625 0.1875 3.4625
0.75 0.1875 3.4
0.75 0.1875 3.525
0.6875 0.25 3.4
0.75 0.25 3.4625
0.6875 0.25 3.525
0.6875 0.1875 3.4
0.75 0.1875 3.4625
0.6875 0.1875 3.525
0.6875 0.25 3.4625
0.6875 0.1875 3.4625
0.875 0.1875 3.4
0.875 0.1875 3.525
0.8125 0.25 3.4
0.875 0.25 3.4625
0.8125 0.25 3.525
0.8125 0.1875 3.4
0.875 0.1875 3.4625
0.8125 0.1875 3.525
0.8125 0.25 3.4625
0.8125 0.1875 3.4625
1 0.1875 3.4
1 0.1875 3.525
0.9375 0.25 3.4
1 0.25 3.4625
0.9375 0.25 3.525
0.9375 0.1875 3.4
1 0.1875 3.4625
0.9375 0.1875 3.525
0.9375 0.25 3.4625
0.9375 0.1875 3.4625
1.125 0.1875 3.4
1.125 0.1875 3.525
1.0625 0.25 3.4
1.125 0.25 3.4625
1.0625 0.25 3.525
1.0625 0.1875 3.4
1.125 0.1875 3.4625
1.0625 0.1875 3.525
1.0625 0.25 3.4625
1.0625 0.1875 3.4625
1.25 0.1875 3.4
1.25 0.1875 3.525
1.1875 0.25 3.4
1.25 0.25 3.4625
1.1875 0.25 3.525
1.1875 0.1875 3.4
1.25 0.1875 3.4625
1.1875 0.1875 3.525
1.1875 0.25 3.4625
1.1875 0.1875 3.4625
1.375 0.1875 3.4
1.375 0.1875 3.525
1.3125 0.25 3.4
1.375 0.25 3.4625
1.3125 0.25 3.525
1.3125 0.1875 3.4
1.375 0.1875 3.4625
1.3125 0.1875 3.525
1.3125 0.25 3.4625
1.3125 0.1875 3.4625
1.5 0.1875 3.4
1.5 0.1875 3.525
1.4375 0.25 3.4
1.5 0.25 3.4625
1.4375 0.25 3.525
1.4375 0.1875 3.4
1.5 0.1875 3.4625
1.4375 0.1875 3.525
1.4375 0.25 3.4625
1.4375 0.1875 3.4625
1.625 0.1875 3.4
1.625 0.1875 3.525
1.5625 0.25 3.4
1.625 0.25 3.4625
1.5625 0.25 3.525
1.5625 0.1875 3.4
1.625 0.1875 3.4625
1.5625 0.1875 3.525
1.5625 0.25 3.4625
1.5625 0.1875 3.4625
1.75 0.1875 3.4
1.75 0.1875 3.525
1.6875 0.25 3.4
1.75 0.25 3.4625
1.6875 0.25 3.525
1.6875 0.1875 3.4
1.75 0.1875 3.4625
1.6875 0.1875 3.525
1.6875 0.25 3.4625
1.6875 0.1875 3.4625
1.875 0.1875 3.4
1.875 0.1875 3.525
1.8125 0.25 3.4
1.875 0.25 3.4625
1.8125 0.25 3.525
1.8125 0.1875 3.4
1.875 0.1875 3.4625
1.8125 0.1875 3.525
1.8125 0.25 3.4625
1.8125 0.1875 3.4625
2 0.1875 3.4
2 0.1875 3.525
1.9375 0.25 3.4
2 0.25 3.4625
1.9375 0.25 3.525
1.9375 0.1875 3.4
2 0.1875 3.4625
1.9375 0.1875 3.525
1.9375 0.25 3.4625
1.9375 0.1875 3.4625
2.125 0.1875 3.4
2.125 0.1875 3.525
2.0625 0.25 3.4
2.125 0.25 3.4625
2.0625 0.25 3.525
2.0625 0.1875 3.4
2.125 0.1875 3.4625
2.0625 0.1875 3.525
2.0625 0.25 3.4625
2.0625 0.1875 3.4625
2.25 0.1875 3.4
2.25 0.1875 3.525
2.1875 0.25 3.4
2.25 0.25 3.4625
2.1875 0.25 3.525
2.1875 0.1875 3.4
2.25 0.1875 3.4625
2.1875 0.1875 3.525
2.1875 0.25 3.4625
2.1875 0.1875 3.4625
2.375 0.1875 3.4
2.375 0.1875 3.525
2.3125 0.25 3.4
2.375 0.25 3.4625
2.3125 0.25 3.525
2.3125 0.1875 3.4
2.375 0.1875 3.4625
2.3125 0.1875 3.525
2.3125 0.25 3.4625
2.3125 0.1875 3.4625
2.5 0.1875 3.4
2.5 0.1875 3.525
2.4375 0.25 3.4
2.5 0.25 3.4625
2.4375 0.25 3.525
2.4375 0.1875 3.4
2.5 0.1875 3.4625
2.4375 0.1875 3.525
2.4375 0.25 3.4625
2.4375 0.1875 3.4625
2.625 0.1875 3.4
2.625 0.1875 3.525
2.5625 0.25 3.4
2.625 0.25 3.4625
2.5625 0.25 3.525
2.5625 0.1875 3.4
2.625 0.1875 3.4625
2.5625 0.1875 3.525
2.5625 0.25 3.4625
2.5625 0.1875 3.4625
2.75 0.1875 3.4
2.75 0.1875 3.525
2.6875 0.25 3.4
2.75 0.25 3.4625
2.6875 0.25 3.525
2.6875 0.1875 3.4
2.75 0.1875 3.4625
2.6875 0.1875 3.525
2.6875 0.25 3.4625
2.6875 0.1875 3.4625
2.875 0.1875 3.4
2.875 0.1875 3.525
2.8125 0.25 3.4
2.875 0.25 3.4625
2.8125 0.25 3.525
2.8125 0.1875 3.4
2.875 0.1875 3.4625
2.8125 0.1875 3.525
2.8125 0.25 3.4625
2.8125 0.1875 3.4625
3 0.1875 3.4
3 0.1875 3.525
2.9375 0.25 3.4
3 0.25 3.4625
2.9375 0.25 3.525
2.9375 0.1875 3.4
3 0.1875 3.4625
2.9375 0.1875 3.525
2.9375 0.25 3.4625
2.9375 0.1875 3.4625
3.125 0.1875 3.4
3.125 0.1875 3.525
3.0625 0.25 3.4
3.125 0.25 3.4625
3.0625 0.25 3.525
3.0625 0.1875 3.4
3.125 0.1875 3.4625
3.0625 0.1875 3.525
3.0625 0.25 3.4625
3.0625 0.1875 3.4625
3.25 0.1875 3.4
3.25 0.1875 3.525
3.1875 0.25 3.4
3.25 0.25 3.4625
3.1875 0.25 3.525
3.1875 0.1875 3.4
3.25 0.1875 3.4625
3.1875 0.1875 3.525
3.1875 0.25 3.4625
3.1875 0.1875 3.4625
3.375 0.1875 3.4
3.375 0.1875 3.525
3.3125 0.25 3.4
3.375 0.25 3.4625
3.3125 0.25 3.525
3.3125 0.1875 3.4
3.375 0.1875 3.4625
3.3125 0.1875 3.525
3.3125 0.25 3.4625
3.3125 0.1875 3.4625
3.5 0.1875 3.4
3.5 0.1875 3.525
3.4375 0.25 3.4
3.5 0.25 3.4625
3.4375 0.25 3.525
3.4375 0.1875 3.4
3.5 0.1875 3.4625
3.4375 0.1875 3.525
3.4375 0.25 3.4625
3.4375 0.1875 3.4625
3.625 0.1875 3.4
3.625 0.1875 3.525
3.5625 0.25 3.4
3.625 0.25 3.4625
3.5625 0.25 3.525
3.5625 0.1875 3.4
3.625 0.1875 3.4625
3.5625 0.1875 3.525
3.5625 0.25 3.4625
3.5625 0.1875 3.4625
3.75 0.1875 3.4
3.75 0.1875 3.525
3.6875 0.25 3.4
3.75 0.25 3.4625
3.6875 0.25 3.525
3.6875 0.1875 3.4
3.75 0.1875 3.4625
3.6875 0.1875 3.525
3.6875 0.25 3.4625
3.6875 0.1875 3.4625
3.875 0.1875 3.4
3.875 0.1875 3.525
3.8125 0.25 3.4
3.875 0.25 3.4625
3.8125 0.25 3.525
3.8125 0.1875 3.4
3.875 0.1875 3.4625
3.8125 0.1875 3.525
3.8125 0.25 3.4625
3.8125 0.1875 3.4625
4 0.1875 3.4
4 0.1875 3.525
3.9375 0.25 3.4
4 0.25 3.4625
3.9375 0.25 3.525
3.9375 0.1875 3.4
4 0.1875 3.4625
3.9375 0.1875 3.525
3.9375 0.25 3.4625
3.9375 0.1875 3.4625
0 0.3125 3.4
0.125 0.3125 3.4
0.125 0.3125 3.525
0 0.3125 3.525
0.0625 0.375 3.4
0.125 0.375 3.4625
0.0625 0.375 3.525
0 0.375 3.4625
0.0625 0.3125 3.4
0.125 0.3125 3.4625
0.0625 0.3125 3.525
0 0.3125 3.4625
0.0625 0.375 3.4625
0.0625 0.3125 3.4625
0.25 0.3125 3.4
0.25 0.3125 3.525
0.1875 0.375 3.4
0.25 0.375 3.4625
0.1875 0.375 3.525
0.1875 0.3125 3.4
0.25 0.3125 3.4625
0.1875 0.3125 3.525
0.1875 0.375 3.4625
0.1875 0.3125 3.4625
0.375 0.3125 3.4
0.375 0.3125 3.525
0.3125 0.375 3.4
0.375 0.375 3.4625
0.3125 0.375 3.525
0.3125 0.3125 3.4
0.375 0.3125 3.4625
0.3125 0.3125 3.525
0.3125 0.375 3.4625
0.3125 0.3125 3.4625
0.5 0.3125 3.4
0.5 0.3125 3.525
0.4375 0.375 3.4
0.5 0.375 3.4625
0.4375 0.375 3.525
0.4375 0.3125 3.4
0.5 0.3125 3.4625
0.4375 0.3125 3.525
0.4375 0.375 3.4625
0.4375 0.3125 3.4625
0.625 0.3125 3.4
0.625 0.3125 3.525
0.5625 0.375 3.4
0.625 0.375 3.4625
0.5625 0.375 3.525
0.5625 0.3125 3.4
0.625 0.3125 3.4625
0.5625 0.3125 3.525
0.5625 0.375 3.4625
0.5625 0.3125 3.4625
0.75 0.3125 3.4
0.75 0.3125 3.525
0.6875 0.375 3.4
0.75 0.375 3.4625
0.6875 0.375 3.525
0.6875 0.3125 3.4
0.75 0.3125 3.4625
0.6875 0.3125 3.525
0.6875 0.375 3.4625
0.6875 0.3125 3.4625
0.875 0.3125 3.4
0.875 0.3125 3.525
0.8125 0.375 3.4
0.875 0.375 3.4625
0.8125 0.375 3.525
0.8125 0.3125 3.4
0.875 0.3125 3.4625
0.8125 0.3125 3.525
0.8125 0.375 3.4625
0.8125 0.3125 3.4625
1 0.3125 3.4
1 0.3125 3.525
0.9375 0.375 3.4
1 0.375 3.4625
0.9375 0.375 3.525
0.9375 0.3125 3.4
1 0.3125 3.4625
0.9375 0.3125 3.525
0.9375 0.375 3.4625
0.9375 0.3125 3.4625
1.125 0.3125 3.4
1.125 0.3125 3.525
1.0625 0.375 3.4
1.125 0.375 3.4625
1.0625 0.375 3.525
1.0625 0.3125 3.4
1.125 0.3125 3.4625
1.0625 0.3125 3.525
1.0625 0.375 3.4625
1.0625 0.3125 3.4625
1.25 0.3125 3.4
1.25 0.3125 3.525
1.1875 0.375 3.4
1.25 0.375 3.4625
1.1875 0.375 3.525
1.1875 0.3125 3.4
1.25 0.3125 3.4625
1.1875 0.3125 3.525
1.1875 0.375 3.4625
1.1875 0.3125 3.4625
1.375 0.3125 3.4
1.375 0.3125 3.525
1.3125 0.375 3.4
1.375 0.375 3.4625
1.3125 0.375 3.525
1.3125 0.3125 3.4
1.375 0.3125 3.4625
1.3125 0.3125 3.525
1.3125 0.375 3.4625
1.3125 0.3125 3.4625
1.5 0.3125 3.4
1.5 0.3125 3.525
1.4375 0.375 3.4
1.5 0.375 3.4625
1.4375 0.375 3.525
1.4375 0.3125 3.4
1.5 0.3125 3.4625
1.4375 0.3125 3.525
1.4375 0.375 3.4625
1.4375 0.3125 3.4625
1.625 0.3125 3.4
1.625 0.3125 3.525
1.5625 0.375 3.4
1.625 0.375 3.4625
1.5625 0.375 3.525
1.5625 0.3125 3.4
1.625 0.3125 3.4625
1.5625 0.3125 3.525
1.5625 0.375 3.4625
1.5625 0.3125 3.4625
1.75 0.3125 3.4
1.75 0.3125 3.525
1.6875 0.375 3.4
1.75 0.375 3.4625
1.6875 0.375 3.525
1.6875 0.3125 3.4
1.75 0.3125 3.4625
1.6875 0.3125 3.525
1.6875 0.375 3.4625
1.6875 0.3125 3.4625
1.875 0.3125 3.4
1.875 0.3125 3.525
1.8125 0.375 3.4
1.875 0.375 3.4625
1.8125 0.375 3.525
1.8125 0.3125 3.4
1.875 0.3125 3.4625
1.8125 0.3125 3.525
1.8125 0.375 3.4625
1.8125 0.3125 3.4625
2 0.3125 3.4
2 0.3125 3.525
1.9375 0.375 3.4
2 0.375 3.4625
1.9375 0.375 3.525
1.9375 0.3125 3.4
2 0.3125 3.4625
1.9375 0.3125 3.525
1.9375 0.375 3.4625
1.9375 0.3125 3.4625
2.125 0.3125 3.4
2.125 0.3125 3.525
2.0625 0.375 3.4
2.125 0.375 3.4625
2.0625 0.375 3.525
2.0625 0.3125 3.4
2.125 0.3125 3.4625
2.0625 0.3125 3.525
2.0625 0.375 3.4625
2.0625 0.3125 3.4625
2.25 0.3125 3.4
2.25 0.3125 3.525
2.1875 0.375 3.4
2.25 0.375 3.4625
2.1875 0.375 3.525
2.1875 0.3125 3.4
2.25 0.3125 3.4625
2.1875 0.3125 3.525
2.1875 0.375 3.4625
2.1875 0.3125 3.4625
2.375 0.3125 3.4
2.375 0.3125 3.525
2.3125 0.375 3.4
2.375 0.375 3.4625
2.3125 0.375 3.525
2.3125 0.3125 3.4
2.375 0.3125 3.4625
2.3125 0.3125 3.525
2.3125 0.375 3.4625
2.3125 0.3125 3.4625
2.5 0.3125 3.4
2.5 0.3125 3.525
2.4375 0.375 3.4
2.5 0.375 3.4625
2.4375 0.375 3.525
2.4375 0.3125 3.4
2.5 0.3125 3.4625
2.4375 0.3125 3.525
2.4375 0.375 3.4625
2.4375 0.3125 3.4625
2.625 0.3125 3.4
2.625 0.3125 3.525
2.5625 0.375 3.4
2.625 0.375 3.4625
2.5625 0.375 3.525
2.5625 0.3125 3.4
2.625 0.3125 3.4625
2.5625 0.3125 3.525
2.5625 0.375 3.4625
2.5625 0.3125 3.4625
2.75 0.3125 3.4
2.75 0.3125 3.525
2.6875 0.375 3.4
2.75 0.375 3.4625
2.6875 0.375 3.525
2.6875 0.3125 3.4
2.75 0.3125 3.4625
2.6875 0.3125 3.525
2.6875 0.375 3.4625
2.6875 0.3125 3.4625
2.875 0.3125 3.4
2.875 0.3125 3.525
2.8125 0.375 3.4
2.875 0.375 3.4625
2.8125 0.375 3.525
2.8125 0.3125 3.4
2.875 0.3125 3.4625
2.8125 0.3125 3.525
2.8125 0.375 3.4625
2.8125 0.3125 3.4625
3 0.3125 3.4
3 0.3125 3.525
2.9375 0.375 3.4
3 0.375 3.4625
2.9375 0.375 3.525
2.9375 0.3125 3.4
3 0.3125 3.4625
2.9375 0.3125 3.525
2.9375 0.375 3.4625
2.9375 0.3125 3.4625
3.125 0.3125 3.4
3.125 0.3125 3.525
3.0625 0.375 3.4
3.125 0.375 3.4625
3.0625 0.375 3.525
3.0625 0.3125 3.4
3.125 0.3125 3.4625
3.0625 0.3125 3.525
3.0625 0.375 3.4625
3.0625 0.3125 3.4625
3.25 0.3125 3.4
3.25 0.3125 3.525
3.1875 0.375 3.4
3.25 0.375 3.4625
3.1875 0.375 3.525
3.1875 0.3125 3.4
3.25 0.3125 3.4625
3.1875 0.3125 3.525
3.1875 0.375 3.4625
3.1875 0.3125 3.4625
3.375 0.3125 3.4
3.375 0.3125 3.525
3.3125 0.375 3.4
3.375 0.375 3.4625
3.3125 0.375 3.525
3.3125 0.3125 3.4
3.375 0.3125 3.4625
3.3125 0.3125 3.525
3.3125 0.375 3.4625
3.3125 0.3125 3.4625
3.5 0.3125 3.4
3.5 0.3125 3.525
3.4375 0.375 3.4
3.5 0.375 3.4625
3.4375 0.375 3.525
3.4375 0.3125 3.4
3.5 0.3125 3.4625
3.4375 0.3125 3.525
3.4375 0.375 3.4625
3.4375 0.3125 3.4625
3.625 0.3125 3.4
3.625 0.3125 3.525
3.5625 0.375 3.4
3.625 0.375 3.4625
3.5625 0.375 3.525
3.5625 0.3125 3.4
3.625 0.3125 3.4625
3.5625 0.3125 3.525
3.5625 0.375 3.4625
3.5625 0.3125 3.4625
3.75 0.3125 3.4
3.75 0.3125 3.525
3.6875 0.375 3.4
3.75 0.375 3.4625
3.6875 0.375 3.525
3.6875 0.3125 3.4
3.75 0.3125 3.4625
3.6875 0.3125 3.525
3.6875 0.375 3.4625
3.6875 0.3125 3.4625
3.875 0.3125 3.4
3.875 0.3125 3.525
3.8125 0.375 3.4
3.875 0.375 3.4625
3.8125 0.375 3.525
3.8125 0.3125 3.4
3.875 0.3125 3.4625
3.8125 0.3125 3.525
3.8125 0.375 3.4625
3.8125 0.3125 3.4625
4 0.3125 3.4
4 0.3125 3.525
3.9375 0.375 3.4
4 0.375 3.4625
3.9375 0.375 3.525
3.9375 0.3125 3.4
4 0.3125 3.4625
3.9375 0.3125 3.525
3.9375 0.375 3.4625
3.9375 0.3125 3.4625
0 0.4375 3.4
0.125 0.4375 3.4
0.125 0.4375 3.525
0 0.4375 3.525
0.0625 0.5 3.4
0.125 0.5 3.4625
0.0625 0.5 3.525
0 0.5 3.4625
0.0625 0.4375 3.4
0.125 0.4375 3.4625
0.0625 0.4375 3.525
0 0.4375 3.4625
0.0625 0.5 3.4625
0.0625 0.4375 3.4625
0.25 0.4375 3.4
0.25 0.4375 3.525
0.1875 0.5 3.4
0.25 0.5 3.4625
0.1875 0.5 3.525
0.1875 0.4375 3.4
0.25 0.4375 3.4625
0.1875 0.4375 3.525
0.1875 0.5 3.4625
0.1875 0.4375 3.4625
0.375 0.4375 3.4
0.375 0.4375 3.525
0.3125 0.5 3.4
0.375 0.5 3.4625
0.3125 0.5 3.525
0.3125 0.4375 3.4
0.375 0.4375 3.4625
0.3125 0.4375 3.525
0.3125 0.5 3.4625
0.3125 0.4375 3.4625
0.5 0.4375 3.4
0.5 0.4375 3.525
0.4375 0.5 3.4
0.5 0.5 3.4625
0.4375 0.5 3.525
0.4375 0.4375 3.4
0.5 0.4375 3.4625
0.4375 0.4375 3.525
0.4375 0.5 3.4625
0.4375 0.4375 3.4625
0.625 0.4375 3.4
0.625 0.4375 3.525
0.5625 0.5 3.4
0.625 0.5 3.4625
0.5625 0.5 3.525
0.5625 0.4375 3.4
0.625 0.4375 3.4625
0.5625 0.4375 3.525
0.5625 0.5 3.4625
0.5625 0.4375 3.4625
0.75 0.4375 3.4
0.75 0.4375 3.525
0.6875 0.5 3.4
0.75 0.5 3.4625
0.6875 0.5 3.525
0.6875 0.4375 3.4
0.75 0.4375 3.4625
0.6875 0.4375 3.525
0.6875 0.5 3.4625
0.6875 0.4375 3.4625
0.875 0.4375 3.4
0.875 0.4375 3.525
0.8125 0.5 3.4
0.875 0.5 3.4625
0.8125 0.5 3.525
0.8125 0.4375 3.4
0.875 0.4375 3.4625
0.8125 0.4375 3.525
0.8125 0.5 3.4625
0.8125 0.4375 3.4625
1 0.4375 3.4
1 0.4375 3.525
0.9375 0.5 3.4
1 0.5 3.4625
0.9375 0.5 3.525
0.9375 0.4375 3.4
1 0.4375 3.4625
0.9375 0.4375 3.525
0.9375 0.5 3.4625
0.9375 0.4375 3.4625
1.125 0.4375 3.4
1.125 0.4375 3.525
1.0625 0.5 3.4
1.125 0.5 3.4625
1.0625 0.5 3.525
1.0625 0.4375 3.4
1.125 0.4375 3.4625
1.0625 0.4375 3.525
1.0625 0.5 3.4625
1.0625 0.4375 3.4625
1.25 0.4375 3.4
1.25 0.4375 3.525
1.1875 0.5 3.4
1.25 0.5 3.4625
1.1875 0.5 3.525
1.1875 0.4375 3.4
1.25 0.4375 3.4625
1.1875 0.4375 3.525
1.1875 0.5 3.4625
1.1875 0.4375 3.4625
1.375 0.4375 3.4
1.375 0.4375 3.525
1.3125 0.5 3.4
1.375 0.5 3.4625
1.3125 0.5 3.525
1.3125 0.4375 3.4
1.375 0.4375 3.4625
1.3125 0.4375 3.525
1.3125 0.5 3.4625
1.3125 0.4375 3.4625
1.5 0.4375 3.4
1.5 0.4375 3.525
1.4375 0.5 3.4
1.5 0.5 3.4625
1.4375 0.5 3.525
1.4375 0.4375 3.4
1.5 0.4375 3.4625
1.4375 0.4375 3.525
1.4375 0.5 3.4625
1.4375 0.4375 3.4625
1.625 0.4375 3.4
1.625 0.4375 3.525
1.5625 0.5 3.4
1.625 0.5 3.4625
1.5625 0.5 3.525
1.5625 0.4375 3.4
1.625 0.4375 3.4625
1.5625 0.4375 3.525
1.5625 0.5 3.4625
1.5625 0.4375 3.4625
1.75 0.4375 3.4
1.75 0.4375 3.525
1.6875 0.5 3.4
1.75 0.5 3.4625
1.6875 0.5 3.525
1.6875 0.4375 3.4
1.75 0.4375 3.4625
1.6875 0.4375 3.525
1.6875 0.5 3.4625
1.6875 0.4375 3.4625
1.875 0.4375 3.4
1.875 0.4375 3.525
1.8125 0.5 3.4
1.875 0.5 3.4625
1.8125 0.5 3.525
1.8125 0.4375 3.4
1.875 0.4375 3.4625
1.8125 0.4375 3.525
1.8125 0.5 3.4625
1.8125 0.4375 3.4625
2 0.4375 3.4
2 0.4375 3.525
1.9375 0.5 3.4
2 0.5 3.4625
1.9375 0.5 3.525
1.9375 0.4375 3.4
2 0.4375 3.4625
1.9375 0.4375 3.525
1.9375 0.5 3.4625
1.9375 0.4375 3.4625
2.125 0.4375 3.4
2.125 0.4375 3.525
2.0625 0.5 3.4
2.125 0.5 3.4625
2.0625 0.5 3.525
2.0625 0.4375 3.4
2.125 0.4375 3.4625
2.0625 0.4375 3.525
2.0625 0.5 3.4625
2.0625 0.4375 3.4625
2.25 0.4375 3.4
2.25 0.4375 3.525
2.1875 0.5 3.4
2.25 0.5 3.4625
2.1875 0.5 3.525
2.1875 0.4375 3.4
2.25 0.4375 3.4625
2.1875 0.4375 3.525
2.1875 0.5 3.4625
2.1875 0.4375 3.4625
2.375 0.4375 3.4
2.375 0.4375 3.525
2.3125 0.5 3.4
2.375 0.5 3.4625
2.3125 0.5 3.525
2.3125 0.4375 3.4
2.375 0.4375 3.4625
2.3125 0.4375 3.525
2.3125 0.5 3.4625
2.3125 0.4375 3.4625
2.5 0.4375 3.4
2.5 0.4375 3.525
2.4375 0.5 3.4
2.5 0.5 3.4625
2.4375 0.5 3.525
2.4375 0.4375 3.4
2.5 0.4375 3.4625
2.4375 0.4375 3.525
2.4375 0.5 3.4625
2.4375 0.4375 3.4625
2.625 0.4375 3.4
2.625 0.4375 3.525
2.5625 0.5 3.4
2.625 0.5 3.4625
2.5625 0.5 3.525
2.5625 0.4375 3.4
2.625 0.4375 3.4625
2.5625 0.4375 3.525
2.5625 0.5 3.4625
2.5625 0.4375 3.4625
2.75 0.4375 3.4
2.75 0.4375 3.525
2.6875 0.5 3.4
2.75 0.5 3.4625
2.6875 0.5 3.525
2.6875 0.4375 3.4
2.75 0.4375 3.4625
2.6875 0.4375 3.525
2.6875 0.5 3.4625
2.6875 0.4375 3.4625
2.875 0.4375 3.4
2.875 0.4375 3.525
2.8125 0.5 3.4
2.875 0.5 3.4625
2.8125 0.5 3.525
2.8125 0.4375 3.4
2.875 0.4375 3.4625
2.8125 0.4375 3.525
2.8125 0.5 3.4625
2.8125 0.4375 3.4625
3 0.4375 3.4
3 0.4375 3.525
2.9375 0.5 3.4
3 0.5 3.4625
2.9375 0.5 3.525
2.9375 0.4375 3.4
3 0.4375 3.4625
2.9375 0.4375 3.525
2.9375 0.5 3.4625
2.9375 0.4375 3.4625
3.125 0.4375 3.4
3.125 0.4375 3.525
3.0625 0.5 3.4
3.125 0.5 3.4625
3.0625 0.5 3.525
3.0625 0.4375 3.4
3.125 0.4375 3.4625
3.0625 0.4375 3.525
3.0625 0.5 3.4625
3.0625 0.4375 3.4625
3.25 0.4375 3.4
3.25 0.4375 3.525
3.1875 0.5 3.4
3.25 0.5 3.4625
3.1875 0.5 3.525
3.1875 0.4375 3.4
3.25 0.4375 3.4625
3.1875 0.4375 3.525
3.1875 0.5 3.4625
3.1875 0.4375 3.4625
3.375 0.4375 3.4
3.375 0.4375 3.525
3.3125 0.5 3.4
3.375 0.5 3.4625
3.3125 0.5 3.525
3.3125 0.4375 3.4
3.375 0.4375 3.4625
3.3125 0.4375 3.525
3.3125 0.5 3.4625
3.3125 0.4375 3.4625
3.5 0.4375 3.4
3.5 0.4375 3.525
3.4375 0.5 3.4
3.5 0.5 3.4625
3.4375 0.5 3.525
3.4375 0.4375 3.4
3.5 0.4375 3.4625
3.4375 0.4375 3.525
3.4375 0.5 3.4625
3.4375 0.4375 3.4625
3.625 0.4375 3.4
3.625 0.4375 3.525
3.5625 0.5 3.4
3.625 0.5 3.4625
3.5625 0.5 3.525
3.5625 0.4375 3.4
3.625 0.4375 3.4625
3.5625 0.4375 3.525
3.5625 0.5 3.4625
3.5625 0.4375 3.4625
3.75 0.4375 3.4
3.75 0.4375 3.525
3.6875 0.5 3.4
3.75 0.5 3.4625
3.6875 0.5 3.525
3.6875 0.4375 3.4
3.75 0.4375 3.4625
3.6875 0.4375 3.525
3.6875 0.5 3.4625
3.6875 0.4375 3.4625
3.875 0.4375 3.4
3.875 0.4375 3.525
3.8125 0.5 3.4
3.875 0.5 3.4625
3.8125 0.5 3.525
3.8125 0.4375 3.4
3.875 0.4375 3.4625
3.8125 0.4375 3.525
3.8125 0.5 3.4625
3.8125 0.4375 3.4625
4 0.4375 3.4
4 0.4375 3.525
3.9375 0.5 3.4
4 0.5 3.4625
3.9375 0.5 3.525
3.9375 0.4375 3.4
4 0.4375 3.4625
3.9375 0.4375 3.525
3.9375 0.5 3.4625
3.9375 0.4375 3.4625
0 0.5625 3.4
0.125 0.5625 3.4
0.125 0.5625 3.525
0 0.5625 3.525
0.0625 0.625 3.4
0.125 0.625 3.4625
0.0625 0.625 3.525
0 0.625 3.4625
0.0625 0.5625 3.4
0.125 0.5625 3.4625
0.0625 0.5625 3.525
0 0.5625 3.4625
0.0625 0.625 3.4625
0.0625 0.5625 3.4625
0.25 0.5625 3.4
0.25 0.5625 3.525
0.1875 0.625 3.4
0.25 0.625 3.4625
0.1875 0.625 3.525
0.1875 0.5625 3.4
0.25 0.5625 3.4625
0.1875 0.5625 3.525
0.1875 0.625 3.4625
0.1875 0.5625 3.4625
0.375 0.5625 3.4
0.375 0.5625 3.525
0.3125 0.625 3.4
0.375 0.625 3.4625
0.3125 0.625 3.525
0.3125 0.5625 3.4
0.375 0.5625 3.4625
0.3125 0.5625 3.525
0.3125 0.625 3.4625
0.3125 0.5625 3.4625
0.5 0.5625 3.4
0.5 0.5625 3.525
0.4375 0.625 3.4
0.5 0.625 3.4625
0.4375 0.625 3.525
0.4375 0.5625 3.4
0.5 0.5625 3.4625
0.4375 0.5625 3.525
0.4375 0.625 3.4625
0.4375 0.5625 3.4625
0.625 0.5625 3.4
0.625 0.5625 3.525
0.5625 0.625 3.4
0.625 0.625 3.4625
0.5625 0.625 3.525
0.5625 0.5625 3.4
0.625 0.5625 3.4625
0.5625 0.5625 3.525
0.5625 0.625 3.4625
0.5625 0.5625 3.4625
0.75 0.5625 3.4
0.75 0.5625 3.525
0.6875 0.625 3.4
0.75 0.625 3.4625
0.6875 0.625 3.525
0.6875 0.5625 3.4
0.75 0.5625 3.4625
0.6875 0.5625 3.525
0.6875 0.625 3.4625
0.6875 0.5625 3.4625
0.875 0.5625 3.4
0.875 0.5625 3.525
0.8125 0.625 3.4
0.875 0.625 3.4625
0.8125 0.625 3.525
0.8125 0.5625 3.4
0.875 0.5625 3.4625
0.8125 0.5625 3.525
0.8125 0.625 3.4625
0.8125 0.5625 3.4625
1 0.5625 3.4
1 0.5625 3.525
0.9375 0.625 3.4
1 0.625 3.4625
0.9375 0.625 3.525
0.9375 0.5625 3.4
1 0.5625 3.4625
0.9375 0.5625 3.525
0.9375 0.625 3.4625
0.9375 0.5625 3.4625
1.125 0.5625 3.4
1.125 0.5625 3.525
1.0625 0.625 3.4
1.125 0.625 3.4625
1.0625 0.625 3.525
1.0625 0.5625 3.4
1.125 0.5625 3.4625
1.0625 0.5625 3.525
1.0625 0.625 3.4625
1.0625 0.5625 3.4625
1.25 0.5625 3.4
1.25 0.5625 3.525
1.1875 0.625 3.4
1.25 0.625 3.4625
1.1875 0.625 3.525
1.1875 0.5625 3.4
1.25 0.5625 3.4625
1.1875 0.5625 3.525
1.1875 0.625 3.4625
1.1875 0.5625 3.4625
1.375 0.5625 3.4
1.375 0.5625 3.525
1.3125 0.625 3.4
1.375 0.625 3.4625
1.3125 0.625 3.525
1.3125 0.5625 3.4
1.375 0.5625 3.4625
1.3125 0.5625 3.525
1.3125 0.625 3.4625
1.3125 0.5625 3.4625
1.5 0.5625 3.4
1.5 0.5625 3.525
1.4375 0.625 3.4
1.5 0.625 3.4625
1.4375 0.625 3.525
1.4375 0.5625 3.4
1.5 0.5625 3.4625
1.4375 0.5625 3.525
1.4375 0.625 3.4625
1.4375 0.5625 3.4625
1.625 0.5625 3.4
1.625 0.5625 3.525
1.5625 0.625 3.4
1.625 0.625 3.4625
1.5625 0.625 3.525
1.5625 0.5625 3.4
1.625 0.5625 3.4625
1.5625 0.5625 3.525
1.5625 0.625 3.4625
1.5625 0.5625 3.4625
1.75 0.5625 3.4
1.75 0.5625 3.525
1.6875 0.625 3.4
1.75 0.625 3.4625
1.6875 0.625 3.525
1.6875 0.5625 3.4
1.75 0.5625 3.4625
1.6875 0.5625 3.525
1.6875 0.625 3.4625
1.6875 0.5625 3.4625
1.875 0.5625 3.4
1.875 0.5625 3.525
1.8125 0.625 3.4
1.875 0.625 3.4625
1.8125 0.625 3.525
1.8125 0.5625 3.4
1.875 0.5625 3.4625
1.8125 0.5625 3.525
1.8125 0.625 3.4625
1.8125 0.5625 3.4625
2 0.5625 3.4
2 0.5625 3.525
1.9375 0.625 3.4
2 0.625 3.4625
1.9375 0.625 3.525
1.9375 0.5625 3.4
2 0.5625 3.4625
1.9375 0.5625 3.525
1.9375 0.625 3.4625
1.9375 0.5625 3.4625
2.125 0.5625 3.4
2.125 0.5625 3.525
2.0625 0.625 3.4
2.125 0.625 3.4625
2.0625 0.625 3.525
2.0625 0.5625 3.4
2.125 0.5625 3.4625
2.0625 0.5625 3.525
2.0625 0.625 3.4625
2.0625 0.5625 3.4625
2.25 0.5625 3.4
2.25 0.5625 3.525
2.1875 0.625 3.4
2.25 0.625 3.4625
2.1875 0.625 3.525
2.1875 0.5625 3.4
2.25 0.5625 3.4625
2.1875 0.5625 3.525
2.1875 0.625 3.4625
2.1875 0.5625 3.4625
2.375 0.5625 3.4
2.375 0.5625 3.525
2.3125 0.625 3.4
2.375 0.625 3.4625
2.3125 0.625 3.525
2.3125 0.5625 3.4
2.375 0.5625 3.4625
2.3125 0.5625 3.525
2.3125 0.625 3.4625
2.3125 0.5625 3.4625
2.5 0.5625 3.4
2.5 0.5625 3.525
2.4375 0.625 3.4
2.5 0.625 3.4625
2.4375 0.625 3.525
2.4375 0.5625 3.4
2.5 0.5625 3.4625
2.4375 0.5625 3.525
2.4375 0.625 3.4625
2.4375 0.5625 3.4625
2.625 0.5625 3.4
2.625 0.5625 3.525
2.5625 0.625 3.4
2.625 0.625 3.4625
2.5625 0.625 3.525
2.5625 0.5625 3.4
2.625 0.5625 3.4625
2.5625 0.5625 3.525
2.5625 0.625 3.4625
2.5625 0.5625 3.4625
2.75 0.5625 3.4
2.75 0.5625 3.525
2.6875 0.625 3.4
2.75 0.625 3.4625
2.6875 0.625 3.525
2.6875 0.5625 3.4
2.75 0.5625 3.4625
2.6875 0.5625 3.525
2.6875 0.625 3.4625
2.6875 0.5625 3.4625
2.875 0.5625 3.4
2.875 0.5625 3.525
2.8125 0.625 3.4
2.875 0.625 3.4625
2.8125 0.625 3.525
2.8125 0.5625 3.4
2.875 0.5625 3.4625
2.8125 0.5625 3.525
2.8125 0.625 3.4625
2.8125 0.5625 3.4625
3 0.5625 3.4
3 0.5625 3.525
2.9375 0.625 3.4
3 0.625 3.4625
2.9375 0.625 3.525
2.9375 0.5625 3.4
3 0.5625 3.4625
2.9375 0.5625 3.525
2.9375 0.625 3.4625
2.9375 0.5625 3.4625
3.125 0.5625 3.4
3.125 0.5625 3.525
3.0625 0.625 3.4
3.125 0.625 3.4625
3.0625 0.625 3.525
3.0625 0.5625 3.4
3.125 0.5625 3.4625
3.0625 0.5625 3.525
3.0625 0.625 3.4625
3.0625 0.5625 3.4625
3.25 0.5625 3.4
3.25 0.5625 3.525
3.1875 0.625 3.4
3.25 0.625 3.4625
3.1875 0.625 3.525
3.1875 0.5625 3.4
3.25 0.5625 3.4625
3.1875 0.5625 3.525
3.1875 0.625 3.4625
3.1875 0.5625 3.4625
3.375 0.5625 3.4
3.375 0.5625 3.525
3.3125 0.625 3.4
3.375 0.625 3.4625
3.3125 0.625 3.525
3.3125 0.5625 3.4
3.375 0.5625 3.4625
3.3125 0.5625 3.525
3.3125 0.625 3.4625
3.3125 0.5625 3.4625
3.5 0.5625 3.4
3.5 0.5625 3.525
3.4375 0.625 3.4
3.5 0.625 3.4625
3.4375 0.625 3.525
3.4375 0.5625 3.4
3.5 0.5625 3.4625
3.4375 0.5625 3.525
3.4375 0.625 3.4625
3.4375 0.5625 3.4625
3.625 0.5625 3.4
3.625 0.5625 3.525
3.5625 0.625 3.4
3.625 0.625 3.4625
3.5625 0.625 3.525
3.5625 0.5625 3.4
3.625 0.5625 3.4625
3.5625 0.5625 3.525
3.5625 0.625 3.4625
3.5625 0.5625 3.4625
3.75 0.5625 3.4
3.75 0.5625 3.525
3.6875 0.625 3.4
3.75 0.625 3.4625
3.6875 0.625 3.525
3.6875 0.5625 3.4
3.75 0.5625 3.4625
3.6875 0.5625 3.525
3.6875 0.625 3.4625
3.6875 0.5625 3.4625
3.875 0.5625 3.4
3.875 0.5625 3.525
3.8125 0.625 3.4
3.875 0.625 3.4625
3.8125 0.625 3.525
3.8125 0.5625 3.4
3.875 0.5625 3.4625
3.8125 0.5625 3.525
3.8125 0.625 3.4625
3.8125 0.5625 3.4625
4 0.5625 3.4
4 0.5625 3.525
3.9375 0.625 3.4
4 0.625 3.4625
3.9375 0.625 3.525
3.9375 0.5625 3.4
4 0.5625 3.4625
3.9375 0.5625 3.525
3.9375 0.625 3.4625
3.9375 0.5625 3.4625
0 0.6875 3.4
0.125 0.6875 3.4
0.125 0.6875 3.525
0 0.6875 3.525
0.0625 0.75 3.4
0.125 0.75 3.4625
0.0625 0.75 3.525
0 0.75 3.4625
0.0625 0.6875 3.4
0.125 0.6875 3.4625
0.0625 0.6875 3.525
0 0.6875 3.4625
0.0625 0.75 3.4625
0.0625 0.6875 3.4625
0.25 0.6875 3.4
0.25 0.6875 3.525
0.1875 0.75 3.4
0.25 0.75 3.4625
0.1875 0.75 3.525
0.1875 0.6875 3.4
0.25 0.6875 3.4625
0.1875 0.6875 3.525
0.1875 0.75 3.4625
0.1875 0.6875 3.4625
0.375 0.6875 3.4
0.375 0.6875 3.525
0.3125 0.75 3.4
0.375 0.75 3.4625
0.3125 0.75 3.525
0.3125 0.6875 3.4
0.375 0.6875 3.4625
0.3125 0.6875 3.525
0.3125 0.75 3.4625
0.3125 0.6875 3.4625
0.5 0.6875 3.4
0.5 0.6875 3.525
0.4375 0.75 3.4
0.5 0.75 3.4625
0.4375 0.75 3.525
0.4375 0.6875 3.4
0.5 0.6875 3.4625
0.4375 0.6875 3.525
0.4375 0.75 3.4625
0.4375 0.6875 3.4625
0.625 0.6875 3.4
0.625 0.6875 3.525
0.5625 0.75 3.4
0.625 0.75 3.4625
0.5625 0.75 3.525
0.5625 0.6875 3.4
0.625 0.6875 3.4625
0.5625 0.6875 3.525
0.5625 0.75 3.4625
0.5625 0.6875 3.4625
0.75 0.6875 3.4
0.75 0.6875 3.525
0.6875 0.75 3.4
0.75 0.75 3.4625
0.6875 0.75 3.525
0.6875 0.6875 3.4
0.75 0.6875 3.4625
0.6875 0.6875 3.525
0.6875 0.75 3.4625
0.6875 0.6875 3.4625
0.875 0.6875 3.4
0.875 0.6875 3.525
0.8125 0.75 3.4
0.875 0.75 3.4625
0.8125 0.75 3.525
0.8125 0.6875 3.4
0.875 0.6875 3.4625
0.8125 0.6875 3.525
0.8125 0.75 3.4625
0.8125 0.6875 3.4625
1 0.6875 3.4
1 0.6875 3.525
0.9375 0.75 3.4
1 0.75 3.4625
0.9375 0.75 3.525
0.9375 0.6875 3.4
1 0.6875 3.4625
0.9375 0.6875 3.525
0.9375 0.75 3.4625
0.9375 0.6875 3.4625
1.125 0.6875 3.4
1.125 0.6875 3.525
1.0625 0.75 3.4
1.125 0.75 3.4625
1.0625 0.75 3.525
1.0625 0.6875 3.4
1.125 0.6875 3.4625
1.0625 0.6875 3.525
1.0625 0.75 3.4625
1.0625 0.6875 3.4625
1.25 0.6875 3.4
1.25 0.6875 3.525
1.1875 0.75 3.4
1.25 0.75 3.4625
1.1875 0.75 3.525
1.1875 0.6875 3.4
1.25 0.6875 3.4625
1.1875 0.6875 3.525
1.1875 0.75 3.4625
1.1875 0.6875 3.4625
1.375 0.6875 3.4
1.375 0.6875 3.525
1.3125 0.75 3.4
1.375 0.75 3.4625
1.3125 0.75 3.525
1.3125 0.6875 3.4
1.375 0.6875 3.4625
1.3125 0.6875 3.525
1.3125 0.75 3.4625
1.3125 0.6875 3.4625
1.5 0.6875 3.4
1.5 0.6875 3.525
1.4375 0.75 3.4
1.5 0.75 3.4625
1.4375 0.75 3.525
1.4375 0.6875 3.4
1.5 0.6875 3.4625
1.4375 0.6875 3.525
1.4375 0.75 3.4625
1.4375 0.6875 3.4625
1.625 0.6875 3.4
1.625 0.6875 3.525
1.5625 0.75 3.4
1.625 0.75 3.4625
1.5625 0.75 3.525
1.5625 0.6875 3.4
1.625 0.6875 3.4625
1.5625 0.6875 3.525
1.5625 0.75 3.4625
1.5625 0.6875 3.4625
1.75 0.6875 3.4
1.75 0.6875 3.525
1.6875 0.75 3.4
1.75 0.75 3.4625
1.6875 0.75 3.525
1.6875 0.6875 3.4
1.75 0.6875 3.4625
1.6875 0.6875 3.525
1.6875 0.75 3.4625
1.6875 0.6875 3.4625
1.875 0.6875 3.4
1.875 0.6875 3.525
1.8125 0.75 3.4
1.875 0.75 3.4625
1.8125 0.75 3.525
1.8125 0.6875 3.4
1.875 0.6875 3.4625
1.8125 0.6875 3.525
1.8125 0.75 3.4625
1.8125 0.6875 3.4625
2 0.6875 3.4
2 0.6875 3.525
1.9375 0.75 3.4
2 0.75 3.4625
1.9375 0.75 3.525
1.9375 0.6875 3.4
2 0.6875 3.4625
1.9375 0.6875 3.525
1.9375 0.75 3.4625
1.9375 0.6875 3.4625
2.125 0.6875 3.4
2.125 0.6875 3.525
2.0625 0.75 3.4
2.125 0.75 3.4625
2.0625 0.75 3.525
2.0625 0.6875 3.4
2.125 0.6875 3.4625
2.0625 0.6875 3.525
2.0625 0.75 3.4625
2.0625 0.6875 3.4625
2.25 0.6875 3.4
2.25 0.6875 3.525
2.1875 0.75 3.4
2.25 0.75 3.4625
2.1875 0.75 3.525
2.1875 0.6875 3.4
2.25 0.6875 3.4625
2.1875 0.6875 3.525
2.1875 0.75 3.4625
2.1875 0.6875 3.4625
2.375 0.6875 3.4
2.375 0.6875 3.525
2.3125 0.75 3.4
2.375 0.75 3.4625
2.3125 0.75 3.525
2.3125 0.6875 3.4
2.375 0.6875 3.4625
2.3125 0.6875 3.525
2.3125 0.75 3.4625
2.3125 0.6875 3.4625
2.5 0.6875 3.4
2.5 0.6875 3.525
2.4375 0.75 3.4
2.5 0.75 3.4625
2.4375 0.75 3.525
2.4375 0.6875 3.4
2.5 0.6875 3.4625
2.4375 0.6875 3.525
2.4375 0.75 3.4625
2.4375 0.6875 3.4625
2.625 0.6875 3.4
2.625 0.6875 3.525
2.5625 0.75 3.4
2.625 0.75 3.4625
2.5625 0.75 3.525
2.5625 0.6875 3.4
2.625 0.6875 3.4625
2.5625 0.6875 3.525
2.5625 0.75 3.4625
2.5625 0.6875 3.4625
2.75 0.6875 3.4
2.75 0.6875 3.525
2.6875 0.75 3.4
2.75 0.75 3.4625
2.6875 0.75 3.525
2.6875 0.6875 3.4
2.75 0.6875 3.4625
2.6875 0.6875 3.525
2.6875 0.75 3.4625
2.6875 0.6875 3.4625
2.875 0.6875 3.4
2.875 0.6875 3.525
2.8125 0.75 3.4
2.875 0.75 3.4625
2.8125 0.75 3.525
2.8125 0.6875 3.4
2.875 0.6875 3.4625
2.8125 0.6875 3.525
2.8125 0.75 3.4625
2.8125 0.6875 3.4625
3 0.6875 3.4
3 0.6875 3.525
2.9375 0.75 3.4
3 0.75 3.4625
2.9375 0.75 3.525
2.9375 0.6875 3.4
3 0.6875 3.4625
2.9375 0.6875 3.525
2.9375 0.75 3.4625
2.9375 0.6875 3.4625
3.125 0.6875 3.4
3.125 0.6875 3.525
3.0625 0.75 3.4
3.125 0.75 3.4625
3.0625 0.75 3.525
3.0625 0.6875 3.4
3.125 0.6875 3.4625
3.0625 0.6875 3.525
3.0625 0.75 3.4625
3.0625 0.6875 3.4625
3.25 0.6875 3.4
3.25 0.6875 3.525
3.1875 0.75 3.4
3.25 0.75 3.4625
3.1875 0.75 3.525
3.1875 0.6875 3.4
3.25 0.6875 3.4625
3.1875 0.6875 3.525
3.1875 0.75 3.4625
3.1875 0.6875 3.4625
3.375 0.6875 3.4
3.375 0.6875 3.525
3.3125 0.75 3.4
3.375 0.75 3.4625
3.3125 0.75 3.525
3.3125 0.6875 3.4
3.375 0.6875 3.4625
3.3125 0.6875 3.525
3.3125 0.75 3.4625
3.3125 0.6875 3.4625
3.5 0.6875 3.4
3.5 0.6875 3.525
3.4375 0.75 3.4
3.5 0.75 3.4625
3.4375 0.75 3.525
3.4375 0.6875 3.4
3.5 0.6875 3.4625
3.4375 0.6875 3.525
3.4375 0.75 3.4625
3.4375 0.6875 3.4625
3.625 0.6875 3.4
3.625 0.6875 3.525
3.5625 0.75 3.4
3.625 0.75 3.4625
3.5625 0.75 3.525
3.5625 0.6875 3.4
3.625 0.6875 3.4625
3.5625 0.6875 3.525
3.5625 0.75 3.4625
3.5625 0.6875 3.4625
3.75 0.6875 3.4
3.75 0.6875 3.525
3.6875 0.75 3.4
3.75 0.75 3.4625
3.6875 0.75 3.525
3.6875 0.6875 3.4
3.75 0.6875 3.4625
3.6875 0.6875 3.525
3.6875 0.75 3.4625
3.6875 0.6875 3.4625
3.875 0.6875 3.4
3.875 0.6875 3.525
3.8125 0.75 3.4
3.875 0.75 3.4625
3.8125 0.75 3.525
3.8125 0.6875 3.4
3.875 0.6875 3.4625
3.8125 0.6875 3.525
3.8125 0.75 3.4625
3.8125 0.6875 3.4625
4 0.6875 3.4
4 0.6875 3.525
3.9375 0.75 3.4
4 0.75 3.4625
3.9375 0.75 3.525
3.9375 0.6875 3.4
4 0.6875 3.4625
3.9375 0.6875 3.525
3.9375 0.75 3.4625
3.9375 0.6875 3.4625
0 0.8125 3.4
0.125 0.8125 3.4
0.125 0.8125 3.525
0 0.8125 3.525
0.0625 0.875 3.4
0.125 0.875 3.4625
0.0625 0.875 3.525
0 0.875 3.4625
0.0625 0.8125 3.4
0.125 0.8125 3.4625
0.0625 0.8125 3.525
0 0.8125 3.4625
0.0625 0.875 3.4625
0.0625 0.8125 3.4625
0.25 0.8125 3.4
0.25 0.8125 3.525
0.1875 0.875 3.4
0.25 0.875 3.4625
0.1875 0.875 3.525
0.1875 0.8125 3.4
0.25 0.8125 3.4625
0.1875 0.8125 3.525
0.1875 0.875 3.4625
0.1875 0.8125 3.4625
0.375 0.8125 3.4
0.375 0.8125 3.525
0.3125 0.875 3.4
0.375 0.875 3.4625
0.3125 0.875 3.525
0.3125 0.8125 3.4
0.375 0.8125 3.4625
0.3125 0.8125 3.525
0.3125 0.875 3.4625
0.3125 0.8125 3.4625
0.5 0.8125 3.4
0.5 0.8125 3.525
0.4375 0.875 3.4
0.5 0.875 3.4625
0.4375 0.875 3.525
0.4375 0.8125 3.4
0.5 0.8125 3.4625
0.4375 0.8125 3.525
0.4375 0.875 3.4625
0.4375 0.8125 3.4625
0.625 0.8125 3.4
0.625 0.8125 3.525
0.5625 0.875 3.4
0.625 0.875 3.4625
0.5625 0.875 3.525
0.5625 0.8125 3.4
0.625 0.8125 3.4625
0.5625 0.8125 3.525
0.5625 0.875 3.4625
0.5625 0.8125 3.4625
0.75 0.8125 3.4
0.75 0.8125 3.525
0.6875 0.875 3.4
0.75 0.875 3.4625
0.6875 0.875 3.525
0.6875 0.8125 3.4
0.75 0.8125 3.4625
0.6875 0.8125 3.525
0.6875 0.875 3.4625
0.6875 0.8125 3.4625
0.875 0.8125 3.4
0.875 0.8125 3.525
0.8125 0.875 3.4
0.875 0.875 3.4625
0.8125 0.875 3.525
0.8125 0.8125 3.4
0.875 0.8125 3.4625
0.8125 0.8125 3.525
0.8125 0.875 3.4625
0.8125 0.8125 3.4625
1 0.8125 3.4
1 0.8125 3.525
0.9375 0.875 3.4
1 0.875 3.4625
0.9375 0.875 3.525
0.9375 0.8125 3.4
1 0.8125 3.4625
0.9375 0.8125 3.525
0.9375 0.875 3.4625
0.9375 0.8125 3.4625
1.125 0.8125 3.4
1.125 0.8125 3.525
1.0625 0.875 3.4
1.125 0.875 3.4625
1.0625 0.875 3.525
1.0625 0.8125 3.4
1.125 0.8125 3.4625
1.0625 0.8125 3.525
1.0625 0.875 3.4625
1.0625 0.8125 3.4625
1.25 0.8125 3.4
1.25 0.8125 3.525
1.1875 0.875 3.4
1.25 0.875 3.4625
1.1875 0.875 3.525
1.1875 0.8125 3.4
1.25 0.8125 3.4625
1.1875 0.8125 3.525
1.1875 0.875 3.4625
1.1875 0.8125 3.4625
1.375 0.8125 3.4
1.375 0.8125 3.525
1.3125 0.875 3.4
1.375 0.875 3.4625
1.3125 0.875 3.525
1.3125 0.8125 3.4
1.375 0.8125 3.4625
1.3125 0.8125 3.525
1.3125 0.875 3.4625
1.3125 0.8125 3.4625
1.5 0.8125 3.4
1.5 0.8125 3.525
1.4375 0.875 3.4
1.5 0.875 3.4625
1.4375 0.875 3.525
1.4375 0.8125 3.4
1.5 0.8125 3.4625
1.4375 0.8125 3.525
1.4375 0.875 3.4625
1.4375 0.8125 3.4625
1.625 0.8125 3.4
1.625 0.8125 3.525
1.5625 0.875 3.4
1.625 0.875 3.4625
1.5625 0.875 3.525
1.5625 0.8125 3.4
1.625 0.8125 3.4625
1.5625 0.8125 3.525
1.5625 0.875 3.4625
1.5625 0.8125 3.4625
1.75 0.8125 3.4
1.75 0.8125 3.525
1.6875 0.875 3.4
1.75 0.875 3.4625
1.6875 0.875 3.525
1.6875 0.8125 3.4
1.75 0.8125 3.4625
1.6875 0.8125 3.525
1.6875 0.875 3.4625
1.6875 0.8125 3.4625
1.875 0.8125 3.4
1.875 0.8125 3.525
1.8125 0.875 3.4
1.875 0.875 3.4625
1.8125 0.875 3.525
1.8125 0.8125 3.4
1.875 0.8125 3.4625
1.8125 0.8125 3.525
1.8125 0.875 3.4625
1.8125 0.8125 3.4625
2 0.8125 3.4
2 0.8125 3.525
1.9375 0.875 3.4
2 0.875 3.4625
1.9375 0.875 3.525
1.9375 0.8125 3.4
2 0.8125 3.4625
1.9375 0.8125 3.525
1.9375 0.875 3.4625
1.9375 0.8125 3.4625
2.125 0.8125 3.4
2.125 0.8125 3.525
2.0625 0.875 3.4
2.125 0.875 3.4625
2.0625 0.875 3.525
2.0625 0.8125 3.4
2.125 0.8125 3.4625
2.0625 0.8125 3.525
2.0625 0.875 3.4625
2.0625 0.8125 3.4625
2.25 0.8125 3.4
2.25 0.8125 3.525
2.1875 0.875 3.4
2.25 0.875 3.4625
2.1875 0.875 3.525
2.1875 0.8125 3.4
2.25 0.8125 3.4625
2.1875 0.8125 3.525
2.1875 0.875 3.4625
2.1875 0.8125 3.4625
2.375 0.8125 3.4
2.375 0.8125 3.525
2.3125 0.875 3.4
2.375 0.875 3.4625
2.3125 0.875 3.525
2.3125 0.8125 3.4
2.375 0.8125 3.4625
2.3125 0.8125 3.525
2.3125 0.875 3.4625
2.3125 0.8125 3.4625
2.5 0.8125 3.4
2.5 0.8125 3.525
2.4375 0.875 3.4
2.5 0.875 3.4625
2.4375 0.875 3.525
2.4375 0.8125 3.4
2.5 0.8125 3.4625
2.4375 0.8125 3.525
2.4375 0.875 3.4625
2.4375 0.8125 3.4625
2.625 0.8125 3.4
2.625 0.8125 3.525
2.5625 0.875 3.4
2.625 0.875 3.4625
2.5625 0.875 3.525
2.5625 0.8125 3.4
2.625 0.8125 3.4625
2.5625 0.8125 3.525
2.5625 0.875 3.4625
2.5625 0.8125 3.4625
2.75 0.8125 3.4
2.75 0.8125 3.525
2.6875 0.875 3.4
2.75 0.875 3.4625
2.6875 0.875 3.525
2.6875 0.8125 3.4
2.75 0.8125 3.4625
2.6875 0.8125 3.525
2.6875 0.875 3.4625
2.6875 0.8125 3.4625
2.875 0.8125 3.4
2.875 0.8125 3.525
2.8125 0.875 3.4
2.875 0.875 3.4625
2.8125 0.875 3.525
2.8125 0.8125 3.4
2.875 0.8125 3.4625
2.8125 0.8125 3.525
2.8125 0.875 3.4625
2.8125 0.8125 3.4625
3 0.8125 3.4
3 0.8125 3.525
2.9375 0.875 3.4
3 0.875 3.4625
2.9375 0.875 3.525
2.9375 0.8125 3.4
3 0.8125 3.4625
2.9375 0.8125 3.525
2.9375 0.875 3.4625
2.9375 0.8125 3.4625
3.125 0.8125 3.4
3.125 0.8125 3.525
3.0625 0.875 3.4
3.125 0.875 3.4625
3.0625 0.875 3.525
3.0625 0.8125 3.4
3.125 0.8125 3.4625
3.0625 0.8125 3.525
3.0625 0.875 3.4625
3.0625 0.8125 3.4625
3.25 0.8125 3.4
3.25 0.8125 3.525
3.1875 0.875 3.4
3.25 0.875 3.4625
3.1875 0.875 3.525
3.1875 0.8125 3.4
3.25 0.8125 3.4625
3.1875 0.8125 3.525
3.1875 0.875 3.4625
3.1875 0.8125 3.4625
3.375 0.8125 3.4
3.375 0.8125 3.525
3.3125 0.875 3.4
3.375 0.875 3.4625
3.3125 0.875 3.525
3.3125 0.8125 3.4
3.375 0.8125 3.4625
3.3125 0.8125 3.525
3.3125 0.875 3.4625
3.3125 0.8125 3.4625
3.5 0.8125 3.4
3.5 0.8125 3.525
3.4375 0.875 3.4
3.5 0.875 3.4625
3.4375 0.875 3.525
3.4375 0.8125 3.4
3.5 0.8125 3.4625
3.4375 0.8125 3.525
3.4375 0.875 3.4625
3.4375 0.8125 3.4625
3.625 0.8125 3.4
3.625 0.8125 3.525
3.5625 0.875 3.4
3.625 0.875 3.4625
3.5625 0.875 3.525
3.5625 0.8125 3.4
3.625 0.8125 3.4625
3.5625 0.8125 3.525
3.5625 0.875 3.4625
3.5625 0.8125 3.4625
3.75 0.8125 3.4
3.75 0.8125 3.525
3.6875 0.875 3.4
3.75 0.875 3.4625
3.6875 0.875 3.525
3.6875 0.8125 3.4
3.75 0.8125 3.4625
3.6875 0.8125 3.525
3.6875 0.875 3.4625
3.6875 0.8125 3.4625
3.875 0.8125 3.4
3.875 0.8125 3.525
3.8125 0.875 3.4
3.875 0.875 3.4625
3.8125 0.875 3.525
3.8125 0.8125 3.4
3.875 0.8125 3.4625
3.8125 0.8125 3.525
3.8125 0.875 3.4625
3.8125 0.8125 3.4625
4 0.8125 3.4
4 0.8125 3.525
3.9375 0.875 3.4
4 0.875 3.4625
3.9375 0.875 3.525
3.9375 0.8125 3.4
4 0.8125 3.4625
3.9375 0.8125 3.525
3.9375 0.875 3.4625
3.9375 0.8125 3.4625
0 0.9375 3.4
0.125 0.9375 3.4
0.125 0.9375 3.525
0 0.9375 3.525
0.0625 1 3.4
0.125 1 3.4625
0.0625 1 3.525
0 1 3.4625
0.0625 0.9375 3.4
0.125 0.9375 3.4625
0.0625 0.9375 3.525
0 0.9375 3.4625
0.0625 1 3.4625
0.0625 0.9375 3.4625
0.25 0.9375 3.4
0.25 0.9375 3.525
0.1875 1 3.4
0.25 1 3.4625
0.1875 1 3.525
0.1875 0.9375 3.4
0.25 0.9375 3.4625
0.1875 0.9375 3.525
0.1875 1 3.4625
0.1875 0.9375 3.4625
0.375 0.9375 3.4
0.375 0.9375 3.525
0.3125 1 3.4
0.375 1 3.4625
0.3125 1 3.525
0.3125 0.9375 3.4
0.375 0.9375 3.4625
0.3125 0.9375 3.525
0.3125 1 3.4625
0.3125 0.9375 3.4625
0.5 0.9375 3.4
0.5 0.9375 3.525
0.4375 1 3.4
0.5 1 3.4625
0.4375 1 3.525
0.4375 0.9375 3.4
0.5 0.9375 3.4625
0.4375 0.9375 3.525
0.4375 1 3.4625
0.4375 0.9375 3.4625
0.625 0.9375 3.4
0.625 0.9375 3.525
0.5625 1 3.4
0.625 1 3.4625
0.5625 1 3.525
0.5625 0.9375 3.4
0.625 0.9375 3.4625
0.5625 0.9375 3.525
0.5625 1 3.4625
0.5625 0.9375 3.4625
0.75 0.9375 3.4
0.75 0.9375 3.525
0.6875 1 3.4
0.75 1 3.4625
0.6875 1 3.525
0.6875 0.9375 3.4
0.75 0.9375 3.4625
0.6875 0.9375 3.525
0.6875 1 3.4625
0.6875 0.9375 3.4625
0.875 0.9375 3.4
0.875 0.9375 3.525
0.8125 1 3.4
0.875 1 3.4625
0.8125 1 3.525
0.8125 0.9375 3.4
0.875 0.9375 3.4625
0.8125 0.9375 3.525
0.8125 1 3.4625
0.8125 0.9375 3.4625
1 0.9375 3.4
1 0.9375 3.525
0.9375 1 3.4
1 1 3.4625
0.9375 1 3.525
0.9375 0.9375 3.4
1 0.9375 3.4625
0.9375 0.9375 3.525
0.9375 1 3.4625
0.9375 0.9375 3.4625
1.125 0.9375 3.4
1.125 0.9375 3.525
1.0625 1 3.4
1.125 1 3.4625
1.0625 1 3.525
1.0625 0.9375 3.4
1.125 0.9375 3.4625
1.0625 0.9375 3.525
1.0625 1 3.4625
1.0625 0.9375 3.4625
1.25 0.9375 3.4
1.25 0.9375 3.525
1.1875 1 3.4
1.25 1 3.4625
1.1875 1 3.525
1.1875 0.9375 3.4
1.25 0.9375 3.4625
1.1875 0.9375 3.525
1.1875 1 3.4625
1.1875 0.9375 3.4625
1.375 0.9375 3.4
1.375 0.9375 3.525
1.3125 1 3.4
1.375 1 3.4625
1.3125 1 3.525
1.3125 0.9375 3.4
1.375 0.9375 3.4625
1.3125 0.9375 3.525
1.3125 1 3.4625
1.3125 0.9375 3.4625
1.5 0.9375 3.4
1.5 0.9375 3.525
1.4375 1 3.4
1.5 1 3.4625
1.4375 1 3.525
1.4375 0.9375 3.4
1.5 0.9375 3.4625
1.4375 0.9375 3.525
1.4375 1 3.4625
1.4375 0.9375 3.4625
1.625 0.9375 3.4
1.625 0.9375 3.525
1.5625 1 3.4
1.625 1 3.4625
1.5625 1 3.525
1.5625 0.9375 3.4
1.625 0.9375 3.4625
1.5625 0.9375 3.525
1.5625 1 3.4625
1.5625 0.9375 3.4625
1.75 0.9375 3.4
1.75 0.9375 3.525
1.6875 1 3.4
1.75 1 3.4625
1.6875 1 3.525
1.6875 0.9375 3.4
1.75 0.9375 3.4625
1.6875 0.9375 3.525
1.6875 1 3.4625
1.6875 0.9375 3.4625
1.875 0.9375 3.4
1.875 0.9375 3.525
1.8125 1 3.4
1.875 1 3.4625
1.8125 1 3.525
1.8125 0.9375 3.4
1.875 0.9375 3.4625
1.8125 0.9375 3.525
1.8125 1 3.4625
1.8125 0.9375 3.4625
2 0.9375 3.4
2 0.9375 3.525
1.9375 1 3.4
2 1 3.4625
1.9375 1 3.525
1.9375 0.9375 3.4
2 0.9375 3.4625
1.9375 0.9375 3.525
1.9375 1 3.4625
1.9375 0.9375 3.4625
2.125 0.9375 3.4
2.125 0.9375 3.525
2.0625 1 3.4
2.125 1 3.4625
2.0625 1 3.525
2.0625 0.9375 3.4
2.125 0.9375 3.4625
2.0625 0.9375 3.525
2.0625 1 3.4625
2.0625 0.9375 3.4625
2.25 0.9375 3.4
2.25 0.9375 3.525
2.1875 1 3.4
2.25 1 3.4625
2.1875 1 3.525
2.1875 0.9375 3.4
2.25 0.9375 3.4625
2.1875 0.9375 3.525
2.1875 1 3.4625
2.1875 0.9375 3.4625
2.375 0.9375 3.4
2.375 0.9375 3.525
2.3125 1 3.4
2.375 1 3.4625
2.3125 1 3.525
2.3125 0.9375 3.4
2.375 0.9375 3.4625
2.3125 0.9375 3.525
2.3125 1 3.4625
2.3125 0.9375 3.4625
2.5 0.9375 3.4
2.5 0.9375 3.525
2.4375 1 3.4
2.5 1 3.4625
2.4375 1 3.525
2.4375 0.9375 3.4
2.5 0.9375 3.4625
2.4375 0.9375 3.525
2.4375 1 3.4625
2.4375 0.9375 3.4625
2.625 0.9375 3.4
2.625 0.9375 3.525
2.5625 1 3.4
2.625 1 3.4625
2.5625 1 3.525
2.5625 0.9375 3.4
2.625 0.9375 3.4625
2.5625 0.9375 3.525
2.5625 1 3.4625
2.5625 0.9375 3.4625
2.75 0.9375 3.4
2.75 0.9375 3.525
2.6875 1 3.4
2.75 1 3.4625
2.6875 1 3.525
2.6875 0.9375 3.4
2.75 0.9375 3.4625
2.6875 0.9375 3.525
2.6875 1 3.4625
2.6875 0.9375 3.4625
2.875 0.9375 3.4
2.875 0.9375 3.525
2.8125 1 3.4
2.875 1 3.4625
2.8125 1 3.525
2.8125 0.9375 3.4
2.875 0.9375 3.4625
2.8125 0.9375 3.525
2.8125 1 3.4625
2.8125 0.9375 3.4625
3 0.9375 3.4
3 0.9375 3.525
2.9375 1 3.4
3 1 3.4625
2.9375 1 3.525
2.9375 0.9375 3.4
3 0.9375 3.4625
2.9375 0.9375 3.525
2.9375 1 3.4625
2.9375 0.9375 3.4625
3.125 0.9375 3.4
3.125 0.9375 3.525
3.0625 1 3.4
3.125 1 3.4625
3.0625 1 3.525
3.0625 0.9375 3.4
3.125 0.9375 3.4625
3.0625 0.9375 3.525
3.0625 1 3.4625
3.0625 0.9375 3.4625
3.25 0.9375 3.4
3.25 0.9375 3.525
3.1875 1 3.4
3.25 1 3.4625
3.1875 1 3.525
3.1875 0.9375 3.4
3.25 0.9375 3.4625
3.1875 0.9375 3.525
3.1875 1 3.4625
3.1875 0.9375 3.4625
3.375 0.9375 3.4
3.375 0.9375 3.525
3.3125 1 3.4
3.375 1 3.4625
3.3125 1 3.525
3.3125 0.9375 3.4
3.375 0.9375 3.4625
3.3125 0.9375 3.525
3.3125 1 3.4625
3.3125 0.9375 3.4625
3.5 0.9375 3.4
3.5 0.9375 3.525
3.4375 1 3.4
3.5 1 3.4625
3.4375 1 3.525
3.4375 0.9375 3.4
3.5 0.9375 3.4625
3.4375 0.9375 3.525
3.4375 1 3.4625
3.4375 0.9375 3.4625
3.625 0.9375 3.4
3.625 0.9375 3.525
3.5625 1 3.4
3.625 1 3.4625
3.5625 1 3.525
3.5625 0.9375 3.4
3.625 0.9375 3.4625
3.5625 0.9375 3.525
3.5625 1 3.4625
3.5625 0.9375 3.4625
3.75 0.9375 3.4
3.75 0.9375 3.525
3.6875 1 3.4
3.75 1 3.4625
3.6875 1 3.525
3.6875 0.9375 3.4
3.75 0.9375 3.4625
3.6875 0.9375 3.525
3.6875 1 3.4625
3.6875 0.9375 3.4625
3.875 0.9375 3.4
3.875 0.9375 3.525
3.8125 1 3.4
3.875 1 3.4625
3.8125 1 3.525
3.8125 0.9375 3.4
3.875 0.9375 3.4625
3.8125 0.9375 3.525
3.8125 1 3.4625
3.8125 0.9375 3.4625
4 0.9375 3.4
4 0.9375 3.525
3.9375 1 3.4
4 1 3.4625
3.9375 1 3.525
3.9375 0.9375 3.4
4 0.9375 3.4625
3.9375 0.9375 3.525
3.9375 1 3.4625
3.9375 0.9375 3.4625
0.125 0 3.5875
0.0625 0 3.65
0 0 3.5875
0.125 0.0625 3.65
0 0.0625 3.65
0.125 0.125 3.5875
0.0625 0.125 3.65
0 0.125 3.5875
0.0625 0 3.5875
0.125 0.0625 3.5875
0.0625 0.0625 3.65
0 0.0625 3.5875
0.0625 0.125 3.5875
0.0625 0.0625 3.5875
0.25 0 3.5875
0.1875 0 3.65
0.25 0.0625 3.65
0.25 0.125 3.5875
0.1875 0.125 3.65
0.1875 0 3.5875
0.25 0.0625 3.5875
0.1875 0.0625 3.65
0.1875 0.125 3.5875
0.1875 0.0625 3.5875
0.375 0 3.5875
0.3125 0 3.65
0.375 0.0625 3.65
0.375 0.125 3.5875
0.3125 0.125 3.65
0.3125 0 3.5875
0.375 0.0625 3.5875
0.3125 0.0625 3.65
0.3125 0.125 3.5875
0.3125 0.0625 3.5875
0.5 0 3.5875
0.4375 0 3.65
0.5 0.0625 3.65
0.5 0.125 3.5875
0.4375 0.125 3.65
0.4375 0 3.5875
0.5 0.0625 3.5875
0.4375 0.0625 3.65
0.4375 0.125 3.5875
0.4375 0.0625 3.5875
0.625 0 3.5875
0.5625 0 3.65
0.625 0.0625 3.65
0.625 0.125 3.5875
0.5625 0.125 3.65
0.5625 0 3.5875
0.625 0.0625 3.5875
0.5625 0.0625 3.65
0.5625 0.125 3.5875
0.5625 0.0625 3.5875
0.75 0 3.5875
0.6875 0 3.65
0.75 0.0625 3.65
0.75 0.125 3.5875
0.6875 0.125 3.65
0.6875 0 3.5875
0.75 0.0625 3.5875
0.6875 0.0625 3.65
0.6875 0.125 3.5875
0.6875 0.0625 3.5875
0.875 0 3.5875
0.8125 0 3.65
0.875 0.0625 3.65
0.875 0.125 3.5875
0.8125 0.125 3.65
0.8125 0 3.5875
0.875 0.0625 3.5875
0.8125 0.0625 3.65
0.8125 0.125 3.5875
0.8125 0.0625 3.5875
1 0 3.5875
0.9375 0 3.65
1 0.0625 3.65
1 0.125 3.5875
0.9375 0.125 3.65
0.9375 0 3.5875
1 0.0625 3.5875
0.9375 0.0625 3.65
0.9375 0.125 3.5875
0.9375 0.0625 3.5875
1.125 0 3.5875
1.0625 0 3.65
1.125 0.0625 3.65
1.125 0.125 3.5875
1.0625 0.125 3.65
1.0625 0 3.5875
1.125 0.0625 3.5875
1.0625 0.0625 3.65
1.0625 0.125 3.5875
1.0625 0.0625 3.5875
1.25 0 3.5875
1.1875 0 3.65
1.25 0.0625 3.65
1.25 0.125 3.5875
1.1875 0.125 3.65
1.1875 0 3.5875
1.25 0.0625 3.5875
1.1875 0.0625 3.65
1.1875 0.125 3.5875
1.1875 0.0625 3.5875
1.375 0 3.5875
1.3125 0 3.65
1.375 0.0625 3.65
1.375 0.125 3.5875
1.3125 0.125 3.65
1.3125 0 3.5875
1.375 0.0625 3.5875
1.3125 0.0625 3.65
1.3125 0.125 3.5875
1.3125 0.0625 3.5875
1.5 0 3.5875
1.4375 0 3.65
1.5 0.0625 3.65
1.5 0.125 3.5875
1.4375 0.125 3.65
1.4375 0 3.5875
1.5 0.0625 3.5875
1.4375 0.0625 3.65
1.4375 0.125 3.5875
1.4375 0.0625 3.5875
1.625 0 3.5875
1.5625 0 3.65
1.625 0.0625 3.65
1.625 0.125 3.5875
1.5625 0.125 3.65
1.5625 0 3.5875
1.625 0.0625 3.5875
1.5625 0.0625 3.65
1.5625 0.125 3.5875
1.5625 0.0625 3.5875
1.75 0 3.5875
1.6875 0 3.65
1.75 0.0625 3.65
1.75 0.125 3.5875
1.6875 0.125 3.65
1.6875 0 3.5875
1.75 0.0625 3.5875
1.6875 0.0625 3.65
1.6875 0.125 3.5875
1.6875 0.0625 3.5875
1.875 0 3.5875
1.8125 0 3.65
1.875 0.0625 3.65
1.875 0.125 3.5875
1.8125 0.125 3.65
1.8125 0 3.5875
1.875 0.0625 3.5875
1.8125 0.0625 3.65
1.8125 0.125 3.5875
1.8125 0.0625 3.5875
2 0 3.5875
1.9375 0 3.65
2 0.0625 3.65
2 0.125 3.5875
1.9375 0.125 3.65
1.9375 0 3.5875
2 0.0625 3.5875
1.9375 0.0625 3.65
1.9375 0.125 3.5875
1.9375 0.0625 3.5875
2.125 0 3.5875
2.0625 0 3.65
2.125 0.0625 3.65
2.125 0.125 3.5875
2.0625 0.125 3.65
2.0625 0 3.5875
2.125 0.0625 3.5875
2.0625 0.0625 3.65
2.0625 0.125 3.5875
2.0625 0.0625 3.5875
2.25 0 3.5875
2.1875 0 3.65
2.25 0.0625 3.65
2.25 0.125 3.5875
2.1875 0.125 3.65
2.1875 0 3.5875
2.25 0.0625 3.5875
2.1875 0.0625 3.65
2.1875 0.125 3.5875
2.1875 0.0625 3.5875
2.375 0 3.5875
2.3125 0 3.65
2.375 0.0625 3.65
2.375 0.125 3.5875
2.3125 0.125 3.65
2.3125 0 3.5875
2.375 0.0625 3.5875
2.3125 0.0625 3.65
2.3125 0.125 3.5875
2.3125 0.0625 3.5875
2.5 0 3.5875
2.4375 0 3.65
2.5 0.0625 3.65
2.5 0.125 3.5875
2.4375 0.125 3.65
2.4375 0 3.5875
2.5 0.0625 3.5875
2.4375 0.0625 3.65
2.4375 0.125 3.5875
2.4375 0.0625 3.5875
2.625 0 3.5875
2.5625 0 3.65
2.625 0.0625 3.65
2.625 0.125 3.5875
2.5625 0.125 3.65
2.5625 0 3.5875
2.625 0.0625 3.5875
2.5625 0.0625 3.65
2.5625 0.125 3.5875
2.5625 0.0625 3.5875
2.75 0 3.5875
2.6875 0 3.65
2.75 0.0625 3.65
2.75 0.125 3.5875
2.6875 0.125 3.65
2.6875 0 3.5875
2.75 0.0625 3.5875
2.6875 0.0625 3.65
2.6875 0.125 3.5875
2.6875 0.0625 3.5875
2.875 0 3.5875
2.8125 0 3.65
2.875 0.0625 3.65
2.875 0.125 3.5875
2.8125 0.125 3.65
2.8125 0 3.5875
2.875 0.0625 3.5875
2.8125 0.0625 3.65
2.8125 0.125 3.5875
2.8125 0.0625 3.5875
3 0 3.5875
2.9375 0 3.65
3 0.0625 3.65
3 0.125 3.5875
2.9375 0.125 3.65
2.9375 0 3.5875
3 0.0625 3.5875
2.9375 0.0625 3.65
2.9375 0.125 3.5875
2.9375 0.0625 3.5875
3.125 0 3.5875
3.0625 0 3.65
3.125 0.0625 3.65
3.125 0.125 3.5875
3.0625 0.125 3.65
3.0625 0 3.5875
3.125 0.0625 3.5875
3.0625 0.0625 3.65
3.0625 0.125 3.5875
3.0625 0.0625 3.5875
3.25 0 3.5875
3.1875 0 3.65
3.25 0.0625 3.65
3.25 0.125 3.5875
3.1875 0.125 3.65
3.1875 0 3.5875
3.25 0.0625 3.5875
3.1875 0.0625 3.65
3.1875 0.125 3.5875
3.1875 0.0625 3.5875
3.375 0 3.5875
3.3125 0 3.65
3.375 0.0625 3.65
3.375 0.125 3.5875
3.3125 0.125 3.65
3.3125 0 3.5875
3.375 0.0625 3.5875
3.3125 0.0625 3.65
3.3125 0.125 3.5875
3.3125 0.0625 3.5875
3.5 0 3.5875
3.4375 0 3.65
3.5 0.0625 3.65
3.5 0.125 3.5875
3.4375 0.125 3.65
3.4375 0 3.5875
3.5 0.0625 3.5875
3.4375 0.0625 3.65
3.4375 0.125 3.5875
3.4375 0.0625 3.5875
3.625 0 3.5875
3.5625 0 3.65
3.625 0.0625 3.65
3.625 0.125 3.5875
3.5625 0.125 3.65
3.5625 0 3.5875
3.625 0.0625 3.5875
3.5625 0.0625 3.65
3.5625 0.125 3.5875
3.5625 0.0625 3.5875
3.75 0 3.5875
3.6875 0 3.65
3.75 0.0625 3.65
3.75 0.125 3.5875
3.6875 0.125 3.65
3.6875 0 3.5875
3.75 0.0625 3.5875
3.6875 0.0625 3.65
3.6875 0.125 3.5875
3.6875 0.0625 3.5875
3.875 0 3.5875
3.8125 0 3.65
3.875 0.0625 3.65
3.875 0.125 3.5875
3.8125 0.125 3.65
3.8125 0 3.5875
3.875 0.0625 3.5875
3.8125 0.0625 3.65
3.8125 0.125 3.5875
3.8125 0.0625 3.5875
4 0 3.5875
3.9375 0 3.65
4 0.0625 3.65
4 0.125 3.5875
3.9375 0.125 3.65
3.9375 0 3.5875
4 0.0625 3.5875
3.9375 0.0625 3.65
3.9375 0.125 3.5875
3.9375 0.0625 3.5875
0.125 0.1875 3.65
0 0.1875 3.65
0.125 0.25 3.5875
0.0625 0.25 3.65
0 0.25 3.5875
0.125 0.1875 3.5875
0.0625 0.1875 3.65
0 0.1875 3.5875
0.0625 0.25 3.5875
0.0625 0.1875 3.5875
0.25 0.1875 3.65
0.25 0.25 3.5875
0.1875 0.25 3.65
0.25 0.1875 3.5875
0.1875 0.1875 3.65
0.1875 0.25 3.5875
0.1875 0.1875 3.5875
0.375 0.1875 3.65
0.375 0.25 3.5875
0.3125 0.25 3.65
0.375 0.1875 3.5875
0.3125 0.1875 3.65
0.3125 0.25 3.5875
0.3125 0.1875 3.5875
0.5 0.1875 3.65
0.5 0.25 3.5875
0.4375 0.25 3.65
0.5 0.1875 3.5875
0.4375 0.1875 3.65
0.4375 0.25 3.5875
0.4375 0.1875 3.5875
0.625 0.1875 3.65
0.625 0.25 3.5875
0.5625 0.25 3.65
0.625 0.1875 3.5875
0.5625 0.1875 3.65
0.5625 0.25 3.5875
0.5625 0.1875 3.5875
0.75 0.1875 3.65
0.75 0.25 3.5875
0.6875 0.25 3.65
0.75 0.1875 3.5875
0.6875 0.1875 3.65
0.6875 0.25 3.5875
0.6875 0.1875 3.5875
0.875 0.1875 3.65
0.875 0.25 3.5875
0.8125 0.25 3.65
0.875 0.1875 3.5875
0.8125 0.1875 3.65
0.8125 0.25 3.5875
0.8125 0.1875 3.5875
1 0.1875 3.65
1 0.25 3.5875
0.9375 0.25 3.65
1 0.1875 3.5875
0.9375 0.1875 3.65
0.9375 0.25 3.5875
0.9375 0.1875 3.5875
1.125 0.1875 3.65
1.125 0.25 3.5875
1.0625 0.25 3.65
1.125 0.1875 3.5875
1.0625 0.1875 3.65
1.0625 0.25 3.5875
1.0625 0.1875 3.5875
1.25 0.1875 3.65
1.25 0.25 3.5875
1.1875 0.25 3.65
1.25 0.1875 3.5875
1.1875 0.1875 3.65
1.1875 0.25 3.5875
1.1875 0.1875 3.5875
1.375 0.1875 3.65
1.375 0.25 3.5875
1.3125 0.25 3.65
1.375 0.1875 3.5875
1.3125 0.1875 3.65
1.3125 0.25 3.5875
1.3125 0.1875 3.5875
1.5 0.1875 3.65
1.5 0.25 3.5875
1.4375 0.25 3.65
1.5 0.1875 3.5875
1.4375 0.1875 3.65
1.4375 0.25 3.5875
1.4375 0.1875 3.5875
1.625 0.1875 3.65
1.625 0.25 3.5875
1.5625 0.25 3.65
1.625 0.1875 3.5875
1.5625 0.1875 3.65
1.5625 0.25 3.5875
1.5625 0.1875 3.5875
1.75 0.1875 3.65
1.75 0.25 3.5875
1.6875 0.25 3.65
1.75 0.1875 3.5875
1.6875 0.1875 3.65
1.6875 0.25 3.5875
1.6875 0.1875 3.5875
1.875 0.1875 3.65
1.875 0.25 3.5875
1.8125 0.25 3.65
1.875 0.1875 3.5875
1.8125 0.1875 3.65
1.8125 0.25 3.5875
1.8125 0.1875 3.5875
2 0.1875 3.65
2 0.25 3.5875
1.9375 0.25 3.65
2 0.1875 3.5875
1.9375 0.1875 3.65
1.9375 0.25 3.5875
1.9375 0.1875 3.5875
2.125 0.1875 3.65
2.125 0.25 3.5875
2.0625 0.25 3.65
2.125 0.1875 3.5875
2.0625 0.1875 3.65
2.0625 0.25 3.5875
2.0625 0.1875 3.5875
2.25 0.1875 3.65
2.25 0.25 3.5875
2.1875 0.25 3.65
2.25 0.1875 3.5875
2.1875 0.1875 3.65
2.1875 0.25 3.5875
2.1875 0.1875 3.5875
2.375 0.1875 3.65
2.375 0.25 3.5875
2.3125 0.25 3.65
2.375 0.1875 3.5875
2.3125 0.1875 3.65
2.3125 0.25 3.5875
2.3125 0.1875 3.5875
2.5 0.1875 3.65
2.5 0.25 3.5875
2.4375 0.25 3.65
2.5 0.1875 3.5875
2.4375 0.1875 3.65
2.4375 0.25 3.5875
2.4375 0.1875 3.5875
2.625 0.1875 3.65
2.625 0.25 3.5875
2.5625 0.25 3.65
2.625 0.1875 3.5875
2.5625 0.1875 3.65
2.5625 0.25 3.5875
2.5625 0.1875 3.5875
2.75 0.1875 3.65
2.75 0.25 3.5875
2.6875 0.25 3.65
2.75 0.1875 3.5875
2.6875 0.1875 3.65
2.6875 0.25 3.5875
2.6875 0.1875 3.5875
2.875 0.1875 3.65
2.875 0.25 3.5875
2.8125 0.25 3.65
2.875 0.1875 3.5875
2.8125 0.1875 3.65
2.8125 0.25 3.5875
2.8125 0.1875 3.5875
3 0.1875 3.65
3 0.25 3.5875
2.9375 0.25 3.65
3 0.1875 3.5875
2.9375 0.1875 3.65
2.9375 0.25 3.5875
2.9375 0.1875 3.5875
3.125 0.1875 3.65
3.125 0.25 3.5875
3.0625 0.25 3.65
3.125 0.1875 3.5875
3.0625 0.1875 3.65
3.0625 0.25 3.5875
3.0625 0.1875 3.5875
3.25 0.1875 3.65
3.25 0.25 3.5875
3.1875 0.25 3.65
3.25 0.1875 3.5875
3.1875 0.1875 3.65
3.1875 0.25 3.5875
3.1875 0.1875 3.5875
3.375 0.1875 3.65
3.375 0.25 3.5875
3.3125 0.25 3.65
3.375 0.1875 3.5875
3.3125 0.1875 3.65
3.3125 0.25 3.5875
3.3125 0.1875 3.5875
3.5 0.1875 3.65
3.5 0.25 3.5875
3.4375 0.25 3.65
3.5 0.1875 3.5875
3.4375 0.1875 3.65
3.4375 0.25 3.5875
3.4375 0.1875 3.5875
3.625 0.1875 3.65
3.625 0.25 3.5875
3.5625 0.25 3.65
3.625 0.1875 3.5875
3.5625 0.1875 3.65
3.5625 0.25 3.5875
3.5625 0.1875 3.5875
3.75 0.1875 3.65
3.75 0.25 3.5875
3.6875 0.25 3.65
3.75 0.1875 3.5875
3.6875 0.1875 3.65
3.6875 0.25 3.5875
3.6875 0.1875 3.5875
3.875 0.1875 3.65
3.875 0.25 3.5875
3.8125 0.25 3.65
3.875 0.1875 3.5875
3.8125 0.1875 3.65
3.8125 0.25 3.5875
3.8125 0.1875 3.5875
4 0.1875 3.65
4 0.25 3.5875
3.9375 0.25 3.65
4 0.1875 3.5875
3.9375 0.1875 3.65
3.9375 0.25 3.5875
3.9375 0.1875 3.5875
0.125 0.3125 3.65
0 0.3125 3.65
0.125 0.375 3.5875
0.0625 0.375 3.65
0 0.375 3.5875
0.125 0.3125 3.5875
0.0625 0.3125 3.65
0 0.3125 3.5875
0.0625 0.375 3.5875
0.0625 0.3125 3.5875
0.25 0.3125 3.65
0.25 0.375 3.5875
0.1875 0.375 3.65
0.25 0.3125 3.5875
0.1875 0.3125 3.65
0.1875 0.375 3.5875
0.1875 0.3125 3.5875
0.375 0.3125 3.65
0.375 0.375 3.5875
0.3125 0.375 3.65
0.375 0.3125 3.5875
0.3125 0.3125 3.65
0.3125 0.375 3.5875
0.3125 0.3125 3.5875
0.5 0.3125 3.65
0.5 0.375 3.5875
0.4375 0.375 3.65
0.5 0.3125 3.5875
0.4375 0.3125 3.65
0.4375 0.375 3.5875
0.4375 0.3125 3.5875
0.625 0.3125 3.65
0.625 0.375 3.5875
0.5625 0.375 3.65
0.625 0.3125 3.5875
0.5625 0.3125 3.65
0.5625 0.375 3.5875
0.5625 0.3125 3.5875
0.75 0.3125 3.65
0.75 0.375 3.5875
0.6875 0.375 3.65
0.75 0.3125 3.5875
0.6875 0.3125 3.65
0.6875 0.375 3.5875
0.6875 0.3125 3.5875
0.875 0.3125 3.65
0.875 0.375 3.5875
0.8125 0.375 3.65
0.875 0.3125 3.5875
0.8125 0.3125 3.65
0.8125 0.375 3.5875
0.8125 0.3125 3.5875
1 0.3125 3.65
1 0.375 3.5875
0.9375 0.375 3.65
1 0.3125 3.5875
0.9375 0.3125 3.65
0.9375 0.375 3.5875
0.9375 0.3125 3.5875
1.125 0.3125 3.65
1.125 0.375 3.5875
1.0625 0.375 3.65
1.125 0.3125 3.5875
1.0625 0.3125 3.65
1.0625 0.375 3.5875
1.0625 0.3125 3.5875
1.25 0.3125 3.65
1.25 0.375 3.5875
1.1875 0.375 3.65
1.25 0.3125 3.5875
1.1875 0.3125 3.65
1.1875 0.375 3.5875
1.1875 0.3125 3.5875
1.375 0.3125 3.65
1.375 0.375 3.5875
1.3125 0.375 3.65
1.375 0.3125 3.5875
1.3125 0.3125 3.65
1.3125 0.375 3.5875
1.3125 0.3125 3.5875
1.5 0.3125 3.65
1.5 0.375 3.5875
1.4375 0.375 3.65
1.5 0.3125 3.5875
1.4375 0.3125 3.65
1.4375 0.375 3.5875
1.4375 0.3125 3.5875
1.625 0.3125 3.65
1.625 0.375 3.5875
1.5625 0.375 3.65
1.625 0.3125 3.5875
1.5625 0.3125 3.65
1.5625 0.375 3.5875
1.5625 0.3125 3.5875
1.75 0.3125 3.65
1.75 0.375 3.5875
1.6875 0.375 3.65
1.75 0.3125 3.5875
1.6875 0.3125 3.65
1.6875 0.375 3.5875
1.6875 0.3125 3.5875
1.875 0.3125 3.65
1.875 0.375 3.5875
1.8125 0.375 3.65
1.875 0.3125 3.5875
1.8125 0.3125 3.65
1.8125 0.375 3.5875
1.8125 0.3125 3.5875
2 0.3125 3.65
2 0.375 3.5875
1.9375 0.375 3.65
2 0.3125 3.5875
1.9375 0.3125 3.65
1.9375 0.375 3.5875
1.9375 0.3125 3.5875
2.125 0.3125 3.65
2.125 0.375 3.5875
2.0625 0.375 3.65
2.125 0.3125 3.5875
2.0625 0.3125 3.65
2.0625 0.375 3.5875
2.0625 0.3125 3.5875
2.25 0.3125 3.65
2.25 0.375 3.5875
2.1875 0.375 3.65
2.25 0.3125 3.5875
2.1875 0.3125 3.65
2.1875 0.375 3.5875
2.1875 0.3125 3.5875
2.375 0.3125 3.65
2.375 0.375 3.5875
2.3125 0.375 3.65
2.375 0.3125 3.5875
2.3125 0.3125 3.65
2.3125 0.375 3.5875
2.3125 0.3125 3.5875
2.5 0.3125 3.65
2.5 0.375 3.5875
2.4375 0.375 3.65
2.5 0.3125 3.5875
2.4375 0.3125 3.65
2.4375 0.375 3.5875
2.4375 0.3125 3.5875
2.625 0.3125 3.65
2.625 0.375 3.5875
2.5625 0.375 3.65
2.625 0.3125 3.5875
2.5625 0.3125 3.65
2.5625 0.375 3.5875
2.5625 0.3125 3.5875
2.75 0.3125 3.65
2.75 0.375 3.5875
2.6875 0.375 3.65
2.75 0.3125 3.5875
2.6875 0.3125 3.65
2.6875 0.375 3.5875
2.6875 0.3125 3.5875
2.875 0.3125 3.65
2.875 0.375 3.5875
2.8125 0.375 3.65
2.875 0.3125 3.5875
2.8125 0.3125 3.65
2.8125 0.375 3.5875
2.8125 0.3125 3.5875
3 0.3125 3.65
3 0.375 3.5875
2.9375 0.375 3.65
3 0.3125 3.5875
2.9375 0.3125 3.65
2.9375 0.375 3.5875
2.9375 0.3125 3.5875
3.125 0.3125 3.65
3.125 0.375 3.5875
3.0625 0.375 3.65
3.125 0.3125 3.5875
3.0625 0.3125 3.65
3.0625 0.375 3.5875
3.0625 0.3125 3.5875
3.25 0.3125 3.65
3.25 0.375 3.5875
3.1875 0.375 3.65
3.25 0.3125 3.5875
3.1875 0.3125 3.65
3.1875 0.375 3.5875
3.1875 0.3125 3.5875
3.375 0.3125 3.65
3.375 0.375 3.5875
3.3125 0.375 3.65
3.375 0.3125 3.5875
3.3125 0.3125 3.65
3.3125 0.375 3.5875
3.3125 0.3125 3.5875
3.5 0.3125 3.65
3.5 0.375 3.5875
3.4375 0.375 3.65
3.5 0.3125 3.5875
3.4375 0.3125 3.65
3.4375 0.375 3.5875
3.4375 0.3125 3.5875
3.625 0.3125 3.65
3.625 0.375 3.5875
3.5625 0.375 3.65
3.625 0.3125 3.5875
3.5625 0.3125 3.65
3.5625 0.375 3.5875
3.5625 0.3125 3.5875
3.75 0.3125 3.65
3.75 0.375 3.5875
3.6875 0.375 3.65
3.75 0.3125 3.5875
3.6875 0.3125 3.65
3.6875 0.375 3.5875
3.6875 0.3125 3.5875
3.875 0.3125 3.65
3.875 0.375 3.5875
3.8125 0.375 3.65
3.875 0.3125 3.5875
3.8125 0.3125 3.65
3.8125 0.375 3.5875
3.8125 0.3125 3.5875
4 0.3125 3.65
4 0.375 3.5875
3.9375 0.375 3.65
4 0.3125 3.5875
3.9375 0.3125 3.65
3.9375 0.375 3.5875
3.9375 0.3125 3.5875
0.125 0.4375 3.65
0 0.4375 3.65
0.125 0.5 3.5875
0.0625 0.5 3.65
0 0.5 3.5875
0.125 0.4375 3.5875
0.0625 0.4375 3.65
0 0.4375 3.5875
0.0625 0.5 3.5875
0.0625 0.4375 3.5875
0.25 0.4375 3.65
0.25 0.5 3.5875
0.1875 0.5 3.65
0.25 0.4375 3.5875
0.1875 0.4375 3.65
0.1875 0.5 3.5875
0.1875 0.4375 3.5875
0.375 0.4375 3.65
0.375 0.5 3.5875
0.3125 0.5 3.65
0.375 0.4375 3.5875
0.3125 0.4375 3.65
0.3125 0.5 3.5875
0.3125 0.4375 3.5875
0.5 0.4375 3.65
0.5 0.5 3.5875
0.4375 0.5 3.65
0.5 0.4375 3.5875
0.4375 0.4375 3.65
0.4375 0.5 3.5875
0.4375 0.4375 3.5875
0.625 0.4375 3.65
0.625 0.5 3.5875
0.5625 0.5 3.65
0.625 0.4375 3.5875
0.5625 0.4375 3.65
0.5625 0.5 3.5875
0.5625 0.4375 3.5875
0.75 0.4375 3.65
0.75 0.5 3.5875
0.6875 0.5 3.65
0.75 0.4375 3.5875
0.6875 0.4375 3.65
0.6875 0.5 3.5875
0.6875 0.4375 3.5875
0.875 0.4375 3.65
0.875 0.5 3.5875
0.8125 0.5 3.65
0.875 0.4375 3.5875
0.8125 0.4375 3.65
0.8125 0.5 3.5875
0.8125 0.4375 3.5875
1 0.4375 3.65
1 0.5 3.5875
0.9375 0.5 3.65
1 0.4375 3.5875
0.9375 0.4375 3.65
0.9375 0.5 3.5875
0.9375 0.4375 3.5875
1.125 0.4375 3.65
1.125 0.5 3.5875
1.0625 0.5 3.65
1.125 0.4375 3.5875
1.0625 0.4375 3.65
1.0625 0.5 3.5875
1.0625 0.4375 3.5875
1.25 0.4375 3.65
1.25 0.5 3.5875
1.1875 0.5 3.65
1.25 0.4375 3.5875
1.1875 0.4375 3.65
1.1875 0.5 3.5875
1.1875 0.4375 3.5875
1.375 0.4375 3.65
1.375 0.5 3.5875
1.3125 0.5 3.65
1.375 0.4375 3.5875
1.3125 0.4375 3.65
1.3125 0.5 3.5875
1.3125 0.4375 3.5875
1.5 0.4375 3.65
1.5 0.5 3.5875
1.4375 0.5 3.65
1.5 0.4375 3.5875
1.4375 0.4375 3.65
1.4375 0.5 3.5875
1.4375 0.4375 3.5875
1.625 0.4375 3.65
1.625 0.5 3.5875
1.5625 0.5 3.65
1.625 0.4375 3.5875
1.5625 0.4375 3.65
1.5625 0.5 3.5875
1.5625 0.4375 3.5875
1.75 0.4375 3.65
1.75 0.5 3.5875
1.6875 0.5 3.65
1.75 0.4375 3.5875
1.6875 0.4375 3.65
1.6875 0.5 3.5875
1.6875 0.4375 3.5875
1.875 0.4375 3.65
1.875 0.5 3.5875
1.8125 0.5 3.65
1.875 0.4375 3.5875
1.8125 0.4375 3.65
1.8125 0.5 3.5875
1.8125 0.4375 3.5875
2 0.4375 3.65
2 0.5 3.5875
1.9375 0.5 3.65
2 0.4375 3.5875
1.9375 0.4375 3.65
1.9375 0.5 3.5875
1.9375 0.4375 3.5875
2.125 0.4375 3.65
2.125 0.5 3.5875
2.0625 0.5 3.65
2.125 0.4375 3.5875
2.0625 0.4375 3.65
2.0625 0.5 3.5875
2.0625 0.4375 3.5875
2.25 0.4375 3.65
2.25 0.5 3.5875
2.1875 0.5 3.65
2.25 0.4375 3.5875
2.1875 0.4375 3.65
2.1875 0.5 3.5875
2.1875 0.4375 3.5875
2.375 0.4375 3.65
2.375 0.5 3.5875
2.3125 0.5 3.65
2.375 0.4375 3.5875
2.3125 0.4375 3.65
2.3125 0.5 3.5875
2.3125 0.4375 3.5875
2.5 0.4375 3.65
2.5 0.5 3.5875
2.4375 0.5 3.65
2.5 0.4375 3.5875
2.4375 0.4375 3.65
2.4375 0.5 3.5875
2.4375 0.4375 3.5875
2.625 0.4375 3.65
2.625 0.5 3.5875
2.5625 0.5 3.65
2.625 0.4375 3.5875
2.5625 0.4375 3.65
2.5625 0.5 3.5875
2.5625 0.4375 3.5875
2.75 0.4375 3.65
2.75 0.5 3.5875
2.6875 0.5 3.65
2.75 0.4375 3.5875
2.6875 0.4375 3.65
2.6875 0.5 3.5875
2.6875 0.4375 3.5875
2.875 0.4375 3.65
2.875 0.5 3.5875
2.8125 0.5 3.65
2.875 0.4375 3.5875
2.8125 0.4375 3.65
2.8125 0.5 3.5875
2.8125 0.4375 3.5875
3 0.4375 3.65
3 0.5 3.5875
2.9375 0.5 3.65
3 0.4375 3.5875
2.9375 0.4375 3.65
2.9375 0.5 3.5875
2.9375 0.4375 3.5875
3.125 0.4375 3.65
3.125 0.5 3.5875
3.0625 0.5 3.65
3.125 0.4375 3.5875
3.0625 0.4375 3.65
3.0625 0.5 3.5875
3.0625 0.4375 3.5875
3.25 0.4375 3.65
3.25 0.5 3.5875
3.1875 0.5 3.65
3.25 0.4375 3.5875
3.1875 0.4375 3.65
3.1875 0.5 3.5875
3.1875 0.4375 3.5875
3.375 0.4375 3.65
3.375 0.5 3.5875
3.3125 0.5 3.65
3.375 0.4375 3.5875
3.3125 0.4375 3.65
3.3125 0.5 3.5875
3.3125 0.4375 3.5875
3.5 0.4375 3.65
3.5 0.5 3.5875
3.4375 0.5 3.65
3.5 0.4375 3.5875
3.4375 0.4375 3.65
3.4375 0.5 3.5875
3.4375 0.4375 3.5875
3.625 0.4375 3.65
3.625 0.5 3.5875
3.5625 0.5 3.65
3.625 0.4375 3.5875
3.5625 0.4375 3.65
3.5625 0.5 3.5875
3.5625 0.4375 3.5875
3.75 0.4375 3.65
3.75 0.5 3.5875
3.6875 0.5 3.65
3.75 0.4375 3.5875
3.6875 0.4375 3.65
3.6875 0.5 3.5875
3.6875 0.4375 3.5875
3.875 0.4375 3.65
3.875 0.5 3.5875
3.8125 0.5 3.65
3.875 0.4375 3.5875
3.8125 0.4375 3.65
3.8125 0.5 3.5875
3.8125 0.4375 3.5875
4 0.4375 3.65
4 0.5 3.5875
3.9375 0.5 3.65
4 0.4375 3.5875
3.9375 0.4375 3.65
3.9375 0.5 3.5875
3.9375 0.4375 3.5875
0.125 0.5625 3.65
0 0.5625 3.65
0.125 0.625 3.5875
0.0625 0.625 3.65
0 0.625 3.5875
0.125 0.5625 3.5875
0.0625 0.5625 3.65
0 0.5625 3.5875
0.0625 0.625 3.5875
0.0625 0.5625 3.5875
0.25 0.5625 3.65
0.25 0.625 3.5875
0.1875 0.625 3.65
0.25 0.5625 3.5875
0.1875 0.5625 3.65
0.1875 0.625 3.5875
0.1875 0.5625 3.5875
0.375 0.5625 3.65
0.375 0.625 3.5875
0.3125 0.625 3.65
0.375 0.5625 3.5875
0.3125 0.5625 3.65
0.3125 0.625 3.5875
0.3125 0.5625 3.5875
0.5 0.5625 3.65
0.5 0.625 3.5875
0.4375 0.625 3.65
0.5 0.5625 3.5875
0.4375 0.5625 3.65
0.4375 0.625 3.5875
0.4375 0.5625 3.5875
0.625 0.5625 3.65
0.625 0.625 3.5875
0.5625 0.625 3.65
0.625 0.5625 3.5875
0.5625 0.5625 3.65
0.5625 0.625 3.5875
0.5625 0.5625 3.5875
0.75 0.5625 3.65
0.75 0.625 3.5875
0.6875 0.625 3.65
0.75 0.5625 3.5875
0.6875 0.5625 3.65
0.6875 0.625 3.5875
0.6875 0.5625 3.5875
0.875 0.5625 3.65
0.875 0.625 3.5875
0.8125 0.625 3.65
0.875 0.5625 3.5875
0.8125 0.5625 3.65
0.8125 0.625 3.5875
0.8125 0.5625 3.5875
1 0.5625 3.65
1 0.625 3.5875
0.9375 0.625 3.65
1 0.5625 3.5875
0.9375 0.5625 3.65
0.9375 0.625 3.5875
0.9375 0.5625 3.5875
1.125 0.5625 3.65
1.125 0.625 3.5875
1.0625 0.625 3.65
1.125 0.5625 3.5875
1.0625 0.5625 3.65
1.0625 0.625 3.5875
1.0625 0.5625 3.5875
1.25 0.5625 3.65
1.25 0.625 3.5875
1.1875 0.625 3.65
1.25 0.5625 3.5875
1.1875 0.5625 3.65
1.1875 0.625 3.5875
1.1875 0.5625 3.5875
1.375 0.5625 3.65
1.375 0.625 3.5875
1.3125 0.625 3.65
1.375 0.5625 3.5875
1.3125 0.5625 3.65
1.3125 0.625 3.5875
1.3125 0.5625 3.5875
1.5 0.5625 3.65
1.5 0.625 3.5875
1.4375 0.625 3.65
1.5 0.5625 3.5875
1.4375 0.5625 3.65
1.4375 0.625 3.5875
1.4375 0.5625 3.5875
1.625 0.5625 3.65
1.625 0.625 3.5875
1.5625 0.625 3.65
1.625 0.5625 3.5875
1.5625 0.5625 3.65
1.5625 0.625 3.5875
1.5625 0.5625 3.5875
1.75 0.5625 3.65
1.75 0.625 3.5875
1.6875 0.625 3.65
1.75 0.5625 3.5875
1.6875 0.5625 3.65
1.6875 0.625 3.5875
1.6875 0.5625 3.5875
1.875 0.5625 3.65
1.875 0.625 3.5875
1.8125 0.625 3.65
1.875 0.5625 3.5875
1.8125 0.5625 3.65
1.8125 0.625 3.5875
1.8125 0.5625 3.5875
2 0.5625 3.65
2 0.625 3.5875
1.9375 0.625 3.65
2 0.5625 3.5875
1.9375 0.5625 3.65
1.9375 0.625 3.5875
1.9375 0.5625 3.5875
2.125 0.5625 3.65
2.125 0.625 3.5875
2.0625 0.625 3.65
2.125 0.5625 3.5875
2.0625 0.5625 3.65
2.0625 0.625 3.5875
2.0625 0.5625 3.5875
2.25 0.5625 3.65
2.25 0.625 3.5875
2.1875 0.625 3.65
2.25 0.5625 3.5875
2.1875 0.5625 3.65
2.1875 0.625 3.5875
2.1875 0.5625 3.5875
2.375 0.5625 3.65
2.375 0.625 3.5875
2.3125 0.625 3.65
2.375 0.5625 3.5875
2.3125 0.5625 3.65
2.3125 0.625 3.5875
2.3125 0.5625 3.5875
2.5 0.5625 3.65
2.5 0.625 3.5875
2.4375 0.625 3.65
2.5 0.5625 3.5875
2.4375 0.5625 3.65
2.4375 0.625 3.5875
2.4375 0.5625 3.5875
2.625 0.5625 3.65
2.625 0.625 3.5875
2.5625 0.625 3.65
2.625 0.5625 3.5875
2.5625 0.5625 3.65
2.5625 0.625 3.5875
2.5625 0.5625 3.5875
2.75 0.5625 3.65
2.75 0.625 3.5875
2.6875 0.625 3.65
2.75 0.5625 3.5875
2.6875 0.5625 3.65
2.6875 0.625 3.5875
2.6875 0.5625 3.5875
2.875 0.5625 3.65
2.875 0.625 3.5875
2.8125 0.625 3.65
2.875 0.5625 3.5875
2.8125 0.5625 3.65
2.8125 0.625 3.5875
2.8125 0.5625 3.5875
3 0.5625 3.65
3 0.625 3.5875
2.9375 0.625 3.65
3 0.5625 3.5875
2.9375 0.5625 3.65
2.9375 0.625 3.5875
2.9375 0.5625 3.5875
3.125 0.5625 3.65
3.125 0.625 3.5875
3.0625 0.625 3.65
3.125 0.5625 3.5875
3.0625 0.5625 3.65
3.0625 0.625 3.5875
3.0625 0.5625 3.5875
3.25 0.5625 3.65
3.25 0.625 3.5875
3.1875 0.625 3.65
3.25 0.5625 3.5875
3.1875 0.5625 3.65
3.1875 0.625 3.5875
3.1875 0.5625 3.5875
3.375 0.5625 3.65
3.375 0.625 3.5875
3.3125 0.625 3.65
3.375 0.5625 3.5875
3.3125 0.5625 3.65
3.3125 0.625 3.5875
3.3125 0.5625 3.5875
3.5 0.5625 3.65
3.5 0.625 3.5875
3.4375 0.625 3.65
3.5 0.5625 3.5875
3.4375 0.5625 3.65
3.4375 0.625 3.5875
3.4375 0.5625 3.5875
3.625 0.5625 3.65
3.625 0.625 3.5875
3.5625 0.625 3.65
3.625 0.5625 3.5875
3.5625 0.5625 3.65
3.5625 0.625 3.5875
3.5625 0.5625 3.5875
3.75 0.5625 3.65
3.75 0.625 3.5875
3.6875 0.625 3.65
3.75 0.5625 3.5875
3.6875 0.5625 3.65
3.6875 0.625 3.5875
3.6875 0.5625 3.5875
3.875 0.5625 3.65
3.875 0.625 3.5875
3.8125 0.625 3.65
3.875 0.5625 3.5875
3.8125 0.5625 3.65
3.8125 0.625 3.5875
3.8125 0.5625 3.5875
4 0.5625 3.65
4 0.625 3.5875
3.9375 0.625 3.65
4 0.5625 3.5875
3.9375 0.5625 3.65
3.9375 0.625 3.5875
3.9375 0.5625 3.5875
0.125 0.6875 3.65
0 0.6875 3.65
0.125 0.75 3.5875
0.0625 0.75 3.65
0 0.75 3.5875
0.125 0.6875 3.5875
0.0625 0.6875 3.65
0 0.6875 3.5875
0.0625 0.75 3.5875
0.0625 0.6875 3.5875
0.25 0.6875 3.65
0.25 0.75 3.5875
0.1875 0.75 3.65
0.25 0.6875 3.5875
0.1875 0.6875 3.65
0.1875 0.75 3.5875
0.1875 0.6875 3.5875
0.375 0.6875 3.65
0.375 0.75 3.5875
0.3125 0.75 3.65
0.375 0.6875 3.5875
0.3125 0.6875 3.65
0.3125 0.75 3.5875
0.3125 0.6875 3.5875
0.5 0.6875 3.65
0.5 0.75 3.5875
0.4375 0.75 3.65
0.5 0.6875 3.5875
0.4375 0.6875 3.65
0.4375 0.75 3.5875
0.4375 0.6875 3.5875
0.625 0.6875 3.65
0.625 0.75 3.5875
0.5625 0.75 3.65
0.625 0.6875 3.5875
0.5625 0.6875 3.65
0.5625 0.75 3.5875
0.5625 0.6875 3.5875
0.75 0.6875 3.65
0.75 0.75 3.5875
0.6875 0.75 3.65
0.75 0.6875 3.5875
0.6875 0.6875 3.65
0.6875 0.75 3.5875
0.6875 0.6875 3.5875
0.875 0.6875 3.65
0.875 0.75 3.5875
0.8125 0.75 3.65
0.875 0.6875 3.5875
0.8125 0.6875 3.65
0.8125 0.75 3.5875
0.8125 0.6875 3.5875
1 0.6875 3.65
1 0.75 3.5875
0.9375 0.75 3.65
1 0.6875 3.5875
0.9375 0.6875 3.65
0.9375 0.75 3.5875
0.9375 0.6875 3.5875
1.125 0.6875 3.65
1.125 0.75 3.5875
1.0625 0.75 3.65
1.125 0.6875 3.5875
1.0625 0.6875 3.65
1.0625 0.75 3.5875
1.0625 0.6875 3.5875
1.25 0.6875 3.65
1.25 0.75 3.5875
1.1875 0.75 3.65
1.25 0.6875 3.5875
1.1875 0.6875 3.65
1.1875 0.75 3.5875
1.1875 0.6875 3.5875
1.375 0.6875 3.65
1.375 0.75 3.5875
1.3125 0.75 3.65
1.375 0.6875 3.5875
1.3125 0.6875 3.65
1.3125 0.75 3.5875
1.3125 0.6875 3.5875
1.5 0.6875 3.65
1.5 0.75 3.5875
1.4375 0.75 3.65
1.5 0.6875 3.5875
1.4375 0.6875 3.65
1.4375 0.75 3.5875
1.4375 0.6875 3.5875
1.625 0.6875 3.65
1.625 0.75 3.5875
1.5625 0.75 3.65
1.625 0.6875 3.5875
1.5625 0.6875 3.65
1.5625 0.75 3.5875
1.5625 0.6875 3.5875
1.75 0.6875 3.65
1.75 0.75 3.5875
1.6875 0.75 3.65
1.75 0.6875 3.5875
1.6875 0.6875 3.65
1.6875 0.75 3.5875
1.6875 0.6875 3.5875
1.875 0.6875 3.65
1.875 0.75 3.5875
1.8125 0.75 3.65
1.875 0.6875 3.5875
1.8125 0.6875 3.65
1.8125 0.75 3.5875
1.8125 0.6875 3.5875
2 0.6875 3.65
2 0.75 3.5875
1.9375 0.75 3.65
2 0.6875 3.5875
1.9375 0.6875 3.65
1.9375 0.75 3.5875
1.9375 0.6875 3.5875
2.125 0.6875 3.65
2.125 0.75 3.5875
2.0625 0.75 3.65
2.125 0.6875 3.5875
2.0625 0.6875 3.65
2.0625 0.75 3.5875
2.0625 0.6875 3.5875
2.25 0.6875 3.65
2.25 0.75 3.5875
2.1875 0.75 3.65
2.25 0.6875 3.5875
2.1875 0.6875 3.65
2.1875 0.75 3.5875
2.1875 0.6875 3.5875
2.375 0.6875 3.65
2.375 0.75 3.5875
2.3125 0.75 3.65
2.375 0.6875 3.5875
2.3125 0.6875 3.65
2.3125 0.75 3.5875
2.3125 0.6875 3.5875
2.5 0.6875 3.65
2.5 0.75 3.5875
2.4375 0.75 3.65
2.5 0.6875 3.5875
2.4375 0.6875 3.65
2.4375 0.75 3.5875
2.4375 0.6875 3.5875
2.625 0.6875 3.65
2.625 0.75 3.5875
2.5625 0.75 3.65
2.625 0.6875 3.5875
2.5625 0.6875 3.65
2.5625 0.75 3.5875
2.5625 0.6875 3.5875
2.75 0.6875 3.65
2.75 0.75 3.5875
2.6875 0.75 3.65
2.75 0.6875 3.5875
2.6875 0.6875 3.65
2.6875 0.75 3.5875
2.6875 0.6875 3.5875
2.875 0.6875 3.65
2.875 0.75 3.5875
2.8125 0.75 3.65
2.875 0.6875 3.5875
2.8125 0.6875 3.65
2.8125 0.75 3.5875
2.8125 0.6875 3.5875
3 0.6875 3.65
3 0.75 3.5875
2.9375 0.75 3.65
3 0.6875 3.5875
2.9375 0.6875 3.65
2.9375 0.75 3.5875
2.9375 0.6875 3.5875
3.125 0.6875 3.65
3.125 0.75 3.5875
3.0625 0.75 3.65
3.125 0.6875 3.5875
3.0625 0.6875 3.65
3.0625 0.75 3.5875
3.0625 0.6875 3.5875
3.25 0.6875 3.65
3.25 0.75 3.5875
3.1875 0.75 3.65
3.25 0.6875 3.5875
3.1875 0.6875 3.65
3.1875 0.75 3.5875
3.1875 0.6875 3.5875
3.375 0.6875 3.65
3.375 0.75 3.5875
3.3125 0.75 3.65
3.375 0.6875 3.5875
3.3125 0.6875 3.65
3.3125 0.75 3.5875
3.3125 0.6875 3.5875
3.5 0.6875 3.65
3.5 0.75 3.5875
3.4375 0.75 3.65
3.5 0.6875 3.5875
3.4375 0.6875 3.65
3.4375 0.75 3.5875
3.4375 0.6875 3.5875
3.625 0.6875 3.65
3.625 0.75 3.5875
3.5625 0.75 3.65
3.625 0.6875 3.5875
3.5625 0.6875 3.65
3.5625 0.75 3.5875
3.5625 0.6875 3.5875
3.75 0.6875 3.65
3.75 0.75 3.5875
3.6875 0.75 3.65
3.75 0.6875 3.5875
3.6875 0.6875 3.65
3.6875 0.75 3.5875
3.6875 0.6875 3.5875
3.875 0.6875 3.65
3.875 0.75 3.5875
3.8125 0.75 3.65
3.875 0.6875 3.5875
3.8125 0.6875 3.65
3.8125 0.75 3.5875
3.8125 0.6875 3.5875
4 0.6875 3.65
4 0.75 3.5875
3.9375 0.75 3.65
4 0.6875 3.5875
3.9375 0.6875 3.65
3.9375 0.75 3.5875
3.9375 0.6875 3.5875
0.125 0.8125 3.65
0 0.8125 3.65
0.125 0.875 3.5875
0.0625 0.875 3.65
0 0.875 3.5875
0.125 0.8125 3.5875
0.0625 0.8125 3.65
0 0.8125 3.5875
0.0625 0.875 3.5875
0.0625 0.8125 3.5875
0.25 0.8125 3.65
0.25 0.875 3.5875
0.1875 0.875 3.65
0.25 0.8125 3.5875
0.1875 0.8125 3.65
0.1875 0.875 3.5875
0.1875 0.8125 3.5875
0.375 0.8125 3.65
0.375 0.875 3.5875
0.3125 0.875 3.65
0.375 0.8125 3.5875
0.3125 0.8125 3.65
0.3125 0.875 3.5875
0.3125 0.8125 3.5875
0.5 0.8125 3.65
0.5 0.875 3.5875
0.4375 0.875 3.65
0.5 0.8125 3.5875
0.4375 0.8125 3.65
0.4375 0.875 3.5875
0.4375 0.8125 3.5875
0.625 0.8125 3.65
0.625 0.875 3.5875
0.5625 0.875 3.65
0.625 0.8125 3.5875
0.5625 0.8125 3.65
0.5625 0.875 3.5875
0.5625 0.8125 3.5875
0.75 0.8125 3.65
0.75 0.875 3.5875
0.6875 0.875 3.65
0.75 0.8125 3.5875
0.6875 0.8125 3.65
0.6875 0.875 3.5875
0.6875 0.8125 3.5875
0.875 0.8125 3.65
0.875 0.875 3.5875
0.8125 0.875 3.65
0.875 0.8125 3.5875
0.8125 0.8125 3.65
0.8125 0.875 3.5875
0.8125 0.8125 3.5875
1 0.8125 3.65
1 0.875 3.5875
0.9375 0.875 3.65
1 0.8125 3.5875
0.9375 0.8125 3.65
0.9375 0.875 3.5875
0.9375 0.8125 3.5875
1.125 0.8125 3.65
1.125 0.875 3.5875
1.0625 0.875 3.65
1.125 0.8125 3.5875
1.0625 0.8125 3.65
1.0625 0.875 3.5875
1.0625 0.8125 3.5875
1.25 0.8125 3.65
1.25 0.875 3.5875
1.1875 0.875 3.65
1.25 0.8125 3.5875
1.1875 0.8125 3.65
1.1875 0.875 3.5875
1.1875 0.8125 3.5875
1.375 0.8125 3.65
1.375 0.875 3.5875
1.3125 0.875 3.65
1.375 0.8125 3.5875
1.3125 0.8125 3.65
1.3125 0.875 3.5875
1.3125 0.8125 3.5875
1.5 0.8125 3.65
1.5 0.875 3.5875
1.4375 0.875 3.65
1.5 0.8125 3.5875
1.4375 0.8125 3.65
1.4375 0.875 3.5875
1.4375 0.8125 3.5875
1.625 0.8125 3.65
1.625 0.875 3.5875
1.5625 0.875 3.65
1.625 0.8125 3.5875
1.5625 0.8125 3.65
1.5625 0.875 3.5875
1.5625 0.8125 3.5875
1.75 0.8125 3.65
1.75 0.875 3.5875
1.6875 0.875 3.65
1.75 0.8125 3.5875
1.6875 0.8125 3.65
1.6875 0.875 3.5875
1.6875 0.8125 3.5875
1.875 0.8125 3.65
1.875 0.875 3.5875
1.8125 0.875 3.65
1.875 0.8125 3.5875
1.8125 0.8125 3.65
1.8125 0.875 3.5875
1.8125 0.8125 3.5875
2 0.8125 3.65
2 0.875 3.5875
1.9375 0.875 3.65
2 0.8125 3.5875
1.9375 0.8125 3.65
1.9375 0.875 3.5875
1.9375 0.8125 3.5875
2.125 0.8125 3.65
2.125 0.875 3.5875
2.0625 0.875 3.65
2.125 0.8125 3.5875
2.0625 0.8125 3.65
2.0625 0.875 3.5875
2.0625 0.8125 3.5875
2.25 0.8125 3.65
2.25 0.875 3.5875
2.1875 0.875 3.65
2.25 0.8125 3.5875
2.1875 0.8125 3.65
2.1875 0.875 3.5875
2.1875 0.8125 3.5875
2.375 0.8125 3.65
2.375 0.875 3.5875
2.3125 0.875 3.65
2.375 0.8125 3.5875
2.3125 0.8125 3.65
2.3125 0.875 3.5875
2.3125 0.8125 3.5875
2.5 0.8125 3.65
2.5 0.875 3.5875
2.4375 0.875 3.65
2.5 0.8125 3.5875
2.4375 0.8125 3.65
2.4375 0.875 3.5875
2.4375 0.8125 3.5875
2.625 0.8125 3.65
2.625 0.875 3.5875
2.5625 0.875 3.65
2.625 0.8125 3.5875
2.5625 0.8125 3.65
2.5625 0.875 3.5875
2.5625 0.8125 3.5875
2.75 0.8125 3.65
2.75 0.875 3.5875
2.6875 0.875 3.65
2.75 0.8125 3.5875
2.6875 0.8125 3.65
2.6875 0.875 3.5875
2.6875 0.8125 3.5875
2.875 0.8125 3.65
2.875 0.875 3.5875
2.8125 0.875 3.65
2.875 0.8125 3.5875
2.8125 0.8125 3.65
2.8125 0.875 3.5875
2.8125 0.8125 3.5875
3 0.8125 3.65
3 0.875 3.5875
2.9375 0.875 3.65
3 0.8125 3.5875
2.9375 0.8125 3.65
2.9375 0.875 3.5875
2.9375 0.8125 3.5875
3.125 0.8125 3.65
3.125 0.875 3.5875
3.0625 0.875 3.65
3.125 0.8125 3.5875
3.0625 0.8125 3.65
3.0625 0.875 3.5875
3.0625 0.8125 3.5875
3.25 0.8125 3.65
3.25 0.875 3.5875
3.1875 0.875 3.65
3.25 0.8125 3.5875
3.1875 0.8125 3.65
3.1875 0.875 3.5875
3.1875 0.8125 3.5875
3.375 0.8125 3.65
3.375 0.875 3.5875
3.3125 0.875 3.65
3.375 0.8125 3.5875
3.3125 0.8125 3.65
3.3125 0.875 3.5875
3.3125 0.8125 3.5875
3.5 0.8125 3.65
3.5 0.875 3.5875
3.4375 0.875 3.65
3.5 0.8125 3.5875
3.4375 0.8125 3.65
3.4375 0.875 3.5875
3.4375 0.8125 3.5875
3.625 0.8125 3.65
3.625 0.875 3.5875
3.5625 0.875 3.65
3.625 0.8125 3.5875
3.5625 0.8125 3.65
3.5625 0.875 3.5875
3.5625 0.8125 3.5875
3.75 0.8125 3.65
3.75 0.875 3.5875
3.6875 0.875 3.65
3.75 0.8125 3.5875
3.6875 0.8125 3.65
3.6875 0.875 3.5875
3.6875 0.8125 3.5875
3.875 0.8125 3.65
3.875 0.875 3.5875
3.8125 0.875 3.65
3.875 0.8125 3.5875
3.8125 0.8125 3.65
3.8125 0.875 3.5875
3.8125 0.8125 3.5875
4 0.8125 3.65
4 0.875 3.5875
3.9375 0.875 3.65
4 0.8125 3.5875
3.9375 0.8125 3.65
3.9375 0.875 3.5875
3.9375 0.8125 3.5875
0.125 0.9375 3.65
0 0.9375 3.65
0.125 1 3.5875
0.0625 1 3.65
0 1 3.5875
0.125 0.9375 3.5875
0.0625 0.9375 3.65
0 0.9375 3.5875
0.0625 1 3.5875
0.0625 0.9375 3.5875
0.25 0.9375 3.65
0.25 1 3.5875
0.1875 1 3.65
0.25 0.9375 3.5875
0.1875 0.9375 3.65
0.1875 1 3.5875
0.1875 0.9375 3.5875
0.375 0.9375 3.65
0.375 1 3.5875
0.3125 1 3.65
0.375 0.9375 3.5875
0.3125 0.9375 3.65
0.3125 1 3.5875
0.3125 0.9375 3.5875
0.5 0.9375 3.65
0.5 1 3.5875
0.4375 1 3.65
0.5 0.9375 3.5875
0.4375 0.9375 3.65
0.4375 1 3.5875
0.4375 0.9375 3.5875
0.625 0.9375 3.65
0.625 1 3.5875
0.5625 1 3.65
0.625 0.9375 3.5875
0.5625 0.9375 3.65
0.5625 1 3.5875
0.5625 0.9375 3.5875
0.75 0.9375 3.65
0.75 1 3.5875
0.6875 1 3.65
0.75 0.9375 3.5875
0.6875 0.9375 3.65
0.6875 1 3.5875
0.6875 0.9375 3.5875
0.875 0.9375 3.65
0.875 1 3.5875
0.8125 1 3.65
0.875 0.9375 3.5875
0.8125 0.9375 3.65
0.8125 1 3.5875
0.8125 0.9375 3.5875
1 0.9375 3.65
1 1 3.5875
0.9375 1 3.65
1 0.9375 3.5875
0.9375 0.9375 3.65
0.9375 1 3.5875
0.9375 0.9375 3.5875
1.125 0.9375 3.65
1.125 1 3.5875
1.0625 1 3.65
1.125 0.9375 3.5875
1.0625 0.9375 3.65
1.0625 1 3.5875
1.0625 0.9375 3.5875
1.25 0.9375 3.65
1.25 1 3.5875
1.1875 1 3.65
1.25 0.9375 3.5875
1.1875 0.9375 3.65
1.1875 1 3.5875
1.1875 0.9375 3.5875
1.375 0.9375 3.65
1.375 1 3.5875
1.3125 1 3.65
1.375 0.9375 3.5875
1.3125 0.9375 3.65
1.3125 1 3.5875
1.3125 0.9375 3.5875
1.5 0.9375 3.65
1.5 1 3.5875
1.4375 1 3.65
1.5 0.9375 3.5875
1.4375 0.9375 3.65
1.4375 1 3.5875
1.4375 0.9375 3.5875
1.625 0.9375 3.65
1.625 1 3.5875
1.5625 1 3.65
1.625 0.9375 3.5875
1.5625 0.9375 3.65
1.5625 1 3.5875
1.5625 0.9375 3.5875
1.75 0.9375 3.65
1.75 1 3.5875
1.6875 1 3.65
1.75 0.9375 3.5875
1.6875 0.9375 3.65
1.6875 1 3.5875
1.6875 0.9375 3.5875
1.875 0.9375 3.65
1.875 1 3.5875
1.8125 1 3.65
1.875 0.9375 3.5875
1.8125 0.9375 3.65
1.8125 1 3.5875
1.8125 0.9375 3.5875
2 0.9375 3.65
2 1 3.5875
1.9375 1 3.65
2 0.9375 3.5875
1.9375 0.9375 3.65
1.9375 1 3.5875
1.9375 0.9375 3.5875
2.125 0.9375 3.65
2.125 1 3.5875
2.0625 1 3.65
2.125 0.9375 3.5875
2.0625 0.9375 3.65
2.0625 1 3.5875
2.0625 0.9375 3.5875
2.25 0.9375 3.65
2.25 1 3.5875
2.1875 1 3.65
2.25 0.9375 3.5875
2.1875 0.9375 3.65
2.1875 1 3.5875
2.1875 0.9375 3.5875
2.375 0.9375 3.65
2.375 1 3.5875
2.3125 1 3.65
2.375 0.9375 3.5875
2.3125 0.9375 3.65
2.3125 1 3.5875
2.3125 0.9375 3.5875
2.5 0.9375 3.65
2.5 1 3.5875
2.4375 1 3.65
2.5 0.9375 3.5875
2.4375 0.9375 3.65
2.4375 1 3.5875
2.4375 0.9375 3.5875
2.625 0.9375 3.65
2.625 1 3.5875
2.5625 1 3.65
2.625 0.9375 3.5875
2.5625 0.9375 3.65
2.5625 1 3.5875
2.5625 0.9375 3.5875
2.75 0.9375 3.65
2.75 1 3.5875
2.6875 1 3.65
2.75 0.9375 3.5875
2.6875 0.9375 3.65
2.6875 1 3.5875
2.6875 0.9375 3.5875
2.875 0.9375 3.65
2.875 1 3.5875
2.8125 1 3.65
2.875 0.9375 3.5875
2.8125 0.9375 3.65
2.8125 1 3.5875
2.8125 0.9375 3.5875
3 0.9375 3.65
3 1 3.5875
2.9375 1 3.65
3 0.9375 3.5875
2.9375 0.9375 3.65
2.9375 1 3.5875
2.9375 0.9375 3.5875
3.125 0.9375 3.65
3.125 1 3.5875
3.0625 1 3.65
3.125 0.9375 3.5875
3.0625 0.9375 3.65
3.0625 1 3.5875
3.0625 0.9375 3.5875
3.25 0.9375 3.65
3.25 1 3.5875
3.1875 1 3.65
3.25 0.9375 3.5875
3.1875 0.9375 3.65
3.1875 1 3.5875
3.1875 0.9375 3.5875
3.375 0.9375 3.65
3.375 1 3.5875
3.3125 1 3.65
3.375 0.9375 3.5875
3.3125 0.9375 3.65
3.3125 1 3.5875
3.3125 0.9375 3.5875
3.5 0.9375 3.65
3.5 1 3.5875
3.4375 1 3.65
3.5 0.9375 3.5875
3.4375 0.9375 3.65
3.4375 1 3.5875
3.4375 0.9375 3.5875
3.625 0.9375 3.65
3.625 1 3.5875
3.5625 1 3.65
3.625 0.9375 3.5875
3.5625 0.9375 3.65
3.5625 1 3.5875
3.5625 0.9375 3.5875
3.75 0.9375 3.65
3.75 1 3.5875
3.6875 1 3.65
3.75 0.9375 3.5875
3.6875 0.9375 3.65
3.6875 1 3.5875
3.6875 0.9375 3.5875
3.875 0.9375 3.65
3.875 1 3.5875
3.8125 1 3.65
3.875 0.9375 3.5875
3.8125 0.9375 3.65
3.8125 1 3.5875
3.8125 0.9375 3.5875
4 0.9375 3.65
4 1 3.5875
3.9375 1 3.65
4 0.9375 3.5875
3.9375 0.9375 3.65
3.9375 1 3.5875
3.9375 0.9375 3.5875
0.125 0 3.7125
0.0625 0 3.775
0 0 3.7125
0.125 0.0625 3.775
0 0.0625 3.775
0.125 0.125 3.7125
0.0625 0.125 3.775
0 0.125 3.7125
0.0625 0 3.7125
0.125 0.0625 3.7125
0.0625 0.0625 3.775
0 0.0625 3.7125
0.0625 0.125 3.7125
0.0625 0.0625 3.7125
0.25 0 3.7125
0.1875 0 3.775
0.25 0.0625 3.775
0.25 0.125 3.7125
0.1875 0.125 3.775
0.1875 0 3.7125
0.25 0.0625 3.7125
0.1875 0.0625 3.775
0.1875 0.125 3.7125
0.1875 0.0625 3.7125
0.375 0 3.7125
0.3125 0 3.775
0.375 0.0625 3.775
0.375 0.125 3.7125
0.3125 0.125 3.775
0.3125 0 3.7125
0.375 0.0625 3.7125
0.3125 0.0625 3.775
0.3125 0.125 3.7125
0.3125 0.0625 3.7125
0.5 0 3.7125
0.4375 0 3.775
0.5 0.0625 3.775
0.5 0.125 3.7125
0.4375 0.125 3.775
0.4375 0 3.7125
0.5 0.0625 3.7125
0.4375 0.0625 3.775
0.4375 0.125 3.7125
0.4375 0.0625 3.7125
0.625 0 3.7125
0.5625 0 3.775
0.625 0.0625 3.775
0.625 0.125 3.7125
0.5625 0.125 3.775
0.5625 0 3.7125
0.625 0.0625 3.7125
0.5625 0.0625 3.775
0.5625 0.125 3.7125
0.5625 0.0625 3.7125
0.75 0 3.7125
0.6875 0 3.775
0.75 0.0625 3.775
0.75 0.125 3.7125
0.6875 0.125 3.775
0.6875 0 3.7125
0.75 0.0625 3.7125
0.6875 0.0625 3.775
0.6875 0.125 3.7125
0.6875 0.0625 3.7125
0.875 0 3.7125
0.8125 0 3.775
0.875 0.0625 3.775
0.875 0.125 3.7125
0.8125 0.125 3.775
0.8125 0 3.7125
0.875 0.0625 3.7125
0.8125 0.0625 3.775
0.8125 0.125 3.7125
0.8125 0.0625 3.7125
1 0 3.7125
0.9375 0 3.775
1 0.0625 3.775
1 0.125 3.7125
0.9375 0.125 3.775
0.9375 0 3.7125
1 0.0625 3.7125
0.9375 0.0625 3.775
0.9375 0.125 3.7125
0.9375 0.0625 3.7125
1.125 0 3.7125
1.0625 0 3.775
1.125 0.0625 3.775
1.125 0.125 3.7125
1.0625 0.125 3.775
1.0625 0 3.7125
1.125 0.0625 3.7125
1.0625 0.0625 3.775
1.0625 0.125 3.7125
1.0625 0.0625 3.7125
1.25 0 3.7125
1.1875 0 3.775
1.25 0.0625 3.775
1.25 0.125 3.7125
1.1875 0.125 3.775
1.1875 0 3.7125
1.25 0.0625 3.7125
1.1875 0.0625 3.775
1.1875 0.125 3.7125
1.1875 0.0625 3.7125
1.375 0 3.7125
1.3125 0 3.775
1.375 0.0625 3.775
1.375 0.125 3.7125
1.3125 0.125 3.775
1.3125 0 3.7125
1.375 0.0625 3.7125
1.3125 0.0625 3.775
1.3125 0.125 3.7125
1.3125 0.0625 3.7125
1.5 0 3.7125
1.4375 0 3.775
1.5 0.0625 3.775
1.5 0.125 3.7125
1.4375 0.125 3.775
1.4375 0 3.7125
1.5 0.0625 3.7125
1.4375 0.0625 3.775
1.4375 0.125 3.7125
1.4375 0.0625 3.7125
1.625 0 3.7125
1.5625 0 3.775
1.625 0.0625 3.775
1.625 0.125 3.7125
1.5625 0.125 3.775
1.5625 0 3.7125
1.625 0.0625 3.7125
1.5625 0.0625 3.775
1.5625 0.125 3.7125
1.5625 0.0625 3.7125
1.75 0 3.7125
1.6875 0 3.775
1.75 0.0625 3.775
1.75 0.125 3.7125
1.6875 0.125 3.775
1.6875 0 3.7125
1.75 0.0625 3.7125
1.6875 0.0625 3.775
1.6875 0.125 3.7125
1.6875 0.0625 3.7125
1.875 0 3.7125
1.8125 0 3.775
1.875 0.0625 3.775
1.875 0.125 3.7125
1.8125 0.125 3.775
1.8125 0 3.7125
1.875 0.0625 3.7125
1.8125 0.0625 3.775
1.8125 0.125 3.7125
1.8125 0.0625 3.7125
2 0 3.7125
1.9375 0 3.775
2 0.0625 3.775
2 0.125 3.7125
1.9375 0.125 3.775
1.9375 0 3.7125
2 0.0625 3.7125
1.9375 0.0625 3.775
1.9375 0.125 3.7125
1.9375 0.0625 3.7125
2.125 0 3.7125
2.0625 0 3.775
2.125 0.0625 3.775
2.125 0.125 3.7125
2.0625 0.125 3.775
2.0625 0 3.7125
2.125 0.0625 3.7125
2.0625 0.0625 3.775
2.0625 0.125 3.7125
2.0625 0.0625 3.7125
2.25 0 3.7125
2.1875 0 3.775
2.25 0.0625 3.775
2.25 0.125 3.7125
2.1875 0.125 3.775
2.1875 0 3.7125
2.25 0.0625 3.7125
2.1875 0.0625 3.775
2.1875 0.125 3.7125
2.1875 0.0625 3.7125
2.375 0 3.7125
2.3125 0 3.775
2.375 0.0625 3.775
2.375 0.125 3.7125
2.3125 0.125 3.775
2.3125 0 3.7125
2.375 0.0625 3.7125
2.3125 0.0625 3.775
2.3125 0.125 3.7125
2.3125 0.0625 3.7125
2.5 0 3.7125
2.4375 0 3.775
2.5 0.0625 3.775
2.5 0.125 3.7125
2.4375 0.125 3.775
2.4375 0 3.7125
2.5 0.0625 3.7125
2.4375 0.0625 3.775
2.4375 0.125 3.7125
2.4375 0.0625 3.7125
2.625 0 3.7125
2.5625 0 3.775
2.625 0.0625 3.775
2.625 0.125 3.7125
2.5625 0.125 3.775
2.5625 0 3.7125
2.625 0.0625 3.7125
2.5625 0.0625 3.775
2.5625 0.125 3.7125
2.5625 0.0625 3.7125
2.75 0 3.7125
2.6875 0 3.775
2.75 0.0625 3.775
2.75 0.125 3.7125
2.6875 0.125 3.775
2.6875 0 3.7125
2.75 0.0625 3.7125
2.6875 0.0625 3.775
2.6875 0.125 3.7125
2.6875 0.0625 3.7125
2.875 0 3.7125
2.8125 0 3.775
2.875 0.0625 3.775
2.875 0.125 3.7125
2.8125 0.125 3.775
2.8125 0 3.7125
2.875 0.0625 3.7125
2.8125 0.0625 3.775
2.8125 0.125 3.7125
2.8125 0.0625 3.7125
3 0 3.7125
2.9375 0 3.775
3 0.0625 3.775
3 0.125 3.7125
2.9375 0.125 3.775
2.9375 0 3.7125
3 0.0625 3.7125
2.9375 0.0625 3.775
2.9375 0.125 3.7125
2.9375 0.0625 3.7125
3.125 0 3.7125
3.0625 0 3.775
3.125 0.0625 3.775
3.125 0.125 3.7125
3.0625 0.125 3.775
3.0625 0 3.7125
3.125 0.0625 3.7125
3.0625 0.0625 3.775
3.0625 0.125 3.7125
3.0625 0.0625 3.7125
3.25 0 3.7125
3.1875 0 3.775
3.25 0.0625 3.775
3.25 0.125 3.7125
3.1875 0.125 3.775
3.1875 0 3.7125
3.25 0.0625 3.7125
3.1875 0.0625 3.775
3.1875 0.125 3.7125
3.1875 0.0625 3.7125
3.375 0 3.7125
3.3125 0 3.775
3.375 0.0625 3.775
3.375 0.125 3.7125
3.3125 0.125 3.775
3.3125 0 3.7125
3.375 0.0625 3.7125
3.3125 0.0625 3.775
3.3125 0.125 3.7125
3.3125 0.0625 3.7125
3.5 0 3.7125
3.4375 0 3.775
3.5 0.0625 3.775
3.5 0.125 3.7125
3.4375 0.125 3.775
3.4375 0 3.7125
3.5 0.0625 3.7125
3.4375 0.0625 3.775
3.4375 0.125 3.7125
3.4375 0.0625 3.7125
3.625 0 3.7125
3.5625 0 3.775
3.625 0.0625 3.775
3.625 0.125 3.7125
3.5625 0.125 3.775
3.5625 0 3.7125
3.625 0.0625 3.7125
3.5625 0.0625 3.775
3.5625 0.125 3.7125
3.5625 0.0625 3.7125
3.75 0 3.7125
3.6875 0 3.775
3.75 0.0625 3.775
3.75 0.125 3.7125
3.6875 0.125 3.775
3.6875 0 3.7125
3.75 0.0625 3.7125
3.6875 0.0625 3.775
3.6875 0.125 3.7125
3.6875 0.0625 3.7125
3.875 0 3.7125
3.8125 0 3.775
3.875 0.0625 3.775
3.875 0.125 3.7125
3.8125 0.125 3.775
3.8125 0 3.7125
3.875 0.0625 3.7125
3.8125 0.0625 3.775
3.8125 0.125 3.7125
3.8125 0.0625 3.7125
4 0 3.7125
3.9375 0 3.775
4 0.0625 3.775
4 0.125 3.7125
3.9375 0.125 3.775
3.9375 0 3.7125
4 0.0625 3.7125
3.9375 0.0625 3.775
3.9375 0.125 3.7125
3.9375 0.0625 3.7125
0.125 0.1875 3.775
0 0.1875 3.775
0.125 0.25 3.7125
0.0625 0.25 3.775
0 0.25 3.7125
0.125 0.1875 3.7125
0.0625 0.1875 3.775
0 0.1875 3.7125
0.0625 0.25 3.7125
0.0625 0.1875 3.7125
0.25 0.1875 3.775
0.25 0.25 3.7125
0.1875 0.25 3.775
0.25 0.1875 3.7125
0.1875 0.1875 3.775
0.1875 0.25 3.7125
0.1875 0.1875 3.7125
0.375 0.1875 3.775
0.375 0.25 3.7125
0.3125 0.25 3.775
0.375 0.1875 3.7125
0.3125 0.1875 3.775
0.3125 0.25 3.7125
0.3125 0.1875 3.7125
0.5 0.1875 3.775
0.5 0.25 3.7125
0.4375 0.25 3.775
0.5 0.1875 3.7125
0.4375 0.1875 3.775
0.4375 0.25 3.7125
0.4375 0.1875 3.7125
0.625 0.1875 3.775
0.625 0.25 3.7125
0.5625 0.25 3.775
0.625 0.1875 3.7125
0.5625 0.1875 3.775
0.5625 0.25 3.7125
0.5625 0.1875 3.7125
0.75 0.1875 3.775
0.75 0.25 3.7125
0.6875 0.25 3.775
0.75 0.1875 3.7125
0.6875 0.1875 3.775
0.6875 0.25 3.7125
0.6875 0.1875 3.7125
0.875 0.1875 3.775
0.875 0.25 3.7125
0.8125 0.25 3.775
0.875 0.1875 3.7125
0.8125 0.1875 3.775
0.8125 0.25 3.7125
0.8125 0.1875 3.7125
1 0.1875 3.775
1 0.25 3.7125
0.9375 0.25 3.775
1 0.1875 3.7125
0.9375 0.1875 3.775
0.9375 0.25 3.7125
0.9375 0.1875 3.7125
1.125 0.1875 3.775
1.125 0.25 3.7125
1.0625 0.25 3.775
1.125 0.1875 3.7125
1.0625 0.1875 3.775
1.0625 0.25 3.7125
1.0625 0.1875 3.7125
1.25 0.1875 3.775
1.25 0.25 3.7125
1.1875 0.25 3.775
1.25 0.1875 3.7125
1.1875 0.1875 3.775
1.1875 0.25 3.7125
1.1875 0.1875 3.7125
1.375 0.1875 3.775
1.375 0.25 3.7125
1.3125 0.25 3.775
1.375 0.1875 3.7125
1.3125 0.1875 3.775
1.3125 0.25 3.7125
1.3125 0.1875 3.7125
1.5 0.1875 3.775
1.5 0.25 3.7125
1.4375 0.25 3.775
1.5 0.1875 3.7125
1.4375 0.1875 3.775
1.4375 0.25 3.7125
1.4375 0.1875 3.7125
1.625 0.1875 3.775
1.625 0.25 3.7125
1.5625 0.25 3.775
1.625 0.1875 3.7125
1.5625 0.1875 3.775
1.5625 0.25 3.7125
1.5625 0.1875 3.7125
1.75 0.1875 3.775
1.75 0.25 3.7125
1.6875 0.25 3.775
1.75 0.1875 3.7125
1.6875 0.1875 3.775
1.6875 0.25 3.7125
1.6875 0.1875 3.7125
1.875 0.1875 3.775
1.875 0.25 3.7125
1.8125 0.25 3.775
1.875 0.1875 3.7125
1.8125 0.1875 3.775
1.8125 0.25 3.7125
1.8125 0.1875 3.7125
2 0.1875 3.775
2 0.25 3.7125
1.9375 0.25 3.775
2 0.1875 3.7125
1.9375 0.1875 3.775
1.9375 0.25 3.7125
1.9375 0.1875 3.7125
2.125 0.1875 3.775
2.125 0.25 3.7125
2.0625 0.25 3.775
2.125 0.1875 3.7125
2.0625 0.1875 3.775
2.0625 0.25 3.7125
2.0625 0.1875 3.7125
2.25 0.1875 3.775
2.25 0.25 3.7125
2.1875 0.25 3.775
2.25 0.1875 3.7125
2.1875 0.1875 3.775
2.1875 0.25 3.7125
2.1875 0.1875 3.7125
2.375 0.1875 3.775
2.375 0.25 3.7125
2.3125 0.25 3.775
2.375 0.1875 3.7125
2.3125 0.1875 3.775
2.3125 0.25 3.7125
2.3125 0.1875 3.7125
2.5 0.1875 3.775
2.5 0.25 3.7125
2.4375 0.25 3.775
2.5 0.1875 3.7125
2.4375 0.1875 3.775
2.4375 0.25 3.7125
2.4375 0.1875 3.7125
2.625 0.1875 3.775
2.625 0.25 3.7125
2.5625 0.25 3.775
2.625 0.1875 3.7125
2.5625 0.1875 3.775
2.5625 0.25 3.7125
2.5625 0.1875 3.7125
2.75 0.1875 3.775
2.75 0.25 3.7125
2.6875 0.25 3.775
2.75 0.1875 3.7125
2.6875 0.1875 3.775
2.6875 0.25 3.7125
2.6875 0.1875 3.7125
2.875 0.1875 3.775
2.875 0.25 3.7125
2.8125 0.25 3.775
2.875 0.1875 3.7125
2.8125 0.1875 3.775
2.8125 0.25 3.7125
2.8125 0.1875 3.7125
3 0.1875 3.775
3 0.25 3.7125
2.9375 0.25 3.775
3 0.1875 3.7125
2.9375 0.1875 3.775
2.9375 0.25 3.7125
2.9375 0.1875 3.7125
3.125 0.1875 3.775
3.125 0.25 3.7125
3.0625 0.25 3.775
3.125 0.1875 3.7125
3.0625 0.1875 3.775
3.0625 0.25 3.7125
3.0625 0.1875 3.7125
3.25 0.1875 3.775
3.25 0.25 3.7125
3.1875 0.25 3.775
3.25 0.1875 3.7125
3.1875 0.1875 3.775
3.1875 0.25 3.7125
3.1875 0.1875 3.7125
3.375 0.1875 3.775
3.375 0.25 3.7125
3.3125 0.25 3.775
3.375 0.1875 3.7125
3.3125 0.1875 3.775
3.3125 0.25 3.7125
3.3125 0.1875 3.7125
3.5 0.1875 3.775
3.5 0.25 3.7125
3.4375 0.25 3.775
3.5 0.1875 3.7125
3.4375 0.1875 3.775
3.4375 0.25 3.7125
3.4375 0.1875 3.7125
3.625 0.1875 3.775
3.625 0.25 3.7125
3.5625 0.25 3.775
3.625 0.1875 3.7125
3.5625 0.1875 3.775
3.5625 0.25 3.7125
3.5625 0.1875 3.7125
3.75 0.1875 3.775
3.75 0.25 3.7125
3.6875 0.25 3.775
3.75 0.1875 3.7125
3.6875 0.1875 3.775
3.6875 0.25 3.7125
3.6875 0.1875 3.7125
3.875 0.1875 3.775
3.875 0.25 3.7125
3.8125 0.25 3.775
3.875 0.1875 3.7125
3.8125 0.1875 3.775
3.8125 0.25 3.7125
3.8125 0.1875 3.7125
4 0.1875 3.775
4 0.25 3.7125
3.9375 0.25 3.775
4 0.1875 3.7125
3.9375 0.1875 3.775
3.9375 0.25 3.7125
3.9375 0.1875 3.7125
0.125 0.3125 3.775
0 0.3125 3.775
0.125 0.375 3.7125
0.0625 0.375 3.775
0 0.375 3.7125
0.125 0.3125 3.7125
0.0625 0.3125 3.775
0 0.3125 3.7125
0.0625 0.375 3.7125
0.0625 0.3125 3.7125
0.25 0.3125 3.775
0.25 0.375 3.7125
0.1875 0.375 3.775
0.25 0.3125 3.7125
0.1875 0.3125 3.775
0.1875 0.375 3.7125
0.1875 0.3125 3.7125
0.375 0.3125 3.775
0.375 0.375 3.7125
0.3125 0.375 3.775
0.375 0.3125 3.7125
0.3125 0.3125 3.775
0.3125 0.375 3.7125
0.3125 0.3125 3.7125
0.5 0.3125 3.775
0.5 0.375 3.7125
0.4375 0.375 3.775
0.5 0.3125 3.7125
0.4375 0.3125 3.775
0.4375 0.375 3.7125
0.4375 0.3125 3.7125
0.625 0.3125 3.775
0.625 0.375 3.7125
0.5625 0.375 3.775
0.625 0.3125 3.7125
0.5625 0.3125 3.775
0.5625 0.375 3.7125
0.5625 0.3125 3.7125
0.75 0.3125 3.775
0.75 0.375 3.7125
0.6875 0.375 3.775
0.75 0.3125 3.7125
0.6875 0.3125 3.775
0.6875 0.375 3.7125
0.6875 0.3125 3.7125
0.875 0.3125 3.775
0.875 0.375 3.7125
0.8125 0.375 3.775
0.875 0.3125 3.7125
0.8125 0.3125 3.775
0.8125 0.375 3.7125
0.8125 0.3125 3.7125
1 0.3125 3.775
1 0.375 3.7125
0.9375 0.375 3.775
1 0.3125 3.7125
0.9375 0.3125 3.775
0.9375 0.375 3.7125
0.9375 0.3125 3.7125
1.125 0.3125 3.775
1.125 0.375 3.7125
1.0625 0.375 3.775
1.125 0.3125 3.7125
1.0625 0.3125 3.775
1.0625 0.375 3.7125
1.0625 0.3125 3.7125
1.25 0.3125 3.775
1.25 0.375 3.7125
1.1875 0.375 3.775
1.25 0.3125 3.7125
1.1875 0.3125 3.775
1.1875 0.375 3.7125
1.1875 0.3125 3.7125
1.375 0.3125 3.775
1.375 0.375 3.7125
1.3125 0.375 3.775
1.375 0.3125 3.7125
1.3125 0.3125 3.775
1.3125 0.375 3.7125
1.3125 0.3125 3.7125
1.5 0.3125 3.775
1.5 0.375 3.7125
1.4375 0.375 3.775
1.5 0.3125 3.7125
1.4375 0.3125 3.775
1.4375 0.375 3.7125
1.4375 0.3125 3.7125
1.625 0.3125 3.775
1.625 0.375 3.7125
1.5625 0.375 3.775
1.625 0.3125 3.7125
1.5625 0.3125 3.775
1.5625 0.375 3.7125
1.5625 0.3125 3.7125
1.75 0.3125 3.775
1.75 0.375 3.7125
1.6875 0.375 3.775
1.75 0.3125 3.7125
1.6875 0.3125 3.775
1.6875 0.375 3.7125
1.6875 0.3125 3.7125
1.875 0.3125 3.775
1.875 0.375 3.7125
1.8125 0.375 3.775
1.875 0.3125 3.7125
1.8125 0.3125 3.775
1.8125 0.375 3.7125
1.8125 0.3125 3.7125
2 0.3125 3.775
2 0.375 3.7125
1.9375 0.375 3.775
2 0.3125 3.7125
1.9375 0.3125 3.775
1.9375 0.375 3.7125
1.9375 0.3125 3.7125
2.125 0.3125 3.775
2.125 0.375 3.7125
2.0625 0.375 3.775
2.125 0.3125 3.7125
2.0625 0.3125 3.775
2.0625 0.375 3.7125
2.0625 0.3125 3.7125
2.25 0.3125 3.775
2.25 0.375 3.7125
2.1875 0.375 3.775
2.25 0.3125 3.7125
2.1875 0.3125 3.775
2.1875 0.375 3.7125
2.1875 0.3125 3.7125
2.375 0.3125 3.775
2.375 0.375 3.7125
2.3125 0.375 3.775
2.375 0.3125 3.7125
2.3125 0.3125 3.775
2.3125 0.375 3.7125
2.3125 0.3125 3.7125
2.5 0.3125 3.775
2.5 0.375 3.7125
2.4375 0.375 3.775
2.5 0.3125 3.7125
2.4375 0.3125 3.775
2.4375 0.375 3.7125
2.4375 0.3125 3.7125
2.625 0.3125 3.775
2.625 0.375 3.7125
2.5625 0.375 3.775
2.625 0.3125 3.7125
2.5625 0.3125 3.775
2.5625 0.375 3.7125
2.5625 0.3125 3.7125
2.75 0.3125 3.775
2.75 0.375 3.7125
2.6875 0.375 3.775
2.75 0.3125 3.7125
2.6875 0.3125 3.775
2.6875 0.375 3.7125
2.6875 0.3125 3.7125
2.875 0.3125 3.775
2.875 0.375 3.7125
2.8125 0.375 3.775
2.875 0.3125 3.7125
2.8125 0.3125 3.775
2.8125 0.375 3.7125
2.8125 0.3125 3.7125
3 0.3125 3.775
3 0.375 3.7125
2.9375 0.375 3.775
3 0.3125 3.7125
2.9375 0.3125 3.775
2.9375 0.375 3.7125
2.9375 0.3125 3.7125
3.125 0.3125 3.775
3.125 0.375 3.7125
3.0625 0.375 3.775
3.125 0.3125 3.7125
3.0625 0.3125 3.775
3.0625 0.375 3.7125
3.0625 0.3125 3.7125
3.25 0.3125 3.775
3.25 0.375 3.7125
3.1875 0.375 3.775
3.25 0.3125 3.7125
3.1875 0.3125 3.775
3.1875 0.375 3.7125
3.1875 0.3125 3.7125
3.375 0.3125 3.775
3.375 0.375 3.7125
3.3125 0.375 3.775
3.375 0.3125 3.7125
3.3125 0.3125 3.775
3.3125 0.375 3.7125
3.3125 0.3125 3.7125
3.5 0.3125 3.775
3.5 0.375 3.7125
3.4375 0.375 3.775
3.5 0.3125 3.7125
3.4375 0.3125 3.775
3.4375 0.375 3.7125
3.4375 0.3125 3.7125
3.625 0.3125 3.775
3.625 0.375 3.7125
3.5625 0.375 3.775
3.625 0.3125 3.7125
3.5625 0.3125 3.775
3.5625 0.375 3.7125
3.5625 0.3125 3.7125
3.75 0.3125 3.775
3.75 0.375 3.7125
3.6875 0.375 3.775
3.75 0.3125 3.7125
3.6875 0.3125 3.775
3.6875 0.375 3.7125
3.6875 0.3125 3.7125
3.875 0.3125 3.775
3.875 0.375 3.7125
3.8125 0.375 3.775
3.875 0.3125 3.7125
3.8125 0.3125 3.775
3.8125 0.375 3.7125
3.8125 0.3125 3.7125
4 0.3125 3.775
4 0.375 3.7125
3.9375 0.375 3.775
4 0.3125 3.7125
3.9375 0.3125 3.775
3.9375 0.375 3.7125
3.9375 0.3125 3.7125
0.125 0.4375 3.775
0 0.4375 3.775
0.125 0.5 3.7125
0.0625 0.5 3.775
0 0.5 3.7125
0.125 0.4375 3.7125
0.0625 0.4375 3.775
0 0.4375 3.7125
0.0625 0.5 3.7125
0.0625 0.4375 3.7125
0.25 0.4375 3.775
0.25 0.5 3.7125
0.1875 0.5 3.775
0.25 0.4375 3.7125
0.1875 0.4375 3.775
0.1875 0.5 3.7125
0.1875 0.4375 3.7125
0.375 0.4375 3.775
0.375 0.5 3.7125
0.3125 0.5 3.775
0.375 0.4375 3.7125
0.3125 0.4375 3.775
0.3125 0.5 3.7125
0.3125 0.4375 3.7125
0.5 0.4375 3.775
0.5 0.5 3.7125
0.4375 0.5 3.775
0.5 0.4375 3.7125
0.4375 0.4375 3.775
0.4375 0.5 3.7125
0.4375 0.4375 3.7125
0.625 0.4375 3.775
0.625 0.5 3.7125
0.5625 0.5 3.775
0.625 0.4375 3.7125
0.5625 0.4375 3.775
0.5625 0.5 3.7125
0.5625 0.4375 3.7125
0.75 0.4375 3.775
0.75 0.5 3.7125
0.6875 0.5 3.775
0.75 0.4375 3.7125
0.6875 0.4375 3.775
0.6875 0.5 3.7125
0.6875 0.4375 3.7125
0.875 0.4375 3.775
0.875 0.5 3.7125
0.8125 0.5 3.775
0.875 0.4375 3.7125
0.8125 0.4375 3.775
0.8125 0.5 3.7125
0.8125 0.4375 3.7125
1 0.4375 3.775
1 0.5 3.7125
0.9375 0.5 3.775
1 0.4375 3.7125
0.9375 0.4375 3.775
0.9375 0.5 3.7125
0.9375 0.4375 3.7125
1.125 0.4375 3.775
1.125 0.5 3.7125
1.0625 0.5 3.775
1.125 0.4375 3.7125
1.0625 0.4375 3.775
1.0625 0.5 3.7125
1.0625 0.4375 3.7125
1.25 0.4375 3.775
1.25 0.5 3.7125
1.1875 0.5 3.775
1.25 0.4375 3.7125
1.1875 0.4375 3.775
1.1875 0.5 3.7125
1.1875 0.4375 3.7125
1.375 0.4375 3.775
1.375 0.5 3.7125
1.3125 0.5 3.775
1.375 0.4375 3.7125
1.3125 0.4375 3.775
1.3125 0.5 3.7125
1.3125 0.4375 3.7125
1.5 0.4375 3.775
1.5 0.5 3.7125
1.4375 0.5 3.775
1.5 0.4375 3.7125
1.4375 0.4375 3.775
1.4375 0.5 3.7125
1.4375 0.4375 3.7125
1.625 0.4375 3.775
1.625 0.5 3.7125
1.5625 0.5 3.775
1.625 0.4375 3.7125
1.5625 0.4375 3.775
1.5625 0.5 3.7125
1.5625 0.4375 3.7125
1.75 0.4375 3.775
1.75 0.5 3.7125
1.6875 0.5 3.775
1.75 0.4375 3.7125
1.6875 0.4375 3.775
1.6875 0.5 3.7125
1.6875 0.4375 3.7125
1.875 0.4375 3.775
1.875 0.5 3.7125
1.8125 0.5 3.775
1.875 0.4375 3.7125
1.8125 0.4375 3.775
1.8125 0.5 3.7125
1.8125 0.4375 3.7125
2 0.4375 3.775
2 0.5 3.7125
1.9375 0.5 3.775
2 0.4375 3.7125
1.9375 0.4375 3.775
1.9375 0.5 3.7125
1.9375 0.4375 3.7125
2.125 0.4375 3.775
2.125 0.5 3.7125
2.0625 0.5 3.775
2.125 0.4375 3.7125
2.0625 0.4375 3.775
2.0625 0.5 3.7125
2.0625 0.4375 3.7125
2.25 0.4375 3.775
2.25 0.5 3.7125
2.1875 0.5 3.775
2.25 0.4375 3.7125
2.1875 0.4375 3.775
2.1875 0.5 3.7125
2.1875 0.4375 3.7125
2.375 0.4375 3.775
2.375 0.5 3.7125
2.3125 0.5 3.775
2.375 0.4375 3.7125
2.3125 0.4375 3.775
2.3125 0.5 3.7125
2.3125 0.4375 3.7125
2.5 0.4375 3.775
2.5 0.5 3.7125
2.4375 0.5 3.775
2.5 0.4375 3.7125
2.4375 0.4375 3.775
2.4375 0.5 3.7125
2.4375 0.4375 3.7125
2.625 0.4375 3.775
2.625 0.5 3.7125
2.5625 0.5 3.775
2.625 0.4375 3.7125
2.5625 0.4375 3.775
2.5625 0.5 3.7125
2.5625 0.4375 3.7125
2.75 0.4375 3.775
2.75 0.5 3.7125
2.6875 0.5 3.775
2.75 0.4375 3.7125
2.6875 0.4375 3.775
2.6875 0.5 3.7125
2.6875 0.4375 3.7125
2.875 0.4375 3.775
2.875 0.5 3.7125
2.8125 0.5 3.775
2.875 0.4375 3.7125
2.8125 0.4375 3.775
2.8125 0.5 3.7125
2.8125 0.4375 3.7125
3 0.4375 3.775
3 0.5 3.7125
2.9375 0.5 3.775
3 0.4375 3.7125
2.9375 0.4375 3.775
2.9375 0.5 3.7125
2.9375 0.4375 3.7125
3.125 0.4375 3.775
3.125 0.5 3.7125
3.0625 0.5 3.775
3.125 0.4375 3.7125
3.0625 0.4375 3.775
3.0625 0.5 3.7125
3.0625 0.4375 3.7125
3.25 0.4375 3.775
3.25 0.5 3.7125
3.1875 0.5 3.775
3.25 0.4375 3.7125
3.1875 0.4375 3.775
3.1875 0.5 3.7125
3.1875 0.4375 3.7125
3.375 0.4375 3.775
3.375 0.5 3.7125
3.3125 0.5 3.775
3.375 0.4375 3.7125
3.3125 0.4375 3.775
3.3125 0.5 3.7125
3.3125 0.4375 3.7125
3.5 0.4375 3.775
3.5 0.5 3.7125
3.4375 0.5 3.775
3.5 0.4375 3.7125
3.4375 0.4375 3.775
3.4375 0.5 3.7125
3.4375 0.4375 3.7125
3.625 0.4375 3.775
3.625 0.5 3.7125
3.5625 0.5 3.775
3.625 0.4375 3.7125
3.5625 0.4375 3.775
3.5625 0.5 3.7125
3.5625 0.4375 3.7125
3.75 0.4375 3.775
3.75 0.5 3.7125
3.6875 0.5 3.775
3.75 0.4375 3.7125
3.6875 0.4375 3.775
3.6875 0.5 3.7125
3.6875 0.4375 3.7125
3.875 0.4375 3.775
3.875 0.5 3.7125
3.8125 0.5 3.775
3.875 0.4375 3.7125
3.8125 0.4375 3.775
3.8125 0.5 3.7125
3.8125 0.4375 3.7125
4 0.4375 3.775
4 0.5 3.7125
3.9375 0.5 3.775
4 0.4375 3.7125
3.9375 0.4375 3.775
3.9375 0.5 3.7125
3.9375 0.4375 3.7125
0.125 0.5625 3.775
0 0.5625 3.775
0.125 0.625 3.7125
0.0625 0.625 3.775
0 0.625 3.7125
0.125 0.5625 3.7125
0.0625 0.5625 3.775
0 0.5625 3.7125
0.0625 0.625 3.7125
0.0625 0.5625 3.7125
0.25 0.5625 3.775
0.25 0.625 3.7125
0.1875 0.625 3.775
0.25 0.5625 3.7125
0.1875 0.5625 3.775
0.1875 0.625 3.7125
0.1875 0.5625 3.7125
0.375 0.5625 3.775
0.375 0.625 3.7125
0.3125 0.625 3.775
0.375 0.5625 3.7125
0.3125 0.5625 3.775
0.3125 0.625 3.7125
0.3125 0.5625 3.7125
0.5 0.5625 3.775
0.5 0.625 3.7125
0.4375 0.625 3.775
0.5 0.5625 3.7125
0.4375 0.5625 3.775
0.4375 0.625 3.7125
0.4375 0.5625 3.7125
0.625 0.5625 3.775
0.625 0.625 3.7125
0.5625 0.625 3.775
0.625 0.5625 3.7125
0.5625 0.5625 3.775
0.5625 0.625 3.7125
0.5625 0.5625 3.7125
0.75 0.5625 3.775
0.75 0.625 3.7125
0.6875 0.625 3.775
0.75 0.5625 3.7125
0.6875 0.5625 3.775
0.6875 0.625 3.7125
0.6875 0.5625 3.7125
0.875 0.5625 3.775
0.875 0.625 3.7125
0.8125 0.625 3.775
0.875 0.5625 3.7125
0.8125 0.5625 3.775
0.8125 0.625 3.7125
0.8125 0.5625 3.7125
1 0.5625 3.775
1 0.625 3.7125
0.9375 0.625 3.775
1 0.5625 3.7125
0.9375 0.5625 3.775
0.9375 0.625 3.7125
0.9375 0.5625 3.7125
1.125 0.5625 3.775
1.125 0.625 3.7125
1.0625 0.625 3.775
1.125 0.5625 3.7125
1.0625 0.5625 3.775
1.0625 0.625 3.7125
1.0625 0.5625 3.7125
1.25 0.5625 3.775
1.25 0.625 3.7125
1.1875 0.625 3.775
1.25 0.5625 3.7125
1.1875 0.5625 3.775
1.1875 0.625 3.7125
1.1875 0.5625 3.7125
1.375 0.5625 3.775
1.375 0.625 3.7125
1.3125 0.625 3.775
1.375 0.5625 3.7125
1.3125 0.5625 3.775
1.3125 0.625 3.7125
1.3125 0.5625 3.7125
1.5 0.5625 3.775
1.5 0.625 3.7125
1.4375 0.625 3.775
1.5 0.5625 3.7125
1.4375 0.5625 3.775
1.4375 0.625 3.7125
1.4375 0.5625 3.7125
1.625 0.5625 3.775
1.625 0.625 3.7125
1.5625 0.625 3.775
1.625 0.5625 3.7125
1.5625 0.5625 3.775
1.5625 0.625 3.7125
1.5625 0.5625 3.7125
1.75 0.5625 3.775
1.75 0.625 3.7125
1.6875 0.625 3.775
1.75 0.5625 3.7125
1.6875 0.5625 3.775
1.6875 0.625 3.7125
1.6875 0.5625 3.7125
1.875 0.5625 3.775
1.875 0.625 3.7125
1.8125 0.625 3.775
1.875 0.5625 3.7125
1.8125 0.5625 3.775
1.8125 0.625 3.7125
1.8125 0.5625 3.7125
2 0.5625 3.775
2 0.625 3.7125
1.9375 0.625 3.775
2 0.5625 3.7125
1.9375 0.5625 3.775
1.9375 0.625 3.7125
1.9375 0.5625 3.7125
2.125 0.5625 3.775
2.125 0.625 3.7125
2.0625 0.625 3.775
2.125 0.5625 3.7125
2.0625 0.5625 3.775
2.0625 0.625 3.7125
2.0625 0.5625 3.7125
2.25 0.5625 3.775
2.25 0.625 3.7125
2.1875 0.625 3.775
2.25 0.5625 3.7125
2.1875 0.5625 3.775
2.1875 0.625 3.7125
2.1875 0.5625 3.7125
2.375 0.5625 3.775
2.375 0.625 3.7125
2.3125 0.625 3.775
2.375 0.5625 3.7125
2.3125 0.5625 3.775
2.3125 0.625 3.7125
2.3125 0.5625 3.7125
2.5 0.5625 3.775
2.5 0.625 3.7125
2.4375 0.625 3.775
2.5 0.5625 3.7125
2.4375 0.5625 3.775
2.4375 0.625 3.7125
2.4375 0.5625 3.7125
2.625 0.5625 3.775
2.625 0.625 3.7125
2.5625 0.625 3.775
2.625 0.5625 3.7125
2.5625 0.5625 3.775
2.5625 0.625 3.7125
2.5625 0.5625 3.7125
2.75 0.5625 3.775
2.75 0.625 3.7125
2.6875 0.625 3.775
2.75 0.5625 3.7125
2.6875 0.5625 3.775
2.6875 0.625 3.7125
2.6875 0.5625 3.7125
2.875 0.5625 3.775
2.875 0.625 3.7125
2.8125 0.625 3.775
2.875 0.5625 3.7125
2.8125 0.5625 3.775
2.8125 0.625 3.7125
2.8125 0.5625 3.7125
3 0.5625 3.775
3 0.625 3.7125
2.9375 0.625 3.775
3 0.5625 3.7125
2.9375 0.5625 3.775
2.9375 0.625 3.7125
2.9375 0.5625 3.7125
3.125 0.5625 3.775
3.125 0.625 3.7125
3.0625 0.625 3.775
3.125 0.5625 3.7125
3.0625 0.5625 3.775
3.0625 0.625 3.7125
3.0625 0.5625 3.7125
3.25 0.5625 3.775
3.25 0.625 3.7125
3.1875 0.625 3.775
3.25 0.5625 3.7125
3.1875 0.5625 3.775
3.1875 0.625 3.7125
3.1875 0.5625 3.7125
3.375 0.5625 3.775
3.375 0.625 3.7125
3.3125 0.625 3.775
3.375 0.5625 3.7125
3.3125 0.5625 3.775
3.3125 0.625 3.7125
3.3125 0.5625 3.7125
3.5 0.5625 3.775
3.5 0.625 3.7125
3.4375 0.625 3.775
3.5 0.5625 3.7125
3.4375 0.5625 3.775
3.4375 0.625 3.7125
3.4375 0.5625 3.7125
3.625 0.5625 3.775
3.625 0.625 3.7125
3.5625 0.625 3.775
3.625 0.5625 3.7125
3.5625 0.5625 3.775
3.5625 0.625 3.7125
3.5625 0.5625 3.7125
3.75 0.5625 3.775
3.75 0.625 3.7125
3.6875 0.625 3.775
3.75 0.5625 3.7125
3.6875 0.5625 3.775
3.6875 0.625 3.7125
3.6875 0.5625 3.7125
3.875 0.5625 3.775
3.875 0.625 3.7125
3.8125 0.625 3.775
3.875 0.5625 3.7125
3.8125 0.5625 3.775
3.8125 0.625 3.7125
3.8125 0.5625 3.7125
4 0.5625 3.775
4 0.625 3.7125
3.9375 0.625 3.775
4 0.5625 3.7125
3.9375 0.5625 3.775
3.9375 0.625 3.7125
3.9375 0.5625 3.7125
0.125 0.6875 3.775
0 0.6875 3.775
0.125 0.75 3.7125
0.0625 0.75 3.775
0 0.75 3.7125
0.125 0.6875 3.7125
0.0625 0.6875 3.775
0 0.6875 3.7125
0.0625 0.75 3.7125
0.0625 0.6875 3.7125
0.25 0.6875 3.775
0.25 0.75 3.7125
0.1875 0.75 3.775
0.25 0.6875 3.7125
0.1875 0.6875 3.775
0.1875 0.75 3.7125
0.1875 0.6875 3.7125
0.375 0.6875 3.775
0.375 0.75 3.7125
0.3125 0.75 3.775
0.375 0.6875 3.7125
0.3125 0.6875 3.775
0.3125 0.75 3.7125
0.3125 0.6875 3.7125
0.5 0.6875 3.775
0.5 0.75 3.7125
0.4375 0.75 3.775
0.5 0.6875 3.7125
0.4375 0.6875 3.775
0.4375 0.75 3.7125
0.4375 0.6875 3.7125
0.625 0.6875 3.775
0.625 0.75 3.7125
0.5625 0.75 3.775
0.625 0.6875 3.7125
0.5625 0.6875 3.775
0.5625 0.75 3.7125
0.5625 0.6875 3.7125
0.75 0.6875 3.775
0.75 0.75 3.7125
0.6875 0.75 3.775
0.75 0.6875 3.7125
0.6875 0.6875 3.775
0.6875 0.75 3.7125
0.6875 0.6875 3.7125
0.875 0.6875 3.775
0.875 0.75 3.7125
0.8125 0.75 3.775
0.875 0.6875 3.7125
0.8125 0.6875 3.775
0.8125 0.75 3.7125
0.8125 0.6875 3.7125
1 0.6875 3.775
1 0.75 3.7125
0.9375 0.75 3.775
1 0.6875 3.7125
0.9375 0.6875 3.775
0.9375 0.75 3.7125
0.9375 0.6875 3.7125
1.125 0.6875 3.775
1.125 0.75 3.7125
1.0625 0.75 3.775
1.125 0.6875 3.7125
1.0625 0.6875 3.775
1.0625 0.75 3.7125
1.0625 0.6875 3.7125
1.25 0.6875 3.775
1.25 0.75 3.7125
1.1875 0.75 3.775
1.25 0.6875 3.7125
1.1875 0.6875 3.775
1.1875 0.75 3.7125
1.1875 0.6875 3.7125
1.375 0.6875 3.775
1.375 0.75 3.7125
1.3125 0.75 3.775
1.375 0.6875 3.7125
1.3125 0.6875 3.775
1.3125 0.75 3.7125
1.3125 0.6875 3.7125
1.5 0.6875 3.775
1.5 0.75 3.7125
1.4375 0.75 3.775
1.5 0.6875 3.7125
1.4375 0.6875 3.775
1.4375 0.75 3.7125
1.4375 0.6875 3.7125
1.625 0.6875 3.775
1.625 0.75 3.7125
1.5625 0.75 3.775
1.625 0.6875 3.7125
1.5625 0.6875 3.775
1.5625 0.75 3.7125
1.5625 0.6875 3.7125
1.75 0.6875 3.775
1.75 0.75 3.7125
1.6875 0.75 3.775
1.75 0.6875 3.7125
1.6875 0.6875 3.775
1.6875 0.75 3.7125
1.6875 0.6875 3.7125
1.875 0.6875 3.775
1.875 0.75 3.7125
1.8125 0.75 3.775
1.875 0.6875 3.7125
1.8125 0.6875 3.775
1.8125 0.75 3.7125
1.8125 0.6875 3.7125
2 0.6875 3.775
2 0.75 3.7125
1.9375 0.75 3.775
2 0.6875 3.7125
1.9375 0.6875 3.775
1.9375 0.75 3.7125
1.9375 0.6875 3.7125
2.125 0.6875 3.775
2.125 0.75 3.7125
2.0625 0.75 3.775
2.125 0.6875 3.7125
2.0625 0.6875 3.775
2.0625 0.75 3.7125
2.0625 0.6875 3.7125
2.25 0.6875 3.775
2.25 0.75 3.7125
2.1875 0.75 3.775
2.25 0.6875 3.7125
2.1875 0.6875 3.775
2.1875 0.75 3.7125
2.1875 0.6875 3.7125
2.375 0.6875 3.775
2.375 0.75 3.7125
2.3125 0.75 3.775
2.375 0.6875 3.7125
2.3125 0.6875 3.775
2.3125 0.75 3.7125
2.3125 0.6875 3.7125
2.5 0.6875 3.775
2.5 0.75 3.7125
2.4375 0.75 3.775
2.5 0.6875 3.7125
2.4375 0.6875 3.775
2.4375 0.75 3.7125
2.4375 0.6875 3.7125
2.625 0.6875 3.775
2.625 0.75 3.7125
2.5625 0.75 3.775
2.625 0.6875 3.7125
2.5625 0.6875 3.775
2.5625 0.75 3.7125
2.5625 0.6875 3.7125
2.75 0.6875 3.775
2.75 0.75 3.7125
2.6875 0.75 3.775
2.75 0.6875 3.7125
2.6875 0.6875 3.775
2.6875 0.75 3.7125
2.6875 0.6875 3.7125
2.875 0.6875 3.775
2.875 0.75 3.7125
2.8125 0.75 3.775
2.875 0.6875 3.7125
2.8125 0.6875 3.775
2.8125 0.75 3.7125
2.8125 0.6875 3.7125
3 0.6875 3.775
3 0.75 3.7125
2.9375 0.75 3.775
3 0.6875 3.7125
2.9375 0.6875 3.775
2.9375 0.75 3.7125
2.9375 0.6875 3.7125
3.125 0.6875 3.775
3.125 0.75 3.7125
3.0625 0.75 3.775
3.125 0.6875 3.7125
3.0625 0.6875 3.775
3.0625 0.75 3.7125
3.0625 0.6875 3.7125
3.25 0.6875 3.775
3.25 0.75 3.7125
3.1875 0.75 3.775
3.25 0.6875 3.7125
3.1875 0.6875 3.775
3.1875 0.75 3.7125
3.1875 0.6875 3.7125
3.375 0.6875 3.775
3.375 0.75 3.7125
3.3125 0.75 3.775
3.375 0.6875 3.7125
3.3125 0.6875 3.775
3.3125 0.75 3.7125
3.3125 0.6875 3.7125
3.5 0.6875 3.775
3.5 0.75 3.7125
3.4375 0.75 3.775
3.5 0.6875 3.7125
3.4375 0.6875 3.775
3.4375 0.75 3.7125
3.4375 0.6875 3.7125
3.625 0.6875 3.775
3.625 0.75 3.7125
3.5625 0.75 3.775
3.625 0.6875 3.7125
3.5625 0.6875 3.775
3.5625 0.75 3.7125
3.5625 0.6875 3.7125
3.75 0.6875 3.775
3.75 0.75 3.7125
3.6875 0.75 3.775
3.75 0.6875 3.7125
3.6875 0.6875 3.775
3.6875 0.75 3.7125
3.6875 0.6875 3.7125
3.875 0.6875 3.775
3.875 0.75 3.7125
3.8125 0.75 3.775
3.875 0.6875 3.7125
3.8125 0.6875 3.775
3.8125 0.75 3.7125
3.8125 0.6875 3.7125
4 0.6875 3.775
4 0.75 3.7125
3.9375 0.75 3.775
4 0.6875 3.7125
3.9375 0.6875 3.775
3.9375 0.75 3.7125
3.9375 0.6875 3.7125
0.125 0.8125 3.775
0 0.8125 3.775
0.125 0.875 3.7125
0.0625 0.875 3.775
0 0.875 3.7125
0.125 0.8125 3.7125
0.0625 0.8125 3.775
0 0.8125 3.7125
0.0625 0.875 3.7125
0.0625 0.8125 3.7125
0.25 0.8125 3.775
0.25 0.875 3.7125
0.1875 0.875 3.775
0.25 0.8125 3.7125
0.1875 0.8125 3.775
0.1875 0.875 3.7125
0.1875 0.8125 3.7125
0.375 0.8125 3.775
0.375 0.875 3.7125
0.3125 0.875 3.775
0.375 0.8125 3.7125
0.3125 0.8125 3.775
0.3125 0.875 3.7125
0.3125 0.8125 3.7125
0.5 0.8125 3.775
0.5 0.875 3.7125
0.4375 0.875 3.775
0.5 0.8125 3.7125
0.4375 0.8125 3.775
0.4375 0.875 3.7125
0.4375 0.8125 3.7125
0.625 0.8125 3.775
0.625 0.875 3.7125
0.5625 0.875 3.775
0.625 0.8125 3.7125
0.5625 0.8125 3.775
0.5625 0.875 3.7125
0.5625 0.8125 3.7125
0.75 0.8125 3.775
0.75 0.875 3.7125
0.6875 0.875 3.775
0.75 0.8125 3.7125
0.6875 0.8125 3.775
0.6875 0.875 3.7125
0.6875 0.8125 3.7125
0.875 0.8125 3.775
0.875 0.875 3.7125
0.8125 0.875 3.775
0.875 0.8125 3.7125
0.8125 0.8125 3.775
0.8125 0.875 3.7125
0.8125 0.8125 3.7125
1 0.8125 3.775
1 0.875 3.7125
0.9375 0.875 3.775
1 0.8125 3.7125
0.9375 0.8125 3.775
0.9375 0.875 3.7125
0.9375 0.8125 3.7125
1.125 0.8125 3.775
1.125 0.875 3.7125
1.0625 0.875 3.775
1.125 0.8125 3.7125
1.0625 0.8125 3.775
1.0625 0.875 3.7125
1.0625 0.8125 3.7125
1.25 0.8125 3.775
1.25 0.875 3.7125
1.1875 0.875 3.775
1.25 0.8125 3.7125
1.1875 0.8125 3.775
1.1875 0.875 3.7125
1.1875 0.8125 3.7125
1.375 0.8125 3.775
1.375 0.875 3.7125
1.3125 0.875 3.775
1.375 0.8125 3.7125
1.3125 0.8125 3.775
1.3125 0.875 3.7125
1.3125 0.8125 3.7125
1.5 0.8125 3.775
1.5 0.875 3.7125
1.4375 0.875 3.775
1.5 0.8125 3.7125
1.4375 0.8125 3.775
1.4375 0.875 3.7125
1.4375 0.8125 3.7125
1.625 0.8125 3.775
1.625 0.875 3.7125
1.5625 0.875 3.775
1.625 0.8125 3.7125
1.5625 0.8125 3.775
1.5625 0.875 3.7125
1.5625 0.8125 3.7125
1.75 0.8125 3.775
1.75 0.875 3.7125
1.6875 0.875 3.775
1.75 0.8125 3.7125
1.6875 0.8125 3.775
1.6875 0.875 3.7125
1.6875 0.8125 3.7125
1.875 0.8125 3.775
1.875 0.875 3.7125
1.8125 0.875 3.775
1.875 0.8125 3.7125
1.8125 0.8125 3.775
1.8125 0.875 3.7125
1.8125 0.8125 3.7125
2 0.8125 3.775
2 0.875 3.7125
1.9375 0.875 3.775
2 0.8125 3.7125
1.9375 0.8125 3.775
1.9375 0.875 3.7125
1.9375 0.8125 3.7125
2.125 0.8125 3.775
2.125 0.875 3.7125
2.0625 0.875 3.775
2.125 0.8125 3.7125
2.0625 0.8125 3.775
2.0625 0.875 3.7125
2.0625 0.8125 3.7125
2.25 0.8125 3.775
2.25 0.875 3.7125
2.1875 0.875 3.775
2.25 0.8125 3.7125
2.1875 0.8125 3.775
2.1875 0.875 3.7125
2.1875 0.8125 3.7125
2.375 0.8125 3.775
2.375 0.875 3.7125
2.3125 0.875 3.775
2.375 0.8125 3.7125
2.3125 0.8125 3.775
2.3125 0.875 3.7125
2.3125 0.8125 3.7125
2.5 0.8125 3.775
2.5 0.875 3.7125
2.4375 0.875 3.775
2.5 0.8125 3.7125
2.4375 0.8125 3.775
2.4375 0.875 3.7125
2.4375 0.8125 3.7125
2.625 0.8125 3.775
2.625 0.875 3.7125
2.5625 0.875 3.775
2.625 0.8125 3.7125
2.5625 0.8125 3.775
2.5625 0.875 3.7125
2.5625 0.8125 3.7125
2.75 0.8125 3.775
2.75 0.875 3.7125
2.6875 0.875 3.775
2.75 0.8125 3.7125
2.6875 0.8125 3.775
2.6875 0.875 3.7125
2.6875 0.8125 3.7125
2.875 0.8125 3.775
2.875 0.875 3.7125
2.8125 0.875 3.775
2.875 0.8125 3.7125
2.8125 0.8125 3.775
2.8125 0.875 3.7125
2.8125 0.8125 3.7125
3 0.8125 3.775
3 0.875 3.7125
2.9375 0.875 3.775
3 0.8125 3.7125
2.9375 0.8125 3.775
2.9375 0.875 3.7125
2.9375 0.8125 3.7125
3.125 0.8125 3.775
3.125 0.875 3.7125
3.0625 0.875 3.775
3.125 0.8125 3.7125
3.0625 0.8125 3.775
3.0625 0.875 3.7125
3.0625 0.8125 3.7125
3.25 0.8125 3.775
3.25 0.875 3.7125
3.1875 0.875 3.775
3.25 0.8125 3.7125
3.1875 0.8125 3.775
3.1875 0.875 3.7125
3.1875 0.8125 3.7125
3.375 0.8125 3.775
3.375 0.875 3.7125
3.3125 0.875 3.775
3.375 0.8125 3.7125
3.3125 0.8125 3.775
3.3125 0.875 3.7125
3.3125 0.8125 3.7125
3.5 0.8125 3.775
3.5 0.875 3.7125
3.4375 0.875 3.775
3.5 0.8125 3.7125
3.4375 0.8125 3.775
3.4375 0.875 3.7125
3.4375 0.8125 3.7125
3.625 0.8125 3.775
3.625 0.875 3.7125
3.5625 0.875 3.775
3.625 0.8125 3.7125
3.5625 0.8125 3.775
3.5625 0.875 3.7125
3.5625 0.8125 3.7125
3.75 0.8125 3.775
3.75 0.875 3.7125
3.6875 0.875 3.775
3.75 0.8125 3.7125
3.6875 0.8125 3.775
3.6875 0.875 3.7125
3.6875 0.8125 3.7125
3.875 0.8125 3.775
3.875 0.875 3.7125
3.8125 0.875 3.775
3.875 0.8125 3.7125
3.8125 0.8125 3.775
3.8125 0.875 3.7125
3.8125 0.8125 3.7125
4 0.8125 3.775
4 0.875 3.7125
3.9375 0.875 3.775
4 0.8125 3.7125
3.9375 0.8125 3.775
3.9375 0.875 3.7125
3.9375 0.8125 3.7125
0.125 0.9375 3.775
0 0.9375 3.775
0.125 1 3.7125
0.0625 1 3.775
0 1 3.7125
0.125 0.9375 3.7125
0.0625 0.9375 3.775
0 0.9375 3.7125
0.0625 1 3.7125
0.0625 0.9375 3.7125
0.25 0.9375 3.775
0.25 1 3.7125
0.1875 1 3.775
0.25 0.9375 3.7125
0.1875 0.9375 3.775
0.1875 1 3.7125
0.1875 0.9375 3.7125
0.375 0.9375 3.775
0.375 1 3.7125
0.3125 1 3.775
0.375 0.9375 3.7125
0.3125 0.9375 3.775
0.3125 1 3.7125
0.3125 0.9375 3.7125
0.5 0.9375 3.775
0.5 1 3.7125
0.4375 1 3.775
0.5 0.9375 3.7125
0.4375 0.9375 3.775
0.4375 1 3.7125
0.4375 0.9375 3.7125
0.625 0.9375 3.775
0.625 1 3.7125
0.5625 1 3.775
0.625 0.9375 3.7125
0.5625 0.9375 3.775
0.5625 1 3.7125
0.5625 0.9375 3.7125
0.75 0.9375 3.775
0.75 1 3.7125
0.6875 1 3.775
0.75 0.9375 3.7125
0.6875 0.9375 3.775
0.6875 1 3.7125
0.6875 0.9375 3.7125
0.875 0.9375 3.775
0.875 1 3.7125
0.8125 1 3.775
0.875 0.9375 3.7125
0.8125 0.9375 3.775
0.8125 1 3.7125
0.8125 0.9375 3.7125
1 0.9375 3.775
1 1 3.7125
0.9375 1 3.775
1 0.9375 3.7125
0.9375 0.9375 3.775
0.9375 1 3.7125
0.9375 0.9375 3.7125
1.125 0.9375 3.775
1.125 1 3.7125
1.0625 1 3.775
1.125 0.9375 3.7125
1.0625 0.9375 3.775
1.0625 1 3.7125
1.0625 0.9375 3.7125
1.25 0.9375 3.775
1.25 1 3.7125
1.1875 1 3.775
1.25 0.9375 3.7125
1.1875 0.9375 3.775
1.1875 1 3.7125
1.1875 0.9375 3.7125
1.375 0.9375 3.775
1.375 1 3.7125
1.3125 1 3.775
1.375 0.9375 3.7125
1.3125 0.9375 3.775
1.3125 1 3.7125
1.3125 0.9375 3.7125
1.5 0.9375 3.775
1.5 1 3.7125
1.4375 1 3.775
1.5 0.9375 3.7125
1.4375 0.9375 3.775
1.4375 1 3.7125
1.4375 0.9375 3.7125
1.625 0.9375 3.775
1.625 1 3.7125
1.5625 1 3.775
1.625 0.9375 3.7125
1.5625 0.9375 3.775
1.5625 1 3.7125
1.5625 0.9375 3.7125
1.75 0.9375 3.775
1.75 1 3.7125
1.6875 1 3.775
1.75 0.9375 3.7125
1.6875 0.9375 3.775
1.6875 1 3.7125
1.6875 0.9375 3.7125
1.875 0.9375 3.775
1.875 1 3.7125
1.8125 1 3.775
1.875 0.9375 3.7125
1.8125 0.9375 3.775
1.8125 1 3.7125
1.8125 0.9375 3.7125
2 0.9375 3.775
2 1 3.7125
1.9375 1 3.775
2 0.9375 3.7125
1.9375 0.9375 3.775
1.9375 1 3.7125
1.9375 0.9375 3.7125
2.125 0.9375 3.775
2.125 1 3.7125
2.0625 1 3.775
2.125 0.9375 3.7125
2.0625 0.9375 3.775
2.0625 1 3.7125
2.0625 0.9375 3.7125
2.25 0.9375 3.775
2.25 1 3.7125
2.1875 1 3.775
2.25 0.9375 3.7125
2.1875 0.9375 3.775
2.1875 1 3.7125
2.1875 0.9375 3.7125
2.375 0.9375 3.775
2.375 1 3.7125
2.3125 1 3.775
2.375 0.9375 3.7125
2.3125 0.9375 3.775
2.3125 1 3.7125
2.3125 0.9375 3.7125
2.5 0.9375 3.775
2.5 1 3.7125
2.4375 1 3.775
2.5 0.9375 3.7125
2.4375 0.9375 3.775
2.4375 1 3.7125
2.4375 0.9375 3.7125
2.625 0.9375 3.775
2.625 1 3.7125
2.5625 1 3.775
2.625 0.9375 3.7125
2.5625 0.9375 3.775
2.5625 1 3.7125
2.5625 0.9375 3.7125
2.75 0.9375 3.775
2.75 1 3.7125
2.6875 1 3.775
2.75 0.9375 3.7125
2.6875 0.9375 3.775
2.6875 1 3.7125
2.6875 0.9375 3.7125
2.875 0.9375 3.775
2.875 1 3.7125
2.8125 1 3.775
2.875 0.9375 3.7125
2.8125 0.9375 3.775
2.8125 1 3.7125
2.8125 0.9375 3.7125
3 0.9375 3.775
3 1 3.7125
2.9375 1 3.775
3 0.9375 3.7125
2.9375 0.9375 3.775
2.9375 1 3.7125
2.9375 0.9375 3.7125
3.125 0.9375 3.775
3.125 1 3.7125
3.0625 1 3.775
3.125 0.9375 3.7125
3.0625 0.9375 3.775
3.0625 1 3.7125
3.0625 0.9375 3.7125
3.25 0.9375 3.775
3.25 1 3.7125
3.1875 1 3.775
3.25 0.9375 3.7125
3.1875 0.9375 3.775
3.1875 1 3.7125
3.1875 0.9375 3.7125
3.375 0.9375 3.775
3.375 1 3.7125
3.3125 1 3.775
3.375 0.9375 3.7125
3.3125 0.9375 3.775
3.3125 1 3.7125
3.3125 0.9375 3.7125
3.5 0.9375 3.775
3.5 1 3.7125
3.4375 1 3.775
3.5 0.9375 3.7125
3.4375 0.9375 3.775
3.4375 1 3.7125
3.4375 0.9375 3.7125
3.625 0.9375 3.775
3.625 1 3.7125
3.5625 1 3.775
3.625 0.9375 3.7125
3.5625 0.9375 3.775
3.5625 1 3.7125
3.5625 0.9375 3.7125
3.75 0.9375 3.775
3.75 1 3.7125
3.6875 1 3.775
3.75 0.9375 3.7125
3.6875 0.9375 3.775
3.6875 1 3.7125
3.6875 0.9375 3.7125
3.875 0.9375 3.775
3.875 1 3.7125
3.8125 1 3.775
3.875 0.9375 3.7125
3.8125 0.9375 3.775
3.8125 1 3.7125
3.8125 0.9375 3.7125
4 0.9375 3.775
4 1 3.7125
3.9375 1 3.775
4 0.9375 3.7125
3.9375 0.9375 3.775
3.9375 1 3.7125
3.9375 0.9375 3.7125
0.125 0 3.8375
0.0625 0 3.9
0 0 3.8375
0.125 0.0625 3.9
0 0.0625 3.9
0.125 0.125 3.8375
0.0625 0.125 3.9
0 0.125 3.8375
0.0625 0 3.8375
0.125 0.0625 3.8375
0.0625 0.0625 3.9
0 0.0625 3.8375
0.0625 0.125 3.8375
0.0625 0.0625 3.8375
0.25 0 3.8375
0.1875 0 3.9
0.25 0.0625 3.9
0.25 0.125 3.8375
0.1875 0.125 3.9
0.1875 0 3.8375
0.25 0.0625 3.8375
0.1875 0.0625 3.9
0.1875 0.125 3.8375
0.1875 0.0625 3.8375
0.375 0 3.8375
0.3125 0 3.9
0.375 0.0625 3.9
0.375 0.125 3.8375
0.3125 0.125 3.9
0.3125 0 3.8375
0.375 0.0625 3.8375
0.3125 0.0625 3.9
0.3125 0.125 3.8375
0.3125 0.0625 3.8375
0.5 0 3.8375
0.4375 0 3.9
0.5 0.0625 3.9
0.5 0.125 3.8375
0.4375 0.125 3.9
0.4375 0 3.8375
0.5 0.0625 3.8375
0.4375 0.0625 3.9
0.4375 0.125 3.8375
0.4375 0.0625 3.8375
0.625 0 3.8375
0.5625 0 3.9
0.625 0.0625 3.9
0.625 0.125 3.8375
0.5625 0.125 3.9
0.5625 0 3.8375
0.625 0.0625 3.8375
0.5625 0.0625 3.9
0.5625 0.125 3.8375
0.5625 0.0625 3.8375
0.75 0 3.8375
0.6875 0 3.9
0.75 0.0625 3.9
0.75 0.125 3.8375
0.6875 0.125 3.9
0.6875 0 3.8375
0.75 0.0625 3.8375
0.6875 0.0625 3.9
0.6875 0.125 3.8375
0.6875 0.0625 3.8375
0.875 0 3.8375
0.8125 0 3.9
0.875 0.0625 3.9
0.875 0.125 3.8375
0.8125 0.125 3.9
0.8125 0 3.8375
0.875 0.0625 3.8375
0.8125 0.0625 3.9
0.8125 0.125 3.8375
0.8125 0.0625 3.8375
1 0 3.8375
0.9375 0 3.9
1 0.0625 3.9
1 0.125 3.8375
0.9375 0.125 3.9
0.9375 0 3.8375
1 0.0625 3.8375
0.9375 0.0625 3.9
0.9375 0.125 3.8375
0.9375 0.0625 3.8375
1.125 0 3.8375
1.0625 0 3.9
1.125 0.0625 3.9
1.125 0.125 3.8375
1.0625 0.125 3.9
1.0625 0 3.8375
1.125 0.0625 3.8375
1.0625 0.0625 3.9
1.0625 0.125 3.8375
1.0625 0.0625 3.8375
1.25 0 3.8375
1.1875 0 3.9
1.25 0.0625 3.9
1.25 0.125 3.8375
1.1875 0.125 3.9
1.1875 0 3.8375
1.25 0.0625 3.8375
1.1875 0.0625 3.9
1.1875 0.125 3.8375
1.1875 0.0625 3.8375
1.375 0 3.8375
1.3125 0 3.9
1.375 0.0625 3.9
1.375 0.125 3.8375
1.3125 0.125 3.9
1.3125 0 3.8375
1.375 0.0625 3.8375
1.3125 0.0625 3.9
1.3125 0.125 3.8375
1.3125 0.0625 3.8375
1.5 0 3.8375
1.4375 0 3.9
1.5 0.0625 3.9
1.5 0.125 3.8375
1.4375 0.125 3.9
1.4375 0 3.8375
1.5 0.0625 3.8375
1.4375 0.0625 3.9
1.4375 0.125 3.8375
1.4375 0.0625 3.8375
1.625 0 3.8375
1.5625 0 3.9
1.625 0.0625 3.9
1.625 0.125 3.8375
1.5625 0.125 3.9
1.5625 0 3.8375
1.625 0.0625 3.8375
1.5625 0.0625 3.9
1.5625 0.125 3.8375
1.5625 0.0625 3.8375
1.75 0 3.8375
1.6875 0 3.9
1.75 0.0625 3.9
1.75 0.125 3.8375
1.6875 0.125 3.9
1.6875 0 3.8375
1.75 0.0625 3.8375
1.6875 0.0625 3.9
1.6875 0.125 3.8375
1.6875 0.0625 3.8375
1.875 0 3.8375
1.8125 0 3.9
1.875 0.0625 3.9
1.875 0.125 3.8375
1.8125 0.125 3.9
1.8125 0 3.8375
1.875 0.0625 3.8375
1.8125 0.0625 3.9
1.8125 0.125 3.8375
1.8125 0.0625 3.8375
2 0 3.8375
1.9375 0 3.9
2 0.0625 3.9
2 0.125 3.8375
1.9375 0.125 3.9
1.9375 0 3.8375
2 0.0625 3.8375
1.9375 0.0625 3.9
1.9375 0.125 3.8375
1.9375 0.0625 3.8375
2.125 0 3.8375
2.0625 0 3.9
2.125 0.0625 3.9
2.125 0.125 3.8375
2.0625 0.125 3.9
2.0625 0 3.8375
2.125 0.0625 3.8375
2.0625 0.0625 3.9
2.0625 0.125 3.8375
2.0625 0.0625 3.8375
2.25 0 3.8375
2.1875 0 3.9
2.25 0.0625 3.9
2.25 0.125 3.8375
2.1875 0.125 3.9
2.1875 0 3.8375
2.25 0.0625 3.8375
2.1875 0.0625 3.9
2.1875 0.125 3.8375
2.1875 0.0625 3.8375
2.375 0 3.8375
2.3125 0 3.9
2.375 0.0625 3.9
2.375 0.125 3.8375
2.3125 0.125 3.9
2.3125 0 3.8375
2.375 0.0625 3.8375
2.3125 0.0625 3.9
2.3125 0.125 3.8375
2.3125 0.0625 3.8375
2.5 0 3.8375
2.4375 0 3.9
2.5 0.0625 3.9
2.5 0.125 3.8375
2.4375 0.125 3.9
2.4375 0 3.8375
2.5 0.0625 3.8375
2.4375 0.0625 3.9
2.4375 0.125 3.8375
2.4375 0.0625 3.8375
2.625 0 3.8375
2.5625 0 3.9
2.625 0.0625 3.9
2.625 0.125 3.8375
2.5625 0.125 3.9
2.5625 0 3.8375
2.625 0.0625 3.8375
2.5625 0.0625 3.9
2.5625 0.125 3.8375
2.5625 0.0625 3.8375
2.75 0 3.8375
2.6875 0 3.9
2.75 0.0625 3.9
2.75 0.125 3.8375
2.6875 0.125 3.9
2.6875 0 3.8375
2.75 0.0625 3.8375
2.6875 0.0625 3.9
2.6875 0.125 3.8375
2.6875 0.0625 3.8375
2.875 0 3.8375
2.8125 0 3.9
2.875 0.0625 3.9
2.875 0.125 3.8375
2.8125 0.125 3.9
2.8125 0 3.8375
2.875 0.0625 3.8375
2.8125 0.0625 3.9
2.8125 0.125 3.8375
2.8125 0.0625 3.8375
3 0 3.8375
2.9375 0 3.9
3 0.0625 3.9
3 0.125 3.8375
2.9375 0.125 3.9
2.9375 0 3.8375
3 0.0625 3.8375
2.9375 0.0625 3.9
2.9375 0.125 3.8375
2.9375 0.0625 3.8375
3.125 0 3.8375
3.0625 0 3.9
3.125 0.0625 3.9
3.125 0.125 3.8375
3.0625 0.125 3.9
3.0625 0 3.8375
3.125 0.0625 3.8375
3.0625 0.0625 3.9
3.0625 0.125 3.8375
3.0625 0.0625 3.8375
3.25 0 3.8375
3.1875 0 3.9
3.25 0.0625 3.9
3.25 0.125 3.8375
3.1875 0.125 3.9
3.1875 0 3.8375
3.25 0.0625 3.8375
3.1875 0.0625 3.9
3.1875 0.125 3.8375
3.1875 0.0625 3.8375
3.375 0 3.8375
3.3125 0 3.9
3.375 0.0625 3.9
3.375 0.125 3.8375
3.3125 0.125 3.9
3.3125 0 3.8375
3.375 0.0625 3.8375
3.3125 0.0625 3.9
3.3125 0.125 3.8375
3.3125 0.0625 3.8375
3.5 0 3.8375
3.4375 0 3.9
3.5 0.0625 3.9
3.5 0.125 3.8375
3.4375 0.125 3.9
3.4375 0 3.8375
3.5 0.0625 3.8375
3.4375 0.0625 3.9
3.4375 0.125 3.8375
3.4375 0.0625 3.8375
3.625 0 3.8375
3.5625 0 3.9
3.625 0.0625 3.9
3.625 0.125 3.8375
3.5625 0.125 3.9
3.5625 0 3.8375
3.625 0.0625 3.8375
3.5625 0.0625 3.9
3.5625 0.125 3.8375
3.5625 0.0625 3.8375
3.75 0 3.8375
3.6875 0 3.9
3.75 0.0625 3.9
3.75 0.125 3.8375
3.6875 0.125 3.9
3.6875 0 3.8375
3.75 0.0625 3.8375
3.6875 0.0625 3.9
3.6875 0.125 3.8375
3.6875 0.0625 3.8375
3.875 0 3.8375
3.8125 0 3.9
3.875 0.0625 3.9
3.875 0.125 3.8375
3.8125 0.125 3.9
3.8125 0 3.8375
3.875 0.0625 3.8375
3.8125 0.0625 3.9
3.8125 0.125 3.8375
3.8125 0.0625 3.8375
4 0 3.8375
3.9375 0 3.9
4 0.0625 3.9
4 0.125 3.8375
3.9375 0.125 3.9
3.9375 0 3.8375
4 0.0625 3.8375
3.9375 0.0625 3.9
3.9375 0.125 3.8375
3.9375 0.0625 3.8375
0.125 0.1875 3.9
0 0.1875 3.9
0.125 0.25 3.8375
0.0625 0.25 3.9
0 0.25 3.8375
0.125 0.1875 3.8375
0.0625 0.1875 3.9
0 0.1875 3.8375
0.0625 0.25 3.8375
0.0625 0.1875 3.8375
0.25 0.1875 3.9
0.25 0.25 3.8375
0.1875 0.25 3.9
0.25 0.1875 3.8375
0.1875 0.1875 3.9
0.1875 0.25 3.8375
0.1875 0.1875 3.8375
0.375 0.1875 3.9
0.375 0.25 3.8375
0.3125 0.25 3.9
0.375 0.1875 3.8375
0.3125 0.1875 3.9
0.3125 0.25 3.8375
0.3125 0.1875 3.8375
0.5 0.1875 3.9
0.5 0.25 3.8375
0.4375 0.25 3.9
0.5 0.1875 3.8375
0.4375 0.1875 3.9
0.4375 0.25 3.8375
0.4375 0.1875 3.8375
0.625 0.1875 3.9
0.625 0.25 3.8375
0.5625 0.25 3.9
0.625 0.1875 3.8375
0.5625 0.1875 3.9
0.5625 0.25 3.8375
0.5625 0.1875 3.8375
0.75 0.1875 3.9
0.75 0.25 3.8375
0.6875 0.25 3.9
0.75 0.1875 3.8375
0.6875 0.1875 3.9
0.6875 0.25 3.8375
0.6875 0.1875 3.8375
0.875 0.1875 3.9
0.875 0.25 3.8375
0.8125 0.25 3.9
0.875 0.1875 3.8375
0.8125 0.1875 3.9
0.8125 0.25 3.8375
0.8125 0.1875 3.8375
1 0.1875 3.9
1 0.25 3.8375
0.9375 0.25 3.9
1 0.1875 3.8375
0.9375 0.1875 3.9
0.9375 0.25 3.8375
0.9375 0.1875 3.8375
1.125 0.1875 3.9
1.125 0.25 3.8375
1.0625 0.25 3.9
1.125 0.1875 3.8375
1.0625 0.1875 3.9
1.0625 0.25 3.8375
1.0625 0.1875 3.8375
1.25 0.1875 3.9
1.25 0.25 3.8375
1.1875 0.25 3.9
1.25 0.1875 3.8375
1.1875 0.1875 3.9
1.1875 0.25 3.8375
1.1875 0.1875 3.8375
1.375 0.1875 3.9
1.375 0.25 3.8375
1.3125 0.25 3.9
1.375 0.1875 3.8375
1.3125 0.1875 3.9
1.3125 0.25 3.8375
1.3125 0.1875 3.8375
1.5 0.1875 3.9
1.5 0.25 3.8375
1.4375 0.25 3.9
1.5 0.1875 3.8375
1.4375 0.1875 3.9
1.4375 0.25 3.8375
1.4375 0.1875 3.8375
1.625 0.1875 3.9
1.625 0.25 3.8375
1.5625 0.25 3.9
1.625 0.1875 3.8375
1.5625 0.1875 3.9
1.5625 0.25 3.8375
1.5625 0.1875 3.8375
1.75 0.1875 3.9
1.75 0.25 3.8375
1.6875 0.25 3.9
1.75 0.1875 3.8375
1.6875 0.1875 3.9
1.6875 0.25 3.8375
1.6875 0.1875 3.8375
1.875 0.1875 3.9
1.875 0.25 3.8375
1.8125 0.25 3.9
1.875 0.1875 3.8375
1.8125 0.1875 3.9
1.8125 0.25 3.8375
1.8125 0.1875 3.8375
2 0.1875 3.9
2 0.25 3.8375
1.9375 0.25 3.9
2 0.1875 3.8375
1.9375 0.1875 3.9
1.9375 0.25 3.8375
1.9375 0.1875 3.8375
2.125 0.1875 3.9
2.125 0.25 3.8375
2.0625 0.25 3.9
2.125 0.1875 3.8375
2.0625 0.1875 3.9
2.0625 0.25 3.8375
2.0625 0.1875 3.8375
2.25 0.1875 3.9
2.25 0.25 3.8375
2.1875 0.25 3.9
2.25 0.1875 3.8375
2.1875 0.1875 3.9
2.1875 0.25 3.8375
2.1875 0.1875 3.8375
2.375 0.1875 3.9
2.375 0.25 3.8375
2.3125 0.25 3.9
2.375 0.1875 3.8375
2.3125 0.1875 3.9
2.3125 0.25 3.8375
2.3125 0.1875 3.8375
2.5 0.1875 3.9
2.5 0.25 3.8375
2.4375 0.25 3.9
2.5 0.1875 3.8375
2.4375 0.1875 3.9
2.4375 0.25 3.8375
2.4375 0.1875 3.8375
2.625 0.1875 3.9
2.625 0.25 3.8375
2.5625 0.25 3.9
2.625 0.1875 3.8375
2.5625 0.1875 3.9
2.5625 0.25 3.8375
2.5625 0.1875 3.8375
2.75 0.1875 3.9
2.75 0.25 3.8375
2.6875 0.25 3.9
2.75 0.1875 3.8375
2.6875 0.1875 3.9
2.6875 0.25 3.8375
2.6875 0.1875 3.8375
2.875 0.1875 3.9
2.875 0.25 3.8375
2.8125 0.25 3.9
2.875 0.1875 3.8375
2.8125 0.1875 3.9
2.8125 0.25 3.8375
2.8125 0.1875 3.8375
3 0.1875 3.9
3 0.25 3.8375
2.9375 0.25 3.9
3 0.1875 3.8375
2.9375 0.1875 3.9
2.9375 0.25 3.8375
2.9375 0.1875 3.8375
3.125 0.1875 3.9
3.125 0.25 3.8375
3.0625 0.25 3.9
3.125 0.1875 3.8375
3.0625 0.1875 3.9
3.0625 0.25 3.8375
3.0625 0.1875 3.8375
3.25 0.1875 3.9
3.25 0.25 3.8375
3.1875 0.25 3.9
3.25 0.1875 3.8375
3.1875 0.1875 3.9
3.1875 0.25 3.8375
3.1875 0.1875 3.8375
3.375 0.1875 3.9
3.375 0.25 3.8375
3.3125 0.25 3.9
3.375 0.1875 3.8375
3.3125 0.1875 3.9
3.3125 0.25 3.8375
3.3125 0.1875 3.8375
3.5 0.1875 3.9
3.5 0.25 3.8375
3.4375 0.25 3.9
3.5 0.1875 3.8375
3.4375 0.1875 3.9
3.4375 0.25 3.8375
3.4375 0.1875 3.8375
3.625 0.1875 3.9
3.625 0.25 3.8375
3.5625 0.25 3.9
3.625 0.1875 3.8375
3.5625 0.1875 3.9
3.5625 0.25 3.8375
3.5625 0.1875 3.8375
3.75 0.1875 3.9
3.75 0.25 3.8375
3.6875 0.25 3.9
3.75 0.1875 3.8375
3.6875 0.1875 3.9
3.6875 0.25 3.8375
3.6875 0.1875 3.8375
3.875 0.1875 3.9
3.875 0.25 3.8375
3.8125 0.25 3.9
3.875 0.1875 3.8375
3.8125 0.1875 3.9
3.8125 0.25 3.8375
3.8125 0.1875 3.8375
4 0.1875 3.9
4 0.25 3.8375
3.9375 0.25 3.9
4 0.1875 3.8375
3.9375 0.1875 3.9
3.9375 0.25 3.8375
3.9375 0.1875 3.8375
0.125 0.3125 3.9
0 0.3125 3.9
0.125 0.375 3.8375
0.0625 0.375 3.9
0 0.375 3.8375
0.125 0.3125 3.8375
0.0625 0.3125 3.9
0 0.3125 3.8375
0.0625 0.375 3.8375
0.0625 0.3125 3.8375
0.25 0.3125 3.9
0.25 0.375 3.8375
0.1875 0.375 3.9
0.25 0.3125 3.8375
0.1875 0.3125 3.9
0.1875 0.375 3.8375
0.1875 0.3125 3.8375
0.375 0.3125 3.9
0.375 0.375 3.8375
0.3125 0.375 3.9
0.375 0.3125 3.8375
0.3125 0.3125 3.9
0.3125 0.375 3.8375
0.3125 0.3125 3.8375
0.5 0.3125 3.9
0.5 0.375 3.8375
0.4375 0.375 3.9
0.5 0.3125 3.8375
0.4375 0.3125 3.9
0.4375 0.375 3.8375
0.4375 0.3125 3.8375
0.625 0.3125 3.9
0.625 0.375 3.8375
0.5625 0.375 3.9
0.625 0.3125 3.8375
0.5625 0.3125 3.9
0.5625 0.375 3.8375
0.5625 0.3125 3.8375
0.75 0.3125 3.9
0.75 0.375 3.8375
0.6875 0.375 3.9
0.75 0.3125 3.8375
0.6875 0.3125 3.9
0.6875 0.375 3.8375
0.6875 0.3125 3.8375
0.875 0.3125 3.9
0.875 0.375 3.8375
0.8125 0.375 3.9
0.875 0.3125 3.8375
0.8125 0.3125 3.9
0.8125 0.375 3.8375
0.8125 0.3125 3.8375
1 0.3125 3.9
1 0.375 3.8375
0.9375 0.375 3.9
1 0.3125 3.8375
0.9375 0.3125 3.9
0.9375 0.375 3.8375
0.9375 0.3125 3.8375
1.125 0.3125 3.9
1.125 0.375 3.8375
1.0625 0.375 3.9
1.125 0.3125 3.8375
1.0625 0.3125 3.9
1.0625 0.375 3.8375
1.0625 0.3125 3.8375
1.25 0.3125 3.9
1.25 0.375 3.8375
1.1875 0.375 3.9
1.25 0.3125 3.8375
1.1875 0.3125 3.9
1.1875 0.375 3.8375
1.1875 0.3125 3.8375
1.375 0.3125 3.9
1.375 0.375 3.8375
1.3125 0.375 3.9
1.375 0.3125 3.8375
1.3125 0.3125 3.9
1.3125 0.375 3.8375
1.3125 0.3125 3.8375
1.5 0.3125 3.9
1.5 0.375 3.8375
1.4375 0.375 3.9
1.5 0.3125 3.8375
1.4375 0.3125 3.9
1.4375 0.375 3.8375
1.4375 0.3125 3.8375
1.625 0.3125 3.9
1.625 0.375 3.8375
1.5625 0.375 3.9
1.625 0.3125 3.8375
1.5625 0.3125 3.9
1.5625 0.375 3.8375
1.5625 0.3125 3.8375
1.75 0.3125 3.9
1.75 0.375 3.8375
1.6875 0.375 3.9
1.75 0.3125 3.8375
1.6875 0.3125 3.9
1.6875 0.375 3.8375
1.6875 0.3125 3.8375
1.875 0.3125 3.9
1.875 0.375 3.8375
1.8125 0.375 3.9
1.875 0.3125 3.8375
1.8125 0.3125 3.9
1.8125 0.375 3.8375
1.8125 0.3125 3.8375
2 0.3125 3.9
2 0.375 3.8375
1.9375 0.375 3.9
2 0.3125 3.8375
1.9375 0.3125 3.9
1.9375 0.375 3.8375
1.9375 0.3125 3.8375
2.125 0.3125 3.9
2.125 0.375 3.8375
2.0625 0.375 3.9
2.125 0.3125 3.8375
2.0625 0.3125 3.9
2.0625 0.375 3.8375
2.0625 0.3125 3.8375
2.25 0.3125 3.9
2.25 0.375 3.8375
2.1875 0.375 3.9
2.25 0.3125 3.8375
2.1875 0.3125 3.9
2.1875 0.375 3.8375
2.1875 0.3125 3.8375
2.375 0.3125 3.9
2.375 0.375 3.8375
2.3125 0.375 3.9
2.375 0.3125 3.8375
2.3125 0.3125 3.9
2.3125 0.375 3.8375
2.3125 0.3125 3.8375
2.5 0.3125 3.9
2.5 0.375 3.8375
2.4375 0.375 3.9
2.5 0.3125 3.8375
2.4375 0.3125 3.9
2.4375 0.375 3.8375
2.4375 0.3125 3.8375
2.625 0.3125 3.9
2.625 0.375 3.8375
2.5625 0.375 3.9
2.625 0.3125 3.8375
2.5625 0.3125 3.9
2.5625 0.375 3.8375
2.5625 0.3125 3.8375
2.75 0.3125 3.9
2.75 0.375 3.8375
2.6875 0.375 3.9
2.75 0.3125 3.8375
2.6875 0.3125 3.9
2.6875 0.375 3.8375
2.6875 0.3125 3.8375
2.875 0.3125 3.9
2.875 0.375 3.8375
2.8125 0.375 3.9
2.875 0.3125 3.8375
2.8125 0.3125 3.9
2.8125 0.375 3.8375
2.8125 0.3125 3.8375
3 0.3125 3.9
3 0.375 3.8375
2.9375 0.375 3.9
3 0.3125 3.8375
2.9375 0.3125 3.9
2.9375 0.375 3.8375
2.9375 0.3125 3.8375
3.125 0.3125 3.9
3.125 0.375 3.8375
3.0625 0.375 3.9
3.125 0.3125 3.8375
3.0625 0.3125 3.9
3.0625 0.375 3.8375
3.0625 0.3125 3.8375
3.25 0.3125 3.9
3.25 0.375 3.8375
3.1875 0.375 3.9
3.25 0.3125 3.8375
3.1875 0.3125 3.9
3.1875 0.375 3.8375
3.1875 0.3125 3.8375
3.375 0.3125 3.9
3.375 0.375 3.8375
3.3125 0.375 3.9
3.375 0.3125 3.8375
3.3125 0.3125 3.9
3.3125 0.375 3.8375
3.3125 0.3125 3.8375
3.5 0.3125 3.9
3.5 0.375 3.8375
3.4375 0.375 3.9
3.5 0.3125 3.8375
3.4375 0.3125 3.9
3.4375 0.375 3.8375
3.4375 0.3125 3.8375
3.625 0.3125 3.9
3.625 0.375 3.8375
3.5625 0.375 3.9
3.625 0.3125 3.8375
3.5625 0.3125 3.9
3.5625 0.375 3.8375
3.5625 0.3125 3.8375
3.75 0.3125 3.9
3.75 0.375 3.8375
3.6875 0.375 3.9
3.75 0.3125 3.8375
3.6875 0.3125 3.9
3.6875 0.375 3.8375
3.6875 0.3125 3.8375
3.875 0.3125 3.9
3.875 0.375 3.8375
3.8125 0.375 3.9
3.875 0.3125 3.8375
3.8125 0.3125 3.9
3.8125 0.375 3.8375
3.8125 0.3125 3.8375
4 0.3125 3.9
4 0.375 3.8375
3.9375 0.375 3.9
4 0.3125 3.8375
3.9375 0.3125 3.9
3.9375 0.375 3.8375
3.9375 0.3125 3.8375
0.125 0.4375 3.9
0 0.4375 3.9
0.125 0.5 3.8375
0.0625 0.5 3.9
0 0.5 3.8375
0.125 0.4375 3.8375
0.0625 0.4375 3.9
0 0.4375 3.8375
0.0625 0.5 3.8375
0.0625 0.4375 3.8375
0.25 0.4375 3.9
0.25 0.5 3.8375
0.1875 0.5 3.9
0.25 0.4375 3.8375
0.1875 0.4375 3.9
0.1875 0.5 3.8375
0.1875 0.4375 3.8375
0.375 0.4375 3.9
0.375 0.5 3.8375
0.3125 0.5 3.9
0.375 0.4375 3.8375
0.3125 0.4375 3.9
0.3125 0.5 3.8375
0.3125 0.4375 3.8375
0.5 0.4375 3.9
0.5 0.5 3.8375
0.4375 0.5 3.9
0.5 0.4375 3.8375
0.4375 0.4375 3.9
0.4375 0.5 3.8375
0.4375 0.4375 3.8375
0.625 0.4375 3.9
0.625 0.5 3.8375
0.5625 0.5 3.9
0.625 0.4375 3.8375
0.5625 0.4375 3.9
0.5625 0.5 3.8375
0.5625 0.4375 3.8375
0.75 0.4375 3.9
0.75 0.5 3.8375
0.6875 0.5 3.9
0.75 0.4375 3.8375
0.6875 0.4375 3.9
0.6875 0.5 3.8375
0.6875 0.4375 3.8375
0.875 0.4375 3.9
0.875 0.5 3.8375
0.8125 0.5 3.9
0.875 0.4375 3.8375
0.8125 0.4375 3.9
0.8125 0.5 3.8375
0.8125 0.4375 3.8375
1 0.4375 3.9
1 0.5 3.8375
0.9375 0.5 3.9
1 0.4375 3.8375
0.9375 0.4375 3.9
0.9375 0.5 3.8375
0.9375 0.4375 3.8375
1.125 0.4375 3.9
1.125 0.5 3.8375
1.0625 0.5 3.9
1.125 0.4375 3.8375
1.0625 0.4375 3.9
1.0625 0.5 3.8375
1.0625 0.4375 3.8375
1.25 0.4375 3.9
1.25 0.5 3.8375
1.1875 0.5 3.9
1.25 0.4375 3.8375
1.1875 0.4375 3.9
1.1875 0.5 3.8375
1.1875 0.4375 3.8375
1.375 0.4375 3.9
1.375 0.5 3.8375
1.3125 0.5 3.9
1.375 0.4375 3.8375
1.3125 0.4375 3.9
1.3125 0.5 3.8375
1.3125 0.4375 3.8375
1.5 0.4375 3.9
1.5 0.5 3.8375
1.4375 0.5 3.9
1.5 0.4375 3.8375
1.4375 0.4375 3.9
1.4375 0.5 3.8375
1.4375 0.4375 3.8375
1.625 0.4375 3.9
1.625 0.5 3.8375
1.5625 0.5 3.9
1.625 0.4375 3.8375
1.5625 0.4375 3.9
1.5625 0.5 3.8375
1.5625 0.4375 3.8375
1.75 0.4375 3.9
1.75 0.5 3.8375
1.6875 0.5 3.9
1.75 0.4375 3.8375
1.6875 0.4375 3.9
1.6875 0.5 3.8375
1.6875 0.4375 3.8375
1.875 0.4375 3.9
1.875 0.5 3.8375
1.8125 0.5 3.9
1.875 0.4375 3.8375
1.8125 0.4375 3.9
1.8125 0.5 3.8375
1.8125 0.4375 3.8375
2 0.4375 3.9
2 0.5 3.8375
1.9375 0.5 3.9
2 0.4375 3.8375
1.9375 0.4375 3.9
1.9375 0.5 3.8375
1.9375 0.4375 3.8375
2.125 0.4375 3.9
2.125 0.5 3.8375
2.0625 0.5 3.9
2.125 0.4375 3.8375
2.0625 0.4375 3.9
2.0625 0.5 3.8375
2.0625 0.4375 3.8375
2.25 0.4375 3.9
2.25 0.5 3.8375
2.1875 0.5 3.9
2.25 0.4375 3.8375
2.1875 0.4375 3.9
2.1875 0.5 3.8375
2.1875 0.4375 3.8375
2.375 0.4375 3.9
2.375 0.5 3.8375
2.3125 0.5 3.9
2.375 0.4375 3.8375
2.3125 0.4375 3.9
2.3125 0.5 3.8375
2.3125 0.4375 3.8375
2.5 0.4375 3.9
2.5 0.5 3.8375
2.4375 0.5 3.9
2.5 0.4375 3.8375
2.4375 0.4375 3.9
2.4375 0.5 3.8375
2.4375 0.4375 3.8375
2.625 0.4375 3.9
2.625 0.5 3.8375
2.5625 0.5 3.9
2.625 0.4375 3.8375
2.5625 0.4375 3.9
2.5625 0.5 3.8375
2.5625 0.4375 3.8375
2.75 0.4375 3.9
2.75 0.5 3.8375
2.6875 0.5 3.9
2.75 0.4375 3.8375
2.6875 0.4375 3.9
2.6875 0.5 3.8375
2.6875 0.4375 3.8375
2.875 0.4375 3.9
2.875 0.5 3.8375
2.8125 0.5 3.9
2.875 0.4375 3.8375
2.8125 0.4375 3.9
2.8125 0.5 3.8375
2.8125 0.4375 3.8375
3 0.4375 3.9
3 0.5 3.8375
2.9375 0.5 3.9
3 0.4375 3.8375
2.9375 0.4375 3.9
2.9375 0.5 3.8375
2.9375 0.4375 3.8375
3.125 0.4375 3.9
3.125 0.5 3.8375
3.0625 0.5 3.9
3.125 0.4375 3.8375
3.0625 0.4375 3.9
3.0625 0.5 3.8375
3.0625 0.4375 3.8375
3.25 0.4375 3.9
3.25 0.5 3.8375
3.1875 0.5 3.9
3.25 0.4375 3.8375
3.1875 0.4375 3.9
3.1875 0.5 3.8375
3.1875 0.4375 3.8375
3.375 0.4375 3.9
3.375 0.5 3.8375
3.3125 0.5 3.9
3.375 0.4375 3.8375
3.3125 0.4375 3.9
3.3125 0.5 3.8375
3.3125 0.4375 3.8375
3.5 0.4375 3.9
3.5 0.5 3.8375
3.4375 0.5 3.9
3.5 0.4375 3.8375
3.4375 0.4375 3.9
3.4375 0.5 3.8375
3.4375 0.4375 3.8375
3.625 0.4375 3.9
3.625 0.5 3.8375
3.5625 0.5 3.9
3.625 0.4375 3.8375
3.5625 0.4375 3.9
3.5625 0.5 3.8375
3.5625 0.4375 3.8375
3.75 0.4375 3.9
3.75 0.5 3.8375
3.6875 0.5 3.9
3.75 0.4375 3.8375
3.6875 0.4375 3.9
3.6875 0.5 3.8375
3.6875 0.4375 3.8375
3.875 0.4375 3.9
3.875 0.5 3.8375
3.8125 0.5 3.9
3.875 0.4375 3.8375
3.8125 0.4375 3.9
3.8125 0.5 3.8375
3.8125 0.4375 3.8375
4 0.4375 3.9
4 0.5 3.8375
3.9375 0.5 3.9
4 0.4375 3.8375
3.9375 0.4375 3.9
3.9375 0.5 3.8375
3.9375 0.4375 3.8375
0.125 0.5625 3.9
0 0.5625 3.9
0.125 0.625 3.8375
0.0625 0.625 3.9
0 0.625 3.8375
0.125 0.5625 3.8375
0.0625 0.5625 3.9
0 0.5625 3.8375
0.0625 0.625 3.8375
0.0625 0.5625 3.8375
0.25 0.5625 3.9
0.25 0.625 3.8375
0.1875 0.625 3.9
0.25 0.5625 3.8375
0.1875 0.5625 3.9
0.1875 0.625 3.8375
0.1875 0.5625 3.8375
0.375 0.5625 3.9
0.375 0.625 3.8375
0.3125 0.625 3.9
0.375 0.5625 3.8375
0.3125 0.5625 3.9
0.3125 0.625 3.8375
0.3125 0.5625 3.8375
0.5 0.5625 3.9
0.5 0.625 3.8375
0.4375 0.625 3.9
0.5 0.5625 3.8375
0.4375 0.5625 3.9
0.4375 0.625 3.8375
0.4375 0.5625 3.8375
0.625 0.5625 3.9
0.625 0.625 3.8375
0.5625 0.625 3.9
0.625 0.5625 3.8375
0.5625 0.5625 3.9
0.5625 0.625 3.8375
0.5625 0.5625 3.8375
0.75 0.5625 3.9
0.75 0.625 3.8375
0.6875 0.625 3.9
0.75 0.5625 3.8375
0.6875 0.5625 3.9
0.6875 0.625 3.8375
0.6875 0.5625 3.8375
0.875 0.5625 3.9
0.875 0.625 3.8375
0.8125 0.625 3.9
0.875 0.5625 3.8375
0.8125 0.5625 3.9
0.8125 0.625 3.8375
0.8125 0.5625 3.8375
1 0.5625 3.9
1 0.625 3.8375
0.9375 0.625 3.9
1 0.5625 3.8375
0.9375 0.5625 3.9
0.9375 0.625 3.8375
0.9375 0.5625 3.8375
1.125 0.5625 3.9
1.125 0.625 3.8375
1.0625 0.625 3.9
1.125 0.5625 3.8375
1.0625 0.5625 3.9
1.0625 0.625 3.8375
1.0625 0.5625 3.8375
1.25 0.5625 3.9
1.25 0.625 3.8375
1.1875 0.625 3.9
1.25 0.5625 3.8375
1.1875 0.5625 3.9
1.1875 0.625 3.8375
1.1875 0.5625 3.8375
1.375 0.5625 3.9
1.375 0.625 3.8375
1.3125 0.625 3.9
1.375 0.5625 3.8375
1.3125 0.5625 3.9
1.3125 0.625 3.8375
1.3125 0.5625 3.8375
1.5 0.5625 3.9
1.5 0.625 3.8375
1.4375 0.625 3.9
1.5 0.5625 3.8375
1.4375 0.5625 3.9
1.4375 0.625 3.8375
1.4375 0.5625 3.8375
1.625 0.5625 3.9
1.625 0.625 3.8375
1.5625 0.625 3.9
1.625 0.5625 3.8375
1.5625 0.5625 3.9
1.5625 0.625 3.8375
1.5625 0.5625 3.8375
1.75 0.5625 3.9
1.75 0.625 3.8375
1.6875 0.625 3.9
1.75 0.5625 3.8375
1.6875 0.5625 3.9
1.6875 0.625 3.8375
1.6875 0.5625 3.8375
1.875 0.5625 3.9
1.875 0.625 3.8375
1.8125 0.625 3.9
1.875 0.5625 3.8375
1.8125 0.5625 3.9
1.8125 0.625 3.8375
1.8125 0.5625 3.8375
2 0.5625 3.9
2 0.625 3.8375
1.9375 0.625 3.9
2 0.5625 3.8375
1.9375 0.5625 3.9
1.9375 0.625 3.8375
1.9375 0.5625 3.8375
2.125 0.5625 3.9
2.125 0.625 3.8375
2.0625 0.625 3.9
2.125 0.5625 3.8375
2.0625 0.5625 3.9
2.0625 0.625 3.8375
2.0625 0.5625 3.8375
2.25 0.5625 3.9
2.25 0.625 3.8375
2.1875 0.625 3.9
2.25 0.5625 3.8375
2.1875 0.5625 3.9
2.1875 0.625 3.8375
2.1875 0.5625 3.8375
2.375 0.5625 3.9
2.375 0.625 3.8375
2.3125 0.625 3.9
2.375 0.5625 3.8375
2.3125 0.5625 3.9
2.3125 0.625 3.8375
2.3125 0.5625 3.8375
2.5 0.5625 3.9
2.5 0.625 3.8375
2.4375 0.625 3.9
2.5 0.5625 3.8375
2.4375 0.5625 3.9
2.4375 0.625 3.8375
2.4375 0.5625 3.8375
2.625 0.5625 3.9
2.625 0.625 3.8375
2.5625 0.625 3.9
2.625 0.5625 3.8375
2.5625 0.5625 3.9
2.5625 0.625 3.8375
2.5625 0.5625 3.8375
2.75 0.5625 3.9
2.75 0.625 3.8375
2.6875 0.625 3.9
2.75 0.5625 3.8375
2.6875 0.5625 3.9
2.6875 0.625 3.8375
2.6875 0.5625 3.8375
2.875 0.5625 3.9
2.875 0.625 3.8375
2.8125 0.625 3.9
2.875 0.5625 3.8375
2.8125 0.5625 3.9
2.8125 0.625 3.8375
2.8125 0.5625 3.8375
3 0.5625 3.9
3 0.625 3.8375
2.9375 0.625 3.9
3 0.5625 3.8375
2.9375 0.5625 3.9
2.9375 0.625 3.8375
2.9375 0.5625 3.8375
3.125 0.5625 3.9
3.125 0.625 3.8375
3.0625 0.625 3.9
3.125 0.5625 3.8375
3.0625 0.5625 3.9
3.0625 0.625 3.8375
3.0625 0.5625 3.8375
3.25 0.5625 3.9
3.25 0.625 3.8375
3.1875 0.625 3.9
3.25 0.5625 3.8375
3.1875 0.5625 3.9
3.1875 0.625 3.8375
3.1875 0.5625 3.8375
3.375 0.5625 3.9
3.375 0.625 3.8375
3.3125 0.625 3.9
3.375 0.5625 3.8375
3.3125 0.5625 3.9
3.3125 0.625 3.8375
3.3125 0.5625 3.8375
3.5 0.5625 3.9
3.5 0.625 3.8375
3.4375 0.625 3.9
3.5 0.5625 3.8375
3.4375 0.5625 3.9
3.4375 0.625 3.8375
3.4375 0.5625 3.8375
3.625 0.5625 3.9
3.625 0.625 3.8375
3.5625 0.625 3.9
3.625 0.5625 3.8375
3.5625 0.5625 3.9
3.5625 0.625 3.8375
3.5625 0.5625 3.8375
3.75 0.5625 3.9
3.75 0.625 3.8375
3.6875 0.625 3.9
3.75 0.5625 3.8375
3.6875 0.5625 3.9
3.6875 0.625 3.8375
3.6875 0.5625 3.8375
3.875 0.5625 3.9
3.875 0.625 3.8375
3.8125 0.625 3.9
3.875 0.5625 3.8375
3.8125 0.5625 3.9
3.8125 0.625 3.8375
3.8125 0.5625 3.8375
4 0.5625 3.9
4 0.625 3.8375
3.9375 0.625 3.9
4 0.5625 3.8375
3.9375 0.5625 3.9
3.9375 0.625 3.8375
3.9375 0.5625 3.8375
0.125 0.6875 3.9
0 0.6875 3.9
0.125 0.75 3.8375
0.0625 0.75 3.9
0 0.75 3.8375
0.125 0.6875 3.8375
0.0625 0.6875 3.9
0 0.6875 3.8375
0.0625 0.75 3.8375
0.0625 0.6875 3.8375
0.25 0.6875 3.9
0.25 0.75 3.8375
0.1875 0.75 3.9
0.25 0.6875 3.8375
0.1875 0.6875 3.9
0.1875 0.75 3.8375
0.1875 0.6875 3.8375
0.375 0.6875 3.9
0.375 0.75 3.8375
0.3125 0.75 3.9
0.375 0.6875 3.8375
0.3125 0.6875 3.9
0.3125 0.75 3.8375
0.3125 0.6875 3.8375
0.5 0.6875 3.9
0.5 0.75 3.8375
0.4375 0.75 3.9
0.5 0.6875 3.8375
0.4375 0.6875 3.9
0.4375 0.75 3.8375
0.4375 0.6875 3.8375
0.625 0.6875 3.9
0.625 0.75 3.8375
0.5625 0.75 3.9
0.625 0.6875 3.8375
0.5625 0.6875 3.9
0.5625 0.75 3.8375
0.5625 0.6875 3.8375
0.75 0.6875 3.9
0.75 0.75 3.8375
0.6875 0.75 3.9
0.75 0.6875 3.8375
0.6875 0.6875 3.9
0.6875 0.75 3.8375
0.6875 0.6875 3.8375
0.875 0.6875 3.9
0.875 0.75 3.8375
0.8125 0.75 3.9
0.875 0.6875 3.8375
0.8125 0.6875 3.9
0.8125 0.75 3.8375
0.8125 0.6875 3.8375
1 0.6875 3.9
1 0.75 3.8375
0.9375 0.75 3.9
1 0.6875 3.8375
0.9375 0.6875 3.9
0.9375 0.75 3.8375
0.9375 0.6875 3.8375
1.125 0.6875 3.9
1.125 0.75 3.8375
1.0625 0.75 3.9
1.125 0.6875 3.8375
1.0625 0.6875 3.9
1.0625 0.75 3.8375
1.0625 0.6875 3.8375
1.25 0.6875 3.9
1.25 0.75 3.8375
1.1875 0.75 3.9
1.25 0.6875 3.8375
1.1875 0.6875 3.9
1.1875 0.75 3.8375
1.1875 0.6875 3.8375
1.375 0.6875 3.9
1.375 0.75 3.8375
1.3125 0.75 3.9
1.375 0.6875 3.8375
1.3125 0.6875 3.9
1.3125 0.75 3.8375
1.3125 0.6875 3.8375
1.5 0.6875 3.9
1.5 0.75 3.8375
1.4375 0.75 3.9
1.5 0.6875 3.8375
1.4375 0.6875 3.9
1.4375 0.75 3.8375
1.4375 0.6875 3.8375
1.625 0.6875 3.9
1.625 0.75 3.8375
1.5625 0.75 3.9
1.625 0.6875 3.8375
1.5625 0.6875 3.9
1.5625 0.75 3.8375
1.5625 0.6875 3.8375
1.75 0.6875 3.9
1.75 0.75 3.8375
1.6875 0.75 3.9
1.75 0.6875 3.8375
1.6875 0.6875 3.9
1.6875 0.75 3.8375
1.6875 0.6875 3.8375
1.875 0.6875 3.9
1.875 0.75 3.8375
1.8125 0.75 3.9
1.875 0.6875 3.8375
1.8125 0.6875 3.9
1.8125 0.75 3.8375
1.8125 0.6875 3.8375
2 0.6875 3.9
2 0.75 3.8375
1.9375 0.75 3.9
2 0.6875 3.8375
1.9375 0.6875 3.9
1.9375 0.75 3.8375
1.9375 0.6875 3.8375
2.125 0.6875 3.9
2.125 0.75 3.8375
2.0625 0.75 3.9
2.125 0.6875 3.8375
2.0625 0.6875 3.9
2.0625 0.75 3.8375
2.0625 0.6875 3.8375
2.25 0.6875 3.9
2.25 0.75 3.8375
2.1875 0.75 3.9
2.25 0.6875 3.8375
2.1875 0.6875 3.9
2.1875 0.75 3.8375
2.1875 0.6875 3.8375
2.375 0.6875 3.9
2.375 0.75 3.8375
2.3125 0.75 3.9
2.375 0.6875 3.8375
2.3125 0.6875 3.9
2.3125 0.75 3.8375
2.3125 0.6875 3.8375
2.5 0.6875 3.9
2.5 0.75 3.8375
2.4375 0.75 3.9
2.5 0.6875 3.8375
2.4375 0.6875 3.9
2.4375 0.75 3.8375
2.4375 0.6875 3.8375
2.625 0.6875 3.9
2.625 0.75 3.8375
2.5625 0.75 3.9
2.625 0.6875 3.8375
2.5625 0.6875 3.9
2.5625 0.75 3.8375
2.5625 0.6875 3.8375
2.75 0.6875 3.9
2.75 0.75 3.8375
2.6875 0.75 3.9
2.75 0.6875 3.8375
2.6875 0.6875 3.9
2.6875 0.75 3.8375
2.6875 0.6875 3.8375
2.875 0.6875 3.9
2.875 0.75 3.8375
2.8125 0.75 3.9
2.875 0.6875 3.8375
2.8125 0.6875 3.9
2.8125 0.75 3.8375
2.8125 0.6875 3.8375
3 0.6875 3.9
3 0.75 3.8375
2.9375 0.75 3.9
3 0.6875 3.8375
2.9375 0.6875 3.9
2.9375 0.75 3.8375
2.9375 0.6875 3.8375
3.125 0.6875 3.9
3.125 0.75 3.8375
3.0625 0.75 3.9
3.125 0.6875 3.8375
3.0625 0.6875 3.9
3.0625 0.75 3.8375
3.0625 0.6875 3.8375
3.25 0.6875 3.9
3.25 0.75 3.8375
3.1875 0.75 3.9
3.25 0.6875 3.8375
3.1875 0.6875 3.9
3.1875 0.75 3.8375
3.1875 0.6875 3.8375
3.375 0.6875 3.9
3.375 0.75 3.8375
3.3125 0.75 3.9
3.375 0.6875 3.8375
3.3125 0.6875 3.9
3.3125 0.75 3.8375
3.3125 0.6875 3.8375
3.5 0.6875 3.9
3.5 0.75 3.8375
3.4375 0.75 3.9
3.5 0.6875 3.8375
3.4375 0.6875 3.9
3.4375 0.75 3.8375
3.4375 0.6875 3.8375
3.625 0.6875 3.9
3.625 0.75 3.8375
3.5625 0.75 3.9
3.625 0.6875 3.8375
3.5625 0.6875 3.9
3.5625 0.75 3.8375
3.5625 0.6875 3.8375
3.75 0.6875 3.9
3.75 0.75 3.8375
3.6875 0.75 3.9
3.75 0.6875 3.8375
3.6875 0.6875 3.9
3.6875 0.75 3.8375
3.6875 0.6875 3.8375
3.875 0.6875 3.9
3.875 0.75 3.8375
3.8125 0.75 3.9
3.875 0.6875 3.8375
3.8125 0.6875 3.9
3.8125 0.75 3.8375
3.8125 0.6875 3.8375
4 0.6875 3.9
4 0.75 3.8375
3.9375 0.75 3.9
4 0.6875 3.8375
3.9375 0.6875 3.9
3.9375 0.75 3.8375
3.9375 0.6875 3.8375
0.125 0.8125 3.9
0 0.8125 3.9
0.125 0.875 3.8375
0.0625 0.875 3.9
0 0.875 3.8375
0.125 0.8125 3.8375
0.0625 0.8125 3.9
0 0.8125 3.8375
0.0625 0.875 3.8375
0.0625 0.8125 3.8375
0.25 0.8125 3.9
0.25 0.875 3.8375
0.1875 0.875 3.9
0.25 0.8125 3.8375
0.1875 0.8125 3.9
0.1875 0.875 3.8375
0.1875 0.8125 3.8375
0.375 0.8125 3.9
0.375 0.875 3.8375
0.3125 0.875 3.9
0.375 0.8125 3.8375
0.3125 0.8125 3.9
0.3125 0.875 3.8375
0.3125 0.8125 3.8375
0.5 0.8125 3.9
0.5 0.875 3.8375
0.4375 0.875 3.9
0.5 0.8125 3.8375
0.4375 0.8125 3.9
0.4375 0.875 3.8375
0.4375 0.8125 3.8375
0.625 0.8125 3.9
0.625 0.875 3.8375
0.5625 0.875 3.9
0.625 0.8125 3.8375
0.5625 0.8125 3.9
0.5625 0.875 3.8375
0.5625 0.8125 3.8375
0.75 0.8125 3.9
0.75 0.875 3.8375
0.6875 0.875 3.9
0.75 0.8125 3.8375
0.6875 0.8125 3.9
0.6875 0.875 3.8375
0.6875 0.8125 3.8375
0.875 0.8125 3.9
0.875 0.875 3.8375
0.8125 0.875 3.9
0.875 0.8125 3.8375
0.8125 0.8125 3.9
0.8125 0.875 3.8375
0.8125 0.8125 3.8375
1 0.8125 3.9
1 0.875 3.8375
0.9375 0.875 3.9
1 0.8125 3.8375
0.9375 0.8125 3.9
0.9375 0.875 3.8375
0.9375 0.8125 3.8375
1.125 0.8125 3.9
1.125 0.875 3.8375
1.0625 0.875 3.9
1.125 0.8125 3.8375
1.0625 0.8125 3.9
1.0625 0.875 3.8375
1.0625 0.8125 3.8375
1.25 0.8125 3.9
1.25 0.875 3.8375
1.1875 0.875 3.9
1.25 0.8125 3.8375
1.1875 0.8125 3.9
1.1875 0.875 3.8375
1.1875 0.8125 3.8375
1.375 0.8125 3.9
1.375 0.875 3.8375
1.3125 0.875 3.9
1.375 0.8125 3.8375
1.3125 0.8125 3.9
1.3125 0.875 3.8375
1.3125 0.8125 3.8375
1.5 0.8125 3.9
1.5 0.875 3.8375
1.4375 0.875 3.9
1.5 0.8125 3.8375
1.4375 0.8125 3.9
1.4375 0.875 3.8375
1.4375 0.8125 3.8375
1.625 0.8125 3.9
1.625 0.875 3.8375
1.5625 0.875 3.9
1.625 0.8125 3.8375
1.5625 0.8125 3.9
1.5625 0.875 3.8375
1.5625 0.8125 3.8375
1.75 0.8125 3.9
1.75 0.875 3.8375
1.6875 0.875 3.9
1.75 0.8125 3.8375
1.6875 0.8125 3.9
1.6875 0.875 3.8375
1.6875 0.8125 3.8375
1.875 0.8125 3.9
1.875 0.875 3.8375
1.8125 0.875 3.9
1.875 0.8125 3.8375
1.8125 0.8125 3.9
1.8125 0.875 3.8375
1.8125 0.8125 3.8375
2 0.8125 3.9
2 0.875 3.8375
1.9375 0.875 3.9
2 0.8125 3.8375
1.9375 0.8125 3.9
1.9375 0.875 3.8375
1.9375 0.8125 3.8375
2.125 0.8125 3.9
2.125 0.875 3.8375
2.0625 0.875 3.9
2.125 0.8125 3.8375
2.0625 0.8125 3.9
2.0625 0.875 3.8375
2.0625 0.8125 3.8375
2.25 0.8125 3.9
2.25 0.875 3.8375
2.1875 0.875 3.9
2.25 0.8125 3.8375
2.1875 0.8125 3.9
2.1875 0.875 3.8375
2.1875 0.8125 3.8375
2.375 0.8125 3.9
2.375 0.875 3.8375
2.3125 0.875 3.9
2.375 0.8125 3.8375
2.3125 0.8125 3.9
2.3125 0.875 3.8375
2.3125 0.8125 3.8375
2.5 0.8125 3.9
2.5 0.875 3.8375
2.4375 0.875 3.9
2.5 0.8125 3.8375
2.4375 0.8125 3.9
2.4375 0.875 3.8375
2.4375 0.8125 3.8375
2.625 0.8125 3.9
2.625 0.875 3.8375
2.5625 0.875 3.9
2.625 0.8125 3.8375
2.5625 0.8125 3.9
2.5625 0.875 3.8375
2.5625 0.8125 3.8375
2.75 0.8125 3.9
2.75 0.875 3.8375
2.6875 0.875 3.9
2.75 0.8125 3.8375
2.6875 0.8125 3.9
2.6875 0.875 3.8375
2.6875 0.8125 3.8375
2.875 0.8125 3.9
2.875 0.875 3.8375
2.8125 0.875 3.9
2.875 0.8125 3.8375
2.8125 0.8125 3.9
2.8125 0.875 3.8375
2.8125 0.8125 3.8375
3 0.8125 3.9
3 0.875 3.8375
2.9375 0.875 3.9
3 0.8125 3.8375
2.9375 0.8125 3.9
2.9375 0.875 3.8375
2.9375 0.8125 3.8375
3.125 0.8125 3.9
3.125 0.875 3.8375
3.0625 0.875 3.9
3.125 0.8125 3.8375
3.0625 0.8125 3.9
3.0625 0.875 3.8375
3.0625 0.8125 3.8375
3.25 0.8125 3.9
3.25 0.875 3.8375
3.1875 0.875 3.9
3.25 0.8125 3.8375
3.1875 0.8125 3.9
3.1875 0.875 3.8375
3.1875 0.8125 3.8375
3.375 0.8125 3.9
3.375 0.875 3.8375
3.3125 0.875 3.9
3.375 0.8125 3.8375
3.3125 0.8125 3.9
3.3125 0.875 3.8375
3.3125 0.8125 3.8375
3.5 0.8125 3.9
3.5 0.875 3.8375
3.4375 0.875 3.9
3.5 0.8125 3.8375
3.4375 0.8125 3.9
3.4375 0.875 3.8375
3.4375 0.8125 3.8375
3.625 0.8125 3.9
3.625 0.875 3.8375
3.5625 0.875 3.9
3.625 0.8125 3.8375
3.5625 0.8125 3.9
3.5625 0.875 3.8375
3.5625 0.8125 3.8375
3.75 0.8125 3.9
3.75 0.875 3.8375
3.6875 0.875 3.9
3.75 0.8125 3.8375
3.6875 0.8125 3.9
3.6875 0.875 3.8375
3.6875 0.8125 3.8375
3.875 0.8125 3.9
3.875 0.875 3.8375
3.8125 0.875 3.9
3.875 0.8125 3.8375
3.8125 0.8125 3.9
3.8125 0.875 3.8375
3.8125 0.8125 3.8375
4 0.8125 3.9
4 0.875 3.8375
3.9375 0.875 3.9
4 0.8125 3.8375
3.9375 0.8125 3.9
3.9375 0.875 3.8375
3.9375 0.8125 3.8375
0.125 0.9375 3.9
0 0.9375 3.9
0.125 1 3.8375
0.0625 1 3.9
0 1 3.8375
0.125 0.9375 3.8375
0.0625 0.9375 3.9
0 0.9375 3.8375
0.0625 1 3.8375
0.0625 0.9375 3.8375
0.25 0.9375 3.9
0.25 1 3.8375
0.1875 1 3.9
0.25 0.9375 3.8375
0.1875 0.9375 3.9
0.1875 1 3.8375
0.1875 0.9375 3.8375
0.375 0.9375 3.9
0.375 1 3.8375
0.3125 1 3.9
0.375 0.9375 3.8375
0.3125 0.9375 3.9
0.3125 1 3.8375
0.3125 0.9375 3.8375
0.5 0.9375 3.9
0.5 1 3.8375
0.4375 1 3.9
0.5 0.9375 3.8375
0.4375 0.9375 3.9
0.4375 1 3.8375
0.4375 0.9375 3.8375
0.625 0.9375 3.9
0.625 1 3.8375
0.5625 1 3.9
0.625 0.9375 3.8375
0.5625 0.9375 3.9
0.5625 1 3.8375
0.5625 0.9375 3.8375
0.75 0.9375 3.9
0.75 1 3.8375
0.6875 1 3.9
0.75 0.9375 3.8375
0.6875 0.9375 3.9
0.6875 1 3.8375
0.6875 0.9375 3.8375
0.875 0.9375 3.9
0.875 1 3.8375
0.8125 1 3.9
0.875 0.9375 3.8375
0.8125 0.9375 3.9
0.8125 1 3.8375
0.8125 0.9375 3.8375
1 0.9375 3.9
1 1 3.8375
0.9375 1 3.9
1 0.9375 3.8375
0.9375 0.9375 3.9
0.9375 1 3.8375
0.9375 0.9375 3.8375
1.125 0.9375 3.9
1.125 1 3.8375
1.0625 1 3.9
1.125 0.9375 3.8375
1.0625 0.9375 3.9
1.0625 1 3.8375
1.0625 0.9375 3.8375
1.25 0.9375 3.9
1.25 1 3.8375
1.1875 1 3.9
1.25 0.9375 3.8375
1.1875 0.9375 3.9
1.1875 1 3.8375
1.1875 0.9375 3.8375
1.375 0.9375 3.9
1.375 1 3.8375
1.3125 1 3.9
1.375 0.9375 3.8375
1.3125 0.9375 3.9
1.3125 1 3.8375
1.3125 0.9375 3.8375
1.5 0.9375 3.9
1.5 1 3.8375
1.4375 1 3.9
1.5 0.9375 3.8375
1.4375 0.9375 3.9
1.4375 1 3.8375
1.4375 0.9375 3.8375
1.625 0.9375 3.9
1.625 1 3.8375
1.5625 1 3.9
1.625 0.9375 3.8375
1.5625 0.9375 3.9
1.5625 1 3.8375
1.5625 0.9375 3.8375
1.75 0.9375 3.9
1.75 1 3.8375
1.6875 1 3.9
1.75 0.9375 3.8375
1.6875 0.9375 3.9
1.6875 1 3.8375
1.6875 0.9375 3.8375
1.875 0.9375 3.9
1.875 1 3.8375
1.8125 1 3.9
1.875 0.9375 3.8375
1.8125 0.9375 3.9
1.8125 1 3.8375
1.8125 0.9375 3.8375
2 0.9375 3.9
2 1 3.8375
1.9375 1 3.9
2 0.9375 3.8375
1.9375 0.9375 3.9
1.9375 1 3.8375
1.9375 0.9375 3.8375
2.125 0.9375 3.9
2.125 1 3.8375
2.0625 1 3.9
2.125 0.9375 3.8375
2.0625 0.9375 3.9
2.0625 1 3.8375
2.0625 0.9375 3.8375
2.25 0.9375 3.9
2.25 1 3.8375
2.1875 1 3.9
2.25 0.9375 3.8375
2.1875 0.9375 3.9
2.1875 1 3.8375
2.1875 0.9375 3.8375
2.375 0.9375 3.9
2.375 1 3.8375
2.3125 1 3.9
2.375 0.9375 3.8375
2.3125 0.9375 3.9
2.3125 1 3.8375
2.3125 0.9375 3.8375
2.5 0.9375 3.9
2.5 1 3.8375
2.4375 1 3.9
2.5 0.9375 3.8375
2.4375 0.9375 3.9
2.4375 1 3.8375
2.4375 0.9375 3.8375
2.625 0.9375 3.9
2.625 1 3.8375
2.5625 1 3.9
2.625 0.9375 3.8375
2.5625 0.9375 3.9
2.5625 1 3.8375
2.5625 0.9375 3.8375
2.75 0.9375 3.9
2.75 1 3.8375
2.6875 1 3.9
2.75 0.9375 3.8375
2.6875 0.9375 3.9
2.6875 1 3.8375
2.6875 0.9375 3.8375
2.875 0.9375 3.9
2.875 1 3.8375
2.8125 1 3.9
2.875 0.9375 3.8375
2.8125 0.9375 3.9
2.8125 1 3.8375
2.8125 0.9375 3.8375
3 0.9375 3.9
3 1 3.8375
2.9375 1 3.9
3 0.9375 3.8375
2.9375 0.9375 3.9
2.9375 1 3.8375
2.9375 0.9375 3.8375
3.125 0.9375 3.9
3.125 1 3.8375
3.0625 1 3.9
3.125 0.9375 3.8375
3.0625 0.9375 3.9
3.0625 1 3.8375
3.0625 0.9375 3.8375
3.25 0.9375 3.9
3.25 1 3.8375
3.1875 1 3.9
3.25 0.9375 3.8375
3.1875 0.9375 3.9
3.1875 1 3.8375
3.1875 0.9375 3.8375
3.375 0.9375 3.9
3.375 1 3.8375
3.3125 1 3.9
3.375 0.9375 3.8375
3.3125 0.9375 3.9
3.3125 1 3.8375
3.3125 0.9375 3.8375
3.5 0.9375 3.9
3.5 1 3.8375
3.4375 1 3.9
3.5 0.9375 3.8375
3.4375 0.9375 3.9
3.4375 1 3.8375
3.4375 0.9375 3.8375
3.625 0.9375 3.9
3.625 1 3.8375
3.5625 1 3.9
3.625 0.9375 3.8375
3.5625 0.9375 3.9
3.5625 1 3.8375
3.5625 0.9375 3.8375
3.75 0.9375 3.9
3.75 1 3.8375
3.6875 1 3.9
3.75 0.9375 3.8375
3.6875 0.9375 3.9
3.6875 1 3.8375
3.6875 0.9375 3.8375
3.875 0.9375 3.9
3.875 1 3.8375
3.8125 1 3.9
3.875 0.9375 3.8375
3.8125 0.9375 3.9
3.8125 1 3.8375
3.8125 0.9375 3.8375
4 0.9375 3.9
4 1 3.8375
3.9375 1 3.9
4 0.9375 3.8375
3.9375 0.9375 3.9
3.9375 1 3.8375
3.9375 0.9375 3.8375
0.125 0 3.9625
0.0625 0 4.025
0 0 3.9625
0.125 0.0625 4.025
0 0.0625 4.025
0.125 0.125 3.9625
0.0625 0.125 4.025
0 0.125 3.9625
0.0625 0 3.9625
0.125 0.0625 3.9625
0.0625 0.0625 4.025
0 0.0625 3.9625
0.0625 0.125 3.9625
0.0625 0.0625 3.9625
0.25 0 3.9625
0.1875 0 4.025
0.25 0.0625 4.025
0.25 0.125 3.9625
0.1875 0.125 4.025
0.1875 0 3.9625
0.25 0.0625 3.9625
0.1875 0.0625 4.025
0.1875 0.125 3.9625
0.1875 0.0625 3.9625
0.375 0 3.9625
0.3125 0 4.025
0.375 0.0625 4.025
0.375 0.125 3.9625
0.3125 0.125 4.025
0.3125 0 3.9625
0.375 0.0625 3.9625
0.3125 0.0625 4.025
0.3125 0.125 3.9625
0.3125 0.0625 3.9625
0.5 0 3.9625
0.4375 0 4.025
0.5 0.0625 4.025
0.5 0.125 3.9625
0.4375 0.125 4.025
0.4375 0 3.9625
0.5 0.0625 3.9625
0.4375 0.0625 4.025
0.4375 0.125 3.9625
0.4375 0.0625 3.9625
0.625 0 3.9625
0.5625 0 4.025
0.625 0.0625 4.025
0.625 0.125 3.9625
0.5625 0.125 4.025
0.5625 0 3.9625
0.625 0.0625 3.9625
0.5625 0.0625 4.025
0.5625 0.125 3.9625
0.5625 0.0625 3.9625
0.75 0 3.9625
0.6875 0 4.025
0.75 0.0625 4.025
0.75 0.125 3.9625
0.6875 0.125 4.025
0.6875 0 3.9625
0.75 0.0625 3.9625
0.6875 0.0625 4.025
0.6875 0.125 3.9625
0.6875 0.0625 3.9625
0.875 0 3.9625
0.8125 0 4.025
0.875 0.0625 4.025
0.875 0.125 3.9625
0.8125 0.125 4.025
0.8125 0 3.9625
0.875 0.0625 3.9625
0.8125 0.0625 4.025
0.8125 0.125 3.9625
0.8125 0.0625 3.9625
1 0 3.9625
0.9375 0 4.025
1 0.0625 4.025
1 0.125 3.9625
0.9375 0.125 4.025
0.9375 0 3.9625
1 0.0625 3.9625
0.9375 0.0625 4.025
0.9375 0.125 3.9625
0.9375 0.0625 3.9625
1.125 0 3.9625
1.0625 0 4.025
1.125 0.0625 4.025
1.125 0.125 3.9625
1.0625 0.125 4.025
1.0625 0 3.9625
1.125 0.0625 3.9625
1.0625 0.0625 4.025
1.0625 0.125 3.9625
1.0625 0.0625 3.9625
1.25 0 3.9625
1.1875 0 4.025
1.25 0.0625 4.025
1.25 0.125 3.9625
1.1875 0.125 4.025
1.1875 0 3.9625
1.25 0.0625 3.9625
1.1875 0.0625 4.025
1.1875 0.125 3.9625
1.1875 0.0625 3.9625
1.375 0 3.9625
1.3125 0 4.025
1.375 0.0625 4.025
1.375 0.125 3.9625
1.3125 0.125 4.025
1.3125 0 3.9625
1.375 0.0625 3.9625
1.3125 0.0625 4.025
1.3125 0.125 3.9625
1.3125 0.0625 3.9625
1.5 0 3.9625
1.4375 0 4.025
1.5 0.0625 4.025
1.5 0.125 3.9625
1.4375 0.125 4.025
1.4375 0 3.9625
1.5 0.0625 3.9625
1.4375 0.0625 4.025
1.4375 0.125 3.9625
1.4375 0.0625 3.9625
1.625 0 3.9625
1.5625 0 4.025
1.625 0.0625 4.025
1.625 0.125 3.9625
1.5625 0.125 4.025
1.5625 0 3.9625
1.625 0.0625 3.9625
1.5625 0.0625 4.025
1.5625 0.125 3.9625
1.5625 0.0625 3.9625
1.75 0 3.9625
1.6875 0 4.025
1.75 0.0625 4.025
1.75 0.125 3.9625
1.6875 0.125 4.025
1.6875 0 3.9625
1.75 0.0625 3.9625
1.6875 0.0625 4.025
1.6875 0.125 3.9625
1.6875 0.0625 3.9625
1.875 0 3.9625
1.8125 0 4.025
1.875 0.0625 4.025
1.875 0.125 3.9625
1.8125 0.125 4.025
1.8125 0 3.9625
1.875 0.0625 3.9625
1.8125 0.0625 4.025
1.8125 0.125 3.9625
1.8125 0.0625 3.9625
2 0 3.9625
1.9375 0 4.025
2 0.0625 4.025
2 0.125 3.9625
1.9375 0.125 4.025
1.9375 0 3.9625
2 0.0625 3.9625
1.9375 0.0625 4.025
1.9375 0.125 3.9625
1.9375 0.0625 3.9625
2.125 0 3.9625
2.0625 0 4.025
2.125 0.0625 4.025
2.125 0.125 3.9625
2.0625 0.125 4.025
2.0625 0 3.9625
2.125 0.0625 3.9625
2.0625 0.0625 4.025
2.0625 0.125 3.9625
2.0625 0.0625 3.9625
2.25 0 3.9625
2.1875 0 4.025
2.25 0.0625 4.025
2.25 0.125 3.9625
2.1875 0.125 4.025
2.1875 0 3.9625
2.25 0.0625 3.9625
2.1875 0.0625 4.025
2.1875 0.125 3.9625
2.1875 0.0625 3.9625
2.375 0 3.9625
2.3125 0 4.025
2.375 0.0625 4.025
2.375 0.125 3.9625
2.3125 0.125 4.025
2.3125 0 3.9625
2.375 0.0625 3.9625
2.3125 0.0625 4.025
2.3125 0.125 3.9625
2.3125 0.0625 3.9625
2.5 0 3.9625
2.4375 0 4.025
2.5 0.0625 4.025
2.5 0.125 3.9625
2.4375 0.125 4.025
2.4375 0 3.9625
2.5 0.0625 3.9625
2.4375 0.0625 4.025
2.4375 0.125 3.9625
2.4375 0.0625 3.9625
2.625 0 3.9625
2.5625 0 4.025
2.625 0.0625 4.025
2.625 0.125 3.9625
2.5625 0.125 4.025
2.5625 0 3.9625
2.625 0.0625 3.9625
2.5625 0.0625 4.025
2.5625 0.125 3.9625
2.5625 0.0625 3.9625
2.75 0 3.9625
2.6875 0 4.025
2.75 0.0625 4.025
2.75 0.125 3.9625
2.6875 0.125 4.025
2.6875 0 3.9625
2.75 0.0625 3.9625
2.6875 0.0625 4.025
2.6875 0.125 3.9625
2.6875 0.0625 3.9625
2.875 0 3.9625
2.8125 0 4.025
2.875 0.0625 4.025
2.875 0.125 3.9625
2.8125 0.125 4.025
2.8125 0 3.9625
2.875 0.0625 3.9625
2.8125 0.0625 4.025
2.8125 0.125 3.9625
2.8125 0.0625 3.9625
3 0 3.9625
2.9375 0 4.025
3 0.0625 4.025
3 0.125 3.9625
2.9375 0.125 4.025
2.9375 0 3.9625
3 0.0625 3.9625
2.9375 0.0625 4.025
2.9375 0.125 3.9625
2.9375 0.0625 3.9625
3.125 0 3.9625
3.0625 0 4.025
3.125 0.0625 4.025
3.125 0.125 3.9625
3.0625 0.125 4.025
3.0625 0 3.9625
3.125 0.0625 3.9625
3.0625 0.0625 4.025
3.0625 0.125 3.9625
3.0625 0.0625 3.9625
3.25 0 3.9625
3.1875 0 4.025
3.25 0.0625 4.025
3.25 0.125 3.9625
3.1875 0.125 4.025
3.1875 0 3.9625
3.25 0.0625 3.9625
3.1875 0.0625 4.025
3.1875 0.125 3.9625
3.1875 0.0625 3.9625
3.375 0 3.9625
3.3125 0 4.025
3.375 0.0625 4.025
3.375 0.125 3.9625
3.3125 0.125 4.025
3.3125 0 3.9625
3.375 0.0625 3.9625
3.3125 0.0625 4.025
3.3125 0.125 3.9625
3.3125 0.0625 3.9625
3.5 0 3.9625
3.4375 0 4.025
3.5 0.0625 4.025
3.5 0.125 3.9625
3.4375 0.125 4.025
3.4375 0 3.9625
3.5 0.0625 3.9625
3.4375 0.0625 4.025
3.4375 0.125 3.9625
3.4375 0.0625 3.9625
3.625 0 3.9625
3.5625 0 4.025
3.625 0.0625 4.025
3.625 0.125 3.9625
3.5625 0.125 4.025
3.5625 0 3.9625
3.625 0.0625 3.9625
3.5625 0.0625 4.025
3.5625 0.125 3.9625
3.5625 0.0625 3.9625
3.75 0 3.9625
3.6875 0 4.025
3.75 0.0625 4.025
3.75 0.125 3.9625
3.6875 0.125 4.025
3.6875 0 3.9625
3.75 0.0625 3.9625
3.6875 0.0625 4.025
3.6875 0.125 3.9625
3.6875 0.0625 3.9625
3.875 0 3.9625
3.8125 0 4.025
3.875 0.0625 4.025
3.875 0.125 3.9625
3.8125 0.125 4.025
3.8125 0 3.9625
3.875 0.0625 3.9625
3.8125 0.0625 4.025
3.8125 0.125 3.9625
3.8125 0.0625 3.9625
4 0 3.9625
3.9375 0 4.025
4 0.0625 4.025
4 0.125 3.9625
3.9375 0.125 4.025
3.9375 0 3.9625
4 0.0625 3.9625
3.9375 0.0625 4.025
3.9375 0.125 3.9625
3.9375 0.0625 3.9625
0.125 0.1875 4.025
0 0.1875 4.025
0.125 0.25 3.9625
0.0625 0.25 4.025
0 0.25 3.9625
0.125 0.1875 3.9625
0.0625 0.1875 4.025
0 0.1875 3.9625
0.0625 0.25 3.9625
0.0625 0.1875 3.9625
0.25 0.1875 4.025
0.25 0.25 3.9625
0.1875 0.25 4.025
0.25 0.1875 3.9625
0.1875 0.1875 4.025
0.1875 0.25 3.9625
0.1875 0.1875 3.9625
0.375 0.1875 4.025
0.375 0.25 3.9625
0.3125 0.25 4.025
0.375 0.1875 3.9625
0.3125 0.1875 4.025
0.3125 0.25 3.9625
0.3125 0.1875 3.9625
0.5 0.1875 4.025
0.5 0.25 3.9625
0.4375 0.25 4.025
0.5 0.1875 3.9625
0.4375 0.1875 4.025
0.4375 0.25 3.9625
0.4375 0.1875 3.9625
0.625 0.1875 4.025
0.625 0.25 3.9625
0.5625 0.25 4.025
0.625 0.1875 3.9625
0.5625 0.1875 4.025
0.5625 0.25 3.9625
0.5625 0.1875 3.9625
0.75 0.1875 4.025
0.75 0.25 3.9625
0.6875 0.25 4.025
0.75 0.1875 3.9625
0.6875 0.1875 4.025
0.6875 0.25 3.9625
0.6875 0.1875 3.9625
0.875 0.1875 4.025
0.875 0.25 3.9625
0.8125 0.25 4.025
0.875 0.1875 3.9625
0.8125 0.1875 4.025
0.8125 0.25 3.9625
0.8125 0.1875 3.9625
1 0.1875 4.025
1 0.25 3.9625
0.9375 0.25 4.025
1 0.1875 3.9625
0.9375 0.1875 4.025
0.9375 0.25 3.9625
0.9375 0.1875 3.9625
1.125 0.1875 4.025
1.125 0.25 3.9625
1.0625 0.25 4.025
1.125 0.1875 3.9625
1.0625 0.1875 4.025
1.0625 0.25 3.9625
1.0625 0.1875 3.9625
1.25 0.1875 4.025
1.25 0.25 3.9625
1.1875 0.25 4.025
1.25 0.1875 3.9625
1.1875 0.1875 4.025
1.1875 0.25 3.9625
1.1875 0.1875 3.9625
1.375 0.1875 4.025
1.375 0.25 3.9625
1.3125 0.25 4.025
1.375 0.1875 3.9625
1.3125 0.1875 4.025
1.3125 0.25 3.9625
1.3125 0.1875 3.9625
1.5 0.1875 4.025
1.5 0.25 3.9625
1.4375 0.25 4.025
1.5 0.1875 3.9625
1.4375 0.1875 4.025
1.4375 0.25 3.9625
1.4375 0.1875 3.9625
1.625 0.1875 4.025
1.625 0.25 3.9625
1.5625 0.25 4.025
1.625 0.1875 3.9625
1.5625 0.1875 4.025
1.5625 0.25 3.9625
1.5625 0.1875 3.9625
1.75 0.1875 4.025
1.75 0.25 3.9625
1.6875 0.25 4.025
1.75 0.1875 3.9625
1.6875 0.1875 4.025
1.6875 0.25 3.9625
1.6875 0.1875 3.9625
1.875 0.1875 4.025
1.875 0.25 3.9625
1.8125 0.25 4.025
1.875 0.1875 3.9625
1.8125 0.1875 4.025
1.8125 0.25 3.9625
1.8125 0.1875 3.9625
2 0.1875 4.025
2 0.25 3.9625
1.9375 0.25 4.025
2 0.1875 3.9625
1.9375 0.1875 4.025
1.9375 0.25 3.9625
1.9375 0.1875 3.9625
2.125 0.1875 4.025
2.125 0.25 3.9625
2.0625 0.25 4.025
2.125 0.1875 3.9625
2.0625 0.1875 4.025
2.0625 0.25 3.9625
2.0625 0.1875 3.9625
2.25 0.1875 4.025
2.25 0.25 3.9625
2.1875 0.25 4.025
2.25 0.1875 3.9625
2.1875 0.1875 4.025
2.1875 0.25 3.9625
2.1875 0.1875 3.9625
2.375 0.1875 4.025
2.375 0.25 3.9625
2.3125 0.25 4.025
2.375 0.1875 3.9625
2.3125 0.1875 4.025
2.3125 0.25 3.9625
2.3125 0.1875 3.9625
2.5 0.1875 4.025
2.5 0.25 3.9625
2.4375 0.25 4.025
2.5 0.1875 3.9625
2.4375 0.1875 4.025
2.4375 0.25 3.9625
2.4375 0.1875 3.9625
2.625 0.1875 4.025
2.625 0.25 3.9625
2.5625 0.25 4.025
2.625 0.1875 3.9625
2.5625 0.1875 4.025
2.5625 0.25 3.9625
2.5625 0.1875 3.9625
2.75 0.1875 4.025
2.75 0.25 3.9625
2.6875 0.25 4.025
2.75 0.1875 3.9625
2.6875 0.1875 4.025
2.6875 0.25 3.9625
2.6875 0.1875 3.9625
2.875 0.1875 4.025
2.875 0.25 3.9625
2.8125 0.25 4.025
2.875 0.1875 3.9625
2.8125 0.1875 4.025
2.8125 0.25 3.9625
2.8125 0.1875 3.9625
3 0.1875 4.025
3 0.25 3.9625
2.9375 0.25 4.025
3 0.1875 3.9625
2.9375 0.1875 4.025
2.9375 0.25 3.9625
2.9375 0.1875 3.9625
3.125 0.1875 4.025
3.125 0.25 3.9625
3.0625 0.25 4.025
3.125 0.1875 3.9625
3.0625 0.1875 4.025
3.0625 0.25 3.9625
3.0625 0.1875 3.9625
3.25 0.1875 4.025
3.25 0.25 3.9625
3.1875 0.25 4.025
3.25 0.1875 3.9625
3.1875 0.1875 4.025
3.1875 0.25 3.9625
3.1875 0.1875 3.9625
3.375 0.1875 4.025
3.375 0.25 3.9625
3.3125 0.25 4.025
3.375 0.1875 3.9625
3.3125 0.1875 4.025
3.3125 0.25 3.9625
3.3125 0.1875 3.9625
3.5 0.1875 4.025
3.5 0.25 3.9625
3.4375 0.25 4.025
3.5 0.1875 3.9625
3.4375 0.1875 4.025
3.4375 0.25 3.9625
3.4375 0.1875 3.9625
3.625 0.1875 4.025
3.625 0.25 3.9625
3.5625 0.25 4.025
3.625 0.1875 3.9625
3.5625 0.1875 4.025
3.5625 0.25 3.9625
3.5625 0.1875 3.9625
3.75 0.1875 4.025
3.75 0.25 3.9625
3.6875 0.25 4.025
3.75 0.1875 3.9625
3.6875 0.1875 4.025
3.6875 0.25 3.9625
3.6875 0.1875 3.9625
3.875 0.1875 4.025
3.875 0.25 3.9625
3.8125 0.25 4.025
3.875 0.1875 3.9625
3.8125 0.1875 4.025
3.8125 0.25 3.9625
3.8125 0.1875 3.9625
4 0.1875 4.025
4 0.25 3.9625
3.9375 0.25 4.025
4 0.1875 3.9625
3.9375 0.1875 4.025
3.9375 0.25 3.9625
3.9375 0.1875 3.9625
0.125 0.3125 4.025
0 0.3125 4.025
0.125 0.375 3.9625
0.0625 0.375 4.025
0 0.375 3.9625
0.125 0.3125 3.9625
0.0625 0.3125 4.025
0 0.3125 3.9625
0.0625 0.375 3.9625
0.0625 0.3125 3.9625
0.25 0.3125 4.025
0.25 0.375 3.9625
0.1875 0.375 4.025
0.25 0.3125 3.9625
0.1875 0.3125 4.025
0.1875 0.375 3.9625
0.1875 0.3125 3.9625
0.375 0.3125 4.025
0.375 0.375 3.9625
0.3125 0.375 4.025
0.375 0.3125 3.9625
0.3125 0.3125 4.025
0.3125 0.375 3.9625
0.3125 0.3125 3.9625
0.5 0.3125 4.025
0.5 0.375 3.9625
0.4375 0.375 4.025
0.5 0.3125 3.9625
0.4375 0.3125 4.025
0.4375 0.375 3.9625
0.4375 0.3125 3.9625
0.625 0.3125 4.025
0.625 0.375 3.9625
0.5625 0.375 4.025
0.625 0.3125 3.9625
0.5625 0.3125 4.025
0.5625 0.375 3.9625
0.5625 0.3125 3.9625
0.75 0.3125 4.025
0.75 0.375 3.9625
0.6875 0.375 4.025
0.75 0.3125 3.9625
0.6875 0.3125 4.025
0.6875 0.375 3.9625
0.6875 0.3125 3.9625
0.875 0.3125 4.025
0.875 0.375 3.9625
0.8125 0.375 4.025
0.875 0.3125 3.9625
0.8125 0.3125 4.025
0.8125 0.375 3.9625
0.8125 0.3125 3.9625
1 0.3125 4.025
1 0.375 3.9625
0.9375 0.375 4.025
1 0.3125 3.9625
0.9375 0.3125 4.025
0.9375 0.375 3.9625
0.9375 0.3125 3.9625
1.125 0.3125 4.025
1.125 0.375 3.9625
1.0625 0.375 4.025
1.125 0.3125 3.9625
1.0625 0.3125 4.025
1.0625 0.375 3.9625
1.0625 0.3125 3.9625
1.25 0.3125 4.025
1.25 0.375 3.9625
1.1875 0.375 4.025
1.25 0.3125 3.9625
1.1875 0.3125 4.025
1.1875 0.375 3.9625
1.1875 0.3125 3.9625
1.375 0.3125 4.025
1.375 0.375 3.9625
1.3125 0.375 4.025
1.375 0.3125 3.9625
1.3125 0.3125 4.025
1.3125 0.375 3.9625
1.3125 0.3125 3.9625
1.5 0.3125 4.025
1.5 0.375 3.9625
1.4375 0.375 4.025
1.5 0.3125 3.9625
1.4375 0.3125 4.025
1.4375 0.375 3.9625
1.4375 0.3125 3.9625
1.625 0.3125 4.025
1.625 0.375 3.9625
1.5625 0.375 4.025
1.625 0.3125 3.9625
1.5625 0.3125 4.025
1.5625 0.375 3.9625
1.5625 0.3125 3.9625
1.75 0.3125 4.025
1.75 0.375 3.9625
1.6875 0.375 4.025
1.75 0.3125 3.9625
1.6875 0.3125 4.025
1.6875 0.375 3.9625
1.6875 0.3125 3.9625
1.875 0.3125 4.025
1.875 0.375 3.9625
1.8125 0.375 4.025
1.875 0.3125 3.9625
1.8125 0.3125 4.025
1.8125 0.375 3.9625
1.8125 0.3125 3.9625
2 0.3125 4.025
2 0.375 3.9625
1.9375 0.375 4.025
2 0.3125 3.9625
1.9375 0.3125 4.025
1.9375 0.375 3.9625
1.9375 0.3125 3.9625
2.125 0.3125 4.025
2.125 0.375 3.9625
2.0625 0.375 4.025
2.125 0.3125 3.9625
2.0625 0.3125 4.025
2.0625 0.375 3.9625
2.0625 0.3125 3.9625
2.25 0.3125 4.025
2.25 0.375 3.9625
2.1875 0.375 4.025
2.25 0.3125 3.9625
2.1875 0.3125 4.025
2.1875 0.375 3.9625
2.1875 0.3125 3.9625
2.375 0.3125 4.025
2.375 0.375 3.9625
2.3125 0.375 4.025
2.375 0.3125 3.9625
2.3125 0.3125 4.025
2.3125 0.375 3.9625
2.3125 0.3125 3.9625
2.5 0.3125 4.025
2.5 0.375 3.9625
2.4375 0.375 4.025
2.5 0.3125 3.9625
2.4375 0.3125 4.025
2.4375 0.375 3.9625
2.4375 0.3125 3.9625
2.625 0.3125 4.025
2.625 0.375 3.9625
2.5625 0.375 4.025
2.625 0.3125 3.9625
2.5625 0.3125 4.025
2.5625 0.375 3.9625
2.5625 0.3125 3.9625
2.75 0.3125 4.025
2.75 0.375 3.9625
2.6875 0.375 4.025
2.75 0.3125 3.9625
2.6875 0.3125 4.025
2.6875 0.375 3.9625
2.6875 0.3125 3.9625
2.875 0.3125 4.025
2.875 0.375 3.9625
2.8125 0.375 4.025
2.875 0.3125 3.9625
2.8125 0.3125 4.025
2.8125 0.375 3.9625
2.8125 0.3125 3.9625
3 0.3125 4.025
3 0.375 3.9625
2.9375 0.375 4.025
3 0.3125 3.9625
2.9375 0.3125 4.025
2.9375 0.375 3.9625
2.9375 0.3125 3.9625
3.125 0.3125 4.025
3.125 0.375 3.9625
3.0625 0.375 4.025
3.125 0.3125 3.9625
3.0625 0.3125 4.025
3.0625 0.375 3.9625
3.0625 0.3125 3.9625
3.25 0.3125 4.025
3.25 0.375 3.9625
3.1875 0.375 4.025
3.25 0.3125 3.9625
3.1875 0.3125 4.025
3.1875 0.375 3.9625
3.1875 0.3125 3.9625
3.375 0.3125 4.025
3.375 0.375 3.9625
3.3125 0.375 4.025
3.375 0.3125 3.9625
3.3125 0.3125 4.025
3.3125 0.375 3.9625
3.3125 0.3125 3.9625
3.5 0.3125 4.025
3.5 0.375 3.9625
3.4375 0.375 4.025
3.5 0.3125 3.9625
3.4375 0.3125 4.025
3.4375 0.375 3.9625
3.4375 0.3125 3.9625
3.625 0.3125 4.025
3.625 0.375 3.9625
3.5625 0.375 4.025
3.625 0.3125 3.9625
3.5625 0.3125 4.025
3.5625 0.375 3.9625
3.5625 0.3125 3.9625
3.75 0.3125 4.025
3.75 0.375 3.9625
3.6875 0.375 4.025
3.75 0.3125 3.9625
3.6875 0.3125 4.025
3.6875 0.375 3.9625
3.6875 0.3125 3.9625
3.875 0.3125 4.025
3.875 0.375 3.9625
3.8125 0.375 4.025
3.875 0.3125 3.9625
3.8125 0.3125 4.025
3.8125 0.375 3.9625
3.8125 0.3125 3.9625
4 0.3125 4.025
4 0.375 3.9625
3.9375 0.375 4.025
4 0.3125 3.9625
3.9375 0.3125 4.025
3.9375 0.375 3.9625
3.9375 0.3125 3.9625
0.125 0.4375 4.025
0 0.4375 4.025
0.125 0.5 3.9625
0.0625 0.5 4.025
0 0.5 3.9625
0.125 0.4375 3.9625
0.0625 0.4375 4.025
0 0.4375 3.9625
0.0625 0.5 3.9625
0.0625 0.4375 3.9625
0.25 0.4375 4.025
0.25 0.5 3.9625
0.1875 0.5 4.025
0.25 0.4375 3.9625
0.1875 0.4375 4.025
0.1875 0.5 3.9625
0.1875 0.4375 3.9625
0.375 0.4375 4.025
0.375 0.5 3.9625
0.3125 0.5 4.025
0.375 0.4375 3.9625
0.3125 0.4375 4.025
0.3125 0.5 3.9625
0.3125 0.4375 3.9625
0.5 0.4375 4.025
0.5 0.5 3.9625
0.4375 0.5 4.025
0.5 0.4375 3.9625
0.4375 0.4375 4.025
0.4375 0.5 3.9625
0.4375 0.4375 3.9625
0.625 0.4375 4.025
0.625 0.5 3.9625
0.5625 0.5 4.025
0.625 0.4375 3.9625
0.5625 0.4375 4.025
0.5625 0.5 3.9625
0.5625 0.4375 3.9625
0.75 0.4375 4.025
0.75 0.5 3.9625
0.6875 0.5 4.025
0.75 0.4375 3.9625
0.6875 0.4375 4.025
0.6875 0.5 3.9625
0.6875 0.4375 3.9625
0.875 0.4375 4.025
0.875 0.5 3.9625
0.8125 0.5 4.025
0.875 0.4375 3.9625
0.8125 0.4375 4.025
0.8125 0.5 3.9625
0.8125 0.4375 3.9625
1 0.4375 4.025
1 0.5 3.9625
0.9375 0.5 4.025
1 0.4375 3.9625
0.9375 0.4375 4.025
0.9375 0.5 3.9625
0.9375 0.4375 3.9625
1.125 0.4375 4.025
1.125 0.5 3.9625
1.0625 0.5 4.025
1.125 0.4375 3.9625
1.0625 0.4375 4.025
1.0625 0.5 3.9625
1.0625 0.4375 3.9625
1.25 0.4375 4.025
1.25 0.5 3.9625
1.1875 0.5 4.025
1.25 0.4375 3.9625
1.1875 0.4375 4.025
1.1875 0.5 3.9625
1.1875 0.4375 3.9625
1.375 0.4375 4.025
1.375 0.5 3.9625
1.3125 0.5 4.025
1.375 0.4375 3.9625
1.3125 0.4375 4.025
1.3125 0.5 3.9625
1.3125 0.4375 3.9625
1.5 0.4375 4.025
1.5 0.5 3.9625
1.4375 0.5 4.025
1.5 0.4375 3.9625
1.4375 0.4375 4.025
1.4375 0.5 3.9625
1.4375 0.4375 3.9625
1.625 0.4375 4.025
1.625 0.5 3.9625
1.5625 0.5 4.025
1.625 0.4375 3.9625
1.5625 0.4375 4.025
1.5625 0.5 3.9625
1.5625 0.4375 3.9625
1.75 0.4375 4.025
1.75 0.5 3.9625
1.6875 0.5 4.025
1.75 0.4375 3.9625
1.6875 0.4375 4.025
1.6875 0.5 3.9625
1.6875 0.4375 3.9625
1.875 0.4375 4.025
1.875 0.5 3.9625
1.8125 0.5 4.025
1.875 0.4375 3.9625
1.8125 0.4375 4.025
1.8125 0.5 3.9625
1.8125 0.4375 3.9625
2 0.4375 4.025
2 0.5 3.9625
1.9375 0.5 4.025
2 0.4375 3.9625
1.9375 0.4375 4.025
1.9375 0.5 3.9625
1.9375 0.4375 3.9625
2.125 0.4375 4.025
2.125 0.5 3.9625
2.0625 0.5 4.025
2.125 0.4375 3.9625
2.0625 0.4375 4.025
2.0625 0.5 3.9625
2.0625 0.4375 3.9625
2.25 0.4375 4.025
2.25 0.5 3.9625
2.1875 0.5 4.025
2.25 0.4375 3.9625
2.1875 0.4375 4.025
2.1875 0.5 3.9625
2.1875 0.4375 3.9625
2.375 0.4375 4.025
2.375 0.5 3.9625
2.3125 0.5 4.025
2.375 0.4375 3.9625
2.3125 0.4375 4.025
2.3125 0.5 3.9625
2.3125 0.4375 3.9625
2.5 0.4375 4.025
2.5 0.5 3.9625
2.4375 0.5 4.025
2.5 0.4375 3.9625
2.4375 0.4375 4.025
2.4375 0.5 3.9625
2.4375 0.4375 3.9625
2.625 0.4375 4.025
2.625 0.5 3.9625
2.5625 0.5 4.025
2.625 0.4375 3.9625
2.5625 0.4375 4.025
2.5625 0.5 3.9625
2.5625 0.4375 3.9625
2.75 0.4375 4.025
2.75 0.5 3.9625
2.6875 0.5 4.025
2.75 0.4375 3.9625
2.6875 0.4375 4.025
2.6875 0.5 3.9625
2.6875 0.4375 3.9625
2.875 0.4375 4.025
2.875 0.5 3.9625
2.8125 0.5 4.025
2.875 0.4375 3.9625
2.8125 0.4375 4.025
2.8125 0.5 3.9625
2.8125 0.4375 3.9625
3 0.4375 4.025
3 0.5 3.9625
2.9375 0.5 4.025
3 0.4375 3.9625
2.9375 0.4375 4.025
2.9375 0.5 3.9625
2.9375 0.4375 3.9625
3.125 0.4375 4.025
3.125 0.5 3.9625
3.0625 0.5 4.025
3.125 0.4375 3.9625
3.0625 0.4375 4.025
3.0625 0.5 3.9625
3.0625 0.4375 3.9625
3.25 0.4375 4.025
3.25 0.5 3.9625
3.1875 0.5 4.025
3.25 0.4375 3.9625
3.1875 0.4375 4.025
3.1875 0.5 3.9625
3.1875 0.4375 3.9625
3.375 0.4375 4.025
3.375 0.5 3.9625
3.3125 0.5 4.025
3.375 0.4375 3.9625
3.3125 0.4375 4.025
3.3125 0.5 3.9625
3.3125 0.4375 3.9625
3.5 0.4375 4.025
3.5 0.5 3.9625
3.4375 0.5 4.025
3.5 0.4375 3.9625
3.4375 0.4375 4.025
3.4375 0.5 3.9625
3.4375 0.4375 3.9625
3.625 0.4375 4.025
3.625 0.5 3.9625
3.5625 0.5 4.025
3.625 0.4375 3.9625
3.5625 0.4375 4.025
3.5625 0.5 3.9625
3.5625 0.4375 3.9625
3.75 0.4375 4.025
3.75 0.5 3.9625
3.6875 0.5 4.025
3.75 0.4375 3.9625
3.6875 0.4375 4.025
3.6875 0.5 3.9625
3.6875 0.4375 3.9625
3.875 0.4375 4.025
3.875 0.5 3.9625
3.8125 0.5 4.025
3.875 0.4375 3.9625
3.8125 0.4375 4.025
3.8125 0.5 3.9625
3.8125 0.4375 3.9625
4 0.4375 4.025
4 0.5 3.9625
3.9375 0.5 4.025
4 0.4375 3.9625
3.9375 0.4375 4.025
3.9375 0.5 3.9625
3.9375 0.4375 3.9625
0.125 0.5625 4.025
0 0.5625 4.025
0.125 0.625 3.9625
0.0625 0.625 4.025
0 0.625 3.9625
0.125 0.5625 3.9625
0.0625 0.5625 4.025
0 0.5625 3.9625
0.0625 0.625 3.9625
0.0625 0.5625 3.9625
0.25 0.5625 4.025
0.25 0.625 3.9625
0.1875 0.625 4.025
0.25 0.5625 3.9625
0.1875 0.5625 4.025
0.1875 0.625 3.9625
0.1875 0.5625 3.9625
0.375 0.5625 4.025
0.375 0.625 3.9625
0.3125 0.625 4.025
0.375 0.5625 3.9625
0.3125 0.5625 4.025
0.3125 0.625 3.9625
0.3125 0.5625 3.9625
0.5 0.5625 4.025
0.5 0.625 3.9625
0.4375 0.625 4.025
0.5 0.5625 3.9625
0.4375 0.5625 4.025
0.4375 0.625 3.9625
0.4375 0.5625 3.9625
0.625 0.5625 4.025
0.625 0.625 3.9625
0.5625 0.625 4.025
0.625 0.5625 3.9625
0.5625 0.5625 4.025
0.5625 0.625 3.9625
0.5625 0.5625 3.9625
0.75 0.5625 4.025
0.75 0.625 3.9625
0.6875 0.625 4.025
0.75 0.5625 3.9625
0.6875 0.5625 4.025
0.6875 0.625 3.9625
0.6875 0.5625 3.9625
0.875 0.5625 4.025
0.875 0.625 3.9625
0.8125 0.625 4.025
0.875 0.5625 3.9625
0.8125 0.5625 4.025
0.8125 0.625 3.9625
0.8125 0.5625 3.9625
1 0.5625 4.025
1 0.625 3.9625
0.9375 0.625 4.025
1 0.5625 3.9625
0.9375 0.5625 4.025
0.9375 0.625 3.9625
0.9375 0.5625 3.9625
1.125 0.5625 4.025
1.125 0.625 3.9625
1.0625 0.625 4.025
1.125 0.5625 3.9625
1.0625 0.5625 4.025
1.0625 0.625 3.9625
1.0625 0.5625 3.9625
1.25 0.5625 4.025
1.25 0.625 3.9625
1.1875 0.625 4.025
1.25 0.5625 3.9625
1.1875 0.5625 4.025
1.1875 0.625 3.9625
1.1875 0.5625 3.9625
1.375 0.5625 4.025
1.375 0.625 3.9625
1.3125 0.625 4.025
1.375 0.5625 3.9625
1.3125 0.5625 4.025
1.3125 0.625 3.9625
1.3125 0.5625 3.9625
1.5 0.5625 4.025
1.5 0.625 3.9625
1.4375 0.625 4.025
1.5 0.5625 3.9625
1.4375 0.5625 4.025
1.4375 0.625 3.9625
1.4375 0.5625 3.9625
1.625 0.5625 4.025
1.625 0.625 3.9625
1.5625 0.625 4.025
1.625 0.5625 3.9625
1.5625 0.5625 4.025
1.5625 0.625 3.9625
1.5625 0.5625 3.9625
1.75 0.5625 4.025
1.75 0.625 3.9625
1.6875 0.625 4.025
1.75 0.5625 3.9625
1.6875 0.5625 4.025
1.6875 0.625 3.9625
1.6875 0.5625 3.9625
1.875 0.5625 4.025
1.875 0.625 3.9625
1.8125 0.625 4.025
1.875 0.5625 3.9625
1.8125 0.5625 4.025
1.8125 0.625 3.9625
1.8125 0.5625 3.9625
2 0.5625 4.025
2 0.625 3.9625
1.9375 0.625 4.025
2 0.5625 3.9625
1.9375 0.5625 4.025
1.9375 0.625 3.9625
1.9375 0.5625 3.9625
2.125 0.5625 4.025
2.125 0.625 3.9625
2.0625 0.625 4.025
2.125 0.5625 3.9625
2.0625 0.5625 4.025
2.0625 0.625 3.9625
2.0625 0.5625 3.9625
2.25 0.5625 4.025
2.25 0.625 3.9625
2.1875 0.625 4.025
2.25 0.5625 3.9625
2.1875 0.5625 4.025
2.1875 0.625 3.9625
2.1875 0.5625 3.9625
2.375 0.5625 4.025
2.375 0.625 3.9625
2.3125 0.625 4.025
2.375 0.5625 3.9625
2.3125 0.5625 4.025
2.3125 0.625 3.9625
2.3125 0.5625 3.9625
2.5 0.5625 4.025
2.5 0.625 3.9625
2.4375 0.625 4.025
2.5 0.5625 3.9625
2.4375 0.5625 4.025
2.4375 0.625 3.9625
2.4375 0.5625 3.9625
2.625 0.5625 4.025
2.625 0.625 3.9625
2.5625 0.625 4.025
2.625 0.5625 3.9625
2.5625 0.5625 4.025
2.5625 0.625 3.9625
2.5625 0.5625 3.9625
2.75 0.5625 4.025
2.75 0.625 3.9625
2.6875 0.625 4.025
2.75 0.5625 3.9625
2.6875 0.5625 4.025
2.6875 0.625 3.9625
2.6875 0.5625 3.9625
2.875 0.5625 4.025
2.875 0.625 3.9625
2.8125 0.625 4.025
2.875 0.5625 3.9625
2.8125 0.5625 4.025
2.8125 0.625 3.9625
2.8125 0.5625 3.9625
3 0.5625 4.025
3 0.625 3.9625
2.9375 0.625 4.025
3 0.5625 3.9625
2.9375 0.5625 4.025
2.9375 0.625 3.9625
2.9375 0.5625 3.9625
3.125 0.5625 4.025
3.125 0.625 3.9625
3.0625 0.625 4.025
3.125 0.5625 3.9625
3.0625 0.5625 4.025
3.0625 0.625 3.9625
3.0625 0.5625 3.9625
3.25 0.5625 4.025
3.25 0.625 3.9625
3.1875 0.625 4.025
3.25 0.5625 3.9625
3.1875 0.5625 4.025
3.1875 0.625 3.9625
3.1875 0.5625 3.9625
3.375 0.5625 4.025
3.375 0.625 3.9625
3.3125 0.625 4.025
3.375 0.5625 3.9625
3.3125 0.5625 4.025
3.3125 0.625 3.9625
3.3125 0.5625 3.9625
3.5 0.5625 4.025
3.5 0.625 3.9625
3.4375 0.625 4.025
3.5 0.5625 3.9625
3.4375 0.5625 4.025
3.4375 0.625 3.9625
3.4375 0.5625 3.9625
3.625 0.5625 4.025
3.625 0.625 3.9625
3.5625 0.625 4.025
3.625 0.5625 3.9625
3.5625 0.5625 4.025
3.5625 0.625 3.9625
3.5625 0.5625 3.9625
3.75 0.5625 4.025
3.75 0.625 3.9625
3.6875 0.625 4.025
3.75 0.5625 3.9625
3.6875 0.5625 4.025
3.6875 0.625 3.9625
3.6875 0.5625 3.9625
3.875 0.5625 4.025
3.875 0.625 3.9625
3.8125 0.625 4.025
3.875 0.5625 3.9625
3.8125 0.5625 4.025
3.8125 0.625 3.9625
3.8125 0.5625 3.9625
4 0.5625 4.025
4 0.625 3.9625
3.9375 0.625 4.025
4 0.5625 3.9625
3.9375 0.5625 4.025
3.9375 0.625 3.9625
3.9375 0.5625 3.9625
0.125 0.6875 4.025
0 0.6875 4.025
0.125 0.75 3.9625
0.0625 0.75 4.025
0 0.75 3.9625
0.125 0.6875 3.9625
0.0625 0.6875 4.025
0 0.6875 3.9625
0.0625 0.75 3.9625
0.0625 0.6875 3.9625
0.25 0.6875 4.025
0.25 0.75 3.9625
0.1875 0.75 4.025
0.25 0.6875 3.9625
0.1875 0.6875 4.025
0.1875 0.75 3.9625
0.1875 0.6875 3.9625
0.375 0.6875 4.025
0.375 0.75 3.9625
0.3125 0.75 4.025
0.375 0.6875 3.9625
0.3125 0.6875 4.025
0.3125 0.75 3.9625
0.3125 0.6875 3.9625
0.5 0.6875 4.025
0.5 0.75 3.9625
0.4375 0.75 4.025
0.5 0.6875 3.9625
0.4375 0.6875 4.025
0.4375 0.75 3.9625
0.4375 0.6875 3.9625
0.625 0.6875 4.025
0.625 0.75 3.9625
0.5625 0.75 4.025
0.625 0.6875 3.9625
0.5625 0.6875 4.025
0.5625 0.75 3.9625
0.5625 0.6875 3.9625
0.75 0.6875 4.025
0.75 0.75 3.9625
0.6875 0.75 4.025
0.75 0.6875 3.9625
0.6875 0.6875 4.025
0.6875 0.75 3.9625
0.6875 0.6875 3.9625
0.875 0.6875 4.025
0.875 0.75 3.9625
0.8125 0.75 4.025
0.875 0.6875 3.9625
0.8125 0.6875 4.025
0.8125 0.75 3.9625
0.8125 0.6875 3.9625
1 0.6875 4.025
1 0.75 3.9625
0.9375 0.75 4.025
1 0.6875 3.9625
0.9375 0.6875 4.025
0.9375 0.75 3.9625
0.9375 0.6875 3.9625
1.125 0.6875 4.025
1.125 0.75 3.9625
1.0625 0.75 4.025
1.125 0.6875 3.9625
1.0625 0.6875 4.025
1.0625 0.75 3.9625
1.0625 0.6875 3.9625
1.25 0.6875 4.025
1.25 0.75 3.9625
1.1875 0.75 4.025
1.25 0.6875 3.9625
1.1875 0.6875 4.025
1.1875 0.75 3.9625
1.1875 0.6875 3.9625
1.375 0.6875 4.025
1.375 0.75 3.9625
1.3125 0.75 4.025
1.375 0.6875 3.9625
1.3125 0.6875 4.025
1.3125 0.75 3.9625
1.3125 0.6875 3.9625
1.5 0.6875 4.025
1.5 0.75 3.9625
1.4375 0.75 4.025
1.5 0.6875 3.9625
1.4375 0.6875 4.025
1.4375 0.75 3.9625
1.4375 0.6875 3.9625
1.625 0.6875 4.025
1.625 0.75 3.9625
1.5625 0.75 4.025
1.625 0.6875 3.9625
1.5625 0.6875 4.025
1.5625 0.75 3.9625
1.5625 0.6875 3.9625
1.75 0.6875 4.025
1.75 0.75 3.9625
1.6875 0.75 4.025
1.75 0.6875 3.9625
1.6875 0.6875 4.025
1.6875 0.75 3.9625
1.6875 0.6875 3.9625
1.875 0.6875 4.025
1.875 0.75 3.9625
1.8125 0.75 4.025
1.875 0.6875 3.9625
1.8125 0.6875 4.025
1.8125 0.75 3.9625
1.8125 0.6875 3.9625
2 0.6875 4.025
2 0.75 3.9625
1.9375 0.75 4.025
2 0.6875 3.9625
1.9375 0.6875 4.025
1.9375 0.75 3.9625
1.9375 0.6875 3.9625
2.125 0.6875 4.025
2.125 0.75 3.9625
2.0625 0.75 4.025
2.125 0.6875 3.9625
2.0625 0.6875 4.025
2.0625 0.75 3.9625
2.0625 0.6875 3.9625
2.25 0.6875 4.025
2.25 0.75 3.9625
2.1875 0.75 4.025
2.25 0.6875 3.9625
2.1875 0.6875 4.025
2.1875 0.75 3.9625
2.1875 0.6875 3.9625
2.375 0.6875 4.025
2.375 0.75 3.9625
2.3125 0.75 4.025
2.375 0.6875 3.9625
2.3125 0.6875 4.025
2.3125 0.75 3.9625
2.3125 0.6875 3.9625
2.5 0.6875 4.025
2.5 0.75 3.9625
2.4375 0.75 4.025
2.5 0.6875 3.9625
2.4375 0.6875 4.025
2.4375 0.75 3.9625
2.4375 0.6875 3.9625
2.625 0.6875 4.025
2.625 0.75 3.9625
2.5625 0.75 4.025
2.625 0.6875 3.9625
2.5625 0.6875 4.025
2.5625 0.75 3.9625
2.5625 0.6875 3.9625
2.75 0.6875 4.025
2.75 0.75 3.9625
2.6875 0.75 4.025
2.75 0.6875 3.9625
2.6875 0.6875 4.025
2.6875 0.75 3.9625
2.6875 0.6875 3.9625
2.875 0.6875 4.025
2.875 0.75 3.9625
2.8125 0.75 4.025
2.875 0.6875 3.9625
2.8125 0.6875 4.025
2.8125 0.75 3.9625
2.8125 0.6875 3.9625
3 0.6875 4.025
3 0.75 3.9625
2.9375 0.75 4.025
3 0.6875 3.9625
2.9375 0.6875 4.025
2.9375 0.75 3.9625
2.9375 0.6875 3.9625
3.125 0.6875 4.025
3.125 0.75 3.9625
3.0625 0.75 4.025
3.125 0.6875 3.9625
3.0625 0.6875 4.025
3.0625 0.75 3.9625
3.0625 0.6875 3.9625
3.25 0.6875 4.025
3.25 0.75 3.9625
3.1875 0.75 4.025
3.25 0.6875 3.9625
3.1875 0.6875 4.025
3.1875 0.75 3.9625
3.1875 0.6875 3.9625
3.375 0.6875 4.025
3.375 0.75 3.9625
3.3125 0.75 4.025
3.375 0.6875 3.9625
3.3125 0.6875 4.025
3.3125 0.75 3.9625
3.3125 0.6875 3.9625
3.5 0.6875 4.025
3.5 0.75 3.9625
3.4375 0.75 4.025
3.5 0.6875 3.9625
3.4375 0.6875 4.025
3.4375 0.75 3.9625
3.4375 0.6875 3.9625
3.625 0.6875 4.025
3.625 0.75 3.9625
3.5625 0.75 4.025
3.625 0.6875 3.9625
3.5625 0.6875 4.025
3.5625 0.75 3.9625
3.5625 0.6875 3.9625
3.75 0.6875 4.025
3.75 0.75 3.9625
3.6875 0.75 4.025
3.75 0.6875 3.9625
3.6875 0.6875 4.025
3.6875 0.75 3.9625
3.6875 0.6875 3.9625
3.875 0.6875 4.025
3.875 0.75 3.9625
3.8125 0.75 4.025
3.875 0.6875 3.9625
3.8125 0.6875 4.025
3.8125 0.75 3.9625
3.8125 0.6875 3.9625
4 0.6875 4.025
4 0.75 3.9625
3.9375 0.75 4.025
4 0.6875 3.9625
3.9375 0.6875 4.025
3.9375 0.75 3.9625
3.9375 0.6875 3.9625
0.125 0.8125 4.025
0 0.8125 4.025
0.125 0.875 3.9625
0.0625 0.875 4.025
0 0.875 3.9625
0.125 0.8125 3.9625
0.0625 0.8125 4.025
0 0.8125 3.9625
0.0625 0.875 3.9625
0.0625 0.8125 3.9625
0.25 0.8125 4.025
0.25 0.875 3.9625
0.1875 0.875 4.025
0.25 0.8125 3.9625
0.1875 0.8125 4.025
0.1875 0.875 3.9625
0.1875 0.8125 3.9625
0.375 0.8125 4.025
0.375 0.875 3.9625
0.3125 0.875 4.025
0.375 0.8125 3.9625
0.3125 0.8125 4.025
0.3125 0.875 3.9625
0.3125 0.8125 3.9625
0.5 0.8125 4.025
0.5 0.875 3.9625
0.4375 0.875 4.025
0.5 0.8125 3.9625
0.4375 0.8125 4.025
0.4375 0.875 3.9625
0.4375 0.8125 3.9625
0.625 0.8125 4.025
0.625 0.875 3.9625
0.5625 0.875 4.025
0.625 0.8125 3.9625
0.5625 0.8125 4.025
0.5625 0.875 3.9625
0.5625 0.8125 3.9625
0.75 0.8125 4.025
0.75 0.875 3.9625
0.6875 0.875 4.025
0.75 0.8125 3.9625
0.6875 0.8125 4.025
0.6875 0.875 3.9625
0.6875 0.8125 3.9625
0.875 0.8125 4.025
0.875 0.875 3.9625
0.8125 0.875 4.025
0.875 0.8125 3.9625
0.8125 0.8125 4.025
0.8125 0.875 3.9625
0.8125 0.8125 3.9625
1 0.8125 4.025
1 0.875 3.9625
0.9375 0.875 4.025
1 0.8125 3.9625
0.9375 0.8125 4.025
0.9375 0.875 3.9625
0.9375 0.8125 3.9625
1.125 0.8125 4.025
1.125 0.875 3.9625
1.0625 0.875 4.025
1.125 0.8125 3.9625
1.0625 0.8125 4.025
1.0625 0.875 3.9625
1.0625 0.8125 3.9625
1.25 0.8125 4.025
1.25 0.875 3.9625
1.1875 0.875 4.025
1.25 0.8125 3.9625
1.1875 0.8125 4.025
1.1875 0.875 3.9625
1.1875 0.8125 3.9625
1.375 0.8125 4.025
1.375 0.875 3.9625
1.3125 0.875 4.025
1.375 0.8125 3.9625
1.3125 0.8125 4.025
1.3125 0.875 3.9625
1.3125 0.8125 3.9625
1.5 0.8125 4.025
1.5 0.875 3.9625
1.4375 0.875 4.025
1.5 0.8125 3.9625
1.4375 0.8125 4.025
1.4375 0.875 3.9625
1.4375 0.8125 3.9625
1.625 0.8125 4.025
1.625 0.875 3.9625
1.5625 0.875 4.025
1.625 0.8125 3.9625
1.5625 0.8125 4.025
1.5625 0.875 3.9625
1.5625 0.8125 3.9625
1.75 0.8125 4.025
1.75 0.875 3.9625
1.6875 0.875 4.025
1.75 0.8125 3.9625
1.6875 0.8125 4.025
1.6875 0.875 3.9625
1.6875 0.8125 3.9625
1.875 0.8125 4.025
1.875 0.875 3.9625
1.8125 0.875 4.025
1.875 0.8125 3.9625
1.8125 0.8125 4.025
1.8125 0.875 3.9625
1.8125 0.8125 3.9625
2 0.8125 4.025
2 0.875 3.9625
1.9375 0.875 4.025
2 0.8125 3.9625
1.9375 0.8125 4.025
1.9375 0.875 3.9625
1.9375 0.8125 3.9625
2.125 0.8125 4.025
2.125 0.875 3.9625
2.0625 0.875 4.025
2.125 0.8125 3.9625
2.0625 0.8125 4.025
2.0625 0.875 3.9625
2.0625 0.8125 3.9625
2.25 0.8125 4.025
2.25 0.875 3.9625
2.1875 0.875 4.025
2.25 0.8125 3.9625
2.1875 0.8125 4.025
2.1875 0.875 3.9625
2.1875 0.8125 3.9625
2.375 0.8125 4.025
2.375 0.875 3.9625
2.3125 0.875 4.025
2.375 0.8125 3.9625
2.3125 0.8125 4.025
2.3125 0.875 3.9625
2.3125 0.8125 3.9625
2.5 0.8125 4.025
2.5 0.875 3.9625
2.4375 0.875 4.025
2.5 0.8125 3.9625
2.4375 0.8125 4.025
2.4375 0.875 3.9625
2.4375 0.8125 3.9625
2.625 0.8125 4.025
2.625 0.875 3.9625
2.5625 0.875 4.025
2.625 0.8125 3.9625
2.5625 0.8125 4.025
2.5625 0.875 3.9625
2.5625 0.8125 3.9625
2.75 0.8125 4.025
2.75 0.875 3.9625
2.6875 0.875 4.025
2.75 0.8125 3.9625
2.6875 0.8125 4.025
2.6875 0.875 3.9625
2.6875 0.8125 3.9625
2.875 0.8125 4.025
2.875 0.875 3.9625
2.8125 0.875 4.025
2.875 0.8125 3.9625
2.8125 0.8125 4.025
2.8125 0.875 3.9625
2.8125 0.8125 3.9625
3 0.8125 4.025
3 0.875 3.9625
2.9375 0.875 4.025
3 0.8125 3.9625
2.9375 0.8125 4.025
2.9375 0.875 3.9625
2.9375 0.8125 3.9625
3.125 0.8125 4.025
3.125 0.875 3.9625
3.0625 0.875 4.025
3.125 0.8125 3.9625
3.0625 0.8125 4.025
3.0625 0.875 3.9625
3.0625 0.8125 3.9625
3.25 0.8125 4.025
3.25 0.875 3.9625
3.1875 0.875 4.025
3.25 0.8125 3.9625
3.1875 0.8125 4.025
3.1875 0.875 3.9625
3.1875 0.8125 3.9625
3.375 0.8125 4.025
3.375 0.875 3.9625
3.3125 0.875 4.025
3.375 0.8125 3.9625
3.3125 0.8125 4.025
3.3125 0.875 3.9625
3.3125 0.8125 3.9625
3.5 0.8125 4.025
3.5 0.875 3.9625
3.4375 0.875 4.025
3.5 0.8125 3.9625
3.4375 0.8125 4.025
3.4375 0.875 3.9625
3.4375 0.8125 3.9625
3.625 0.8125 4.025
3.625 0.875 3.9625
3.5625 0.875 4.025
3.625 0.8125 3.9625
3.5625 0.8125 4.025
3.5625 0.875 3.9625
3.5625 0.8125 3.9625
3.75 0.8125 4.025
3.75 0.875 3.9625
3.6875 0.875 4.025
3.75 0.8125 3.9625
3.6875 0.8125 4.025
3.6875 0.875 3.9625
3.6875 0.8125 3.9625
3.875 0.8125 4.025
3.875 0.875 3.9625
3.8125 0.875 4.025
3.875 0.8125 3.9625
3.8125 0.8125 4.025
3.8125 0.875 3.9625
3.8125 0.8125 3.9625
4 0.8125 4.025
4 0.875 3.9625
3.9375 0.875 4.025
4 0.8125 3.9625
3.9375 0.8125 4.025
3.9375 0.875 3.9625
3.9375 0.8125 3.9625
0.125 0.9375 4.025
0 0.9375 4.025
0.125 1 3.9625
0.0625 1 4.025
0 1 3.9625
0.125 0.9375 3.9625
0.0625 0.9375 4.025
0 0.9375 3.9625
0.0625 1 3.9625
0.0625 0.9375 3.9625
0.25 0.9375 4.025
0.25 1 3.9625
0.1875 1 4.025
0.25 0.9375 3.9625
0.1875 0.9375 4.025
0.1875 1 3.9625
0.1875 0.9375 3.9625
0.375 0.9375 4.025
0.375 1 3.9625
0.3125 1 4.025
0.375 0.9375 3.9625
0.3125 0.9375 4.025
0.3125 1 3.9625
0.3125 0.9375 3.9625
0.5 0.9375 4.025
0.5 1 3.9625
0.4375 1 4.025
0.5 0.9375 3.9625
0.4375 0.9375 4.025
0.4375 1 3.9625
0.4375 0.9375 3.9625
0.625 0.9375 4.025
0.625 1 3.9625
0.5625 1 4.025
0.625 0.9375 3.9625
0.5625 0.9375 4.025
0.5625 1 3.9625
0.5625 0.9375 3.9625
0.75 0.9375 4.025
0.75 1 3.9625
0.6875 1 4.025
0.75 0.9375 3.9625
0.6875 0.9375 4.025
0.6875 1 3.9625
0.6875 0.9375 3.9625
0.875 0.9375 4.025
0.875 1 3.9625
0.8125 1 4.025
0.875 0.9375 3.9625
0.8125 0.9375 4.025
0.8125 1 3.9625
0.8125 0.9375 3.9625
1 0.9375 4.025
1 1 3.9625
0.9375 1 4.025
1 0.9375 3.9625
0.9375 0.9375 4.025
0.9375 1 3.9625
0.9375 0.9375 3.9625
1.125 0.9375 4.025
1.125 1 3.9625
1.0625 1 4.025
1.125 0.9375 3.9625
1.0625 0.9375 4.025
1.0625 1 3.9625
1.0625 0.9375 3.9625
1.25 0.9375 4.025
1.25 1 3.9625
1.1875 1 4.025
1.25 0.9375 3.9625
1.1875 0.9375 4.025
1.1875 1 3.9625
1.1875 0.9375 3.9625
1.375 0.9375 4.025
1.375 1 3.9625
1.3125 1 4.025
1.375 0.9375 3.9625
1.3125 0.9375 4.025
1.3125 1 3.9625
1.3125 0.9375 3.9625
1.5 0.9375 4.025
1.5 1 3.9625
1.4375 1 4.025
1.5 0.9375 3.9625
1.4375 0.9375 4.025
1.4375 1 3.9625
1.4375 0.9375 3.9625
1.625 0.9375 4.025
1.625 1 3.9625
1.5625 1 4.025
1.625 0.9375 3.9625
1.5625 0.9375 4.025
1.5625 1 3.9625
1.5625 0.9375 3.9625
1.75 0.9375 4.025
1.75 1 3.9625
1.6875 1 4.025
1.75 0.9375 3.9625
1.6875 0.9375 4.025
1.6875 1 3.9625
1.6875 0.9375 3.9625
1.875 0.9375 4.025
1.875 1 3.9625
1.8125 1 4.025
1.875 0.9375 3.9625
1.8125 0.9375 4.025
1.8125 1 3.9625
1.8125 0.9375 3.9625
2 0.9375 4.025
2 1 3.9625
1.9375 1 4.025
2 0.9375 3.9625
1.9375 0.9375 4.025
1.9375 1 3.9625
1.9375 0.9375 3.9625
2.125 0.9375 4.025
2.125 1 3.9625
2.0625 1 4.025
2.125 0.9375 3.9625
2.0625 0.9375 4.025
2.0625 1 3.9625
2.0625 0.9375 3.9625
2.25 0.9375 4.025
2.25 1 3.9625
2.1875 1 4.025
2.25 0.9375 3.9625
2.1875 0.9375 4.025
2.1875 1 3.9625
2.1875 0.9375 3.9625
2.375 0.9375 4.025
2.375 1 3.9625
2.3125 1 4.025
2.375 0.9375 3.9625
2.3125 0.9375 4.025
2.3125 1 3.9625
2.3125 0.9375 3.9625
2.5 0.9375 4.025
2.5 1 3.9625
2.4375 1 4.025
2.5 0.9375 3.9625
2.4375 0.9375 4.025
2.4375 1 3.9625
2.4375 0.9375 3.9625
2.625 0.9375 4.025
2.625 1 3.9625
2.5625 1 4.025
2.625 0.9375 3.9625
2.5625 0.9375 4.025
2.5625 1 3.9625
2.5625 0.9375 3.9625
2.75 0.9375 4.025
2.75 1 3.9625
2.6875 1 4.025
2.75 0.9375 3.9625
2.6875 0.9375 4.025
2.6875 1 3.9625
2.6875 0.9375 3.9625
2.875 0.9375 4.025
2.875 1 3.9625
2.8125 1 4.025
2.875 0.9375 3.9625
2.8125 0.9375 4.025
2.8125 1 3.9625
2.8125 0.9375 3.9625
3 0.9375 4.025
3 1 3.9625
2.9375 1 4.025
3 0.9375 3.9625
2.9375 0.9375 4.025
2.9375 1 3.9625
2.9375 0.9375 3.9625
3.125 0.9375 4.025
3.125 1 3.9625
3.0625 1 4.025
3.125 0.9375 3.9625
3.0625 0.9375 4.025
3.0625 1 3.9625
3.0625 0.9375 3.9625
3.25 0.9375 4.025
3.25 1 3.9625
3.1875 1 4.025
3.25 0.9375 3.9625
3.1875 0.9375 4.025
3.1875 1 3.9625
3.1875 0.9375 3.9625
3.375 0.9375 4.025
3.375 1 3.9625
3.3125 1 4.025
3.375 0.9375 3.9625
3.3125 0.9375 4.025
3.3125 1 3.9625
3.3125 0.9375 3.9625
3.5 0.9375 4.025
3.5 1 3.9625
3.4375 1 4.025
3.5 0.9375 3.9625
3.4375 0.9375 4.025
3.4375 1 3.9625
3.4375 0.9375 3.9625
3.625 0.9375 4.025
3.625 1 3.9625
3.5625 1 4.025
3.625 0.9375 3.9625
3.5625 0.9375 4.025
3.5625 1 3.9625
3.5625 0.9375 3.9625
3.75 0.9375 4.025
3.75 1 3.9625
3.6875 1 4.025
3.75 0.9375 3.9625
3.6875 0.9375 4.025
3.6875 1 3.9625
3.6875 0.9375 3.9625
3.875 0.9375 4.025
3.875 1 3.9625
3.8125 1 4.025
3.875 0.9375 3.9625
3.8125 0.9375 4.025
3.8125 1 3.9625
3.8125 0.9375 3.9625
4 0.9375 4.025
4 1 3.9625
3.9375 1 4.025
4 0.9375 3.9625
3.9375 0.9375 4.025
3.9375 1 3.9625
3.9375 0.9375 3.9625
0.125 0 4.0875
0.0625 0 4.15
0 0 4.0875
0.125 0.0625 4.15
0 0.0625 4.15
0.125 0.125 4.0875
0.0625 0.125 4.15
0 0.125 4.0875
0.0625 0 4.0875
0.125 0.0625 4.0875
0.0625 0.0625 4.15
0 0.0625 4.0875
0.0625 0.125 4.0875
0.0625 0.0625 4.0875
0.25 0 4.0875
0.1875 0 4.15
0.25 0.0625 4.15
0.25 0.125 4.0875
0.1875 0.125 4.15
0.1875 0 4.0875
0.25 0.0625 4.0875
0.1875 0.0625 4.15
0.1875 0.125 4.0875
0.1875 0.0625 4.0875
0.375 0 4.0875
0.3125 0 4.15
0.375 0.0625 4.15
0.375 0.125 4.0875
0.3125 0.125 4.15
0.3125 0 4.0875
0.375 0.0625 4.0875
0.3125 0.0625 4.15
0.3125 0.125 4.0875
0.3125 0.0625 4.0875
0.5 0 4.0875
0.4375 0 4.15
0.5 0.0625 4.15
0.5 0.125 4.0875
0.4375 0.125 4.15
0.4375 0 4.0875
0.5 0.0625 4.0875
0.4375 0.0625 4.15
0.4375 0.125 4.0875
0.4375 0.0625 4.0875
0.625 0 4.0875
0.5625 0 4.15
0.625 0.0625 4.15
0.625 0.125 4.0875
0.5625 0.125 4.15
0.5625 0 4.0875
0.625 0.0625 4.0875
0.5625 0.0625 4.15
0.5625 0.125 4.0875
0.5625 0.0625 4.0875
0.75 0 4.0875
0.6875 0 4.15
0.75 0.0625 4.15
0.75 0.125 4.0875
0.6875 0.125 4.15
0.6875 0 4.0875
0.75 0.0625 4.0875
0.6875 0.0625 4.15
0.6875 0.125 4.0875
0.6875 0.0625 4.0875
0.875 0 4.0875
0.8125 0 4.15
0.875 0.0625 4.15
0.875 0.125 4.0875
0.8125 0.125 4.15
0.8125 0 4.0875
0.875 0.0625 4.0875
0.8125 0.0625 4.15
0.8125 0.125 4.0875
0.8125 0.0625 4.0875
1 0 4.0875
0.9375 0 4.15
1 0.0625 4.15
1 0.125 4.0875
0.9375 0.125 4.15
0.9375 0 4.0875
1 0.0625 4.0875
0.9375 0.0625 4.15
0.9375 0.125 4.0875
0.9375 0.0625 4.0875
1.125 0 4.0875
1.0625 0 4.15
1.125 0.0625 4.15
1.125 0.125 4.0875
1.0625 0.125 4.15
1.0625 0 4.0875
1.125 0.0625 4.0875
1.0625 0.0625 4.15
1.0625 0.125 4.0875
1.0625 0.0625 4.0875
1.25 0 4.0875
1.1875 0 4.15
1.25 0.0625 4.15
1.25 0.125 4.0875
1.1875 0.125 4.15
1.1875 0 4.0875
1.25 0.0625 4.0875
1.1875 0.0625 4.15
1.1875 0.125 4.0875
1.1875 0.0625 4.0875
1.375 0 4.0875
1.3125 0 4.15
1.375 0.0625 4.15
1.375 0.125 4.0875
1.3125 0.125 4.15
1.3125 0 4.0875
1.375 0.0625 4.0875
1.3125 0.0625 4.15
1.3125 0.125 4.0875
1.3125 0.0625 4.0875
1.5 0 4.0875
1.4375 0 4.15
1.5 0.0625 4.15
1.5 0.125 4.0875
1.4375 0.125 4.15
1.4375 0 4.0875
1.5 0.0625 4.0875
1.4375 0.0625 4.15
1.4375 0.125 4.0875
1.4375 0.0625 4.0875
1.625 0 4.0875
1.5625 0 4.15
1.625 0.0625 4.15
1.625 0.125 4.0875
1.5625 0.125 4.15
1.5625 0 4.0875
1.625 0.0625 4.0875
1.5625 0.0625 4.15
1.5625 0.125 4.0875
1.5625 0.0625 4.0875
1.75 0 4.0875
1.6875 0 4.15
1.75 0.0625 4.15
1.75 0.125 4.0875
1.6875 0.125 4.15
1.6875 0 4.0875
1.75 0.0625 4.0875
1.6875 0.0625 4.15
1.6875 0.125 4.0875
1.6875 0.0625 4.0875
1.875 0 4.0875
1.8125 0 4.15
1.875 0.0625 4.15
1.875 0.125 4.0875
1.8125 0.125 4.15
1.8125 0 4.0875
1.875 0.0625 4.0875
1.8125 0.0625 4.15
1.8125 0.125 4.0875
1.8125 0.0625 4.0875
2 0 4.0875
1.9375 0 4.15
2 0.0625 4.15
2 0.125 4.0875
1.9375 0.125 4.15
1.9375 0 4.0875
2 0.0625 4.0875
1.9375 0.0625 4.15
1.9375 0.125 4.0875
1.9375 0.0625 4.0875
2.125 0 4.0875
2.0625 0 4.15
2.125 0.0625 4.15
2.125 0.125 4.0875
2.0625 0.125 4.15
2.0625 0 4.0875
2.125 0.0625 4.0875
2.0625 0.0625 4.15
2.0625 0.125 4.0875
2.0625 0.0625 4.0875
2.25 0 4.0875
2.1875 0 4.15
2.25 0.0625 4.15
2.25 0.125 4.0875
2.1875 0.125 4.15
2.1875 0 4.0875
2.25 0.0625 4.0875
2.1875 0.0625 4.15
2.1875 0.125 4.0875
2.1875 0.0625 4.0875
2.375 0 4.0875
2.3125 0 4.15
2.375 0.0625 4.15
2.375 0.125 4.0875
2.3125 0.125 4.15
2.3125 0 4.0875
2.375 0.0625 4.0875
2.3125 0.0625 4.15
2.3125 0.125 4.0875
2.3125 0.0625 4.0875
2.5 0 4.0875
2.4375 0 4.15
2.5 0.0625 4.15
2.5 0.125 4.0875
2.4375 0.125 4.15
2.4375 0 4.0875
2.5 0.0625 4.0875
2.4375 0.0625 4.15
2.4375 0.125 4.0875
2.4375 0.0625 4.0875
2.625 0 4.0875
2.5625 0 4.15
2.625 0.0625 4.15
2.625 0.125 4.0875
2.5625 0.125 4.15
2.5625 0 4.0875
2.625 0.0625 4.0875
2.5625 0.0625 4.15
2.5625 0.125 4.0875
2.5625 0.0625 4.0875
2.75 0 4.0875
2.6875 0 4.15
2.75 0.0625 4.15
2.75 0.125 4.0875
2.6875 0.125 4.15
2.6875 0 4.0875
2.75 0.0625 4.0875
2.6875 0.0625 4.15
2.6875 0.125 4.0875
2.6875 0.0625 4.0875
2.875 0 4.0875
2.8125 0 4.15
2.875 0.0625 4.15
2.875 0.125 4.0875
2.8125 0.125 4.15
2.8125 0 4.0875
2.875 0.0625 4.0875
2.8125 0.0625 4.15
2.8125 0.125 4.0875
2.8125 0.0625 4.0875
3 0 4.0875
2.9375 0 4.15
3 0.0625 4.15
3 0.125 4.0875
2.9375 0.125 4.15
2.9375 0 4.0875
3 0.0625 4.0875
2.9375 0.0625 4.15
2.9375 0.125 4.0875
2.9375 0.0625 4.0875
3.125 0 4.0875
3.0625 0 4.15
3.125 0.0625 4.15
3.125 0.125 4.0875
3.0625 0.125 4.15
3.0625 0 4.0875
3.125 0.0625 4.0875
3.0625 0.0625 4.15
3.0625 0.125 4.0875
3.0625 0.0625 4.0875
3.25 0 4.0875
3.1875 0 4.15
3.25 0.0625 4.15
3.25 0.125 4.0875
3.1875 0.125 4.15
3.1875 0 4.0875
3.25 0.0625 4.0875
3.1875 0.0625 4.15
3.1875 0.125 4.0875
3.1875 0.0625 4.0875
3.375 0 4.0875
3.3125 0 4.15
3.375 0.0625 4.15
3.375 0.125 4.0875
3.3125 0.125 4.15
3.3125 0 4.0875
3.375 0.0625 4.0875
3.3125 0.0625 4.15
3.3125 0.125 4.0875
3.3125 0.0625 4.0875
3.5 0 4.0875
3.4375 0 4.15
3.5 0.0625 4.15
3.5 0.125 4.0875
3.4375 0.125 4.15
3.4375 0 4.0875
3.5 0.0625 4.0875
3.4375 0.0625 4.15
3.4375 0.125 4.0875
3.4375 0.0625 4.0875
3.625 0 4.0875
3.5625 0 4.15
3.625 0.0625 4.15
3.625 0.125 4.0875
3.5625 0.125 4.15
3.5625 0 4.0875
3.625 0.0625 4.0875
3.5625 0.0625 4.15
3.5625 0.125 4.0875
3.5625 0.0625 4.0875
3.75 0 4.0875
3.6875 0 4.15
3.75 0.0625 4.15
3.75 0.125 4.0875
3.6875 0.125 4.15
3.6875 0 4.0875
3.75 0.0625 4.0875
3.6875 0.0625 4.15
3.6875 0.125 4.0875
3.6875 0.0625 4.0875
3.875 0 4.0875
3.8125 0 4.15
3.875 0.0625 4.15
3.875 0.125 4.0875
3.8125 0.125 4.15
3.8125 0 4.0875
3.875 0.0625 4.0875
3.8125 0.0625 4.15
3.8125 0.125 4.0875
3.8125 0.0625 4.0875
4 0 4.0875
3.9375 0 4.15
4 0.0625 4.15
4 0.125 4.0875
3.9375 0.125 4.15
3.9375 0 4.0875
4 0.0625 4.0875
3.9375 0.0625 4.15
3.9375 0.125 4.0875
3.9375 0.0625 4.0875
0.125 0.1875 4.15
0 0.1875 4.15
0.125 0.25 4.0875
0.0625 0.25 4.15
0 0.25 4.0875
0.125 0.1875 4.0875
0.0625 0.1875 4.15
0 0.1875 4.0875
0.0625 0.25 4.0875
0.0625 0.1875 4.0875
0.25 0.1875 4.15
0.25 0.25 4.0875
0.1875 0.25 4.15
0.25 0.1875 4.0875
0.1875 0.1875 4.15
0.1875 0.25 4.0875
0.1875 0.1875 4.0875
0.375 0.1875 4.15
0.375 0.25 4.0875
0.3125 0.25 4.15
0.375 0.1875 4.0875
0.3125 0.1875 4.15
0.3125 0.25 4.0875
0.3125 0.1875 4.0875
0.5 0.1875 4.15
0.5 0.25 4.0875
0.4375 0.25 4.15
0.5 0.1875 4.0875
0.4375 0.1875 4.15
0.4375 0.25 4.0875
0.4375 0.1875 4.0875
0.625 0.1875 4.15
0.625 0.25 4.0875
0.5625 0.25 4.15
0.625 0.1875 4.0875
0.5625 0.1875 4.15
0.5625 0.25 4.0875
0.5625 0.1875 4.0875
0.75 0.1875 4.15
0.75 0.25 4.0875
0.6875 0.25 4.15
0.75 0.1875 4.0875
0.6875 0.1875 4.15
0.6875 0.25 4.0875
0.6875 0.1875 4.0875
0.875 0.1875 4.15
0.875 0.25 4.0875
0.8125 0.25 4.15
0.875 0.1875 4.0875
0.8125 0.1875 4.15
0.8125 0.25 4.0875
0.8125 0.1875 4.0875
1 0.1875 4.15
1 0.25 4.0875
0.9375 0.25 4.15
1 0.1875 4.0875
0.9375 0.1875 4.15
0.9375 0.25 4.0875
0.9375 0.1875 4.0875
1.125 0.1875 4.15
1.125 0.25 4.0875
1.0625 0.25 4.15
1.125 0.1875 4.0875
1.0625 0.1875 4.15
1.0625 0.25 4.0875
1.0625 0.1875 4.0875
1.25 0.1875 4.15
1.25 0.25 4.0875
1.1875 0.25 4.15
1.25 0.1875 4.0875
1.1875 0.1875 4.15
1.1875 0.25 4.0875
1.1875 0.1875 4.0875
1.375 0.1875 4.15
1.375 0.25 4.0875
1.3125 0.25 4.15
1.375 0.1875 4.0875
1.3125 0.1875 4.15
1.3125 0.25 4.0875
1.3125 0.1875 4.0875
1.5 0.1875 4.15
1.5 0.25 4.0875
1.4375 0.25 4.15
1.5 0.1875 4.0875
1.4375 0.1875 4.15
1.4375 0.25 4.0875
1.4375 0.1875 4.0875
1.625 0.1875 4.15
1.625 0.25 4.0875
1.5625 0.25 4.15
1.625 0.1875 4.0875
1.5625 0.1875 4.15
1.5625 0.25 4.0875
1.5625 0.1875 4.0875
1.75 0.1875 4.15
1.75 0.25 4.0875
1.6875 0.25 4.15
1.75 0.1875 4.0875
1.6875 0.1875 4.15
1.6875 0.25 4.0875
1.6875 0.1875 4.0875
1.875 0.1875 4.15
1.875 0.25 4.0875
1.8125 0.25 4.15
1.875 0.1875 4.0875
1.8125 0.1875 4.15
1.8125 0.25 4.0875
1.8125 0.1875 4.0875
2 0.1875 4.15
2 0.25 4.0875
1.9375 0.25 4.15
2 0.1875 4.0875
1.9375 0.1875 4.15
1.9375 0.25 4.0875
1.9375 0.1875 4.0875
2.125 0.1875 4.15
2.125 0.25 4.0875
2.0625 0.25 4.15
2.125 0.1875 4.0875
2.0625 0.1875 4.15
2.0625 0.25 4.0875
2.0625 0.1875 4.0875
2.25 0.1875 4.15
2.25 0.25 4.0875
2.1875 0.25 4.15
2.25 0.1875 4.0875
2.1875 0.1875 4.15
2.1875 0.25 4.0875
2.1875 0.1875 4.0875
2.375 0.1875 4.15
2.375 0.25 4.0875
2.3125 0.25 4.15
2.375 0.1875 4.0875
2.3125 0.1875 4.15
2.3125 0.25 4.0875
2.3125 0.1875 4.0875
2.5 0.1875 4.15
2.5 0.25 4.0875
2.4375 0.25 4.15
2.5 0.1875 4.0875
2.4375 0.1875 4.15
2.4375 0.25 4.0875
2.4375 0.1875 4.0875
2.625 0.1875 4.15
2.625 0.25 4.0875
2.5625 0.25 4.15
2.625 0.1875 4.0875
2.5625 0.1875 4.15
2.5625 0.25 4.0875
2.5625 0.1875 4.0875
2.75 0.1875 4.15
2.75 0.25 4.0875
2.6875 0.25 4.15
2.75 0.1875 4.0875
2.6875 0.1875 4.15
2.6875 0.25 4.0875
2.6875 0.1875 4.0875
2.875 0.1875 4.15
2.875 0.25 4.0875
2.8125 0.25 4.15
2.875 0.1875 4.0875
2.8125 0.1875 4.15
2.8125 0.25 4.0875
2.8125 0.1875 4.0875
3 0.1875 4.15
3 0.25 4.0875
2.9375 0.25 4.15
3 0.1875 4.0875
2.9375 0.1875 4.15
2.9375 0.25 4.0875
2.9375 0.1875 4.0875
3.125 0.1875 4.15
3.125 0.25 4.0875
3.0625 0.25 4.15
3.125 0.1875 4.0875
3.0625 0.1875 4.15
3.0625 0.25 4.0875
3.0625 0.1875 4.0875
3.25 0.1875 4.15
3.25 0.25 4.0875
3.1875 0.25 4.15
3.25 0.1875 4.0875
3.1875 0.1875 4.15
3.1875 0.25 4.0875
3.1875 0.1875 4.0875
3.375 0.1875 4.15
3.375 0.25 4.0875
3.3125 0.25 4.15
3.375 0.1875 4.0875
3.3125 0.1875 4.15
3.3125 0.25 4.0875
3.3125 0.1875 4.0875
3.5 0.1875 4.15
3.5 0.25 4.0875
3.4375 0.25 4.15
3.5 0.1875 4.0875
3.4375 0.1875 4.15
3.4375 0.25 4.0875
3.4375 0.1875 4.0875
3.625 0.1875 4.15
3.625 0.25 4.0875
3.5625 0.25 4.15
3.625 0.1875 4.0875
3.5625 0.1875 4.15
3.5625 0.25 4.0875
3.5625 0.1875 4.0875
3.75 0.1875 4.15
3.75 0.25 4.0875
3.6875 0.25 4.15
3.75 0.1875 4.0875
3.6875 0.1875 4.15
3.6875 0.25 4.0875
3.6875 0.1875 4.0875
3.875 0.1875 4.15
3.875 0.25 4.0875
3.8125 0.25 4.15
3.875 0.1875 4.0875
3.8125 0.1875 4.15
3.8125 0.25 4.0875
3.8125 0.1875 4.0875
4 0.1875 4.15
4 0.25 4.0875
3.9375 0.25 4.15
4 0.1875 4.0875
3.9375 0.1875 4.15
3.9375 0.25 4.0875
3.9375 0.1875 4.0875
0.125 0.3125 4.15
0 0.3125 4.15
0.125 0.375 4.0875
0.0625 0.375 4.15
0 0.375 4.0875
0.125 0.3125 4.0875
0.0625 0.3125 4.15
0 0.3125 4.0875
0.0625 0.375 4.0875
0.0625 0.3125 4.0875
0.25 0.3125 4.15
0.25 0.375 4.0875
0.1875 0.375 4.15
0.25 0.3125 4.0875
0.1875 0.3125 4.15
0.1875 0.375 4.0875
0.1875 0.3125 4.0875
0.375 0.3125 4.15
0.375 0.375 4.0875
0.3125 0.375 4.15
0.375 0.3125 4.0875
0.3125 0.3125 4.15
0.3125 0.375 4.0875
0.3125 0.3125 4.0875
0.5 0.3125 4.15
0.5 0.375 4.0875
0.4375 0.375 4.15
0.5 0.3125 4.0875
0.4375 0.3125 4.15
0.4375 0.375 4.0875
0.4375 0.3125 4.0875
0.625 0.3125 4.15
0.625 0.375 4.0875
0.5625 0.375 4.15
0.625 0.3125 4.0875
0.5625 0.3125 4.15
0.5625 0.375 4.0875
0.5625 0.3125 4.0875
0.75 0.3125 4.15
0.75 0.375 4.0875
0.6875 0.375 4.15
0.75 0.3125 4.0875
0.6875 0.3125 4.15
0.6875 0.375 4.0875
0.6875 0.3125 4.0875
0.875 0.3125 4.15
0.875 0.375 4.0875
0.8125 0.375 4.15
0.875 0.3125 4.0875
0.8125 0.3125 4.15
0.8125 0.375 4.0875
0.8125 0.3125 4.0875
1 0.3125 4.15
1 0.375 4.0875
0.9375 0.375 4.15
1 0.3125 4.0875
0.9375 0.3125 4.15
0.9375 0.375 4.0875
0.9375 0.3125 4.0875
1.125 0.3125 4.15
1.125 0.375 4.0875
1.0625 0.375 4.15
1.125 0.3125 4.0875
1.0625 0.3125 4.15
1.0625 0.375 4.0875
1.0625 0.3125 4.0875
1.25 0.3125 4.15
1.25 0.375 4.0875
1.1875 0.375 4.15
1.25 0.3125 4.0875
1.1875 0.3125 4.15
1.1875 0.375 4.0875
1.1875 0.3125 4.0875
1.375 0.3125 4.15
1.375 0.375 4.0875
1.3125 0.375 4.15
1.375 0.3125 4.0875
1.3125 0.3125 4.15
1.3125 0.375 4.0875
1.3125 0.3125 4.0875
1.5 0.3125 4.15
1.5 0.375 4.0875
1.4375 0.375 4.15
1.5 0.3125 4.0875
1.4375 0.3125 4.15
1.4375 0.375 4.0875
1.4375 0.3125 4.0875
1.625 0.3125 4.15
1.625 0.375 4.0875
1.5625 0.375 4.15
1.625 0.3125 4.0875
1.5625 0.3125 4.15
1.5625 0.375 4.0875
1.5625 0.3125 4.0875
1.75 0.3125 4.15
1.75 0.375 4.0875
1.6875 0.375 4.15
1.75 0.3125 4.0875
1.6875 0.3125 4.15
1.6875 0.375 4.0875
1.6875 0.3125 4.0875
1.875 0.3125 4.15
1.875 0.375 4.0875
1.8125 0.375 4.15
1.875 0.3125 4.0875
1.8125 0.3125 4.15
1.8125 0.375 4.0875
1.8125 0.3125 4.0875
2 0.3125 4.15
2 0.375 4.0875
1.9375 0.375 4.15
2 0.3125 4.0875
1.9375 0.3125 4.15
1.9375 0.375 4.0875
1.9375 0.3125 4.0875
2.125 0.3125 4.15
2.125 0.375 4.0875
2.0625 0.375 4.15
2.125 0.3125 4.0875
2.0625 0.3125 4.15
2.0625 0.375 4.0875
2.0625 0.3125 4.0875
2.25 0.3125 4.15
2.25 0.375 4.0875
2.1875 0.375 4.15
2.25 0.3125 4.0875
2.1875 0.3125 4.15
2.1875 0.375 4.0875
2.1875 0.3125 4.0875
2.375 0.3125 4.15
2.375 0.375 4.0875
2.3125 0.375 4.15
2.375 0.3125 4.0875
2.3125 0.3125 4.15
2.3125 0.375 4.0875
2.3125 0.3125 4.0875
2.5 0.3125 4.15
2.5 0.375 4.0875
2.4375 0.375 4.15
2.5 0.3125 4.0875
2.4375 0.3125 4.15
2.4375 0.375 4.0875
2.4375 0.3125 4.0875
2.625 0.3125 4.15
2.625 0.375 4.0875
2.5625 0.375 4.15
2.625 0.3125 4.0875
2.5625 0.3125 4.15
2.5625 0.375 4.0875
2.5625 0.3125 4.0875
2.75 0.3125 4.15
2.75 0.375 4.0875
2.6875 0.375 4.15
2.75 0.3125 4.0875
2.6875 0.3125 4.15
2.6875 0.375 4.0875
2.6875 0.3125 4.0875
2.875 0.3125 4.15
2.875 0.375 4.0875
2.8125 0.375 4.15
2.875 0.3125 4.0875
2.8125 0.3125 4.15
2.8125 0.375 4.0875
2.8125 0.3125 4.0875
3 0.3125 4.15
3 0.375 4.0875
2.9375 0.375 4.15
3 0.3125 4.0875
2.9375 0.3125 4.15
2.9375 0.375 4.0875
2.9375 0.3125 4.0875
3.125 0.3125 4.15
3.125 0.375 4.0875
3.0625 0.375 4.15
3.125 0.3125 4.0875
3.0625 0.3125 4.15
3.0625 0.375 4.0875
3.0625 0.3125 4.0875
3.25 0.3125 4.15
3.25 0.375 4.0875
3.1875 0.375 4.15
3.25 0.3125 4.0875
3.1875 0.3125 4.15
3.1875 0.375 4.0875
3.1875 0.3125 4.0875
3.375 0.3125 4.15
3.375 0.375 4.0875
3.3125 0.375 4.15
3.375 0.3125 4.0875
3.3125 0.3125 4.15
3.3125 0.375 4.0875
3.3125 0.3125 4.0875
3.5 0.3125 4.15
3.5 0.375 4.0875
3.4375 0.375 4.15
3.5 0.3125 4.0875
3.4375 0.3125 4.15
3.4375 0.375 4.0875
3.4375 0.3125 4.0875
3.625 0.3125 4.15
3.625 0.375 4.0875
3.5625 0.375 4.15
3.625 0.3125 4.0875
3.5625 0.3125 4.15
3.5625 0.375 4.0875
3.5625 0.3125 4.0875
3.75 0.3125 4.15
3.75 0.375 4.0875
3.6875 0.375 4.15
3.75 0.3125 4.0875
3.6875 0.3125 4.15
3.6875 0.375 4.0875
3.6875 0.3125 4.0875
3.875 0.3125 4.15
3.875 0.375 4.0875
3.8125 0.375 4.15
3.875 0.3125 4.0875
3.8125 0.3125 4.15
3.8125 0.375 4.0875
3.8125 0.3125 4.0875
4 0.3125 4.15
4 0.375 4.0875
3.9375 0.375 4.15
4 0.3125 4.0875
3.9375 0.3125 4.15
3.9375 0.375 4.0875
3.9375 0.3125 4.0875
0.125 0.4375 4.15
0 0.4375 4.15
0.125 0.5 4.0875
0.0625 0.5 4.15
0 0.5 4.0875
0.125 0.4375 4.0875
0.0625 0.4375 4.15
0 0.4375 4.0875
0.0625 0.5 4.0875
0.0625 0.4375 4.0875
0.25 0.4375 4.15
0.25 0.5 4.0875
0.1875 0.5 4.15
0.25 0.4375 4.0875
0.1875 0.4375 4.15
0.1875 0.5 4.0875
0.1875 0.4375 4.0875
0.375 0.4375 4.15
0.375 0.5 4.0875
0.3125 0.5 4.15
0.375 0.4375 4.0875
0.3125 0.4375 4.15
0.3125 0.5 4.0875
0.3125 0.4375 4.0875
0.5 0.4375 4.15
0.5 0.5 4.0875
0.4375 0.5 4.15
0.5 0.4375 4.0875
0.4375 0.4375 4.15
0.4375 0.5 4.0875
0.4375 0.4375 4.0875
0.625 0.4375 4.15
0.625 0.5 4.0875
0.5625 0.5 4.15
0.625 0.4375 4.0875
0.5625 0.4375 4.15
0.5625 0.5 4.0875
0.5625 0.4375 4.0875
0.75 0.4375 4.15
0.75 0.5 4.0875
0.6875 0.5 4.15
0.75 0.4375 4.0875
0.6875 0.4375 4.15
0.6875 0.5 4.0875
0.6875 0.4375 4.0875
0.875 0.4375 4.15
0.875 0.5 4.0875
0.8125 0.5 4.15
0.875 0.4375 4.0875
0.8125 0.4375 4.15
0.8125 0.5 4.0875
0.8125 0.4375 4.0875
1 0.4375 4.15
1 0.5 4.0875
0.9375 0.5 4.15
1 0.4375 4.0875
0.9375 0.4375 4.15
0.9375 0.5 4.0875
0.9375 0.4375 4.0875
1.125 0.4375 4.15
1.125 0.5 4.0875
1.0625 0.5 4.15
1.125 0.4375 4.0875
1.0625 0.4375 4.15
1.0625 0.5 4.0875
1.0625 0.4375 4.0875
1.25 0.4375 4.15
1.25 0.5 4.0875
1.1875 0.5 4.15
1.25 0.4375 4.0875
1.1875 0.4375 4.15
1.1875 0.5 4.0875
1.1875 0.4375 4.0875
1.375 0.4375 4.15
1.375 0.5 4.0875
1.3125 0.5 4.15
1.375 0.4375 4.0875
1.3125 0.4375 4.15
1.3125 0.5 4.0875
1.3125 0.4375 4.0875
1.5 0.4375 4.15
1.5 0.5 4.0875
1.4375 0.5 4.15
1.5 0.4375 4.0875
1.4375 0.4375 4.15
1.4375 0.5 4.0875
1.4375 0.4375 4.0875
1.625 0.4375 4.15
1.625 0.5 4.0875
1.5625 0.5 4.15
1.625 0.4375 4.0875
1.5625 0.4375 4.15
1.5625 0.5 4.0875
1.5625 0.4375 4.0875
1.75 0.4375 4.15
1.75 0.5 4.0875
1.6875 0.5 4.15
1.75 0.4375 4.0875
1.6875 0.4375 4.15
1.6875 0.5 4.0875
1.6875 0.4375 4.0875
1.875 0.4375 4.15
1.875 0.5 4.0875
1.8125 0.5 4.15
1.875 0.4375 4.0875
1.8125 0.4375 4.15
1.8125 0.5 4.0875
1.8125 0.4375 4.0875
2 0.4375 4.15
2 0.5 4.0875
1.9375 0.5 4.15
2 0.4375 4.0875
1.9375 0.4375 4.15
1.9375 0.5 4.0875
1.9375 0.4375 4.0875
2.125 0.4375 4.15
2.125 0.5 4.0875
2.0625 0.5 4.15
2.125 0.4375 4.0875
2.0625 0.4375 4.15
2.0625 0.5 4.0875
2.0625 0.4375 4.0875
2.25 0.4375 4.15
2.25 0.5 4.0875
2.1875 0.5 4.15
2.25 0.4375 4.0875
2.1875 0.4375 4.15
2.1875 0.5 4.0875
2.1875 0.4375 4.0875
2.375 0.4375 4.15
2.375 0.5 4.0875
2.3125 0.5 4.15
2.375 0.4375 4.0875
2.3125 0.4375 4.15
2.3125 0.5 4.0875
2.3125 0.4375 4.0875
2.5 0.4375 4.15
2.5 0.5 4.0875
2.4375 0.5 4.15
2.5 0.4375 4.0875
2.4375 0.4375 4.15
2.4375 0.5 4.0875
2.4375 0.4375 4.0875
2.625 0.4375 4.15
2.625 0.5 4.0875
2.5625 0.5 4.15
2.625 0.4375 4.0875
2.5625 0.4375 4.15
2.5625 0.5 4.0875
2.5625 0.4375 4.0875
2.75 0.4375 4.15
2.75 0.5 4.0875
2.6875 0.5 4.15
2.75 0.4375 4.0875
2.6875 0.4375 4.15
2.6875 0.5 4.0875
2.6875 0.4375 4.0875
2.875 0.4375 4.15
2.875 0.5 4.0875
2.8125 0.5 4.15
2.875 0.4375 4.0875
2.8125 0.4375 4.15
2.8125 0.5 4.0875
2.8125 0.4375 4.0875
3 0.4375 4.15
3 0.5 4.0875
2.9375 0.5 4.15
3 0.4375 4.0875
2.9375 0.4375 4.15
2.9375 0.5 4.0875
2.9375 0.4375 4.0875
3.125 0.4375 4.15
3.125 0.5 4.0875
3.0625 0.5 4.15
3.125 0.4375 4.0875
3.0625 0.4375 4.15
3.0625 0.5 4.0875
3.0625 0.4375 4.0875
3.25 0.4375 4.15
3.25 0.5 4.0875
3.1875 0.5 4.15
3.25 0.4375 4.0875
3.1875 0.4375 4.15
3.1875 0.5 4.0875
3.1875 0.4375 4.0875
3.375 0.4375 4.15
3.375 0.5 4.0875
3.3125 0.5 4.15
3.375 0.4375 4.0875
3.3125 0.4375 4.15
3.3125 0.5 4.0875
3.3125 0.4375 4.0875
3.5 0.4375 4.15
3.5 0.5 4.0875
3.4375 0.5 4.15
3.5 0.4375 4.0875
3.4375 0.4375 4.15
3.4375 0.5 4.0875
3.4375 0.4375 4.0875
3.625 0.4375 4.15
3.625 0.5 4.0875
3.5625 0.5 4.15
3.625 0.4375 4.0875
3.5625 0.4375 4.15
3.5625 0.5 4.0875
3.5625 0.4375 4.0875
3.75 0.4375 4.15
3.75 0.5 4.0875
3.6875 0.5 4.15
3.75 0.4375 4.0875
3.6875 0.4375 4.15
3.6875 0.5 4.0875
3.6875 0.4375 4.0875
3.875 0.4375 4.15
3.875 0.5 4.0875
3.8125 0.5 4.15
3.875 0.4375 4.0875
3.8125 0.4375 4.15
3.8125 0.5 4.0875
3.8125 0.4375 4.0875
4 0.4375 4.15
4 0.5 4.0875
3.9375 0.5 4.15
4 0.4375 4.0875
3.9375 0.4375 4.15
3.9375 0.5 4.0875
3.9375 0.4375 4.0875
0.125 0.5625 4.15
0 0.5625 4.15
0.125 0.625 4.0875
0.0625 0.625 4.15
0 0.625 4.0875
0.125 0.5625 4.0875
0.0625 0.5625 4.15
0 0.5625 4.0875
0.0625 0.625 4.0875
0.0625 0.5625 4.0875
0.25 0.5625 4.15
0.25 0.625 4.0875
0.1875 0.625 4.15
0.25 0.5625 4.0875
0.1875 0.5625 4.15
0.1875 0.625 4.0875
0.1875 0.5625 4.0875
0.375 0.5625 4.15
0.375 0.625 4.0875
0.3125 0.625 4.15
0.375 0.5625 4.0875
0.3125 0.5625 4.15
0.3125 0.625 4.0875
0.3125 0.5625 4.0875
0.5 0.5625 4.15
0.5 0.625 4.0875
0.4375 0.625 4.15
0.5 0.5625 4.0875
0.4375 0.5625 4.15
0.4375 0.625 4.0875
0.4375 0.5625 4.0875
0.625 0.5625 4.15
0.625 0.625 4.0875
0.5625 0.625 4.15
0.625 0.5625 4.0875
0.5625 0.5625 4.15
0.5625 0.625 4.0875
0.5625 0.5625 4.0875
0.75 0.5625 4.15
0.75 0.625 4.0875
0.6875 0.625 4.15
0.75 0.5625 4.0875
0.6875 0.5625 4.15
0.6875 0.625 4.0875
0.6875 0.5625 4.0875
0.875 0.5625 4.15
0.875 0.625 4.0875
0.8125 0.625 4.15
0.875 0.5625 4.0875
0.8125 0.5625 4.15
0.8125 0.625 4.0875
0.8125 0.5625 4.0875
1 0.5625 4.15
1 0.625 4.0875
0.9375 0.625 4.15
1 0.5625 4.0875
0.9375 0.5625 4.15
0.9375 0.625 4.0875
0.9375 0.5625 4.0875
1.125 0.5625 4.15
1.125 0.625 4.0875
1.0625 0.625 4.15
1.125 0.5625 4.0875
1.0625 0.5625 4.15
1.0625 0.625 4.0875
1.0625 0.5625 4.0875
1.25 0.5625 4.15
1.25 0.625 4.0875
1.1875 0.625 4.15
1.25 0.5625 4.0875
1.1875 0.5625 4.15
1.1875 0.625 4.0875
1.1875 0.5625 4.0875
1.375 0.5625 4.15
1.375 0.625 4.0875
1.3125 0.625 4.15
1.375 0.5625 4.0875
1.3125 0.5625 4.15
1.3125 0.625 4.0875
1.3125 0.5625 4.0875
1.5 0.5625 4.15
1.5 0.625 4.0875
1.4375 0.625 4.15
1.5 0.5625 4.0875
1.4375 0.5625 4.15
1.4375 0.625 4.0875
1.4375 0.5625 4.0875
1.625 0.5625 4.15
1.625 0.625 4.0875
1.5625 0.625 4.15
1.625 0.5625 4.0875
1.5625 0.5625 4.15
1.5625 0.625 4.0875
1.5625 0.5625 4.0875
1.75 0.5625 4.15
1.75 0.625 4.0875
1.6875 0.625 4.15
1.75 0.5625 4.0875
1.6875 0.5625 4.15
1.6875 0.625 4.0875
1.6875 0.5625 4.0875
1.875 0.5625 4.15
1.875 0.625 4.0875
1.8125 0.625 4.15
1.875 0.5625 4.0875
1.8125 0.5625 4.15
1.8125 0.625 4.0875
1.8125 0.5625 4.0875
2 0.5625 4.15
2 0.625 4.0875
1.9375 0.625 4.15
2 0.5625 4.0875
1.9375 0.5625 4.15
1.9375 0.625 4.0875
1.9375 0.5625 4.0875
2.125 0.5625 4.15
2.125 0.625 4.0875
2.0625 0.625 4.15
2.125 0.5625 4.0875
2.0625 0.5625 4.15
2.0625 0.625 4.0875
2.0625 0.5625 4.0875
2.25 0.5625 4.15
2.25 0.625 4.0875
2.1875 0.625 4.15
2.25 0.5625 4.0875
2.1875 0.5625 4.15
2.1875 0.625 4.0875
2.1875 0.5625 4.0875
2.375 0.5625 4.15
2.375 0.625 4.0875
2.3125 0.625 4.15
2.375 0.5625 4.0875
2.3125 0.5625 4.15
2.3125 0.625 4.0875
2.3125 0.5625 4.0875
2.5 0.5625 4.15
2.5 0.625 4.0875
2.4375 0.625 4.15
2.5 0.5625 4.0875
2.4375 0.5625 4.15
2.4375 0.625 4.0875
2.4375 0.5625 4.0875
2.625 0.5625 4.15
2.625 0.625 4.0875
2.5625 0.625 4.15
2.625 0.5625 4.0875
2.5625 0.5625 4.15
2.5625 0.625 4.0875
2.5625 0.5625 4.0875
2.75 0.5625 4.15
2.75 0.625 4.0875
2.6875 0.625 4.15
2.75 0.5625 4.0875
2.6875 0.5625 4.15
2.6875 0.625 4.0875
2.6875 0.5625 4.0875
2.875 0.5625 4.15
2.875 0.625 4.0875
2.8125 0.625 4.15
2.875 0.5625 4.0875
2.8125 0.5625 4.15
2.8125 0.625 4.0875
2.8125 0.5625 4.0875
3 0.5625 4.15
3 0.625 4.0875
2.9375 0.625 4.15
3 0.5625 4.0875
2.9375 0.5625 4.15
2.9375 0.625 4.0875
2.9375 0.5625 4.0875
3.125 0.5625 4.15
3.125 0.625 4.0875
3.0625 0.625 4.15
3.125 0.5625 4.0875
3.0625 0.5625 4.15
3.0625 0.625 4.0875
3.0625 0.5625 4.0875
3.25 0.5625 4.15
3.25 0.625 4.0875
3.1875 0.625 4.15
3.25 0.5625 4.0875
3.1875 0.5625 4.15
3.1875 0.625 4.0875
3.1875 0.5625 4.0875
3.375 0.5625 4.15
3.375 0.625 4.0875
3.3125 0.625 4.15
3.375 0.5625 4.0875
3.3125 0.5625 4.15
3.3125 0.625 4.0875
3.3125 0.5625 4.0875
3.5 0.5625 4.15
3.5 0.625 4.0875
3.4375 0.625 4.15
3.5 0.5625 4.0875
3.4375 0.5625 4.15
3.4375 0.625 4.0875
3.4375 0.5625 4.0875
3.625 0.5625 4.15
3.625 0.625 4.0875
3.5625 0.625 4.15
3.625 0.5625 4.0875
3.5625 0.5625 4.15
3.5625 0.625 4.0875
3.5625 0.5625 4.0875
3.75 0.5625 4.15
3.75 0.625 4.0875
3.6875 0.625 4.15
3.75 0.5625 4.0875
3.6875 0.5625 4.15
3.6875 0.625 4.0875
3.6875 0.5625 4.0875
3.875 0.5625 4.15
3.875 0.625 4.0875
3.8125 0.625 4.15
3.875 0.5625 4.0875
3.8125 0.5625 4.15
3.8125 0.625 4.0875
3.8125 0.5625 4.0875
4 0.5625 4.15
4 0.625 4.0875
3.9375 0.625 4.15
4 0.5625 4.0875
3.9375 0.5625 4.15
3.9375 0.625 4.0875
3.9375 0.5625 4.0875
0.125 0.6875 4.15
0 0.6875 4.15
0.125 0.75 4.0875
0.0625 0.75 4.15
0 0.75 4.0875
0.125 0.6875 4.0875
0.0625 0.6875 4.15
0 0.6875 4.0875
0.0625 0.75 4.0875
0.0625 0.6875 4.0875
0.25 0.6875 4.15
0.25 0.75 4.0875
0.1875 0.75 4.15
0.25 0.6875 4.0875
0.1875 0.6875 4.15
0.1875 0.75 4.0875
0.1875 0.6875 4.0875
0.375 0.6875 4.15
0.375 0.75 4.0875
0.3125 0.75 4.15
0.375 0.6875 4.0875
0.3125 0.6875 4.15
0.3125 0.75 4.0875
0.3125 0.6875 4.0875
0.5 0.6875 4.15
0.5 0.75 4.0875
0.4375 0.75 4.15
0.5 0.6875 4.0875
0.4375 0.6875 4.15
0.4375 0.75 4.0875
0.4375 0.6875 4.0875
0.625 0.6875 4.15
0.625 0.75 4.0875
0.5625 0.75 4.15
0.625 0.6875 4.0875
0.5625 0.6875 4.15
0.5625 0.75 4.0875
0.5625 0.6875 4.0875
0.75 0.6875 4.15
0.75 0.75 4.0875
0.6875 0.75 4.15
0.75 0.6875 4.0875
0.6875 0.6875 4.15
0.6875 0.75 4.0875
0.6875 0.6875 4.0875
0.875 0.6875 4.15
0.875 0.75 4.0875
0.8125 0.75 4.15
0.875 0.6875 4.0875
0.8125 0.6875 4.15
0.8125 0.75 4.0875
0.8125 0.6875 4.0875
1 0.6875 4.15
1 0.75 4.0875
0.9375 0.75 4.15
1 0.6875 4.0875
0.9375 0.6875 4.15
0.9375 0.75 4.0875
0.9375 0.6875 4.0875
1.125 0.6875 4.15
1.125 0.75 4.0875
1.0625 0.75 4.15
1.125 0.6875 4.0875
1.0625 0.6875 4.15
1.0625 0.75 4.0875
1.0625 0.6875 4.0875
1.25 0.6875 4.15
1.25 0.75 4.0875
1.1875 0.75 4.15
1.25 0.6875 4.0875
1.1875 0.6875 4.15
1.1875 0.75 4.0875
1.1875 0.6875 4.0875
1.375 0.6875 4.15
1.375 0.75 4.0875
1.3125 0.75 4.15
1.375 0.6875 4.0875
1.3125 0.6875 4.15
1.3125 0.75 4.0875
1.3125 0.6875 4.0875
1.5 0.6875 4.15
1.5 0.75 4.0875
1.4375 0.75 4.15
1.5 0.6875 4.0875
1.4375 0.6875 4.15
1.4375 0.75 4.0875
1.4375 0.6875 4.0875
1.625 0.6875 4.15
1.625 0.75 4.0875
1.5625 0.75 4.15
1.625 0.6875 4.0875
1.5625 0.6875 4.15
1.5625 0.75 4.0875
1.5625 0.6875 4.0875
1.75 0.6875 4.15
1.75 0.75 4.0875
1.6875 0.75 4.15
1.75 0.6875 4.0875
1.6875 0.6875 4.15
1.6875 0.75 4.0875
1.6875 0.6875 4.0875
1.875 0.6875 4.15
1.875 0.75 4.0875
1.8125 0.75 4.15
1.875 0.6875 4.0875
1.8125 0.6875 4.15
1.8125 0.75 4.0875
1.8125 0.6875 4.0875
2 0.6875 4.15
2 0.75 4.0875
1.9375 0.75 4.15
2 0.6875 4.0875
1.9375 0.6875 4.15
1.9375 0.75 4.0875
1.9375 0.6875 4.0875
2.125 0.6875 4.15
2.125 0.75 4.0875
2.0625 0.75 4.15
2.125 0.6875 4.0875
2.0625 0.6875 4.15
2.0625 0.75 4.0875
2.0625 0.6875 4.0875
2.25 0.6875 4.15
2.25 0.75 4.0875
2.1875 0.75 4.15
2.25 0.6875 4.0875
2.1875 0.6875 4.15
2.1875 0.75 4.0875
2.1875 0.6875 4.0875
2.375 0.6875 4.15
2.375 0.75 4.0875
2.3125 0.75 4.15
2.375 0.6875 4.0875
2.3125 0.6875 4.15
2.3125 0.75 4.0875
2.3125 0.6875 4.0875
2.5 0.6875 4.15
2.5 0.75 4.0875
2.4375 0.75 4.15
2.5 0.6875 4.0875
2.4375 0.6875 4.15
2.4375 0.75 4.0875
2.4375 0.6875 4.0875
2.625 0.6875 4.15
2.625 0.75 4.0875
2.5625 0.75 4.15
2.625 0.6875 4.0875
2.5625 0.6875 4.15
2.5625 0.75 4.0875
2.5625 0.6875 4.0875
2.75 0.6875 4.15
2.75 0.75 4.0875
2.6875 0.75 4.15
2.75 0.6875 4.0875
2.6875 0.6875 4.15
2.6875 0.75 4.0875
2.6875 0.6875 4.0875
2.875 0.6875 4.15
2.875 0.75 4.0875
2.8125 0.75 4.15
2.875 0.6875 4.0875
2.8125 0.6875 4.15
2.8125 0.75 4.0875
2.8125 0.6875 4.0875
3 0.6875 4.15
3 0.75 4.0875
2.9375 0.75 4.15
3 0.6875 4.0875
2.9375 0.6875 4.15
2.9375 0.75 4.0875
2.9375 0.6875 4.0875
3.125 0.6875 4.15
3.125 0.75 4.0875
3.0625 0.75 4.15
3.125 0.6875 4.0875
3.0625 0.6875 4.15
3.0625 0.75 4.0875
3.0625 0.6875 4.0875
3.25 0.6875 4.15
3.25 0.75 4.0875
3.1875 0.75 4.15
3.25 0.6875 4.0875
3.1875 0.6875 4.15
3.1875 0.75 4.0875
3.1875 0.6875 4.0875
3.375 0.6875 4.15
3.375 0.75 4.0875
3.3125 0.75 4.15
3.375 0.6875 4.0875
3.3125 0.6875 4.15
3.3125 0.75 4.0875
3.3125 0.6875 4.0875
3.5 0.6875 4.15
3.5 0.75 4.0875
3.4375 0.75 4.15
3.5 0.6875 4.0875
3.4375 0.6875 4.15
3.4375 0.75 4.0875
3.4375 0.6875 4.0875
3.625 0.6875 4.15
3.625 0.75 4.0875
3.5625 0.75 4.15
3.625 0.6875 4.0875
3.5625 0.6875 4.15
3.5625 0.75 4.0875
3.5625 0.6875 4.0875
3.75 0.6875 4.15
3.75 0.75 4.0875
3.6875 0.75 4.15
3.75 0.6875 4.0875
3.6875 0.6875 4.15
3.6875 0.75 4.0875
3.6875 0.6875 4.0875
3.875 0.6875 4.15
3.875 0.75 4.0875
3.8125 0.75 4.15
3.875 0.6875 4.0875
3.8125 0.6875 4.15
3.8125 0.75 4.0875
3.8125 0.6875 4.0875
4 0.6875 4.15
4 0.75 4.0875
3.9375 0.75 4.15
4 0.6875 4.0875
3.9375 0.6875 4.15
3.9375 0.75 4.0875
3.9375 0.6875 4.0875
0.125 0.8125 4.15
0 0.8125 4.15
0.125 0.875 4.0875
0.0625 0.875 4.15
0 0.875 4.0875
0.125 0.8125 4.0875
0.0625 0.8125 4.15
0 0.8125 4.0875
0.0625 0.875 4.0875
0.0625 0.8125 4.0875
0.25 0.8125 4.15
0.25 0.875 4.0875
0.1875 0.875 4.15
0.25 0.8125 4.0875
0.1875 0.8125 4.15
0.1875 0.875 4.0875
0.1875 0.8125 4.0875
0.375 0.8125 4.15
0.375 0.875 4.0875
0.3125 0.875 4.15
0.375 0.8125 4.0875
0.3125 0.8125 4.15
0.3125 0.875 4.0875
0.3125 0.8125 4.0875
0.5 0.8125 4.15
0.5 0.875 4.0875
0.4375 0.875 4.15
0.5 0.8125 4.0875
0.4375 0.8125 4.15
0.4375 0.875 4.0875
0.4375 0.8125 4.0875
0.625 0.8125 4.15
0.625 0.875 4.0875
0.5625 0.875 4.15
0.625 0.8125 4.0875
0.5625 0.8125 4.15
0.5625 0.875 4.0875
0.5625 0.8125 4.0875
0.75 0.8125 4.15
0.75 0.875 4.0875
0.6875 0.875 4.15
0.75 0.8125 4.0875
0.6875 0.8125 4.15
0.6875 0.875 4.0875
0.6875 0.8125 4.0875
0.875 0.8125 4.15
0.875 0.875 4.0875
0.8125 0.875 4.15
0.875 0.8125 4.0875
0.8125 0.8125 4.15
0.8125 0.875 4.0875
0.8125 0.8125 4.0875
1 0.8125 4.15
1 0.875 4.0875
0.9375 0.875 4.15
1 0.8125 4.0875
0.9375 0.8125 4.15
0.9375 0.875 4.0875
0.9375 0.8125 4.0875
1.125 0.8125 4.15
1.125 0.875 4.0875
1.0625 0.875 4.15
1.125 0.8125 4.0875
1.0625 0.8125 4.15
1.0625 0.875 4.0875
1.0625 0.8125 4.0875
1.25 0.8125 4.15
1.25 0.875 4.0875
1.1875 0.875 4.15
1.25 0.8125 4.0875
1.1875 0.8125 4.15
1.1875 0.875 4.0875
1.1875 0.8125 4.0875
1.375 0.8125 4.15
1.375 0.875 4.0875
1.3125 0.875 4.15
1.375 0.8125 4.0875
1.3125 0.8125 4.15
1.3125 0.875 4.0875
1.3125 0.8125 4.0875
1.5 0.8125 4.15
1.5 0.875 4.0875
1.4375 0.875 4.15
1.5 0.8125 4.0875
1.4375 0.8125 4.15
1.4375 0.875 4.0875
1.4375 0.8125 4.0875
1.625 0.8125 4.15
1.625 0.875 4.0875
1.5625 0.875 4.15
1.625 0.8125 4.0875
1.5625 0.8125 4.15
1.5625 0.875 4.0875
1.5625 0.8125 4.0875
1.75 0.8125 4.15
1.75 0.875 4.0875
1.6875 0.875 4.15
1.75 0.8125 4.0875
1.6875 0.8125 4.15
1.6875 0.875 4.0875
1.6875 0.8125 4.0875
1.875 0.8125 4.15
1.875 0.875 4.0875
1.8125 0.875 4.15
1.875 0.8125 4.0875
1.8125 0.8125 4.15
1.8125 0.875 4.0875
1.8125 0.8125 4.0875
2 0.8125 4.15
2 0.875 4.0875
1.9375 0.875 4.15
2 0.8125 4.0875
1.9375 0.8125 4.15
1.9375 0.875 4.0875
1.9375 0.8125 4.0875
2.125 0.8125 4.15
2.125 0.875 4.0875
2.0625 0.875 4.15
2.125 0.8125 4.0875
2.0625 0.8125 4.15
2.0625 0.875 4.0875
2.0625 0.8125 4.0875
2.25 0.8125 4.15
2.25 0.875 4.0875
2.1875 0.875 4.15
2.25 0.8125 4.0875
2.1875 0.8125 4.15
2.1875 0.875 4.0875
2.1875 0.8125 4.0875
2.375 0.8125 4.15
2.375 0.875 4.0875
2.3125 0.875 4.15
2.375 0.8125 4.0875
2.3125 0.8125 4.15
2.3125 0.875 4.0875
2.3125 0.8125 4.0875
2.5 0.8125 4.15
2.5 0.875 4.0875
2.4375 0.875 4.15
2.5 0.8125 4.0875
2.4375 0.8125 4.15
2.4375 0.875 4.0875
2.4375 0.8125 4.0875
2.625 0.8125 4.15
2.625 0.875 4.0875
2.5625 0.875 4.15
2.625 0.8125 4.0875
2.5625 0.8125 4.15
2.5625 0.875 4.0875
2.5625 0.8125 4.0875
2.75 0.8125 4.15
2.75 0.875 4.0875
2.6875 0.875 4.15
2.75 0.8125 4.0875
2.6875 0.8125 4.15
2.6875 0.875 4.0875
2.6875 0.8125 4.0875
2.875 0.8125 4.15
2.875 0.875 4.0875
2.8125 0.875 4.15
2.875 0.8125 4.0875
2.8125 0.8125 4.15
2.8125 0.875 4.0875
2.8125 0.8125 4.0875
3 0.8125 4.15
3 0.875 4.0875
2.9375 0.875 4.15
3 0.8125 4.0875
2.9375 0.8125 4.15
2.9375 0.875 4.0875
2.9375 0.8125 4.0875
3.125 0.8125 4.15
3.125 0.875 4.0875
3.0625 0.875 4.15
3.125 0.8125 4.0875
3.0625 0.8125 4.15
3.0625 0.875 4.0875
3.0625 0.8125 4.0875
3.25 0.8125 4.15
3.25 0.875 4.0875
3.1875 0.875 4.15
3.25 0.8125 4.0875
3.1875 0.8125 4.15
3.1875 0.875 4.0875
3.1875 0.8125 4.0875
3.375 0.8125 4.15
3.375 0.875 4.0875
3.3125 0.875 4.15
3.375 0.8125 4.0875
3.3125 0.8125 4.15
3.3125 0.875 4.0875
3.3125 0.8125 4.0875
3.5 0.8125 4.15
3.5 0.875 4.0875
3.4375 0.875 4.15
3.5 0.8125 4.0875
3.4375 0.8125 4.15
3.4375 0.875 4.0875
3.4375 0.8125 4.0875
3.625 0.8125 4.15
3.625 0.875 4.0875
3.5625 0.875 4.15
3.625 0.8125 4.0875
3.5625 0.8125 4.15
3.5625 0.875 4.0875
3.5625 0.8125 4.0875
3.75 0.8125 4.15
3.75 0.875 4.0875
3.6875 0.875 4.15
3.75 0.8125 4.0875
3.6875 0.8125 4.15
3.6875 0.875 4.0875
3.6875 0.8125 4.0875
3.875 0.8125 4.15
3.875 0.875 4.0875
3.8125 0.875 4.15
3.875 0.8125 4.0875
3.8125 0.8125 4.15
3.8125 0.875 4.0875
3.8125 0.8125 4.0875
4 0.8125 4.15
4 0.875 4.0875
3.9375 0.875 4.15
4 0.8125 4.0875
3.9375 0.8125 4.15
3.9375 0.875 4.0875
3.9375 0.8125 4.0875
0.125 0.9375 4.15
0 0.9375 4.15
0.125 1 4.0875
0.0625 1 4.15
0 1 4.0875
0.125 0.9375 4.0875
0.0625 0.9375 4.15
0 0.9375 4.0875
0.0625 1 4.0875
0.0625 0.9375 4.0875
0.25 0.9375 4.15
0.25 1 4.0875
0.1875 1 4.15
0.25 0.9375 4.0875
0.1875 0.9375 4.15
0.1875 1 4.0875
0.1875 0.9375 4.0875
0.375 0.9375 4.15
0.375 1 4.0875
0.3125 1 4.15
0.375 0.9375 4.0875
0.3125 0.9375 4.15
0.3125 1 4.0875
0.3125 0.9375 4.0875
0.5 0.9375 4.15
0.5 1 4.0875
0.4375 1 4.15
0.5 0.9375 4.0875
0.4375 0.9375 4.15
0.4375 1 4.0875
0.4375 0.9375 4.0875
0.625 0.9375 4.15
0.625 1 4.0875
0.5625 1 4.15
0.625 0.9375 4.0875
0.5625 0.9375 4.15
0.5625 1 4.0875
0.5625 0.9375 4.0875
0.75 0.9375 4.15
0.75 1 4.0875
0.6875 1 4.15
0.75 0.9375 4.0875
0.6875 0.9375 4.15
0.6875 1 4.0875
0.6875 0.9375 4.0875
0.875 0.9375 4.15
0.875 1 4.0875
0.8125 1 4.15
0.875 0.9375 4.0875
0.8125 0.9375 4.15
0.8125 1 4.0875
0.8125 0.9375 4.0875
1 0.9375 4.15
1 1 4.0875
0.9375 1 4.15
1 0.9375 4.0875
0.9375 0.9375 4.15
0.9375 1 4.0875
0.9375 0.9375 4.0875
1.125 0.9375 4.15
1.125 1 4.0875
1.0625 1 4.15
1.125 0.9375 4.0875
1.0625 0.9375 4.15
1.0625 1 4.0875
1.0625 0.9375 4.0875
1.25 0.9375 4.15
1.25 1 4.0875
1.1875 1 4.15
1.25 0.9375 4.0875
1.1875 0.9375 4.15
1.1875 1 4.0875
1.1875 0.9375 4.0875
1.375 0.9375 4.15
1.375 1 4.0875
1.3125 1 4.15
1.375 0.9375 4.0875
1.3125 0.9375 4.15
1.3125 1 4.0875
1.3125 0.9375 4.0875
1.5 0.9375 4.15
1.5 1 4.0875
1.4375 1 4.15
1.5 0.9375 4.0875
1.4375 0.9375 4.15
1.4375 1 4.0875
1.4375 0.9375 4.0875
1.625 0.9375 4.15
1.625 1 4.0875
1.5625 1 4.15
1.625 0.9375 4.0875
1.5625 0.9375 4.15
1.5625 1 4.0875
1.5625 0.9375 4.0875
1.75 0.9375 4.15
1.75 1 4.0875
1.6875 1 4.15
1.75 0.9375 4.0875
1.6875 0.9375 4.15
1.6875 1 4.0875
1.6875 0.9375 4.0875
1.875 0.9375 4.15
1.875 1 4.0875
1.8125 1 4.15
1.875 0.9375 4.0875
1.8125 0.9375 4.15
1.8125 1 4.0875
1.8125 0.9375 4.0875
2 0.9375 4.15
2 1 4.0875
1.9375 1 4.15
2 0.9375 4.0875
1.9375 0.9375 4.15
1.9375 1 4.0875
1.9375 0.9375 4.0875
2.125 0.9375 4.15
2.125 1 4.0875
2.0625 1 4.15
2.125 0.9375 4.0875
2.0625 0.9375 4.15
2.0625 1 4.0875
2.0625 0.9375 4.0875
2.25 0.9375 4.15
2.25 1 4.0875
2.1875 1 4.15
2.25 0.9375 4.0875
2.1875 0.9375 4.15
2.1875 1 4.0875
2.1875 0.9375 4.0875
2.375 0.9375 4.15
2.375 1 4.0875
2.3125 1 4.15
2.375 0.9375 4.0875
2.3125 0.9375 4.15
2.3125 1 4.0875
2.3125 0.9375 4.0875
2.5 0.9375 4.15
2.5 1 4.0875
2.4375 1 4.15
2.5 0.9375 4.0875
2.4375 0.9375 4.15
2.4375 1 4.0875
2.4375 0.9375 4.0875
2.625 0.9375 4.15
2.625 1 4.0875
2.5625 1 4.15
2.625 0.9375 4.0875
2.5625 0.9375 4.15
2.5625 1 4.0875
2.5625 0.9375 4.0875
2.75 0.9375 4.15
2.75 1 4.0875
2.6875 1 4.15
2.75 0.9375 4.0875
2.6875 0.9375 4.15
2.6875 1 4.0875
2.6875 0.9375 4.0875
2.875 0.9375 4.15
2.875 1 4.0875
2.8125 1 4.15
2.875 0.9375 4.0875
2.8125 0.9375 4.15
2.8125 1 4.0875
2.8125 0.9375 4.0875
3 0.9375 4.15
3 1 4.0875
2.9375 1 4.15
3 0.9375 4.0875
2.9375 0.9375 4.15
2.9375 1 4.0875
2.9375 0.9375 4.0875
3.125 0.9375 4.15
3.125 1 4.0875
3.0625 1 4.15
3.125 0.9375 4.0875
3.0625 0.9375 4.15
3.0625 1 4.0875
3.0625 0.9375 4.0875
3.25 0.9375 4.15
3.25 1 4.0875
3.1875 1 4.15
3.25 0.9375 4.0875
3.1875 0.9375 4.15
3.1875 1 4.0875
3.1875 0.9375 4.0875
3.375 0.9375 4.15
3.375 1 4.0875
3.3125 1 4.15
3.375 0.9375 4.0875
3.3125 0.9375 4.15
3.3125 1 4.0875
3.3125 0.9375 4.0875
3.5 0.9375 4.15
3.5 1 4.0875
3.4375 1 4.15
3.5 0.9375 4.0875
3.4375 0.9375 4.15
3.4375 1 4.0875
3.4375 0.9375 4.0875
3.625 0.9375 4.15
3.625 1 4.0875
3.5625 1 4.15
3.625 0.9375 4.0875
3.5625 0.9375 4.15
3.5625 1 4.0875
3.5625 0.9375 4.0875
3.75 0.9375 4.15
3.75 1 4.0875
3.6875 1 4.15
3.75 0.9375 4.0875
3.6875 0.9375 4.15
3.6875 1 4.0875
3.6875 0.9375 4.0875
3.875 0.9375 4.15
3.875 1 4.0875
3.8125 1 4.15
3.875 0.9375 4.0875
3.8125 0.9375 4.15
3.8125 1 4.0875
3.8125 0.9375 4.0875
4 0.9375 4.15
4 1 4.0875
3.9375 1 4.15
4 0.9375 4.0875
3.9375 0.9375 4.15
3.9375 1 4.0875
3.9375 0.9375 4.0875
0.125 0 4.2125
0.0625 0 4.275
0 0 4.2125
0.125 0.0625 4.275
0 0.0625 4.275
0.125 0.125 4.2125
0.0625 0.125 4.275
0 0.125 4.2125
0.0625 0 4.2125
0.125 0.0625 4.2125
0.0625 0.0625 4.275
0 0.0625 4.2125
0.0625 0.125 4.2125
0.0625 0.0625 4.2125
0.25 0 4.2125
0.1875 0 4.275
0.25 0.0625 4.275
0.25 0.125 4.2125
0.1875 0.125 4.275
0.1875 0 4.2125
0.25 0.0625 4.2125
0.1875 0.0625 4.275
0.1875 0.125 4.2125
0.1875 0.0625 4.2125
0.375 0 4.2125
0.3125 0 4.275
0.375 0.0625 4.275
0.375 0.125 4.2125
0.3125 0.125 4.275
0.3125 0 4.2125
0.375 0.0625 4.2125
0.3125 0.0625 4.275
0.3125 0.125 4.2125
0.3125 0.0625 4.2125
0.5 0 4.2125
0.4375 0 4.275
0.5 0.0625 4.275
0.5 0.125 4.2125
0.4375 0.125 4.275
0.4375 0 4.2125
0.5 0.0625 4.2125
0.4375 0.0625 4.275
0.4375 0.125 4.2125
0.4375 0.0625 4.2125
0.625 0 4.2125
0.5625 0 4.275
0.625 0.0625 4.275
0.625 0.125 4.2125
0.5625 0.125 4.275
0.5625 0 4.2125
0.625 0.0625 4.2125
0.5625 0.0625 4.275
0.5625 0.125 4.2125
0.5625 0.0625 4.2125
0.75 0 4.2125
0.6875 0 4.275
0.75 0.0625 4.275
0.75 0.125 4.2125
0.6875 0.125 4.275
0.6875 0 4.2125
0.75 0.0625 4.2125
0.6875 0.0625 4.275
0.6875 0.125 4.2125
0.6875 0.0625 4.2125
0.875 0 4.2125
0.8125 0 4.275
0.875 0.0625 4.275
0.875 0.125 4.2125
0.8125 0.125 4.275
0.8125 0 4.2125
0.875 0.0625 4.2125
0.8125 0.0625 4.275
0.8125 0.125 4.2125
0.8125 0.0625 4.2125
1 0 4.2125
0.9375 0 4.275
1 0.0625 4.275
1 0.125 4.2125
0.9375 0.125 4.275
0.9375 0 4.2125
1 0.0625 4.2125
0.9375 0.0625 4.275
0.9375 0.125 4.2125
0.9375 0.0625 4.2125
1.125 0 4.2125
1.0625 0 4.275
1.125 0.0625 4.275
1.125 0.125 4.2125
1.0625 0.125 4.275
1.0625 0 4.2125
1.125 0.0625 4.2125
1.0625 0.0625 4.275
1.0625 0.125 4.2125
1.0625 0.0625 4.2125
1.25 0 4.2125
1.1875 0 4.275
1.25 0.0625 4.275
1.25 0.125 4.2125
1.1875 0.125 4.275
1.1875 0 4.2125
1.25 0.0625 4.2125
1.1875 0.0625 4.275
1.1875 0.125 4.2125
1.1875 0.0625 4.2125
1.375 0 4.2125
1.3125 0 4.275
1.375 0.0625 4.275
1.375 0.125 4.2125
1.3125 0.125 4.275
1.3125 0 4.2125
1.375 0.0625 4.2125
1.3125 0.0625 4.275
1.3125 0.125 4.2125
1.3125 0.0625 4.2125
1.5 0 4.2125
1.4375 0 4.275
1.5 0.0625 4.275
1.5 0.125 4.2125
1.4375 0.125 4.275
1.4375 0 4.2125
1.5 0.0625 4.2125
1.4375 0.0625 4.275
1.4375 0.125 4.2125
1.4375 0.0625 4.2125
1.625 0 4.2125
1.5625 0 4.275
1.625 0.0625 4.275
1.625 0.125 4.2125
1.5625 0.125 4.275
1.5625 0 4.2125
1.625 0.0625 4.2125
1.5625 0.0625 4.275
1.5625 0.125 4.2125
1.5625 0.0625 4.2125
1.75 0 4.2125
1.6875 0 4.275
1.75 0.0625 4.275
1.75 0.125 4.2125
1.6875 0.125 4.275
1.6875 0 4.2125
1.75 0.0625 4.2125
1.6875 0.0625 4.275
1.6875 0.125 4.2125
1.6875 0.0625 4.2125
1.875 0 4.2125
1.8125 0 4.275
1.875 0.0625 4.275
1.875 0.125 4.2125
1.8125 0.125 4.275
1.8125 0 4.2125
1.875 0.0625 4.2125
1.8125 0.0625 4.275
1.8125 0.125 4.2125
1.8125 0.0625 4.2125
2 0 4.2125
1.9375 0 4.275
2 0.0625 4.275
2 0.125 4.2125
1.9375 0.125 4.275
1.9375 0 4.2125
2 0.0625 4.2125
1.9375 0.0625 4.275
1.9375 0.125 4.2125
1.9375 0.0625 4.2125
2.125 0 4.2125
2.0625 0 4.275
2.125 0.0625 4.275
2.125 0.125 4.2125
2.0625 0.125 4.275
2.0625 0 4.2125
2.125 0.0625 4.2125
2.0625 0.0625 4.275
2.0625 0.125 4.2125
2.0625 0.0625 4.2125
2.25 0 4.2125
2.1875 0 4.275
2.25 0.0625 4.275
2.25 0.125 4.2125
2.1875 0.125 4.275
2.1875 0 4.2125
2.25 0.0625 4.2125
2.1875 0.0625 4.275
2.1875 0.125 4.2125
2.1875 0.0625 4.2125
2.375 0 4.2125
2.3125 0 4.275
2.375 0.0625 4.275
2.375 0.125 4.2125
2.3125 0.125 4.275
2.3125 0 4.2125
2.375 0.0625 4.2125
2.3125 0.0625 4.275
2.3125 0.125 4.2125
2.3125 0.0625 4.2125
2.5 0 4.2125
2.4375 0 4.275
2.5 0.0625 4.275
2.5 0.125 4.2125
2.4375 0.125 4.275
2.4375 0 4.2125
2.5 0.0625 4.2125
2.4375 0.0625 4.275
2.4375 0.125 4.2125
2.4375 0.0625 4.2125
2.625 0 4.2125
2.5625 0 4.275
2.625 0.0625 4.275
2.625 0.125 4.2125
2.5625 0.125 4.275
2.5625 0 4.2125
2.625 0.0625 4.2125
2.5625 0.0625 4.275
2.5625 0.125 4.2125
2.5625 0.0625 4.2125
2.75 0 4.2125
2.6875 0 4.275
2.75 0.0625 4.275
2.75 0.125 4.2125
2.6875 0.125 4.275
2.6875 0 4.2125
2.75 0.0625 4.2125
2.6875 0.0625 4.275
2.6875 0.125 4.2125
2.6875 0.0625 4.2125
2.875 0 4.2125
2.8125 0 4.275
2.875 0.0625 4.275
2.875 0.125 4.2125
2.8125 0.125 4.275
2.8125 0 4.2125
2.875 0.0625 4.2125
2.8125 0.0625 4.275
2.8125 0.125 4.2125
2.8125 0.0625 4.2125
3 0 4.2125
2.9375 0 4.275
3 0.0625 4.275
3 0.125 4.2125
2.9375 0.125 4.275
2.9375 0 4.2125
3 0.0625 4.2125
2.9375 0.0625 4.275
2.9375 0.125 4.2125
2.9375 0.0625 4.2125
3.125 0 4.2125
3.0625 0 4.275
3.125 0.0625 4.275
3.125 0.125 4.2125
3.0625 0.125 4.275
3.0625 0 4.2125
3.125 0.0625 4.2125
3.0625 0.0625 4.275
3.0625 0.125 4.2125
3.0625 0.0625 4.2125
3.25 0 4.2125
3.1875 0 4.275
3.25 0.0625 4.275
3.25 0.125 4.2125
3.1875 0.125 4.275
3.1875 0 4.2125
3.25 0.0625 4.2125
3.1875 0.0625 4.275
3.1875 0.125 4.2125
3.1875 0.0625 4.2125
3.375 0 4.2125
3.3125 0 4.275
3.375 0.0625 4.275
3.375 0.125 4.2125
3.3125 0.125 4.275
3.3125 0 4.2125
3.375 0.0625 4.2125
3.3125 0.0625 4.275
3.3125 0.125 4.2125
3.3125 0.0625 4.2125
3.5 0 4.2125
3.4375 0 4.275
3.5 0.0625 4.275
3.5 0.125 4.2125
3.4375 0.125 4.275
3.4375 0 4.2125
3.5 0.0625 4.2125
3.4375 0.0625 4.275
3.4375 0.125 4.2125
3.4375 0.0625 4.2125
3.625 0 4.2125
3.5625 0 4.275
3.625 0.0625 4.275
3.625 0.125 4.2125
3.5625 0.125 4.275
3.5625 0 4.2125
3.625 0.0625 4.2125
3.5625 0.0625 4.275
3.5625 0.125 4.2125
3.5625 0.0625 4.2125
3.75 0 4.2125
3.6875 0 4.275
3.75 0.0625 4.275
3.75 0.125 4.2125
3.6875 0.125 4.275
3.6875 0 4.2125
3.75 0.0625 4.2125
3.6875 0.0625 4.275
3.6875 0.125 4.2125
3.6875 0.0625 4.2125
3.875 0 4.2125
3.8125 0 4.275
3.875 0.0625 4.275
3.875 0.125 4.2125
3.8125 0.125 4.275
3.8125 0 4.2125
3.875 0.0625 4.2125
3.8125 0.0625 4.275
3.8125 0.125 4.2125
3.8125 0.0625 4.2125
4 0 4.2125
3.9375 0 4.275
4 0.0625 4.275
4 0.125 4.2125
3.9375 0.125 4.275
3.9375 0 4.2125
4 0.0625 4.2125
3.9375 0.0625 4.275
3.9375 0.125 4.2125
3.9375 0.0625 4.2125
0.125 0.1875 4.275
0 0.1875 4.275
0.125 0.25 4.2125
0.0625 0.25 4.275
0 0.25 4.2125
0.125 0.1875 4.2125
0.0625 0.1875 4.275
0 0.1875 4.2125
0.0625 0.25 4.2125
0.0625 0.1875 4.2125
0.25 0.1875 4.275
0.25 0.25 4.2125
0.1875 0.25 4.275
0.25 0.1875 4.2125
0.1875 0.1875 4.275
0.1875 0.25 4.2125
0.1875 0.1875 4.2125
0.375 0.1875 4.275
0.375 0.25 4.2125
0.3125 0.25 4.275
0.375 0.1875 4.2125
0.3125 0.1875 4.275
0.3125 0.25 4.2125
0.3125 0.1875 4.2125
0.5 0.1875 4.275
0.5 0.25 4.2125
0.4375 0.25 4.275
0.5 0.1875 4.2125
0.4375 0.1875 4.275
0.4375 0.25 4.2125
0.4375 0.1875 4.2125
0.625 0.1875 4.275
0.625 0.25 4.2125
0.5625 0.25 4.275
0.625 0.1875 4.2125
0.5625 0.1875 4.275
0.5625 0.25 4.2125
0.5625 0.1875 4.2125
0.75 0.1875 4.275
0.75 0.25 4.2125
0.6875 0.25 4.275
0.75 0.1875 4.2125
0.6875 0.1875 4.275
0.6875 0.25 4.2125
0.6875 0.1875 4.2125
0.875 0.1875 4.275
0.875 0.25 4.2125
0.8125 0.25 4.275
0.875 0.1875 4.2125
0.8125 0.1875 4.275
0.8125 0.25 4.2125
0.8125 0.1875 4.2125
1 0.1875 4.275
1 0.25 4.2125
0.9375 0.25 4.275
1 0.1875 4.2125
0.9375 0.1875 4.275
0.9375 0.25 4.2125
0.9375 0.1875 4.2125
1.125 0.1875 4.275
1.125 0.25 4.2125
1.0625 0.25 4.275
1.125 0.1875 4.2125
1.0625 0.1875 4.275
1.0625 0.25 4.2125
1.0625 0.1875 4.2125
1.25 0.1875 4.275
1.25 0.25 4.2125
1.1875 0.25 4.275
1.25 0.1875 4.2125
1.1875 0.1875 4.275
1.1875 0.25 4.2125
1.1875 0.1875 4.2125
1.375 0.1875 4.275
1.375 0.25 4.2125
1.3125 0.25 4.275
1.375 0.1875 4.2125
1.3125 0.1875 4.275
1.3125 0.25 4.2125
1.3125 0.1875 4.2125
1.5 0.1875 4.275
1.5 0.25 4.2125
1.4375 0.25 4.275
1.5 0.1875 4.2125
1.4375 0.1875 4.275
1.4375 0.25 4.2125
1.4375 0.1875 4.2125
1.625 0.1875 4.275
1.625 0.25 4.2125
1.5625 0.25 4.275
1.625 0.1875 4.2125
1.5625 0.1875 4.275
1.5625 0.25 4.2125
1.5625 0.1875 4.2125
1.75 0.1875 4.275
1.75 0.25 4.2125
1.6875 0.25 4.275
1.75 0.1875 4.2125
1.6875 0.1875 4.275
1.6875 0.25 4.2125
1.6875 0.1875 4.2125
1.875 0.1875 4.275
1.875 0.25 4.2125
1.8125 0.25 4.275
1.875 0.1875 4.2125
1.8125 0.1875 4.275
1.8125 0.25 4.2125
1.8125 0.1875 4.2125
2 0.1875 4.275
2 0.25 4.2125
1.9375 0.25 4.275
2 0.1875 4.2125
1.9375 0.1875 4.275
1.9375 0.25 4.2125
1.9375 0.1875 4.2125
2.125 0.1875 4.275
2.125 0.25 4.2125
2.0625 0.25 4.275
2.125 0.1875 4.2125
2.0625 0.1875 4.275
2.0625 0.25 4.2125
2.0625 0.1875 4.2125
2.25 0.1875 4.275
2.25 0.25 4.2125
2.1875 0.25 4.275
2.25 0.1875 4.2125
2.1875 0.1875 4.275
2.1875 0.25 4.2125
2.1875 0.1875 4.2125
2.375 0.1875 4.275
2.375 0.25 4.2125
2.3125 0.25 4.275
2.375 0.1875 4.2125
2.3125 0.1875 4.275
2.3125 0.25 4.2125
2.3125 0.1875 4.2125
2.5 0.1875 4.275
2.5 0.25 4.2125
2.4375 0.25 4.275
2.5 0.1875 4.2125
2.4375 0.1875 4.275
2.4375 0.25 4.2125
2.4375 0.1875 4.2125
2.625 0.1875 4.275
2.625 0.25 4.2125
2.5625 0.25 4.275
2.625 0.1875 4.2125
2.5625 0.1875 4.275
2.5625 0.25 4.2125
2.5625 0.1875 4.2125
2.75 0.1875 4.275
2.75 0.25 4.2125
2.6875 0.25 4.275
2.75 0.1875 4.2125
2.6875 0.1875 4.275
2.6875 0.25 4.2125
2.6875 0.1875 4.2125
2.875 0.1875 4.275
2.875 0.25 4.2125
2.8125 0.25 4.275
2.875 0.1875 4.2125
2.8125 0.1875 4.275
2.8125 0.25 4.2125
2.8125 0.1875 4.2125
3 0.1875 4.275
3 0.25 4.2125
2.9375 0.25 4.275
3 0.1875 4.2125
2.9375 0.1875 4.275
2.9375 0.25 4.2125
2.9375 0.1875 4.2125
3.125 0.1875 4.275
3.125 0.25 4.2125
3.0625 0.25 4.275
3.125 0.1875 4.2125
3.0625 0.1875 4.275
3.0625 0.25 4.2125
3.0625 0.1875 4.2125
3.25 0.1875 4.275
3.25 0.25 4.2125
3.1875 0.25 4.275
3.25 0.1875 4.2125
3.1875 0.1875 4.275
3.1875 0.25 4.2125
3.1875 0.1875 4.2125
3.375 0.1875 4.275
3.375 0.25 4.2125
3.3125 0.25 4.275
3.375 0.1875 4.2125
3.3125 0.1875 4.275
3.3125 0.25 4.2125
3.3125 0.1875 4.2125
3.5 0.1875 4.275
3.5 0.25 4.2125
3.4375 0.25 4.275
3.5 0.1875 4.2125
3.4375 0.1875 4.275
3.4375 0.25 4.2125
3.4375 0.1875 4.2125
3.625 0.1875 4.275
3.625 0.25 4.2125
3.5625 0.25 4.275
3.625 0.1875 4.2125
3.5625 0.1875 4.275
3.5625 0.25 4.2125
3.5625 0.1875 4.2125
3.75 0.1875 4.275
3.75 0.25 4.2125
3.6875 0.25 4.275
3.75 0.1875 4.2125
3.6875 0.1875 4.275
3.6875 0.25 4.2125
3.6875 0.1875 4.2125
3.875 0.1875 4.275
3.875 0.25 4.2125
3.8125 0.25 4.275
3.875 0.1875 4.2125
3.8125 0.1875 4.275
3.8125 0.25 4.2125
3.8125 0.1875 4.2125
4 0.1875 4.275
4 0.25 4.2125
3.9375 0.25 4.275
4 0.1875 4.2125
3.9375 0.1875 4.275
3.9375 0.25 4.2125
3.9375 0.1875 4.2125
0.125 0.3125 4.275
0 0.3125 4.275
0.125 0.375 4.2125
0.0625 0.375 4.275
0 0.375 4.2125
0.125 0.3125 4.2125
0.0625 0.3125 4.275
0 0.3125 4.2125
0.0625 0.375 4.2125
0.0625 0.3125 4.2125
0.25 0.3125 4.275
0.25 0.375 4.2125
0.1875 0.375 4.275
0.25 0.3125 4.2125
0.1875 0.3125 4.275
0.1875 0.375 4.2125
0.1875 0.3125 4.2125
0.375 0.3125 4.275
0.375 0.375 4.2125
0.3125 0.375 4.275
0.375 0.3125 4.2125
0.3125 0.3125 4.275
0.3125 0.375 4.2125
0.3125 0.3125 4.2125
0.5 0.3125 4.275
0.5 0.375 4.2125
0.4375 0.375 4.275
0.5 0.3125 4.2125
0.4375 0.3125 4.275
0.4375 0.375 4.2125
0.4375 0.3125 4.2125
0.625 0.3125 4.275
0.625 0.375 4.2125
0.5625 0.375 4.275
0.625 0.3125 4.2125
0.5625 0.3125 4.275
0.5625 0.375 4.2125
0.5625 0.3125 4.2125
0.75 0.3125 4.275
0.75 0.375 4.2125
0.6875 0.375 4.275
0.75 0.3125 4.2125
0.6875 0.3125 4.275
0.6875 0.375 4.2125
0.6875 0.3125 4.2125
0.875 0.3125 4.275
0.875 0.375 4.2125
0.8125 0.375 4.275
0.875 0.3125 4.2125
0.8125 0.3125 4.275
0.8125 0.375 4.2125
0.8125 0.3125 4.2125
1 0.3125 4.275
1 0.375 4.2125
0.9375 0.375 4.275
1 0.3125 4.2125
0.9375 0.3125 4.275
0.9375 0.375 4.2125
0.9375 0.3125 4.2125
1.125 0.3125 4.275
1.125 0.375 4.2125
1.0625 0.375 4.275
1.125 0.3125 4.2125
1.0625 0.3125 4.275
1.0625 0.375 4.2125
1.0625 0.3125 4.2125
1.25 0.3125 4.275
1.25 0.375 4.2125
1.1875 0.375 4.275
1.25 0.3125 4.2125
1.1875 0.3125 4.275
1.1875 0.375 4.2125
1.1875 0.3125 4.2125
1.375 0.3125 4.275
1.375 0.375 4.2125
1.3125 0.375 4.275
1.375 0.3125 4.2125
1.3125 0.3125 4.275
1.3125 0.375 4.2125
1.3125 0.3125 4.2125
1.5 0.3125 4.275
1.5 0.375 4.2125
1.4375 0.375 4.275
1.5 0.3125 4.2125
1.4375 0.3125 4.275
1.4375 0.375 4.2125
1.4375 0.3125 4.2125
1.625 0.3125 4.275
1.625 0.375 4.2125
1.5625 0.375 4.275
1.625 0.3125 4.2125
1.5625 0.3125 4.275
1.5625 0.375 4.2125
1.5625 0.3125 4.2125
1.75 0.3125 4.275
1.75 0.375 4.2125
1.6875 0.375 4.275
1.75 0.3125 4.2125
1.6875 0.3125 4.275
1.6875 0.375 4.2125
1.6875 0.3125 4.2125
1.875 0.3125 4.275
1.875 0.375 4.2125
1.8125 0.375 4.275
1.875 0.3125 4.2125
1.8125 0.3125 4.275
1.8125 0.375 4.2125
1.8125 0.3125 4.2125
2 0.3125 4.275
2 0.375 4.2125
1.9375 0.375 4.275
2 0.3125 4.2125
1.9375 0.3125 4.275
1.9375 0.375 4.2125
1.9375 0.3125 4.2125
2.125 0.3125 4.275
2.125 0.375 4.2125
2.0625 0.375 4.275
2.125 0.3125 4.2125
2.0625 0.3125 4.275
2.0625 0.375 4.2125
2.0625 0.3125 4.2125
2.25 0.3125 4.275
2.25 0.375 4.2125
2.1875 0.375 4.275
2.25 0.3125 4.2125
2.1875 0.3125 4.275
2.1875 0.375 4.2125
2.1875 0.3125 4.2125
2.375 0.3125 4.275
2.375 0.375 4.2125
2.3125 0.375 4.275
2.375 0.3125 4.2125
2.3125 0.3125 4.275
2.3125 0.375 4.2125
2.3125 0.3125 4.2125
2.5 0.3125 4.275
2.5 0.375 4.2125
2.4375 0.375 4.275
2.5 0.3125 4.2125
2.4375 0.3125 4.275
2.4375 0.375 4.2125
2.4375 0.3125 4.2125
2.625 0.3125 4.275
2.625 0.375 4.2125
2.5625 0.375 4.275
2.625 0.3125 4.2125
2.5625 0.3125 4.275
2.5625 0.375 4.2125
2.5625 0.3125 4.2125
2.75 0.3125 4.275
2.75 0.375 4.2125
2.6875 0.375 4.275
2.75 0.3125 4.2125
2.6875 0.3125 4.275
2.6875 0.375 4.2125
2.6875 0.3125 4.2125
2.875 0.3125 4.275
2.875 0.375 4.2125
2.8125 0.375 4.275
2.875 0.3125 4.2125
2.8125 0.3125 4.275
2.8125 0.375 4.2125
2.8125 0.3125 4.2125
3 0.3125 4.275
3 0.375 4.2125
2.9375 0.375 4.275
3 0.3125 4.2125
2.9375 0.3125 4.275
2.9375 0.375 4.2125
2.9375 0.3125 4.2125
3.125 0.3125 4.275
3.125 0.375 4.2125
3.0625 0.375 4.275
3.125 0.3125 4.2125
3.0625 0.3125 4.275
3.0625 0.375 4.2125
3.0625 0.3125 4.2125
3.25 0.3125 4.275
3.25 0.375 4.2125
3.1875 0.375 4.275
3.25 0.3125 4.2125
3.1875 0.3125 4.275
3.1875 0.375 4.2125
3.1875 0.3125 4.2125
3.375 0.3125 4.275
3.375 0.375 4.2125
3.3125 0.375 4.275
3.375 0.3125 4.2125
3.3125 0.3125 4.275
3.3125 0.375 4.2125
3.3125 0.3125 4.2125
3.5 0.3125 4.275
3.5 0.375 4.2125
3.4375 0.375 4.275
3.5 0.3125 4.2125
3.4375 0.3125 4.275
3.4375 0.375 4.2125
3.4375 0.3125 4.2125
3.625 0.3125 4.275
3.625 0.375 4.2125
3.5625 0.375 4.275
3.625 0.3125 4.2125
3.5625 0.3125 4.275
3.5625 0.375 4.2125
3.5625 0.3125 4.2125
3.75 0.3125 4.275
3.75 0.375 4.2125
3.6875 0.375 4.275
3.75 0.3125 4.2125
3.6875 0.3125 4.275
3.6875 0.375 4.2125
3.6875 0.3125 4.2125
3.875 0.3125 4.275
3.875 0.375 4.2125
3.8125 0.375 4.275
3.875 0.3125 4.2125
3.8125 0.3125 4.275
3.8125 0.375 4.2125
3.8125 0.3125 4.2125
4 0.3125 4.275
4 0.375 4.2125
3.9375 0.375 4.275
4 0.3125 4.2125
3.9375 0.3125 4.275
3.9375 0.375 4.2125
3.9375 0.3125 4.2125
0.125 0.4375 4.275
0 0.4375 4.275
0.125 0.5 4.2125
0.0625 0.5 4.275
0 0.5 4.2125
0.125 0.4375 4.2125
0.0625 0.4375 4.275
0 0.4375 4.2125
0.0625 0.5 4.2125
0.0625 0.4375 4.2125
0.25 0.4375 4.275
0.25 0.5 4.2125
0.1875 0.5 4.275
0.25 0.4375 4.2125
0.1875 0.4375 4.275
0.1875 0.5 4.2125
0.1875 0.4375 4.2125
0.375 0.4375 4.275
0.375 0.5 4.2125
0.3125 0.5 4.275
0.375 0.4375 4.2125
0.3125 0.4375 4.275
0.3125 0.5 4.2125
0.3125 0.4375 4.2125
0.5 0.4375 4.275
0.5 0.5 4.2125
0.4375 0.5 4.275
0.5 0.4375 4.2125
0.4375 0.4375 4.275
0.4375 0.5 4.2125
0.4375 0.4375 4.2125
0.625 0.4375 4.275
0.625 0.5 4.2125
0.5625 0.5 4.275
0.625 0.4375 4.2125
0.5625 0.4375 4.275
0.5625 0.5 4.2125
0.5625 0.4375 4.2125
0.75 0.4375 4.275
0.75 0.5 4.2125
0.6875 0.5 4.275
0.75 0.4375 4.2125
0.6875 0.4375 4.275
0.6875 0.5 4.2125
0.6875 0.4375 4.2125
0.875 0.4375 4.275
0.875 0.5 4.2125
0.8125 0.5 4.275
0.875 0.4375 4.2125
0.8125 0.4375 4.275
0.8125 0.5 4.2125
0.8125 0.4375 4.2125
1 0.4375 4.275
1 0.5 4.2125
0.9375 0.5 4.275
1 0.4375 4.2125
0.9375 0.4375 4.275
0.9375 0.5 4.2125
0.9375 0.4375 4.2125
1.125 0.4375 4.275
1.125 0.5 4.2125
1.0625 0.5 4.275
1.125 0.4375 4.2125
1.0625 0.4375 4.275
1.0625 0.5 4.2125
1.0625 0.4375 4.2125
1.25 0.4375 4.275
1.25 0.5 4.2125
1.1875 0.5 4.275
1.25 0.4375 4.2125
1.1875 0.4375 4.275
1.1875 0.5 4.2125
1.1875 0.4375 4.2125
1.375 0.4375 4.275
1.375 0.5 4.2125
1.3125 0.5 4.275
1.375 0.4375 4.2125
1.3125 0.4375 4.275
1.3125 0.5 4.2125
1.3125 0.4375 4.2125
1.5 0.4375 4.275
1.5 0.5 4.2125
1.4375 0.5 4.275
1.5 0.4375 4.2125
1.4375 0.4375 4.275
1.4375 0.5 4.2125
1.4375 0.4375 4.2125
1.625 0.4375 4.275
1.625 0.5 4.2125
1.5625 0.5 4.275
1.625 0.4375 4.2125
1.5625 0.4375 4.275
1.5625 0.5 4.2125
1.5625 0.4375 4.2125
1.75 0.4375 4.275
1.75 0.5 4.2125
1.6875 0.5 4.275
1.75 0.4375 4.2125
1.6875 0.4375 4.275
1.6875 0.5 4.2125
1.6875 0.4375 4.2125
1.875 0.4375 4.275
1.875 0.5 4.2125
1.8125 0.5 4.275
1.875 0.4375 4.2125
1.8125 0.4375 4.275
1.8125 0.5 4.2125
1.8125 0.4375 4.2125
2 0.4375 4.275
2 0.5 4.2125
1.9375 0.5 4.275
2 0.4375 4.2125
1.9375 0.4375 4.275
1.9375 0.5 4.2125
1.9375 0.4375 4.2125
2.125 0.4375 4.275
2.125 0.5 4.2125
2.0625 0.5 4.275
2.125 0.4375 4.2125
2.0625 0.4375 4.275
2.0625 0.5 4.2125
2.0625 0.4375 4.2125
2.25 0.4375 4.275
2.25 0.5 4.2125
2.1875 0.5 4.275
2.25 0.4375 4.2125
2.1875 0.4375 4.275
2.1875 0.5 4.2125
2.1875 0.4375 4.2125
2.375 0.4375 4.275
2.375 0.5 4.2125
2.3125 0.5 4.275
2.375 0.4375 4.2125
2.3125 0.4375 4.275
2.3125 0.5 4.2125
2.3125 0.4375 4.2125
2.5 0.4375 4.275
2.5 0.5 4.2125
2.4375 0.5 4.275
2.5 0.4375 4.2125
2.4375 0.4375 4.275
2.4375 0.5 4.2125
2.4375 0.4375 4.2125
2.625 0.4375 4.275
2.625 0.5 4.2125
2.5625 0.5 4.275
2.625 0.4375 4.2125
2.5625 0.4375 4.275
2.5625 0.5 4.2125
2.5625 0.4375 4.2125
2.75 0.4375 4.275
2.75 0.5 4.2125
2.6875 0.5 4.275
2.75 0.4375 4.2125
2.6875 0.4375 4.275
2.6875 0.5 4.2125
2.6875 0.4375 4.2125
2.875 0.4375 4.275
2.875 0.5 4.2125
2.8125 0.5 4.275
2.875 0.4375 4.2125
2.8125 0.4375 4.275
2.8125 0.5 4.2125
2.8125 0.4375 4.2125
3 0.4375 4.275
3 0.5 4.2125
2.9375 0.5 4.275
3 0.4375 4.2125
2.9375 0.4375 4.275
2.9375 0.5 4.2125
2.9375 0.4375 4.2125
3.125 0.4375 4.275
3.125 0.5 4.2125
3.0625 0.5 4.275
3.125 0.4375 4.2125
3.0625 0.4375 4.275
3.0625 0.5 4.2125
3.0625 0.4375 4.2125
3.25 0.4375 4.275
3.25 0.5 4.2125
3.1875 0.5 4.275
3.25 0.4375 4.2125
3.1875 0.4375 4.275
3.1875 0.5 4.2125
3.1875 0.4375 4.2125
3.375 0.4375 4.275
3.375 0.5 4.2125
3.3125 0.5 4.275
3.375 0.4375 4.2125
3.3125 0.4375 4.275
3.3125 0.5 4.2125
3.3125 0.4375 4.2125
3.5 0.4375 4.275
3.5 0.5 4.2125
3.4375 0.5 4.275
3.5 0.4375 4.2125
3.4375 0.4375 4.275
3.4375 0.5 4.2125
3.4375 0.4375 4.2125
3.625 0.4375 4.275
3.625 0.5 4.2125
3.5625 0.5 4.275
3.625 0.4375 4.2125
3.5625 0.4375 4.275
3.5625 0.5 4.2125
3.5625 0.4375 4.2125
3.75 0.4375 4.275
3.75 0.5 4.2125
3.6875 0.5 4.275
3.75 0.4375 4.2125
3.6875 0.4375 4.275
3.6875 0.5 4.2125
3.6875 0.4375 4.2125
3.875 0.4375 4.275
3.875 0.5 4.2125
3.8125 0.5 4.275
3.875 0.4375 4.2125
3.8125 0.4375 4.275
3.8125 0.5 4.2125
3.8125 0.4375 4.2125
4 0.4375 4.275
4 0.5 4.2125
3.9375 0.5 4.275
4 0.4375 4.2125
3.9375 0.4375 4.275
3.9375 0.5 4.2125
3.9375 0.4375 4.2125
0.125 0.5625 4.275
0 0.5625 4.275
0.125 0.625 4.2125
0.0625 0.625 4.275
0 0.625 4.2125
0.125 0.5625 4.2125
0.0625 0.5625 4.275
0 0.5625 4.2125
0.0625 0.625 4.2125
0.0625 0.5625 4.2125
0.25 0.5625 4.275
0.25 0.625 4.2125
0.1875 0.625 4.275
0.25 0.5625 4.2125
0.1875 0.5625 4.275
0.1875 0.625 4.2125
0.1875 0.5625 4.2125
0.375 0.5625 4.275
0.375 0.625 4.2125
0.3125 0.625 4.275
0.375 0.5625 4.2125
0.3125 0.5625 4.275
0.3125 0.625 4.2125
0.3125 0.5625 4.2125
0.5 0.5625 4.275
0.5 0.625 4.2125
0.4375 0.625 4.275
0.5 0.5625 4.2125
0.4375 0.5625 4.275
0.4375 0.625 4.2125
0.4375 0.5625 4.2125
0.625 0.5625 4.275
0.625 0.625 4.2125
0.5625 0.625 4.275
0.625 0.5625 4.2125
0.5625 0.5625 4.275
0.5625 0.625 4.2125
0.5625 0.5625 4.2125
0.75 0.5625 4.275
0.75 0.625 4.2125
0.6875 0.625 4.275
0.75 0.5625 4.2125
0.6875 0.5625 4.275
0.6875 0.625 4.2125
0.6875 0.5625 4.2125
0.875 0.5625 4.275
0.875 0.625 4.2125
0.8125 0.625 4.275
0.875 0.5625 4.2125
0.8125 0.5625 4.275
0.8125 0.625 4.2125
0.8125 0.5625 4.2125
1 0.5625 4.275
1 0.625 4.2125
0.9375 0.625 4.275
1 0.5625 4.2125
0.9375 0.5625 4.275
0.9375 0.625 4.2125
0.9375 0.5625 4.2125
1.125 0.5625 4.275
1.125 0.625 4.2125
1.0625 0.625 4.275
1.125 0.5625 4.2125
1.0625 0.5625 4.275
1.0625 0.625 4.2125
1.0625 0.5625 4.2125
1.25 0.5625 4.275
1.25 0.625 4.2125
1.1875 0.625 4.275
1.25 0.5625 4.2125
1.1875 0.5625 4.275
1.1875 0.625 4.2125
1.1875 0.5625 4.2125
1.375 0.5625 4.275
1.375 0.625 4.2125
1.3125 0.625 4.275
1.375 0.5625 4.2125
1.3125 0.5625 4.275
1.3125 0.625 4.2125
1.3125 0.5625 4.2125
1.5 0.5625 4.275
1.5 0.625 4.2125
1.4375 0.625 4.275
1.5 0.5625 4.2125
1.4375 0.5625 4.275
1.4375 0.625 4.2125
1.4375 0.5625 4.2125
1.625 0.5625 4.275
1.625 0.625 4.2125
1.5625 0.625 4.275
1.625 0.5625 4.2125
1.5625 0.5625 4.275
1.5625 0.625 4.2125
1.5625 0.5625 4.2125
1.75 0.5625 4.275
1.75 0.625 4.2125
1.6875 0.625 4.275
1.75 0.5625 4.2125
1.6875 0.5625 4.275
1.6875 0.625 4.2125
1.6875 0.5625 4.2125
1.875 0.5625 4.275
1.875 0.625 4.2125
1.8125 0.625 4.275
1.875 0.5625 4.2125
1.8125 0.5625 4.275
1.8125 0.625 4.2125
1.8125 0.5625 4.2125
2 0.5625 4.275
2 0.625 4.2125
1.9375 0.625 4.275
2 0.5625 4.2125
1.9375 0.5625 4.275
1.9375 0.625 4.2125
1.9375 0.5625 4.2125
2.125 0.5625 4.275
2.125 0.625 4.2125
2.0625 0.625 4.275
2.125 0.5625 4.2125
2.0625 0.5625 4.275
2.0625 0.625 4.2125
2.0625 0.5625 4.2125
2.25 0.5625 4.275
2.25 0.625 4.2125
2.1875 0.625 4.275
2.25 0.5625 4.2125
2.1875 0.5625 4.275
2.1875 0.625 4.2125
2.1875 0.5625 4.2125
2.375 0.5625 4.275
2.375 0.625 4.2125
2.3125 0.625 4.275
2.375 0.5625 4.2125
2.3125 0.5625 4.275
2.3125 0.625 4.2125
2.3125 0.5625 4.2125
2.5 0.5625 4.275
2.5 0.625 4.2125
2.4375 0.625 4.275
2.5 0.5625 4.2125
2.4375 0.5625 4.275
2.4375 0.625 4.2125
2.4375 0.5625 4.2125
2.625 0.5625 4.275
2.625 0.625 4.2125
2.5625 0.625 4.275
2.625 0.5625 4.2125
2.5625 0.5625 4.275
2.5625 0.625 4.2125
2.5625 0.5625 4.2125
2.75 0.5625 4.275
2.75 0.625 4.2125
2.6875 0.625 4.275
2.75 0.5625 4.2125
2.6875 0.5625 4.275
2.6875 0.625 4.2125
2.6875 0.5625 4.2125
2.875 0.5625 4.275
2.875 0.625 4.2125
2.8125 0.625 4.275
2.875 0.5625 4.2125
2.8125 0.5625 4.275
2.8125 0.625 4.2125
2.8125 0.5625 4.2125
3 0.5625 4.275
3 0.625 4.2125
2.9375 0.625 4.275
3 0.5625 4.2125
2.9375 0.5625 4.275
2.9375 0.625 4.2125
2.9375 0.5625 4.2125
3.125 0.5625 4.275
3.125 0.625 4.2125
3.0625 0.625 4.275
3.125 0.5625 4.2125
3.0625 0.5625 4.275
3.0625 0.625 4.2125
3.0625 0.5625 4.2125
3.25 0.5625 4.275
3.25 0.625 4.2125
3.1875 0.625 4.275
3.25 0.5625 4.2125
3.1875 0.5625 4.275
3.1875 0.625 4.2125
3.1875 0.5625 4.2125
3.375 0.5625 4.275
3.375 0.625 4.2125
3.3125 0.625 4.275
3.375 0.5625 4.2125
3.3125 0.5625 4.275
3.3125 0.625 4.2125
3.3125 0.5625 4.2125
3.5 0.5625 4.275
3.5 0.625 4.2125
3.4375 0.625 4.275
3.5 0.5625 4.2125
3.4375 0.5625 4.275
3.4375 0.625 4.2125
3.4375 0.5625 4.2125
3.625 0.5625 4.275
3.625 0.625 4.2125
3.5625 0.625 4.275
3.625 0.5625 4.2125
3.5625 0.5625 4.275
3.5625 0.625 4.2125
3.5625 0.5625 4.2125
3.75 0.5625 4.275
3.75 0.625 4.2125
3.6875 0.625 4.275
3.75 0.5625 4.2125
3.6875 0.5625 4.275
3.6875 0.625 4.2125
3.6875 0.5625 4.2125
3.875 0.5625 4.275
3.875 0.625 4.2125
3.8125 0.625 4.275
3.875 0.5625 4.2125
3.8125 0.5625 4.275
3.8125 0.625 4.2125
3.8125 0.5625 4.2125
4 0.5625 4.275
4 0.625 4.2125
3.9375 0.625 4.275
4 0.5625 4.2125
3.9375 0.5625 4.275
3.9375 0.625 4.2125
3.9375 0.5625 4.2125
0.125 0.6875 4.275
0 0.6875 4.275
0.125 0.75 4.2125
0.0625 0.75 4.275
0 0.75 4.2125
0.125 0.6875 4.2125
0.0625 0.6875 4.275
0 0.6875 4.2125
0.0625 0.75 4.2125
0.0625 0.6875 4.2125
0.25 0.6875 4.275
0.25 0.75 4.2125
0.1875 0.75 4.275
0.25 0.6875 4.2125
0.1875 0.6875 4.275
0.1875 0.75 4.2125
0.1875 0.6875 4.2125
0.375 0.6875 4.275
0.375 0.75 4.2125
0.3125 0.75 4.275
0.375 0.6875 4.2125
0.3125 0.6875 4.275
0.3125 0.75 4.2125
0.3125 0.6875 4.2125
0.5 0.6875 4.275
0.5 0.75 4.2125
0.4375 0.75 4.275
0.5 0.6875 4.2125
0.4375 0.6875 4.275
0.4375 0.75 4.2125
0.4375 0.6875 4.2125
0.625 0.6875 4.275
0.625 0.75 4.2125
0.5625 0.75 4.275
0.625 0.6875 4.2125
0.5625 0.6875 4.275
0.5625 0.75 4.2125
0.5625 0.6875 4.2125
0.75 0.6875 4.275
0.75 0.75 4.2125
0.6875 0.75 4.275
0.75 0.6875 4.2125
0.6875 0.6875 4.275
0.6875 0.75 4.2125
0.6875 0.6875 4.2125
0.875 0.6875 4.275
0.875 0.75 4.2125
0.8125 0.75 4.275
0.875 0.6875 4.2125
0.8125 0.6875 4.275
0.8125 0.75 4.2125
0.8125 0.6875 4.2125
1 0.6875 4.275
1 0.75 4.2125
0.9375 0.75 4.275
1 0.6875 4.2125
0.9375 0.6875 4.275
0.9375 0.75 4.2125
0.9375 0.6875 4.2125
1.125 0.6875 4.275
1.125 0.75 4.2125
1.0625 0.75 4.275
1.125 0.6875 4.2125
1.0625 0.6875 4.275
1.0625 0.75 4.2125
1.0625 0.6875 4.2125
1.25 0.6875 4.275
1.25 0.75 4.2125
1.1875 0.75 4.275
1.25 0.6875 4.2125
1.1875 0.6875 4.275
1.1875 0.75 4.2125
1.1875 0.6875 4.2125
1.375 0.6875 4.275
1.375 0.75 4.2125
1.3125 0.75 4.275
1.375 0.6875 4.2125
1.3125 0.6875 4.275
1.3125 0.75 4.2125
1.3125 0.6875 4.2125
1.5 0.6875 4.275
1.5 0.75 4.2125
1.4375 0.75 4.275
1.5 0.6875 4.2125
1.4375 0.6875 4.275
1.4375 0.75 4.2125
1.4375 0.6875 4.2125
1.625 0.6875 4.275
1.625 0.75 4.2125
1.5625 0.75 4.275
1.625 0.6875 4.2125
1.5625 0.6875 4.275
1.5625 0.75 4.2125
1.5625 0.6875 4.2125
1.75 0.6875 4.275
1.75 0.75 4.2125
1.6875 0.75 4.275
1.75 0.6875 4.2125
1.6875 0.6875 4.275
1.6875 0.75 4.2125
1.6875 0.6875 4.2125
1.875 0.6875 4.275
1.875 0.75 4.2125
1.8125 0.75 4.275
1.875 0.6875 4.2125
1.8125 0.6875 4.275
1.8125 0.75 4.2125
1.8125 0.6875 4.2125
2 0.6875 4.275
2 0.75 4.2125
1.9375 0.75 4.275
2 0.6875 4.2125
1.9375 0.6875 4.275
1.9375 0.75 4.2125
1.9375 0.6875 4.2125
2.125 0.6875 4.275
2.125 0.75 4.2125
2.0625 0.75 4.275
2.125 0.6875 4.2125
2.0625 0.6875 4.275
2.0625 0.75 4.2125
2.0625 0.6875 4.2125
2.25 0.6875 4.275
2.25 0.75 4.2125
2.1875 0.75 4.275
2.25 0.6875 4.2125
2.1875 0.6875 4.275
2.1875 0.75 4.2125
2.1875 0.6875 4.2125
2.375 0.6875 4.275
2.375 0.75 4.2125
2.3125 0.75 4.275
2.375 0.6875 4.2125
2.3125 0.6875 4.275
2.3125 0.75 4.2125
2.3125 0.6875 4.2125
2.5 0.6875 4.275
2.5 0.75 4.2125
2.4375 0.75 4.275
2.5 0.6875 4.2125
2.4375 0.6875 4.275
2.4375 0.75 4.2125
2.4375 0.6875 4.2125
2.625 0.6875 4.275
2.625 0.75 4.2125
2.5625 0.75 4.275
2.625 0.6875 4.2125
2.5625 0.6875 4.275
2.5625 0.75 4.2125
2.5625 0.6875 4.2125
2.75 0.6875 4.275
2.75 0.75 4.2125
2.6875 0.75 4.275
2.75 0.6875 4.2125
2.6875 0.6875 4.275
2.6875 0.75 4.2125
2.6875 0.6875 4.2125
2.875 0.6875 4.275
2.875 0.75 4.2125
2.8125 0.75 4.275
2.875 0.6875 4.2125
2.8125 0.6875 4.275
2.8125 0.75 4.2125
2.8125 0.6875 4.2125
3 0.6875 4.275
3 0.75 4.2125
2.9375 0.75 4.275
3 0.6875 4.2125
2.9375 0.6875 4.275
2.9375 0.75 4.2125
2.9375 0.6875 4.2125
3.125 0.6875 4.275
3.125 0.75 4.2125
3.0625 0.75 4.275
3.125 0.6875 4.2125
3.0625 0.6875 4.275
3.0625 0.75 4.2125
3.0625 0.6875 4.2125
3.25 0.6875 4.275
3.25 0.75 4.2125
3.1875 0.75 4.275
3.25 0.6875 4.2125
3.1875 0.6875 4.275
3.1875 0.75 4.2125
3.1875 0.6875 4.2125
3.375 0.6875 4.275
3.375 0.75 4.2125
3.3125 0.75 4.275
3.375 0.6875 4.2125
3.3125 0.6875 4.275
3.3125 0.75 4.2125
3.3125 0.6875 4.2125
3.5 0.6875 4.275
3.5 0.75 4.2125
3.4375 0.75 4.275
3.5 0.6875 4.2125
3.4375 0.6875 4.275
3.4375 0.75 4.2125
3.4375 0.6875 4.2125
3.625 0.6875 4.275
3.625 0.75 4.2125
3.5625 0.75 4.275
3.625 0.6875 4.2125
3.5625 0.6875 4.275
3.5625 0.75 4.2125
3.5625 0.6875 4.2125
3.75 0.6875 4.275
3.75 0.75 4.2125
3.6875 0.75 4.275
3.75 0.6875 4.2125
3.6875 0.6875 4.275
3.6875 0.75 4.2125
3.6875 0.6875 4.2125
3.875 0.6875 4.275
3.875 0.75 4.2125
3.8125 0.75 4.275
3.875 0.6875 4.2125
3.8125 0.6875 4.275
3.8125 0.75 4.2125
3.8125 0.6875 4.2125
4 0.6875 4.275
4 0.75 4.2125
3.9375 0.75 4.275
4 0.6875 4.2125
3.9375 0.6875 4.275
3.9375 0.75 4.2125
3.9375 0.6875 4.2125
0.125 0.8125 4.275
0 0.8125 4.275
0.125 0.875 4.2125
0.0625 0.875 4.275
0 0.875 4.2125
0.125 0.8125 4.2125
0.0625 0.8125 4.275
0 0.8125 4.2125
0.0625 0.875 4.2125
0.0625 0.8125 4.2125
0.25 0.8125 4.275
0.25 0.875 4.2125
0.1875 0.875 4.275
0.25 0.8125 4.2125
0.1875 0.8125 4.275
0.1875 0.875 4.2125
0.1875 0.8125 4.2125
0.375 0.8125 4.275
0.375 0.875 4.2125
0.3125 0.875 4.275
0.375 0.8125 4.2125
0.3125 0.8125 4.275
0.3125 0.875 4.2125
0.3125 0.8125 4.2125
0.5 0.8125 4.275
0.5 0.875 4.2125
0.4375 0.875 4.275
0.5 0.8125 4.2125
0.4375 0.8125 4.275
0.4375 0.875 4.2125
0.4375 0.8125 4.2125
0.625 0.8125 4.275
0.625 0.875 4.2125
0.5625 0.875 4.275
0.625 0.8125 4.2125
0.5625 0.8125 4.275
0.5625 0.875 4.2125
0.5625 0.8125 4.2125
0.75 0.8125 4.275
0.75 0.875 4.2125
0.6875 0.875 4.275
0.75 0.8125 4.2125
0.6875 0.8125 4.275
0.6875 0.875 4.2125
0.6875 0.8125 4.2125
0.875 0.8125 4.275
0.875 0.875 4.2125
0.8125 0.875 4.275
0.875 0.8125 4.2125
0.8125 0.8125 4.275
0.8125 0.875 4.2125
0.8125 0.8125 4.2125
1 0.8125 4.275
1 0.875 4.2125
0.9375 0.875 4.275
1 0.8125 4.2125
0.9375 0.8125 4.275
0.9375 0.875 4.2125
0.9375 0.8125 4.2125
1.125 0.8125 4.275
1.125 0.875 4.2125
1.0625 0.875 4.275
1.125 0.8125 4.2125
1.0625 0.8125 4.275
1.0625 0.875 4.2125
1.0625 0.8125 4.2125
1.25 0.8125 4.275
1.25 0.875 4.2125
1.1875 0.875 4.275
1.25 0.8125 4.2125
1.1875 0.8125 4.275
1.1875 0.875 4.2125
1.1875 0.8125 4.2125
1.375 0.8125 4.275
1.375 0.875 4.2125
1.3125 0.875 4.275
1.375 0.8125 4.2125
1.3125 0.8125 4.275
1.3125 0.875 4.2125
1.3125 0.8125 4.2125
1.5 0.8125 4.275
1.5 0.875 4.2125
1.4375 0.875 4.275
1.5 0.8125 4.2125
1.4375 0.8125 4.275
1.4375 0.875 4.2125
1.4375 0.8125 4.2125
1.625 0.8125 4.275
1.625 0.875 4.2125
1.5625 0.875 4.275
1.625 0.8125 4.2125
1.5625 0.8125 4.275
1.5625 0.875 4.2125
1.5625 0.8125 4.2125
1.75 0.8125 4.275
1.75 0.875 4.2125
1.6875 0.875 4.275
1.75 0.8125 4.2125
1.6875 0.8125 4.275
1.6875 0.875 4.2125
1.6875 0.8125 4.2125
1.875 0.8125 4.275
1.875 0.875 4.2125
1.8125 0.875 4.275
1.875 0.8125 4.2125
1.8125 0.8125 4.275
1.8125 0.875 4.2125
1.8125 0.8125 4.2125
2 0.8125 4.275
2 0.875 4.2125
1.9375 0.875 4.275
2 0.8125 4.2125
1.9375 0.8125 4.275
1.9375 0.875 4.2125
1.9375 0.8125 4.2125
2.125 0.8125 4.275
2.125 0.875 4.2125
2.0625 0.875 4.275
2.125 0.8125 4.2125
2.0625 0.8125 4.275
2.0625 0.875 4.2125
2.0625 0.8125 4.2125
2.25 0.8125 4.275
2.25 0.875 4.2125
2.1875 0.875 4.275
2.25 0.8125 4.2125
2.1875 0.8125 4.275
2.1875 0.875 4.2125
2.1875 0.8125 4.2125
2.375 0.8125 4.275
2.375 0.875 4.2125
2.3125 0.875 4.275
2.375 0.8125 4.2125
2.3125 0.8125 4.275
2.3125 0.875 4.2125
2.3125 0.8125 4.2125
2.5 0.8125 4.275
2.5 0.875 4.2125
2.4375 0.875 4.275
2.5 0.8125 4.2125
2.4375 0.8125 4.275
2.4375 0.875 4.2125
2.4375 0.8125 4.2125
2.625 0.8125 4.275
2.625 0.875 4.2125
2.5625 0.875 4.275
2.625 0.8125 4.2125
2.5625 0.8125 4.275
2.5625 0.875 4.2125
2.5625 0.8125 4.2125
2.75 0.8125 4.275
2.75 0.875 4.2125
2.6875 0.875 4.275
2.75 0.8125 4.2125
2.6875 0.8125 4.275
2.6875 0.875 4.2125
2.6875 0.8125 4.2125
2.875 0.8125 4.275
2.875 0.875 4.2125
2.8125 0.875 4.275
2.875 0.8125 4.2125
2.8125 0.8125 4.275
2.8125 0.875 4.2125
2.8125 0.8125 4.2125
3 0.8125 4.275
3 0.875 4.2125
2.9375 0.875 4.275
3 0.8125 4.2125
2.9375 0.8125 4.275
2.9375 0.875 4.2125
2.9375 0.8125 4.2125
3.125 0.8125 4.275
3.125 0.875 4.2125
3.0625 0.875 4.275
3.125 0.8125 4.2125
3.0625 0.8125 4.275
3.0625 0.875 4.2125
3.0625 0.8125 4.2125
3.25 0.8125 4.275
3.25 0.875 4.2125
3.1875 0.875 4.275
3.25 0.8125 4.2125
3.1875 0.8125 4.275
3.1875 0.875 4.2125
3.1875 0.8125 4.2125
3.375 0.8125 4.275
3.375 0.875 4.2125
3.3125 0.875 4.275
3.375 0.8125 4.2125
3.3125 0.8125 4.275
3.3125 0.875 4.2125
3.3125 0.8125 4.2125
3.5 0.8125 4.275
3.5 0.875 4.2125
3.4375 0.875 4.275
3.5 0.8125 4.2125
3.4375 0.8125 4.275
3.4375 0.875 4.2125
3.4375 0.8125 4.2125
3.625 0.8125 4.275
3.625 0.875 4.2125
3.5625 0.875 4.275
3.625 0.8125 4.2125
3.5625 0.8125 4.275
3.5625 0.875 4.2125
3.5625 0.8125 4.2125
3.75 0.8125 4.275
3.75 0.875 4.2125
3.6875 0.875 4.275
3.75 0.8125 4.2125
3.6875 0.8125 4.275
3.6875 0.875 4.2125
3.6875 0.8125 4.2125
3.875 0.8125 4.275
3.875 0.875 4.2125
3.8125 0.875 4.275
3.875 0.8125 4.2125
3.8125 0.8125 4.275
3.8125 0.875 4.2125
3.8125 0.8125 4.2125
4 0.8125 4.275
4 0.875 4.2125
3.9375 0.875 4.275
4 0.8125 4.2125
3.9375 0.8125 4.275
3.9375 0.875 4.2125
3.9375 0.8125 4.2125
0.125 0.9375 4.275
0 0.9375 4.275
0.125 1 4.2125
0.0625 1 4.275
0 1 4.2125
0.125 0.9375 4.2125
0.0625 0.9375 4.275
0 0.9375 4.2125
0.0625 1 4.2125
0.0625 0.9375 4.2125
0.25 0.9375 4.275
0.25 1 4.2125
0.1875 1 4.275
0.25 0.9375 4.2125
0.1875 0.9375 4.275
0.1875 1 4.2125
0.1875 0.9375 4.2125
0.375 0.9375 4.275
0.375 1 4.2125
0.3125 1 4.275
0.375 0.9375 4.2125
0.3125 0.9375 4.275
0.3125 1 4.2125
0.3125 0.9375 4.2125
0.5 0.9375 4.275
0.5 1 4.2125
0.4375 1 4.275
0.5 0.9375 4.2125
0.4375 0.9375 4.275
0.4375 1 4.2125
0.4375 0.9375 4.2125
0.625 0.9375 4.275
0.625 1 4.2125
0.5625 1 4.275
0.625 0.9375 4.2125
0.5625 0.9375 4.275
0.5625 1 4.2125
0.5625 0.9375 4.2125
0.75 0.9375 4.275
0.75 1 4.2125
0.6875 1 4.275
0.75 0.9375 4.2125
0.6875 0.9375 4.275
0.6875 1 4.2125
0.6875 0.9375 4.2125
0.875 0.9375 4.275
0.875 1 4.2125
0.8125 1 4.275
0.875 0.9375 4.2125
0.8125 0.9375 4.275
0.8125 1 4.2125
0.8125 0.9375 4.2125
1 0.9375 4.275
1 1 4.2125
0.9375 1 4.275
1 0.9375 4.2125
0.9375 0.9375 4.275
0.9375 1 4.2125
0.9375 0.9375 4.2125
1.125 0.9375 4.275
1.125 1 4.2125
1.0625 1 4.275
1.125 0.9375 4.2125
1.0625 0.9375 4.275
1.0625 1 4.2125
1.0625 0.9375 4.2125
1.25 0.9375 4.275
1.25 1 4.2125
1.1875 1 4.275
1.25 0.9375 4.2125
1.1875 0.9375 4.275
1.1875 1 4.2125
1.1875 0.9375 4.2125
1.375 0.9375 4.275
1.375 1 4.2125
1.3125 1 4.275
1.375 0.9375 4.2125
1.3125 0.9375 4.275
1.3125 1 4.2125
1.3125 0.9375 4.2125
1.5 0.9375 4.275
1.5 1 4.2125
1.4375 1 4.275
1.5 0.9375 4.2125
1.4375 0.9375 4.275
1.4375 1 4.2125
1.4375 0.9375 4.2125
1.625 0.9375 4.275
1.625 1 4.2125
1.5625 1 4.275
1.625 0.9375 4.2125
1.5625 0.9375 4.275
1.5625 1 4.2125
1.5625 0.9375 4.2125
1.75 0.9375 4.275
1.75 1 4.2125
1.6875 1 4.275
1.75 0.9375 4.2125
1.6875 0.9375 4.275
1.6875 1 4.2125
1.6875 0.9375 4.2125
1.875 0.9375 4.275
1.875 1 4.2125
1.8125 1 4.275
1.875 0.9375 4.2125
1.8125 0.9375 4.275
1.8125 1 4.2125
1.8125 0.9375 4.2125
2 0.9375 4.275
2 1 4.2125
1.9375 1 4.275
2 0.9375 4.2125
1.9375 0.9375 4.275
1.9375 1 4.2125
1.9375 0.9375 4.2125
2.125 0.9375 4.275
2.125 1 4.2125
2.0625 1 4.275
2.125 0.9375 4.2125
2.0625 0.9375 4.275
2.0625 1 4.2125
2.0625 0.9375 4.2125
2.25 0.9375 4.275
2.25 1 4.2125
2.1875 1 4.275
2.25 0.9375 4.2125
2.1875 0.9375 4.275
2.1875 1 4.2125
2.1875 0.9375 4.2125
2.375 0.9375 4.275
2.375 1 4.2125
2.3125 1 4.275
2.375 0.9375 4.2125
2.3125 0.9375 4.275
2.3125 1 4.2125
2.3125 0.9375 4.2125
2.5 0.9375 4.275
2.5 1 4.2125
2.4375 1 4.275
2.5 0.9375 4.2125
2.4375 0.9375 4.275
2.4375 1 4.2125
2.4375 0.9375 4.2125
2.625 0.9375 4.275
2.625 1 4.2125
2.5625 1 4.275
2.625 0.9375 4.2125
2.5625 0.9375 4.275
2.5625 1 4.2125
2.5625 0.9375 4.2125
2.75 0.9375 4.275
2.75 1 4.2125
2.6875 1 4.275
2.75 0.9375 4.2125
2.6875 0.9375 4.275
2.6875 1 4.2125
2.6875 0.9375 4.2125
2.875 0.9375 4.275
2.875 1 4.2125
2.8125 1 4.275
2.875 0.9375 4.2125
2.8125 0.9375 4.275
2.8125 1 4.2125
2.8125 0.9375 4.2125
3 0.9375 4.275
3 1 4.2125
2.9375 1 4.275
3 0.9375 4.2125
2.9375 0.9375 4.275
2.9375 1 4.2125
2.9375 0.9375 4.2125
3.125 0.9375 4.275
3.125 1 4.2125
3.0625 1 4.275
3.125 0.9375 4.2125
3.0625 0.9375 4.275
3.0625 1 4.2125
3.0625 0.9375 4.2125
3.25 0.9375 4.275
3.25 1 4.2125
3.1875 1 4.275
3.25 0.9375 4.2125
3.1875 0.9375 4.275
3.1875 1 4.2125
3.1875 0.9375 4.2125
3.375 0.9375 4.275
3.375 1 4.2125
3.3125 1 4.275
3.375 0.9375 4.2125
3.3125 0.9375 4.275
3.3125 1 4.2125
3.3125 0.9375 4.2125
3.5 0.9375 4.275
3.5 1 4.2125
3.4375 1 4.275
3.5 0.9375 4.2125
3.4375 0.9375 4.275
3.4375 1 4.2125
3.4375 0.9375 4.2125
3.625 0.9375 4.275
3.625 1 4.2125
3.5625 1 4.275
3.625 0.9375 4.2125
3.5625 0.9375 4.275
3.5625 1 4.2125
3.5625 0.9375 4.2125
3.75 0.9375 4.275
3.75 1 4.2125
3.6875 1 4.275
3.75 0.9375 4.2125
3.6875 0.9375 4.275
3.6875 1 4.2125
3.6875 0.9375 4.2125
3.875 0.9375 4.275
3.875 1 4.2125
3.8125 1 4.275
3.875 0.9375 4.2125
3.8125 0.9375 4.275
3.8125 1 4.2125
3.8125 0.9375 4.2125
4 0.9375 4.275
4 1 4.2125
3.9375 1 4.275
4 0.9375 4.2125
3.9375 0.9375 4.275
3.9375 1 4.2125
3.9375 0.9375 4.2125
0.125 0 4.3375
0.0625 0 4.4
0 0 4.3375
0.125 0.0625 4.4
0 0.0625 4.4
0.125 0.125 4.3375
0.0625 0.125 4.4
0 0.125 4.3375
0.0625 0 4.3375
0.125 0.0625 4.3375
0.0625 0.0625 4.4
0 0.0625 4.3375
0.0625 0.125 4.3375
0.0625 0.0625 4.3375
0.25 0 4.3375
0.1875 0 4.4
0.25 0.0625 4.4
0.25 0.125 4.3375
0.1875 0.125 4.4
0.1875 0 4.3375
0.25 0.0625 4.3375
0.1875 0.0625 4.4
0.1875 0.125 4.3375
0.1875 0.0625 4.3375
0.375 0 4.3375
0.3125 0 4.4
0.375 0.0625 4.4
0.375 0.125 4.3375
0.3125 0.125 4.4
0.3125 0 4.3375
0.375 0.0625 4.3375
0.3125 0.0625 4.4
0.3125 0.125 4.3375
0.3125 0.0625 4.3375
0.5 0 4.3375
0.4375 0 4.4
0.5 0.0625 4.4
0.5 0.125 4.3375
0.4375 0.125 4.4
0.4375 0 4.3375
0.5 0.0625 4.3375
0.4375 0.0625 4.4
0.4375 0.125 4.3375
0.4375 0.0625 4.3375
0.625 0 4.3375
0.5625 0 4.4
0.625 0.0625 4.4
0.625 0.125 4.3375
0.5625 0.125 4.4
0.5625 0 4.3375
0.625 0.0625 4.3375
0.5625 0.0625 4.4
0.5625 0.125 4.3375
0.5625 0.0625 4.3375
0.75 0 4.3375
0.6875 0 4.4
0.75 0.0625 4.4
0.75 0.125 4.3375
0.6875 0.125 4.4
0.6875 0 4.3375
0.75 0.0625 4.3375
0.6875 0.0625 4.4
0.6875 0.125 4.3375
0.6875 0.0625 4.3375
0.875 0 4.3375
0.8125 0 4.4
0.875 0.0625 4.4
0.875 0.125 4.3375
0.8125 0.125 4.4
0.8125 0 4.3375
0.875 0.0625 4.3375
0.8125 0.0625 4.4
0.8125 0.125 4.3375
0.8125 0.0625 4.3375
1 0 4.3375
0.9375 0 4.4
1 0.0625 4.4
1 0.125 4.3375
0.9375 0.125 4.4
0.9375 0 4.3375
1 0.0625 4.3375
0.9375 0.0625 4.4
0.9375 0.125 4.3375
0.9375 0.0625 4.3375
1.125 0 4.3375
1.0625 0 4.4
1.125 0.0625 4.4
1.125 0.125 4.3375
1.0625 0.125 4.4
1.0625 0 4.3375
1.125 0.0625 4.3375
1.0625 0.0625 4.4
1.0625 0.125 4.3375
1.0625 0.0625 4.3375
1.25 0 4.3375
1.1875 0 4.4
1.25 0.0625 4.4
1.25 0.125 4.3375
1.1875 0.125 4.4
1.1875 0 4.3375
1.25 0.0625 4.3375
1.1875 0.0625 4.4
1.1875 0.125 4.3375
1.1875 0.0625 4.3375
1.375 0 4.3375
1.3125 0 4.4
1.375 0.0625 4.4
1.375 0.125 4.3375
1.3125 0.125 4.4
1.3125 0 4.3375
1.375 0.0625 4.3375
1.3125 0.0625 4.4
1.3125 0.125 4.3375
1.3125 0.0625 4.3375
1.5 0 4.3375
1.4375 0 4.4
1.5 0.0625 4.4
1.5 0.125 4.3375
1.4375 0.125 4.4
1.4375 0 4.3375
1.5 0.0625 4.3375
1.4375 0.0625 4.4
1.4375 0.125 4.3375
1.4375 0.0625 4.3375
1.625 0 4.3375
1.5625 0 4.4
1.625 0.0625 4.4
1.625 0.125 4.3375
1.5625 0.125 4.4
1.5625 0 4.3375
1.625 0.0625 4.3375
1.5625 0.0625 4.4
1.5625 0.125 4.3375
1.5625 0.0625 4.3375
1.75 0 4.3375
1.6875 0 4.4
1.75 0.0625 4.4
1.75 0.125 4.3375
1.6875 0.125 4.4
1.6875 0 4.3375
1.75 0.0625 4.3375
1.6875 0.0625 4.4
1.6875 0.125 4.3375
1.6875 0.0625 4.3375
1.875 0 4.3375
1.8125 0 4.4
1.875 0.0625 4.4
1.875 0.125 4.3375
1.8125 0.125 4.4
1.8125 0 4.3375
1.875 0.0625 4.3375
1.8125 0.0625 4.4
1.8125 0.125 4.3375
1.8125 0.0625 4.3375
2 0 4.3375
1.9375 0 4.4
2 0.0625 4.4
2 0.125 4.3375
1.9375 0.125 4.4
1.9375 0 4.3375
2 0.0625 4.3375
1.9375 0.0625 4.4
1.9375 0.125 4.3375
1.9375 0.0625 4.3375
2.125 0 4.3375
2.0625 0 4.4
2.125 0.0625 4.4
2.125 0.125 4.3375
2.0625 0.125 4.4
2.0625 0 4.3375
2.125 0.0625 4.3375
2.0625 0.0625 4.4
2.0625 0.125 4.3375
2.0625 0.0625 4.3375
2.25 0 4.3375
2.1875 0 4.4
2.25 0.0625 4.4
2.25 0.125 4.3375
2.1875 0.125 4.4
2.1875 0 4.3375
2.25 0.0625 4.3375
2.1875 0.0625 4.4
2.1875 0.125 4.3375
2.1875 0.0625 4.3375
2.375 0 4.3375
2.3125 0 4.4
2.375 0.0625 4.4
2.375 0.125 4.3375
2.3125 0.125 4.4
2.3125 0 4.3375
2.375 0.0625 4.3375
2.3125 0.0625 4.4
2.3125 0.125 4.3375
2.3125 0.0625 4.3375
2.5 0 4.3375
2.4375 0 4.4
2.5 0.0625 4.4
2.5 0.125 4.3375
2.4375 0.125 4.4
2.4375 0 4.3375
2.5 0.0625 4.3375
2.4375 0.0625 4.4
2.4375 0.125 4.3375
2.4375 0.0625 4.3375
2.625 0 4.3375
2.5625 0 4.4
2.625 0.0625 4.4
2.625 0.125 4.3375
2.5625 0.125 4.4
2.5625 0 4.3375
2.625 0.0625 4.3375
2.5625 0.0625 4.4
2.5625 0.125 4.3375
2.5625 0.0625 4.3375
2.75 0 4.3375
2.6875 0 4.4
2.75 0.0625 4.4
2.75 0.125 4.3375
2.6875 0.125 4.4
2.6875 0 4.3375
2.75 0.0625 4.3375
2.6875 0.0625 4.4
2.6875 0.125 4.3375
2.6875 0.0625 4.3375
2.875 0 4.3375
2.8125 0 4.4
2.875 0.0625 4.4
2.875 0.125 4.3375
2.8125 0.125 4.4
2.8125 0 4.3375
2.875 0.0625 4.3375
2.8125 0.0625 4.4
2.8125 0.125 4.3375
2.8125 0.0625 4.3375
3 0 4.3375
2.9375 0 4.4
3 0.0625 4.4
3 0.125 4.3375
2.9375 0.125 4.4
2.9375 0 4.3375
3 0.0625 4.3375
2.9375 0.0625 4.4
2.9375 0.125 4.3375
2.9375 0.0625 4.3375
3.125 0 4.3375
3.0625 0 4.4
3.125 0.0625 4.4
3.125 0.125 4.3375
3.0625 0.125 4.4
3.0625 0 4.3375
3.125 0.0625 4.3375
3.0625 0.0625 4.4
3.0625 0.125 4.3375
3.0625 0.0625 4.3375
3.25 0 4.3375
3.1875 0 4.4
3.25 0.0625 4.4
3.25 0.125 4.3375
3.1875 0.125 4.4
3.1875 0 4.3375
3.25 0.0625 4.3375
3.1875 0.0625 4.4
3.1875 0.125 4.3375
3.1875 0.0625 4.3375
3.375 0 4.3375
3.3125 0 4.4
3.375 0.0625 4.4
3.375 0.125 4.3375
3.3125 0.125 4.4
3.3125 0 4.3375
3.375 0.0625 4.3375
3.3125 0.0625 4.4
3.3125 0.125 4.3375
3.3125 0.0625 4.3375
3.5 0 4.3375
3.4375 0 4.4
3.5 0.0625 4.4
3.5 0.125 4.3375
3.4375 0.125 4.4
3.4375 0 4.3375
3.5 0.0625 4.3375
3.4375 0.0625 4.4
3.4375 0.125 4.3375
3.4375 0.0625 4.3375
3.625 0 4.3375
3.5625 0 4.4
3.625 0.0625 4.4
3.625 0.125 4.3375
3.5625 0.125 4.4
3.5625 0 4.3375
3.625 0.0625 4.3375
3.5625 0.0625 4.4
3.5625 0.125 4.3375
3.5625 0.0625 4.3375
3.75 0 4.3375
3.6875 0 4.4
3.75 0.0625 4.4
3.75 0.125 4.3375
3.6875 0.125 4.4
3.6875 0 4.3375
3.75 0.0625 4.3375
3.6875 0.0625 4.4
3.6875 0.125 4.3375
3.6875 0.0625 4.3375
3.875 0 4.3375
3.8125 0 4.4
3.875 0.0625 4.4
3.875 0.125 4.3375
3.8125 0.125 4.4
3.8125 0 4.3375
3.875 0.0625 4.3375
3.8125 0.0625 4.4
3.8125 0.125 4.3375
3.8125 0.0625 4.3375
4 0 4.3375
3.9375 0 4.4
4 0.0625 4.4
4 0.125 4.3375
3.9375 0.125 4.4
3.9375 0 4.3375
4 0.0625 4.3375
3.9375 0.0625 4.4
3.9375 0.125 4.3375
3.9375 0.0625 4.3375
0.125 0.1875 4.4
0 0.1875 4.4
0.125 0.25 4.3375
0.0625 0.25 4.4
0 0.25 4.3375
0.125 0.1875 4.3375
0.0625 0.1875 4.4
0 0.1875 4.3375
0.0625 0.25 4.3375
0.0625 0.1875 4.3375
0.25 0.1875 4.4
0.25 0.25 4.3375
0.1875 0.25 4.4
0.25 0.1875 4.3375
0.1875 0.1875 4.4
0.1875 0.25 4.3375
0.1875 0.1875 4.3375
0.375 0.1875 4.4
0.375 0.25 4.3375
0.3125 0.25 4.4
0.375 0.1875 4.3375
0.3125 0.1875 4.4
0.3125 0.25 4.3375
0.3125 0.1875 4.3375
0.5 0.1875 4.4
0.5 0.25 4.3375
0.4375 0.25 4.4
0.5 0.1875 4.3375
0.4375 0.1875 4.4
0.4375 0.25 4.3375
0.4375 0.1875 4.3375
0.625 0.1875 4.4
0.625 0.25 4.3375
0.5625 0.25 4.4
0.625 0.1875 4.3375
0.5625 0.1875 4.4
0.5625 0.25 4.3375
0.5625 0.1875 4.3375
0.75 0.1875 4.4
0.75 0.25 4.3375
0.6875 0.25 4.4
0.75 0.1875 4.3375
0.6875 0.1875 4.4
0.6875 0.25 4.3375
0.6875 0.1875 4.3375
0.875 0.1875 4.4
0.875 0.25 4.3375
0.8125 0.25 4.4
0.875 0.1875 4.3375
0.8125 0.1875 4.4
0.8125 0.25 4.3375
0.8125 0.1875 4.3375
1 0.1875 4.4
1 0.25 4.3375
0.9375 0.25 4.4
1 0.1875 4.3375
0.9375 0.1875 4.4
0.9375 0.25 4.3375
0.9375 0.1875 4.3375
1.125 0.1875 4.4
1.125 0.25 4.3375
1.0625 0.25 4.4
1.125 0.1875 4.3375
1.0625 0.1875 4.4
1.0625 0.25 4.3375
1.0625 0.1875 4.3375
1.25 0.1875 4.4
1.25 0.25 4.3375
1.1875 0.25 4.4
1.25 0.1875 4.3375
1.1875 0.1875 4.4
1.1875 0.25 4.3375
1.1875 0.1875 4.3375
1.375 0.1875 4.4
1.375 0.25 4.3375
1.3125 0.25 4.4
1.375 0.1875 4.3375
1.3125 0.1875 4.4
1.3125 0.25 4.3375
1.3125 0.1875 4.3375
1.5 0.1875 4.4
1.5 0.25 4.3375
1.4375 0.25 4.4
1.5 0.1875 4.3375
1.4375 0.1875 4.4
1.4375 0.25 4.3375
1.4375 0.1875 4.3375
1.625 0.1875 4.4
1.625 0.25 4.3375
1.5625 0.25 4.4
1.625 0.1875 4.3375
1.5625 0.1875 4.4
1.5625 0.25 4.3375
1.5625 0.1875 4.3375
1.75 0.1875 4.4
1.75 0.25 4.3375
1.6875 0.25 4.4
1.75 0.1875 4.3375
1.6875 0.1875 4.4
1.6875 0.25 4.3375
1.6875 0.1875 4.3375
1.875 0.1875 4.4
1.875 0.25 4.3375
1.8125 0.25 4.4
1.875 0.1875 4.3375
1.8125 0.1875 4.4
1.8125 0.25 4.3375
1.8125 0.1875 4.3375
2 0.1875 4.4
2 0.25 4.3375
1.9375 0.25 4.4
2 0.1875 4.3375
1.9375 0.1875 4.4
1.9375 0.25 4.3375
1.9375 0.1875 4.3375
2.125 0.1875 4.4
2.125 0.25 4.3375
2.0625 0.25 4.4
2.125 0.1875 4.3375
2.0625 0.1875 4.4
2.0625 0.25 4.3375
2.0625 0.1875 4.3375
2.25 0.1875 4.4
2.25 0.25 4.3375
2.1875 0.25 4.4
2.25 0.1875 4.3375
2.1875 0.1875 4.4
2.1875 0.25 4.3375
2.1875 0.1875 4.3375
2.375 0.1875 4.4
2.375 0.25 4.3375
2.3125 0.25 4.4
2.375 0.1875 4.3375
2.3125 0.1875 4.4
2.3125 0.25 4.3375
2.3125 0.1875 4.3375
2.5 0.1875 4.4
2.5 0.25 4.3375
2.4375 0.25 4.4
2.5 0.1875 4.3375
2.4375 0.1875 4.4
2.4375 0.25 4.3375
2.4375 0.1875 4.3375
2.625 0.1875 4.4
2.625 0.25 4.3375
2.5625 0.25 4.4
2.625 0.1875 4.3375
2.5625 0.1875 4.4
2.5625 0.25 4.3375
2.5625 0.1875 4.3375
2.75 0.1875 4.4
2.75 0.25 4.3375
2.6875 0.25 4.4
2.75 0.1875 4.3375
2.6875 0.1875 4.4
2.6875 0.25 4.3375
2.6875 0.1875 4.3375
2.875 0.1875 4.4
2.875 0.25 4.3375
2.8125 0.25 4.4
2.875 0.1875 4.3375
2.8125 0.1875 4.4
2.8125 0.25 4.3375
2.8125 0.1875 4.3375
3 0.1875 4.4
3 0.25 4.3375
2.9375 0.25 4.4
3 0.1875 4.3375
2.9375 0.1875 4.4
2.9375 0.25 4.3375
2.9375 0.1875 4.3375
3.125 0.1875 4.4
3.125 0.25 4.3375
3.0625 0.25 4.4
3.125 0.1875 4.3375
3.0625 0.1875 4.4
3.0625 0.25 4.3375
3.0625 0.1875 4.3375
3.25 0.1875 4.4
3.25 0.25 4.3375
3.1875 0.25 4.4
3.25 0.1875 4.3375
3.1875 0.1875 4.4
3.1875 0.25 4.3375
3.1875 0.1875 4.3375
3.375 0.1875 4.4
3.375 0.25 4.3375
3.3125 0.25 4.4
3.375 0.1875 4.3375
3.3125 0.1875 4.4
3.3125 0.25 4.3375
3.3125 0.1875 4.3375
3.5 0.1875 4.4
3.5 0.25 4.3375
3.4375 0.25 4.4
3.5 0.1875 4.3375
3.4375 0.1875 4.4
3.4375 0.25 4.3375
3.4375 0.1875 4.3375
3.625 0.1875 4.4
3.625 0.25 4.3375
3.5625 0.25 4.4
3.625 0.1875 4.3375
3.5625 0.1875 4.4
3.5625 0.25 4.3375
3.5625 0.1875 4.3375
3.75 0.1875 4.4
3.75 0.25 4.3375
3.6875 0.25 4.4
3.75 0.1875 4.3375
3.6875 0.1875 4.4
3.6875 0.25 4.3375
3.6875 0.1875 4.3375
3.875 0.1875 4.4
3.875 0.25 4.3375
3.8125 0.25 4.4
3.875 0.1875 4.3375
3.8125 0.1875 4.4
3.8125 0.25 4.3375
3.8125 0.1875 4.3375
4 0.1875 4.4
4 0.25 4.3375
3.9375 0.25 4.4
4 0.1875 4.3375
3.9375 0.1875 4.4
3.9375 0.25 4.3375
3.9375 0.1875 4.3375
0.125 0.3125 4.4
0 0.3125 4.4
0.125 0.375 4.3375
0.0625 0.375 4.4
0 0.375 4.3375
0.125 0.3125 4.3375
0.0625 0.3125 4.4
0 0.3125 4.3375
0.0625 0.375 4.3375
0.0625 0.3125 4.3375
0.25 0.3125 4.4
0.25 0.375 4.3375
0.1875 0.375 4.4
0.25 0.3125 4.3375
0.1875 0.3125 4.4
0.1875 0.375 4.3375
0.1875 0.3125 4.3375
0.375 0.3125 4.4
0.375 0.375 4.3375
0.3125 0.375 4.4
0.375 0.3125 4.3375
0.3125 0.3125 4.4
0.3125 0.375 4.3375
0.3125 0.3125 4.3375
0.5 0.3125 4.4
0.5 0.375 4.3375
0.4375 0.375 4.4
0.5 0.3125 4.3375
0.4375 0.3125 4.4
0.4375 0.375 4.3375
0.4375 0.3125 4.3375
0.625 0.3125 4.4
0.625 0.375 4.3375
0.5625 0.375 4.4
0.625 0.3125 4.3375
0.5625 0.3125 4.4
0.5625 0.375 4.3375
0.5625 0.3125 4.3375
0.75 0.3125 4.4
0.75 0.375 4.3375
0.6875 0.375 4.4
0.75 0.3125 4.3375
0.6875 0.3125 4.4
0.6875 0.375 4.3375
0.6875 0.3125 4.3375
0.875 0.3125 4.4
0.875 0.375 4.3375
0.8125 0.375 4.4
0.875 0.3125 4.3375
0.8125 0.3125 4.4
0.8125 0.375 4.3375
0.8125 0.3125 4.3375
1 0.3125 4.4
1 0.375 4.3375
0.9375 0.375 4.4
1 0.3125 4.3375
0.9375 0.3125 4.4
0.9375 0.375 4.3375
0.9375 0.3125 4.3375
1.125 0.3125 4.4
1.125 0.375 4.3375
1.0625 0.375 4.4
1.125 0.3125 4.3375
1.0625 0.3125 4.4
1.0625 0.375 4.3375
1.0625 0.3125 4.3375
1.25 0.3125 4.4
1.25 0.375 4.3375
1.1875 0.375 4.4
1.25 0.3125 4.3375
1.1875 0.3125 4.4
1.1875 0.375 4.3375
1.1875 0.3125 4.3375
1.375 0.3125 4.4
1.375 0.375 4.3375
1.3125 0.375 4.4
1.375 0.3125 4.3375
1.3125 0.3125 4.4
1.3125 0.375 4.3375
1.3125 0.3125 4.3375
1.5 0.3125 4.4
1.5 0.375 4.3375
1.4375 0.375 4.4
1.5 0.3125 4.3375
1.4375 0.3125 4.4
1.4375 0.375 4.3375
1.4375 0.3125 4.3375
1.625 0.3125 4.4
1.625 0.375 4.3375
1.5625 0.375 4.4
1.625 0.3125 4.3375
1.5625 0.3125 4.4
1.5625 0.375 4.3375
1.5625 0.3125 4.3375
1.75 0.3125 4.4
1.75 0.375 4.3375
1.6875 0.375 4.4
1.75 0.3125 4.3375
1.6875 0.3125 4.4
1.6875 0.375 4.3375
1.6875 0.3125 4.3375
1.875 0.3125 4.4
1.875 0.375 4.3375
1.8125 0.375 4.4
1.875 0.3125 4.3375
1.8125 0.3125 4.4
1.8125 0.375 4.3375
1.8125 0.3125 4.3375
2 0.3125 4.4
2 0.375 4.3375
1.9375 0.375 4.4
2 0.3125 4.3375
1.9375 0.3125 4.4
1.9375 0.375 4.3375
1.9375 0.3125 4.3375
2.125 0.3125 4.4
2.125 0.375 4.3375
2.0625 0.375 4.4
2.125 0.3125 4.3375
2.0625 0.3125 4.4
2.0625 0.375 4.3375
2.0625 0.3125 4.3375
2.25 0.3125 4.4
2.25 0.375 4.3375
2.1875 0.375 4.4
2.25 0.3125 4.3375
2.1875 0.3125 4.4
2.1875 0.375 4.3375
2.1875 0.3125 4.3375
2.375 0.3125 4.4
2.375 0.375 4.3375
2.3125 0.375 4.4
2.375 0.3125 4.3375
2.3125 0.3125 4.4
2.3125 0.375 4.3375
2.3125 0.3125 4.3375
2.5 0.3125 4.4
2.5 0.375 4.3375
2.4375 0.375 4.4
2.5 0.3125 4.3375
2.4375 0.3125 4.4
2.4375 0.375 4.3375
2.4375 0.3125 4.3375
2.625 0.3125 4.4
2.625 0.375 4.3375
2.5625 0.375 4.4
2.625 0.3125 4.3375
2.5625 0.3125 4.4
2.5625 0.375 4.3375
2.5625 0.3125 4.3375
2.75 0.3125 4.4
2.75 0.375 4.3375
2.6875 0.375 4.4
2.75 0.3125 4.3375
2.6875 0.3125 4.4
2.6875 0.375 4.3375
2.6875 0.3125 4.3375
2.875 0.3125 4.4
2.875 0.375 4.3375
2.8125 0.375 4.4
2.875 0.3125 4.3375
2.8125 0.3125 4.4
2.8125 0.375 4.3375
2.8125 0.3125 4.3375
3 0.3125 4.4
3 0.375 4.3375
2.9375 0.375 4.4
3 0.3125 4.3375
2.9375 0.3125 4.4
2.9375 0.375 4.3375
2.9375 0.3125 4.3375
3.125 0.3125 4.4
3.125 0.375 4.3375
3.0625 0.375 4.4
3.125 0.3125 4.3375
3.0625 0.3125 4.4
3.0625 0.375 4.3375
3.0625 0.3125 4.3375
3.25 0.3125 4.4
3.25 0.375 4.3375
3.1875 0.375 4.4
3.25 0.3125 4.3375
3.1875 0.3125 4.4
3.1875 0.375 4.3375
3.1875 0.3125 4.3375
3.375 0.3125 4.4
3.375 0.375 4.3375
3.3125 0.375 4.4
3.375 0.3125 4.3375
3.3125 0.3125 4.4
3.3125 0.375 4.3375
3.3125 0.3125 4.3375
3.5 0.3125 4.4
3.5 0.375 4.3375
3.4375 0.375 4.4
3.5 0.3125 4.3375
3.4375 0.3125 4.4
3.4375 0.375 4.3375
3.4375 0.3125 4.3375
3.625 0.3125 4.4
3.625 0.375 4.3375
3.5625 0.375 4.4
3.625 0.3125 4.3375
3.5625 0.3125 4.4
3.5625 0.375 4.3375
3.5625 0.3125 4.3375
3.75 0.3125 4.4
3.75 0.375 4.3375
3.6875 0.375 4.4
3.75 0.3125 4.3375
3.6875 0.3125 4.4
3.6875 0.375 4.3375
3.6875 0.3125 4.3375
3.875 0.3125 4.4
3.875 0.375 4.3375
3.8125 0.375 4.4
3.875 0.3125 4.3375
3.8125 0.3125 4.4
3.8125 0.375 4.3375
3.8125 0.3125 4.3375
4 0.3125 4.4
4 0.375 4.3375
3.9375 0.375 4.4
4 0.3125 4.3375
3.9375 0.3125 4.4
3.9375 0.375 4.3375
3.9375 0.3125 4.3375
0.125 0.4375 4.4
0 0.4375 4.4
0.125 0.5 4.3375
0.0625 0.5 4.4
0 0.5 4.3375
0.125 0.4375 4.3375
0.0625 0.4375 4.4
0 0.4375 4.3375
0.0625 0.5 4.3375
0.0625 0.4375 4.3375
0.25 0.4375 4.4
0.25 0.5 4.3375
0.1875 0.5 4.4
0.25 0.4375 4.3375
0.1875 0.4375 4.4
0.1875 0.5 4.3375
0.1875 0.4375 4.3375
0.375 0.4375 4.4
0.375 0.5 4.3375
0.3125 0.5 4.4
0.375 0.4375 4.3375
0.3125 0.4375 4.4
0.3125 0.5 4.3375
0.3125 0.4375 4.3375
0.5 0.4375 4.4
0.5 0.5 4.3375
0.4375 0.5 4.4
0.5 0.4375 4.3375
0.4375 0.4375 4.4
0.4375 0.5 4.3375
0.4375 0.4375 4.3375
0.625 0.4375 4.4
0.625 0.5 4.3375
0.5625 0.5 4.4
0.625 0.4375 4.3375
0.5625 0.4375 4.4
0.5625 0.5 4.3375
0.5625 0.4375 4.3375
0.75 0.4375 4.4
0.75 0.5 4.3375
0.6875 0.5 4.4
0.75 0.4375 4.3375
0.6875 0.4375 4.4
0.6875 0.5 4.3375
0.6875 0.4375 4.3375
0.875 0.4375 4.4
0.875 0.5 4.3375
0.8125 0.5 4.4
0.875 0.4375 4.3375
0.8125 0.4375 4.4
0.8125 0.5 4.3375
0.8125 0.4375 4.3375
1 0.4375 4.4
1 0.5 4.3375
0.9375 0.5 4.4
1 0.4375 4.3375
0.9375 0.4375 4.4
0.9375 0.5 4.3375
0.9375 0.4375 4.3375
1.125 0.4375 4.4
1.125 0.5 4.3375
1.0625 0.5 4.4
1.125 0.4375 4.3375
1.0625 0.4375 4.4
1.0625 0.5 4.3375
1.0625 0.4375 4.3375
1.25 0.4375 4.4
1.25 0.5 4.3375
1.1875 0.5 4.4
1.25 0.4375 4.3375
1.1875 0.4375 4.4
1.1875 0.5 4.3375
1.1875 0.4375 4.3375
1.375 0.4375 4.4
1.375 0.5 4.3375
1.3125 0.5 4.4
1.375 0.4375 4.3375
1.3125 0.4375 4.4
1.3125 0.5 4.3375
1.3125 0.4375 4.3375
1.5 0.4375 4.4
1.5 0.5 4.3375
1.4375 0.5 4.4
1.5 0.4375 4.3375
1.4375 0.4375 4.4
1.4375 0.5 4.3375
1.4375 0.4375 4.3375
1.625 0.4375 4.4
1.625 0.5 4.3375
1.5625 0.5 4.4
1.625 0.4375 4.3375
1.5625 0.4375 4.4
1.5625 0.5 4.3375
1.5625 0.4375 4.3375
1.75 0.4375 4.4
1.75 0.5 4.3375
1.6875 0.5 4.4
1.75 0.4375 4.3375
1.6875 0.4375 4.4
1.6875 0.5 4.3375
1.6875 0.4375 4.3375
1.875 0.4375 4.4
1.875 0.5 4.3375
1.8125 0.5 4.4
1.875 0.4375 4.3375
1.8125 0.4375 4.4
1.8125 0.5 4.3375
1.8125 0.4375 4.3375
2 0.4375 4.4
2 0.5 4.3375
1.9375 0.5 4.4
2 0.4375 4.3375
1.9375 0.4375 4.4
1.9375 0.5 4.3375
1.9375 0.4375 4.3375
2.125 0.4375 4.4
2.125 0.5 4.3375
2.0625 0.5 4.4
2.125 0.4375 4.3375
2.0625 0.4375 4.4
2.0625 0.5 4.3375
2.0625 0.4375 4.3375
2.25 0.4375 4.4
2.25 0.5 4.3375
2.1875 0.5 4.4
2.25 0.4375 4.3375
2.1875 0.4375 4.4
2.1875 0.5 4.3375
2.1875 0.4375 4.3375
2.375 0.4375 4.4
2.375 0.5 4.3375
2.3125 0.5 4.4
2.375 0.4375 4.3375
2.3125 0.4375 4.4
2.3125 0.5 4.3375
2.3125 0.4375 4.3375
2.5 0.4375 4.4
2.5 0.5 4.3375
2.4375 0.5 4.4
2.5 0.4375 4.3375
2.4375 0.4375 4.4
2.4375 0.5 4.3375
2.4375 0.4375 4.3375
2.625 0.4375 4.4
2.625 0.5 4.3375
2.5625 0.5 4.4
2.625 0.4375 4.3375
2.5625 0.4375 4.4
2.5625 0.5 4.3375
2.5625 0.4375 4.3375
2.75 0.4375 4.4
2.75 0.5 4.3375
2.6875 0.5 4.4
2.75 0.4375 4.3375
2.6875 0.4375 4.4
2.6875 0.5 4.3375
2.6875 0.4375 4.3375
2.875 0.4375 4.4
2.875 0.5 4.3375
2.8125 0.5 4.4
2.875 0.4375 4.3375
2.8125 0.4375 4.4
2.8125 0.5 4.3375
2.8125 0.4375 4.3375
3 0.4375 4.4
3 0.5 4.3375
2.9375 0.5 4.4
3 0.4375 4.3375
2.9375 0.4375 4.4
2.9375 0.5 4.3375
2.9375 0.4375 4.3375
3.125 0.4375 4.4
3.125 0.5 4.3375
3.0625 0.5 4.4
3.125 0.4375 4.3375
3.0625 0.4375 4.4
3.0625 0.5 4.3375
3.0625 0.4375 4.3375
3.25 0.4375 4.4
3.25 0.5 4.3375
3.1875 0.5 4.4
3.25 0.4375 4.3375
3.1875 0.4375 4.4
3.1875 0.5 4.3375
3.1875 0.4375 4.3375
3.375 0.4375 4.4
3.375 0.5 4.3375
3.3125 0.5 4.4
3.375 0.4375 4.3375
3.3125 0.4375 4.4
3.3125 0.5 4.3375
3.3125 0.4375 4.3375
3.5 0.4375 4.4
3.5 0.5 4.3375
3.4375 0.5 4.4
3.5 0.4375 4.3375
3.4375 0.4375 4.4
3.4375 0.5 4.3375
3.4375 0.4375 4.3375
3.625 0.4375 4.4
3.625 0.5 4.3375
3.5625 0.5 4.4
3.625 0.4375 4.3375
3.5625 0.4375 4.4
3.5625 0.5 4.3375
3.5625 0.4375 4.3375
3.75 0.4375 4.4
3.75 0.5 4.3375
3.6875 0.5 4.4
3.75 0.4375 4.3375
3.6875 0.4375 4.4
3.6875 0.5 4.3375
3.6875 0.4375 4.3375
3.875 0.4375 4.4
3.875 0.5 4.3375
3.8125 0.5 4.4
3.875 0.4375 4.3375
3.8125 0.4375 4.4
3.8125 0.5 4.3375
3.8125 0.4375 4.3375
4 0.4375 4.4
4 0.5 4.3375
3.9375 0.5 4.4
4 0.4375 4.3375
3.9375 0.4375 4.4
3.9375 0.5 4.3375
3.9375 0.4375 4.3375
0.125 0.5625 4.4
0 0.5625 4.4
0.125 0.625 4.3375
0.0625 0.625 4.4
0 0.625 4.3375
0.125 0.5625 4.3375
0.0625 0.5625 4.4
0 0.5625 4.3375
0.0625 0.625 4.3375
0.0625 0.5625 4.3375
0.25 0.5625 4.4
0.25 0.625 4.3375
0.1875 0.625 4.4
0.25 0.5625 4.3375
0.1875 0.5625 4.4
0.1875 0.625 4.3375
0.1875 0.5625 4.3375
0.375 0.5625 4.4
0.375 0.625 4.3375
0.3125 0.625 4.4
0.375 0.5625 4.3375
0.3125 0.5625 4.4
0.3125 0.625 4.3375
0.3125 0.5625 4.3375
0.5 0.5625 4.4
0.5 0.625 4.3375
0.4375 0.625 4.4
0.5 0.5625 4.3375
0.4375 0.5625 4.4
0.4375 0.625 4.3375
0.4375 0.5625 4.3375
0.625 0.5625 4.4
0.625 0.625 4.3375
0.5625 0.625 4.4
0.625 0.5625 4.3375
0.5625 0.5625 4.4
0.5625 0.625 4.3375
0.5625 0.5625 4.3375
0.75 0.5625 4.4
0.75 0.625 4.3375
0.6875 0.625 4.4
0.75 0.5625 4.3375
0.6875 0.5625 4.4
0.6875 0.625 4.3375
0.6875 0.5625 4.3375
0.875 0.5625 4.4
0.875 0.625 4.3375
0.8125 0.625 4.4
0.875 0.5625 4.3375
0.8125 0.5625 4.4
0.8125 0.625 4.3375
0.8125 0.5625 4.3375
1 0.5625 4.4
1 0.625 4.3375
0.9375 0.625 4.4
1 0.5625 4.3375
0.9375 0.5625 4.4
0.9375 0.625 4.3375
0.9375 0.5625 4.3375
1.125 0.5625 4.4
1.125 0.625 4.3375
1.0625 0.625 4.4
1.125 0.5625 4.3375
1.0625 0.5625 4.4
1.0625 0.625 4.3375
1.0625 0.5625 4.3375
1.25 0.5625 4.4
1.25 0.625 4.3375
1.1875 0.625 4.4
1.25 0.5625 4.3375
1.1875 0.5625 4.4
1.1875 0.625 4.3375
1.1875 0.5625 4.3375
1.375 0.5625 4.4
1.375 0.625 4.3375
1.3125 0.625 4.4
1.375 0.5625 4.3375
1.3125 0.5625 4.4
1.3125 0.625 4.3375
1.3125 0.5625 4.3375
1.5 0.5625 4.4
1.5 0.625 4.3375
1.4375 0.625 4.4
1.5 0.5625 4.3375
1.4375 0.5625 4.4
1.4375 0.625 4.3375
1.4375 0.5625 4.3375
1.625 0.5625 4.4
1.625 0.625 4.3375
1.5625 0.625 4.4
1.625 0.5625 4.3375
1.5625 0.5625 4.4
1.5625 0.625 4.3375
1.5625 0.5625 4.3375
1.75 0.5625 4.4
1.75 0.625 4.3375
1.6875 0.625 4.4
1.75 0.5625 4.3375
1.6875 0.5625 4.4
1.6875 0.625 4.3375
1.6875 0.5625 4.3375
1.875 0.5625 4.4
1.875 0.625 4.3375
1.8125 0.625 4.4
1.875 0.5625 4.3375
1.8125 0.5625 4.4
1.8125 0.625 4.3375
1.8125 0.5625 4.3375
2 0.5625 4.4
2 0.625 4.3375
1.9375 0.625 4.4
2 0.5625 4.3375
1.9375 0.5625 4.4
1.9375 0.625 4.3375
1.9375 0.5625 4.3375
2.125 0.5625 4.4
2.125 0.625 4.3375
2.0625 0.625 4.4
2.125 0.5625 4.3375
2.0625 0.5625 4.4
2.0625 0.625 4.3375
2.0625 0.5625 4.3375
2.25 0.5625 4.4
2.25 0.625 4.3375
2.1875 0.625 4.4
2.25 0.5625 4.3375
2.1875 0.5625 4.4
2.1875 0.625 4.3375
2.1875 0.5625 4.3375
2.375 0.5625 4.4
2.375 0.625 4.3375
2.3125 0.625 4.4
2.375 0.5625 4.3375
2.3125 0.5625 4.4
2.3125 0.625 4.3375
2.3125 0.5625 4.3375
2.5 0.5625 4.4
2.5 0.625 4.3375
2.4375 0.625 4.4
2.5 0.5625 4.3375
2.4375 0.5625 4.4
2.4375 0.625 4.3375
2.4375 0.5625 4.3375
2.625 0.5625 4.4
2.625 0.625 4.3375
2.5625 0.625 4.4
2.625 0.5625 4.3375
2.5625 0.5625 4.4
2.5625 0.625 4.3375
2.5625 0.5625 4.3375
2.75 0.5625 4.4
2.75 0.625 4.3375
2.6875 0.625 4.4
2.75 0.5625 4.3375
2.6875 0.5625 4.4
2.6875 0.625 4.3375
2.6875 0.5625 4.3375
2.875 0.5625 4.4
2.875 0.625 4.3375
2.8125 0.625 4.4
2.875 0.5625 4.3375
2.8125 0.5625 4.4
2.8125 0.625 4.3375
2.8125 0.5625 4.3375
3 0.5625 4.4
3 0.625 4.3375
2.9375 0.625 4.4
3 0.5625 4.3375
2.9375 0.5625 4.4
2.9375 0.625 4.3375
2.9375 0.5625 4.3375
3.125 0.5625 4.4
3.125 0.625 4.3375
3.0625 0.625 4.4
3.125 0.5625 4.3375
3.0625 0.5625 4.4
3.0625 0.625 4.3375
3.0625 0.5625 4.3375
3.25 0.5625 4.4
3.25 0.625 4.3375
3.1875 0.625 4.4
3.25 0.5625 4.3375
3.1875 0.5625 4.4
3.1875 0.625 4.3375
3.1875 0.5625 4.3375
3.375 0.5625 4.4
3.375 0.625 4.3375
3.3125 0.625 4.4
3.375 0.5625 4.3375
3.3125 0.5625 4.4
3.3125 0.625 4.3375
3.3125 0.5625 4.3375
3.5 0.5625 4.4
3.5 0.625 4.3375
3.4375 0.625 4.4
3.5 0.5625 4.3375
3.4375 0.5625 4.4
3.4375 0.625 4.3375
3.4375 0.5625 4.3375
3.625 0.5625 4.4
3.625 0.625 4.3375
3.5625 0.625 4.4
3.625 0.5625 4.3375
3.5625 0.5625 4.4
3.5625 0.625 4.3375
3.5625 0.5625 4.3375
3.75 0.5625 4.4
3.75 0.625 4.3375
3.6875 0.625 4.4
3.75 0.5625 4.3375
3.6875 0.5625 4.4
3.6875 0.625 4.3375
3.6875 0.5625 4.3375
3.875 0.5625 4.4
3.875 0.625 4.3375
3.8125 0.625 4.4
3.875 0.5625 4.3375
3.8125 0.5625 4.4
3.8125 0.625 4.3375
3.8125 0.5625 4.3375
4 0.5625 4.4
4 0.625 4.3375
3.9375 0.625 4.4
4 0.5625 4.3375
3.9375 0.5625 4.4
3.9375 0.625 4.3375
3.9375 0.5625 4.3375
0.125 0.6875 4.4
0 0.6875 4.4
0.125 0.75 4.3375
0.0625 0.75 4.4
0 0.75 4.3375
0.125 0.6875 4.3375
0.0625 0.6875 4.4
0 0.6875 4.3375
0.0625 0.75 4.3375
0.0625 0.6875 4.3375
0.25 0.6875 4.4
0.25 0.75 4.3375
0.1875 0.75 4.4
0.25 0.6875 4.3375
0.1875 0.6875 4.4
0.1875 0.75 4.3375
0.1875 0.6875 4.3375
0.375 0.6875 4.4
0.375 0.75 4.3375
0.3125 0.75 4.4
0.375 0.6875 4.3375
0.3125 0.6875 4.4
0.3125 0.75 4.3375
0.3125 0.6875 4.3375
0.5 0.6875 4.4
0.5 0.75 4.3375
0.4375 0.75 4.4
0.5 0.6875 4.3375
0.4375 0.6875 4.4
0.4375 0.75 4.3375
0.4375 0.6875 4.3375
0.625 0.6875 4.4
0.625 0.75 4.3375
0.5625 0.75 4.4
0.625 0.6875 4.3375
0.5625 0.6875 4.4
0.5625 0.75 4.3375
0.5625 0.6875 4.3375
0.75 0.6875 4.4
0.75 0.75 4.3375
0.6875 0.75 4.4
0.75 0.6875 4.3375
0.6875 0.6875 4.4
0.6875 0.75 4.3375
0.6875 0.6875 4.3375
0.875 0.6875 4.4
0.875 0.75 4.3375
0.8125 0.75 4.4
0.875 0.6875 4.3375
0.8125 0.6875 4.4
0.8125 0.75 4.3375
0.8125 0.6875 4.3375
1 0.6875 4.4
1 0.75 4.3375
0.9375 0.75 4.4
1 0.6875 4.3375
0.9375 0.6875 4.4
0.9375 0.75 4.3375
0.9375 0.6875 4.3375
1.125 0.6875 4.4
1.125 0.75 4.3375
1.0625 0.75 4.4
1.125 0.6875 4.3375
1.0625 0.6875 4.4
1.0625 0.75 4.3375
1.0625 0.6875 4.3375
1.25 0.6875 4.4
1.25 0.75 4.3375
1.1875 0.75 4.4
1.25 0.6875 4.3375
1.1875 0.6875 4.4
1.1875 0.75 4.3375
1.1875 0.6875 4.3375
1.375 0.6875 4.4
1.375 0.75 4.3375
1.3125 0.75 4.4
1.375 0.6875 4.3375
1.3125 0.6875 4.4
1.3125 0.75 4.3375
1.3125 0.6875 4.3375
1.5 0.6875 4.4
1.5 0.75 4.3375
1.4375 0.75 4.4
1.5 0.6875 4.3375
1.4375 0.6875 4.4
1.4375 0.75 4.3375
1.4375 0.6875 4.3375
1.625 0.6875 4.4
1.625 0.75 4.3375
1.5625 0.75 4.4
1.625 0.6875 4.3375
1.5625 0.6875 4.4
1.5625 0.75 4.3375
1.5625 0.6875 4.3375
1.75 0.6875 4.4
1.75 0.75 4.3375
1.6875 0.75 4.4
1.75 0.6875 4.3375
1.6875 0.6875 4.4
1.6875 0.75 4.3375
1.6875 0.6875 4.3375
1.875 0.6875 4.4
1.875 0.75 4.3375
1.8125 0.75 4.4
1.875 0.6875 4.3375
1.8125 0.6875 4.4
1.8125 0.75 4.3375
1.8125 0.6875 4.3375
2 0.6875 4.4
2 0.75 4.3375
1.9375 0.75 4.4
2 0.6875 4.3375
1.9375 0.6875 4.4
1.9375 0.75 4.3375
1.9375 0.6875 4.3375
2.125 0.6875 4.4
2.125 0.75 4.3375
2.0625 0.75 4.4
2.125 0.6875 4.3375
2.0625 0.6875 4.4
2.0625 0.75 4.3375
2.0625 0.6875 4.3375
2.25 0.6875 4.4
2.25 0.75 4.3375
2.1875 0.75 4.4
2.25 0.6875 4.3375
2.1875 0.6875 4.4
2.1875 0.75 4.3375
2.1875 0.6875 4.3375
2.375 0.6875 4.4
2.375 0.75 4.3375
2.3125 0.75 4.4
2.375 0.6875 4.3375
2.3125 0.6875 4.4
2.3125 0.75 4.3375
2.3125 0.6875 4.3375
2.5 0.6875 4.4
2.5 0.75 4.3375
2.4375 0.75 4.4
2.5 0.6875 4.3375
2.4375 0.6875 4.4
2.4375 0.75 4.3375
2.4375 0.6875 4.3375
2.625 0.6875 4.4
2.625 0.75 4.3375
2.5625 0.75 4.4
2.625 0.6875 4.3375
2.5625 0.6875 4.4
2.5625 0.75 4.3375
2.5625 0.6875 4.3375
2.75 0.6875 4.4
2.75 0.75 4.3375
2.6875 0.75 4.4
2.75 0.6875 4.3375
2.6875 0.6875 4.4
2.6875 0.75 4.3375
2.6875 0.6875 4.3375
2.875 0.6875 4.4
2.875 0.75 4.3375
2.8125 0.75 4.4
2.875 0.6875 4.3375
2.8125 0.6875 4.4
2.8125 0.75 4.3375
2.8125 0.6875 4.3375
3 0.6875 4.4
3 0.75 4.3375
2.9375 0.75 4.4
3 0.6875 4.3375
2.9375 0.6875 4.4
2.9375 0.75 4.3375
2.9375 0.6875 4.3375
3.125 0.6875 4.4
3.125 0.75 4.3375
3.0625 0.75 4.4
3.125 0.6875 4.3375
3.0625 0.6875 4.4
3.0625 0.75 4.3375
3.0625 0.6875 4.3375
3.25 0.6875 4.4
3.25 0.75 4.3375
3.1875 0.75 4.4
3.25 0.6875 4.3375
3.1875 0.6875 4.4
3.1875 0.75 4.3375
3.1875 0.6875 4.3375
3.375 0.6875 4.4
3.375 0.75 4.3375
3.3125 0.75 4.4
3.375 0.6875 4.3375
3.3125 0.6875 4.4
3.3125 0.75 4.3375
3.3125 0.6875 4.3375
3.5 0.6875 4.4
3.5 0.75 4.3375
3.4375 0.75 4.4
3.5 0.6875 4.3375
3.4375 0.6875 4.4
3.4375 0.75 4.3375
3.4375 0.6875 4.3375
3.625 0.6875 4.4
3.625 0.75 4.3375
3.5625 0.75 4.4
3.625 0.6875 4.3375
3.5625 0.6875 4.4
3.5625 0.75 4.3375
3.5625 0.6875 4.3375
3.75 0.6875 4.4
3.75 0.75 4.3375
3.6875 0.75 4.4
3.75 0.6875 4.3375
3.6875 0.6875 4.4
3.6875 0.75 4.3375
3.6875 0.6875 4.3375
3.875 0.6875 4.4
3.875 0.75 4.3375
3.8125 0.75 4.4
3.875 0.6875 4.3375
3.8125 0.6875 4.4
3.8125 0.75 4.3375
3.8125 0.6875 4.3375
4 0.6875 4.4
4 0.75 4.3375
3.9375 0.75 4.4
4 0.6875 4.3375
3.9375 0.6875 4.4
3.9375 0.75 4.3375
3.9375 0.6875 4.3375
0.125 0.8125 4.4
0 0.8125 4.4
0.125 0.875 4.3375
0.0625 0.875 4.4
0 0.875 4.3375
0.125 0.8125 4.3375
0.0625 0.8125 4.4
0 0.8125 4.3375
0.0625 0.875 4.3375
0.0625 0.8125 4.3375
0.25 0.8125 4.4
0.25 0.875 4.3375
0.1875 0.875 4.4
0.25 0.8125 4.3375
0.1875 0.8125 4.4
0.1875 0.875 4.3375
0.1875 0.8125 4.3375
0.375 0.8125 4.4
0.375 0.875 4.3375
0.3125 0.875 4.4
0.375 0.8125 4.3375
0.3125 0.8125 4.4
0.3125 0.875 4.3375
0.3125 0.8125 4.3375
0.5 0.8125 4.4
0.5 0.875 4.3375
0.4375 0.875 4.4
0.5 0.8125 4.3375
0.4375 0.8125 4.4
0.4375 0.875 4.3375
0.4375 0.8125 4.3375
0.625 0.8125 4.4
0.625 0.875 4.3375
0.5625 0.875 4.4
0.625 0.8125 4.3375
0.5625 0.8125 4.4
0.5625 0.875 4.3375
0.5625 0.8125 4.3375
0.75 0.8125 4.4
0.75 0.875 4.3375
0.6875 0.875 4.4
0.75 0.8125 4.3375
0.6875 0.8125 4.4
0.6875 0.875 4.3375
0.6875 0.8125 4.3375
0.875 0.8125 4.4
0.875 0.875 4.3375
0.8125 0.875 4.4
0.875 0.8125 4.3375
0.8125 0.8125 4.4
0.8125 0.875 4.3375
0.8125 0.8125 4.3375
1 0.8125 4.4
1 0.875 4.3375
0.9375 0.875 4.4
1 0.8125 4.3375
0.9375 0.8125 4.4
0.9375 0.875 4.3375
0.9375 0.8125 4.3375
1.125 0.8125 4.4
1.125 0.875 4.3375
1.0625 0.875 4.4
1.125 0.8125 4.3375
1.0625 0.8125 4.4
1.0625 0.875 4.3375
1.0625 0.8125 4.3375
1.25 0.8125 4.4
1.25 0.875 4.3375
1.1875 0.875 4.4
1.25 0.8125 4.3375
1.1875 0.8125 4.4
1.1875 0.875 4.3375
1.1875 0.8125 4.3375
1.375 0.8125 4.4
1.375 0.875 4.3375
1.3125 0.875 4.4
1.375 0.8125 4.3375
1.3125 0.8125 4.4
1.3125 0.875 4.3375
1.3125 0.8125 4.3375
1.5 0.8125 4.4
1.5 0.875 4.3375
1.4375 0.875 4.4
1.5 0.8125 4.3375
1.4375 0.8125 4.4
1.4375 0.875 4.3375
1.4375 0.8125 4.3375
1.625 0.8125 4.4
1.625 0.875 4.3375
1.5625 0.875 4.4
1.625 0.8125 4.3375
1.5625 0.8125 4.4
1.5625 0.875 4.3375
1.5625 0.8125 4.3375
1.75 0.8125 4.4
1.75 0.875 4.3375
1.6875 0.875 4.4
1.75 0.8125 4.3375
1.6875 0.8125 4.4
1.6875 0.875 4.3375
1.6875 0.8125 4.3375
1.875 0.8125 4.4
1.875 0.875 4.3375
1.8125 0.875 4.4
1.875 0.8125 4.3375
1.8125 0.8125 4.4
1.8125 0.875 4.3375
1.8125 0.8125 4.3375
2 0.8125 4.4
2 0.875 4.3375
1.9375 0.875 4.4
2 0.8125 4.3375
1.9375 0.8125 4.4
1.9375 0.875 4.3375
1.9375 0.8125 4.3375
2.125 0.8125 4.4
2.125 0.875 4.3375
2.0625 0.875 4.4
2.125 0.8125 4.3375
2.0625 0.8125 4.4
2.0625 0.875 4.3375
2.0625 0.8125 4.3375
2.25 0.8125 4.4
2.25 0.875 4.3375
2.1875 0.875 4.4
2.25 0.8125 4.3375
2.1875 0.8125 4.4
2.1875 0.875 4.3375
2.1875 0.8125 4.3375
2.375 0.8125 4.4
2.375 0.875 4.3375
2.3125 0.875 4.4
2.375 0.8125 4.3375
2.3125 0.8125 4.4
2.3125 0.875 4.3375
2.3125 0.8125 4.3375
2.5 0.8125 4.4
2.5 0.875 4.3375
2.4375 0.875 4.4
2.5 0.8125 4.3375
2.4375 0.8125 4.4
2.4375 0.875 4.3375
2.4375 0.8125 4.3375
2.625 0.8125 4.4
2.625 0.875 4.3375
2.5625 0.875 4.4
2.625 0.8125 4.3375
2.5625 0.8125 4.4
2.5625 0.875 4.3375
2.5625 0.8125 4.3375
2.75 0.8125 4.4
2.75 0.875 4.3375
2.6875 0.875 4.4
2.75 0.8125 4.3375
2.6875 0.8125 4.4
2.6875 0.875 4.3375
2.6875 0.8125 4.3375
2.875 0.8125 4.4
2.875 0.875 4.3375
2.8125 0.875 4.4
2.875 0.8125 4.3375
2.8125 0.8125 4.4
2.8125 0.875 4.3375
2.8125 0.8125 4.3375
3 0.8125 4.4
3 0.875 4.3375
2.9375 0.875 4.4
3 0.8125 4.3375
2.9375 0.8125 4.4
2.9375 0.875 4.3375
2.9375 0.8125 4.3375
3.125 0.8125 4.4
3.125 0.875 4.3375
3.0625 0.875 4.4
3.125 0.8125 4.3375
3.0625 0.8125 4.4
3.0625 0.875 4.3375
3.0625 0.8125 4.3375
3.25 0.8125 4.4
3.25 0.875 4.3375
3.1875 0.875 4.4
3.25 0.8125 4.3375
3.1875 0.8125 4.4
3.1875 0.875 4.3375
3.1875 0.8125 4.3375
3.375 0.8125 4.4
3.375 0.875 4.3375
3.3125 0.875 4.4
3.375 0.8125 4.3375
3.3125 0.8125 4.4
3.3125 0.875 4.3375
3.3125 0.8125 4.3375
3.5 0.8125 4.4
3.5 0.875 4.3375
3.4375 0.875 4.4
3.5 0.8125 4.3375
3.4375 0.8125 4.4
3.4375 0.875 4.3375
3.4375 0.8125 4.3375
3.625 0.8125 4.4
3.625 0.875 4.3375
3.5625 0.875 4.4
3.625 0.8125 4.3375
3.5625 0.8125 4.4
3.5625 0.875 4.3375
3.5625 0.8125 4.3375
3.75 0.8125 4.4
3.75 0.875 4.3375
3.6875 0.875 4.4
3.75 0.8125 4.3375
3.6875 0.8125 4.4
3.6875 0.875 4.3375
3.6875 0.8125 4.3375
3.875 0.8125 4.4
3.875 0.875 4.3375
3.8125 0.875 4.4
3.875 0.8125 4.3375
3.8125 0.8125 4.4
3.8125 0.875 4.3375
3.8125 0.8125 4.3375
4 0.8125 4.4
4 0.875 4.3375
3.9375 0.875 4.4
4 0.8125 4.3375
3.9375 0.8125 4.4
3.9375 0.875 4.3375
3.9375 0.8125 4.3375
0.125 0.9375 4.4
0 0.9375 4.4
0.125 1 4.3375
0.0625 1 4.4
0 1 4.3375
0.125 0.9375 4.3375
0.0625 0.9375 4.4
0 0.9375 4.3375
0.0625 1 4.3375
0.0625 0.9375 4.3375
0.25 0.9375 4.4
0.25 1 4.3375
0.1875 1 4.4
0.25 0.9375 4.3375
0.1875 0.9375 4.4
0.1875 1 4.3375
0.1875 0.9375 4.3375
0.375 0.9375 4.4
0.375 1 4.3375
0.3125 1 4.4
0.375 0.9375 4.3375
0.3125 0.9375 4.4
0.3125 1 4.3375
0.3125 0.9375 4.3375
0.5 0.9375 4.4
0.5 1 4.3375
0.4375 1 4.4
0.5 0.9375 4.3375
0.4375 0.9375 4.4
0.4375 1 4.3375
0.4375 0.9375 4.3375
0.625 0.9375 4.4
0.625 1 4.3375
0.5625 1 4.4
0.625 0.9375 4.3375
0.5625 0.9375 4.4
0.5625 1 4.3375
0.5625 0.9375 4.3375
0.75 0.9375 4.4
0.75 1 4.3375
0.6875 1 4.4
0.75 0.9375 4.3375
0.6875 0.9375 4.4
0.6875 1 4.3375
0.6875 0.9375 4.3375
0.875 0.9375 4.4
0.875 1 4.3375
0.8125 1 4.4
0.875 0.9375 4.3375
0.8125 0.9375 4.4
0.8125 1 4.3375
0.8125 0.9375 4.3375
1 0.9375 4.4
1 1 4.3375
0.9375 1 4.4
1 0.9375 4.3375
0.9375 0.9375 4.4
0.9375 1 4.3375
0.9375 0.9375 4.3375
1.125 0.9375 4.4
1.125 1 4.3375
1.0625 1 4.4
1.125 0.9375 4.3375
1.0625 0.9375 4.4
1.0625 1 4.3375
1.0625 0.9375 4.3375
1.25 0.9375 4.4
1.25 1 4.3375
1.1875 1 4.4
1.25 0.9375 4.3375
1.1875 0.9375 4.4
1.1875 1 4.3375
1.1875 0.9375 4.3375
1.375 0.9375 4.4
1.375 1 4.3375
1.3125 1 4.4
1.375 0.9375 4.3375
1.3125 0.9375 4.4
1.3125 1 4.3375
1.3125 0.9375 4.3375
1.5 0.9375 4.4
1.5 1 4.3375
1.4375 1 4.4
1.5 0.9375 4.3375
1.4375 0.9375 4.4
1.4375 1 4.3375
1.4375 0.9375 4.3375
1.625 0.9375 4.4
1.625 1 4.3375
1.5625 1 4.4
1.625 0.9375 4.3375
1.5625 0.9375 4.4
1.5625 1 4.3375
1.5625 0.9375 4.3375
1.75 0.9375 4.4
1.75 1 4.3375
1.6875 1 4.4
1.75 0.9375 4.3375
1.6875 0.9375 4.4
1.6875 1 4.3375
1.6875 0.9375 4.3375
1.875 0.9375 4.4
1.875 1 4.3375
1.8125 1 4.4
1.875 0.9375 4.3375
1.8125 0.9375 4.4
1.8125 1 4.3375
1.8125 0.9375 4.3375
2 0.9375 4.4
2 1 4.3375
1.9375 1 4.4
2 0.9375 4.3375
1.9375 0.9375 4.4
1.9375 1 4.3375
1.9375 0.9375 4.3375
2.125 0.9375 4.4
2.125 1 4.3375
2.0625 1 4.4
2.125 0.9375 4.3375
2.0625 0.9375 4.4
2.0625 1 4.3375
2.0625 0.9375 4.3375
2.25 0.9375 4.4
2.25 1 4.3375
2.1875 1 4.4
2.25 0.9375 4.3375
2.1875 0.9375 4.4
2.1875 1 4.3375
2.1875 0.9375 4.3375
2.375 0.9375 4.4
2.375 1 4.3375
2.3125 1 4.4
2.375 0.9375 4.3375
2.3125 0.9375 4.4
2.3125 1 4.3375
2.3125 0.9375 4.3375
2.5 0.9375 4.4
2.5 1 4.3375
2.4375 1 4.4
2.5 0.9375 4.3375
2.4375 0.9375 4.4
2.4375 1 4.3375
2.4375 0.9375 4.3375
2.625 0.9375 4.4
2.625 1 4.3375
2.5625 1 4.4
2.625 0.9375 4.3375
2.5625 0.9375 4.4
2.5625 1 4.3375
2.5625 0.9375 4.3375
2.75 0.9375 4.4
2.75 1 4.3375
2.6875 1 4.4
2.75 0.9375 4.3375
2.6875 0.9375 4.4
2.6875 1 4.3375
2.6875 0.9375 4.3375
2.875 0.9375 4.4
2.875 1 4.3375
2.8125 1 4.4
2.875 0.9375 4.3375
2.8125 0.9375 4.4
2.8125 1 4.3375
2.8125 0.9375 4.3375
3 0.9375 4.4
3 1 4.3375
2.9375 1 4.4
3 0.9375 4.3375
2.9375 0.9375 4.4
2.9375 1 4.3375
2.9375 0.9375 4.3375
3.125 0.9375 4.4
3.125 1 4.3375
3.0625 1 4.4
3.125 0.9375 4.3375
3.0625 0.9375 4.4
3.0625 1 4.3375
3.0625 0.9375 4.3375
3.25 0.9375 4.4
3.25 1 4.3375
3.1875 1 4.4
3.25 0.9375 4.3375
3.1875 0.9375 4.4
3.1875 1 4.3375
3.1875 0.9375 4.3375
3.375 0.9375 4.4
3.375 1 4.3375
3.3125 1 4.4
3.375 0.9375 4.3375
3.3125 0.9375 4.4
3.3125 1 4.3375
3.3125 0.9375 4.3375
3.5 0.9375 4.4
3.5 1 4.3375
3.4375 1 4.4
3.5 0.9375 4.3375
3.4375 0.9375 4.4
3.4375 1 4.3375
3.4375 0.9375 4.3375
3.625 0.9375 4.4
3.625 1 4.3375
3.5625 1 4.4
3.625 0.9375 4.3375
3.5625 0.9375 4.4
3.5625 1 4.3375
3.5625 0.9375 4.3375
3.75 0.9375 4.4
3.75 1 4.3375
3.6875 1 4.4
3.75 0.9375 4.3375
3.6875 0.9375 4.4
3.6875 1 4.3375
3.6875 0.9375 4.3375
3.875 0.9375 4.4
3.875 1 4.3375
3.8125 1 4.4
3.875 0.9375 4.3375
3.8125 0.9375 4.4
3.8125 1 4.3375
3.8125 0.9375 4.3375
4 0.9375 4.4
4 1 4.3375
3.9375 1 4.4
4 0.9375 4.3375
3.9375 0.9375 4.4
3.9375 1 4.3375
3.9375 0.9375 4.3375

CELLS 2049 55296
OFFSETS vtktypeint64
0 27 54 81 108 135 162 189 216 243 270 297 324 351 378 405 432 459 486 513 540 567 594 621 648 675 702 729 756 783 810 837 864 891 918 945 972 999 1026 1053 1080 1107 1134 1161 1188 1215 1242 1269 1296 1323 1350 1377 1404 1431 1458 1485 1512 1539 1566 1593 1620 1647 1674 1701 1728 1755 1782 1809 1836 1863 1890 1917 1944 1971 1998 2025 2052 2079 2106 2133 2160 2187 2214 2241 2268 2295 2322 2349 2376 2403 2430 2457 2484 2511 2538 2565 2592 2619 2646 2673 2700 2727 2754 2781 2808 2835 2862 2889 2916 2943 2970 2997 3024 3051 3078 3105 3132 3159 3186 3213 3240 3267 3294 3321 3348 3375 3402 3429 3456 3483 3510 3537 3564 3591 3618 3645 3672 3699 3726 3753 3780 3807 3834 3861 3888 3915 3942 3969 3996 4023 4050 4077 4104 4131 4158 4185 4212 4239 4266 4293 4320 4347 4374 4401 4428 4455 4482 4509 4536 4563 4590 4617 4644 4671 4698 4725 4752 4779 4806 4833 4860 4887 4914 4941 4968 4995 5022 5049 5076 5103 5130 5157 5184 5211 5238 5265 5292 5319 5346 5373 5400 5427 5454 5481 5508 5535 5562 5589 5616 5643 5670 5697 5724 5751 5778 5805 5832 5859 5886 5913 5940 5967 5994 6021 6048 6075 6102 6129 6156 6183 6210 6237 6264 6291 6318 6345 6372 6399 6426 6453 6480 6507 6534 6561 6588 6615 6642 6669 6696 6723 6750 6777 6804 6831 6858 6885 6912 6939 6966 6993 7020 7047 7074 7101 7128 7155 7182 7209 7236 7263 7290 7317 7344 7371 7398 7425 7452 7479 7506 7533 7560 7587 7614 7641 7668 7695 7722 7749 7776 7803 7830 7857 7884 7911 7938 7965 7992 8019 8046 8073 8100 8127 8154 8181 8208 8235 8262 8289 8316 8343 8370 8397 8424 8451 8478 8505 8532 8559 8586 8613 8640 8667 8694 8721 8748 8775 8802 8829 8856 8883 8910 8937 8964 8991 9018 9045 9072 9099 9126 9153 9180 9207 9234 9261 9288 9315 9342 9369 9396 9423 9450 9477 9504 9531 9558 9585 9612 9639 9666 9693 9720 9747 9774 9801 9828 9855 9882 9909 9936 9963 9990 10017 10044 10071 10098 10125 10152 10179 10206 10233 10260 10287 10314 10341 10368 10395 10422 10449 10476 10503 10530 10557 10584 10611 10638 10665 10692 10719 10746 10773 10800 10827 10854 10881 10908 10935 10962 10989 11016 11043 11070 11097 11124 11151 11178 11205 11232 11259 11286 11313 11340 11367 11394 11421 11448 11475 11502 11529 11556 11583 11610 11637 11664 11691 11718 11745 11772 11799 11826 11853 11880 11907 11934 11961 11988 12015 12042 12069 12096 12123 12150 12177 12204 12231 12258 12285 12312 12339 12366 12393 12420 12447 12474 12501 12528 12555 12582 12609 12636 12663 12690 12717 12744 12771 12798 12825 12852 12879 12906 12933 12960 12987 13014 13041 13068 13095 13122 13149 13176 13203 13230 13257 13284 13311 13338 13365 13392 13419 13446 13473 13500 13527 13554 13581 13608 13635 13662 13689 13716 13743 13770 13797 13824 13851 13878 13905 13932 13959 13986 14013 14040 14067 14094 14121 14148 14175 14202 14229 14256 14283 14310 14337 14364 14391 14418 14445 14472 14499 14526 14553 14580 14607 14634 14661 14688 14715 14742 14769 14796 14823 14850 14877 14904 14931 14958 14985 15012 15039 15066 15093 15120 15147 15174 15201 15228 15255 15282 15309 15336 15363 15390 15417 15444 15471 15498 15525 15552 15579 15606 15633 15660 15687 15714 15741 15768 15795 15822 15849 15876 15903 15930 15957 15984 16011 16038 16065 16092 16119 16146 16173 16200 16227 16254 16281 16308 16335 16362 16389 16416 16443 16470 16497 16524 16551 16578 16605 16632 16659 16686 16713 16740 16767 16794 16821 16848 16875 16902 16929 16956 16983 17010 17037 17064 17091 17118 17145 17172 17199 17226 17253 17280 17307 17334 17361 17388 17415 17442 17469 17496 17523 17550 17577 17604 17631 17658 17685 17712 17739 17766 17793 17820 17847 17874 17901 17928 17955 17982 18009 18036 18063 18090 18117 18144 18171 18198 18225 18252 18279 18306 18333 18360 18387 18414 18441 18468 18495 18522 18549 18576 18603 18630 18657 18684 18711 18738 18765 18792 18819 18846 18873 18900 18927 18954 18981 19008 19035 19062 19089 19116 19143 19170 19197 19224 19251 19278 19305 19332 19359 19386 19413 19440 19467 19494 19521 19548 19575 19602 19629 19656 19683 19710 19737 19764 19791 19818 19845 19872 19899 19926 19953 19980 20007 20034 20061 20088 20115 20142 20169 20196 20223 20250 20277 20304 20331 20358 20385 20412 20439 20466 20493 20520 20547 20574 20601 20628 20655 20682 20709 20736 20763 20790 20817 20844 20871 20898 20925 20952 20979 21006 21033 21060 21087 21114 21141 21168 21195 21222 21249 21276 21303 21330 21357 21384 21411 21438 21465 21492 21519 21546 21573 21600 21627 21654 21681 21708 21735 21762 21789 21816 21843 21870 21897 21924 21951 21978 22005 22032 22059 22086 22113 22140 22167 22194 22221 22248 22275 22302 22329 22356 22383 22410 22437 22464 22491 22518 22545 22572 22599 22626 22653 22680 22707 22734 22761 22788 22815 22842 22869 22896 22923 22950 22977 23004 23031 23058 23085 23112 23139 23166 23193 23220 23247 23274 23301 23328 23355 23382 23409 23436 23463 23490 23517 23544 23571 23598 23625 23652 23679 23706 23733 23760 23787 23814 23841 23868 23895 23922 23949 23976 24003 24030 24057 24084 24111 24138 24165 24192 24219 24246 24273 24300 24327 24354 24381 24408 24435 24462 24489 24516 24543 24570 24597 24624 24651 24678 24705 24732 24759 24786 24813 24840 24867 24894 24921 24948 24975 25002 25029 25056 25083 25110 25137 25164 25191 25218 25245 25272 25299 25326 25353 25380 25407 25434 25461 25488 25515 25542 25569 25596 25623 25650 25677 25704 25731 25758 25785 25812 25839 25866 25893 25920 25947 25974 26001 26028 26055 26082 26109 26136 26163 26190 26217 26244 26271 26298 26325 26352 26379 26406 26433 26460 26487 26514 26541 26568 26595 26622 26649 26676 26703 26730 26757 26784 26811 26838 26865 26892 26919 26946 26973 27000 27027 27054 27081 27108 27135 27162 27189 27216 27243 27270 27297 27324 27351 27378 27405 27432 27459 27486 27513 27540 27567 27594 27621 27648 27675 27702 27729 27756 27783 27810 27837 27864 27891 27918 27945 27972 27999 28026 28053 28080 28107 28134 28161 28188 28215 28242 28269 28296 28323 28350 28377 28404 28431 28458 28485 28512 28539 28566 28593 28620 28647 28674 28701 28728 28755 28782 28809 28836 28863 28890 28917 28944 28971 28998 29025 29052 29079 29106 29133 29160 29187 29214 29241 29268 29295 29322 29349 29376 29403 29430 29457 29484 29511 29538 29565 29592 29619 29646 29673 29700 29727 29754 29781 29808 29835 29862 29889 29916 29943 29970 29997 30024 30051 30078 30105 30132 30159 30186 30213 30240 30267 30294 30321 30348 30375 30402 30429 30456 30483 30510 30537 30564 30591 30618 30645 30672 30699 30726 30753 30780 30807 30834 30861 30888 30915 30942 30969 30996 31023 31050 31077 31104 31131 31158 31185 31212 31239 31266 31293 31320 31347 31374 31401 31428 31455 31482 31509 31536 31563 31590 31617 31644 31671 31698 31725 31752 31779 31806 31833 31860 31887 31914 31941 31968 31995 32022 32049 32076 32103 32130 32157 32184 32211 32238 32265 32292 32319 32346 32373 32400 32427 32454 32481 32508 32535 32562 32589 32616 32643 32670 32697 32724 32751 32778 32805 32832 32859 32886 32913 32940 32967 32994 33021 33048 33075 33102 33129 33156 33183 33210 33237 33264 33291 33318 33345 33372 33399 33426 33453 33480 33507 33534 33561 33588 33615 33642 33669 33696 33723 33750 33777 33804 33831 33858 33885 33912 33939 33966 33993 34020 34047 34074 34101 34128 34155 34182 34209 34236 34263 34290 34317 34344 34371 34398 34425 34452 34479 34506 34533 34560 34587 34614 34641 34668 34695 34722 34749 34776 34803 34830 34857 34884 34911 34938 34965 34992 35019 35046 35073 35100 35127 35154 35181 35208 35235 35262 35289 35316 35343 35370 35397 35424 35451 35478 35505 35532 35559 35586 35613 35640 35667 35694 35721 35748 35775 35802 35829 35856 35883 35910 35937 35964 35991 36018 36045 36072 36099 36126 36153 36180 36207 36234 36261 36288 36315 36342 36369 36396 36423 36450 36477 36504 36531 36558 36585 36612 36639 36666 36693 36720 36747 36774 36801 36828 36855 36882 36909 36936 36963 36990 37017 37044 37071 37098 37125 37152 37179 37206 37233 37260 37287 37314 37341 37368 37395 37422 37449 37476 37503 37530 37557 37584 37611 37638 37665 37692 37719 37746 37773 37800 37827 37854 37881 37908 37935 37962 37989 38016 38043 38070 38097 38124 38151 38178 38205 38232 38259 38286 38313 38340 38367 38394 38421 38448 38475 38502 38529 38556 38583 38610 38637 38664 38691 38718 38745 38772 38799 38826 38853 38880 38907 38934 38961 38988 39015 39042 39069 39096 39123 39150 39177 39204 39231 39258 39285 39312 39339 39366 39393 39420 39447 39474 39501 39528 39555 39582 39609 39636 39663 39690 39717 39744 39771 39798 39825 39852 39879 39906 39933 39960 39987 40014 40041 40068 40095 40122 40149 40176 40203 40230 40257 40284 40311 40338 40365 40392 40419 40446 40473 40500 40527 40554 40581 40608 40635 40662 40689 40716 40743 40770 40797 40824 40851 40878 40905 40932 40959 40986 41013 41040 41067 41094 41121 41148 41175 41202 41229 41256 41283 41310 41337 41364 41391 41418 41445 41472 41499 41526 41553 41580 41607 41634 41661 41688 41715 41742 41769 41796 41823 41850 41877 41904 41931 41958 41985 42012 42039 42066 42093 42120 42147 42174 42201 42228 42255 42282 42309 42336 42363 42390 42417 42444 42471 42498 42525 42552 42579 42606 42633 42660 42687 42714 42741 42768 42795 42822 42849 42876 42903 42930 42957 42984 43011 43038 43065 43092 43119 43146 43173 43200 43227 43254 43281 43308 43335 43362 43389 43416 43443 43470 43497 43524 43551 43578 43605 43632 43659 43686 43713 43740 43767 43794 43821 43848 43875 43902 43929 43956 43983 44010 44037 44064 44091 44118 44145 44172 44199 44226 44253 44280 44307 44334 44361 44388 44415 44442 44469 44496 44523 44550 44577 44604 44631 44658 44685 44712 44739 44766 44793 44820 44847 44874 44901 44928 44955 44982 45009 45036 45063 45090 45117 45144 45171 45198 45225 45252 45279 45306 45333 45360 45387 45414 45441 45468 45495 45522 45549 45576 45603 45630 45657 45684 45711 45738 45765 45792 45819 45846 45873 45900 45927 45954 45981 46008 46035 46062 46089 46116 46143 46170 46197 46224 46251 46278 46305 46332 46359 46386 46413 46440 46467 46494 46521 46548 46575 46602 46629 46656 46683 46710 46737 46764 46791 46818 46845 46872 46899 46926 46953 46980 47007 47034 47061 47088 47115 47142 47169 47196 47223 47250 47277 47304 47331 47358 47385 47412 47439 47466 47493 47520 47547 47574 47601 47628 47655 47682 47709 47736 47763 47790 47817 47844 47871 47898 47925 47952 47979 48006 48033 48060 48087 48114 48141 48168 48195 48222 48249 48276 48303 48330 48357 48384 48411 48438 48465 48492 48519 48546 48573 48600 48627 48654 48681 48708 48735 48762 48789 48816 48843 48870 48897 48924 48951 48978 49005 49032 49059 49086 49113 49140 49167 49194 49221 49248 49275 49302 49329 49356 49383 49410 49437 49464 49491 49518 49545 49572 49599 49626 49653 49680 49707 49734 49761 49788 49815 49842 49869 49896 49923 49950 49977 50004 50031 50058 50085 50112 50139 50166 50193 50220 50247 50274 50301 50328 50355 50382 50409 50436 50463 50490 50517 50544 50571 50598 50625 50652 50679 50706 50733 50760 50787 50814 50841 50868 50895 50922 50949 50976 51003 51030 51057 51084 51111 51138 51165 51192 51219 51246 51273 51300 51327 51354 51381 51408 51435 51462 51489 51516 51543 51570 51597 51624 51651 51678 51705 51732 51759 51786 51813 51840 51867 51894 51921 51948 51975 52002 52029 52056 52083 52110 52137 52164 52191 52218 52245 52272 52299 52326 52353 52380 52407 52434 52461 52488 52515 52542 52569 52596 52623 52650 52677 52704 52731 52758 52785 52812 52839 52866 52893 52920 52947 52974 53001 53028 53055 53082 53109 53136 53163 53190 53217 53244 53271 53298 53325 53352 53379 53406 53433 53460 53487 53514 53541 53568 53595 53622 53649 53676 53703 53730 53757 53784 53811 53838 53865 53892 53919 53946 53973 54000 54027 54054 54081 54108 54135 54162 54189 54216 54243 54270 54297 54324 54351 54378 54405 54432 54459 54486 54513 54540 54567 54594 54621 54648 54675 54702 54729 54756 54783 54810 54837 54864 54891 54918 54945 54972 54999 55026 55053 55080 55107 55134 55161 55188 55215 55242 55269 55296 
CONNECTIVITY vtktypeint64
0 1 298 297 33 34 331 330 2673 2674 2675 2676 2681 2682 2683 2684 2677 2678 2679 2680 2689 2687 2686 2688 2685 2690 2691 
1 2 299 298 34 35 332 331 2692 2693 2694 2674 2697 2698 2699 2682 2678 2695 2696 2679 2687 2702 2701 2703 2700 2704 2705 
2 3 300 299 35 36 333 332 2706 2707 2708 2693 2711 2712 2713 2698 2695 2709 2710 2696 2702 2716 2715 2717 2714 2718 2719 
3 4 301 300 36 37 334 333 2720 2721 2722 2707 2725 2726 2727 2712 2709 2723 2724 2710 2716 2730 2729 2731 2728 2732 2733 
4 5 302 301 37 38 335 334 2734 2735 2736 2721 2739 2740 2741 2726 2723 2737 2738 2724 2730 2744 2743 2745 2742 2746 2747 
5 6 303 302 38 39 336 335 2748 2749 2750 2735 2753 2754 2755 2740 2737 2751 2752 2738 2744 2758 2757 2759 2756 2760 2761 
6 7 304 303 39 40 337 336 2762 2763 2764 2749 2767 2768 2769 2754 2751 2765 2766 2752 2758 2772 2771 2773 2770 2774 2775 
7 8 305 304 40 41 338 337 2776 2777 2778 2763 2781 2782 2783 2768 2765 2779 2780 2766 2772 2786 2785 2787 2784 2788 2789 
8 9 306 305 41 42 339 338 2790 2791 2792 2777 2795 2796 2797 2782 2779 2793 2794 2780 2786 2800 2799 2801 2798 2802 2803 
9 10 307 306 42 43 340 339 2804 2805 2806 2791 2809 2810 2811 2796 2793 2807 2808 2794 2800 2814 2813 2815 2812 2816 2817 
10 11 308 307 43 44 341 340 2818 2819 2820 2805 2823 2824 2825 2810 2807 2821 2822 2808 2814 2828 2827 2829 2826 2830 2831 
11 12 309 308 44 45 342 341 2832 2833 2834 2819 2837 2838 2839 2824 2821 2835 2836 2822 2828 2842 2841 2843 2840 2844 2845 
12 13 310 309 45 46 343 342 2846 2847 2848 2833 2851 2852 2853 2838 2835 2849 2850 2836 2842 2856 2855 2857 2854 2858 2859 
13 14 311 310 46 47 344 343 2860 2861 2862 2847 2865 2866 2867 2852 2849 2863 2864 2850 2856 2870 2869 2871 2868 2872 2873 
14 15 312 311 47 48 345 344 2874 2875 2876 2861 2879 2880 2881 2866 2863 2877 2878 2864 2870 2884 2883 2885 2882 2886 2887 
15 16 313 312 48 49 346 345 2888 2889 2890 2875 2893 2894 2895 2880 2877 2891 2892 2878 2884 2898 2897 2899 2896 2900 2901 
16 17 314 313 49 50 347 346 2902 2903 2904 2889 2907 2908 2909 2894 2891 2905 2906 2892 2898 2912 2911 2913 2910 2914 2915 
17 18 315 314 50 51 348 347 2916 2917 2918 2903 2921 2922 2923 2908 2905 2919 2920 2906 2912 2926 2925 2927 2924 2928 2929 
18 19 316 315 51 52 349 348 2930 2931 2932 2917 2935 2936 2937 2922 2919 2933 2934 2920 2926 2940 2939 2941 2938 2942 2943 
19 20 317 316 52 53 350 349 2944 2945 2946 2931 2949 2950 2951 2936 2933 2947 2948 2934 2940 2954 2953 2955 2952 2956 2957 
20 21 318 317 53 54 351 350 2958 2959 2960 2945 2963 2964 2965 2950 2947 2961 2962 2948 2954 2968 2967 2969 2966 2970 2971 
21 22 319 318 54 55 352 351 2972 2973 2974 2959 2977 2978 2979 2964 2961 2975 2976 2962 2968 2982 2981 2983 2980 2984 2985 
22 23 320 319 55 56 353 352 2986 2987 2988 2973 2991 2992 2993 2978 2975 2989 2990 2976 2982 2996 2995 2997 2994 2998 2999 
23 24 321 320 56 57 354 353 3000 3001 3002 2987 3005 3006 3007 2992 2989 3003 3004 2990 2996 3010 3009 3011 3008 3012 3013 
24 25 322 321 57 58 355 354 3014 3015 3016 3001 3019 3020 3021 3006 3003 3017 3018 3004 3010 3024 3023 3025 3022 3026 3027 
25 26 323 322 58 59 356 355 3028 3029 3030 3015 3033 3034 3035 3020 3017 3031 3032 3018 3024 3038 3037 3039 3036 3040 3041 
26 27 324 323 59 60 357 356 3042 3043 3044 3029 3047 3048 3049 3034 3031 3045 3046 3032 3038 3052 3051 3053 3050 3054 3055 
27 28 325 324 60 61 358 357 3056 3057 3058 3043 3061 3062 3063 3048 3045 3059 3060 3046 3052 3066 3065 3067 3064 3068 3069 
28 29 326 325 61 62 359 358 3070 3071 3072 3057 3075 3076 3077 3062 3059 3073 3074 3060 3066 3080 3079 3081 3078 3082 3083 
29 30 327 326 62 63 360 359 3084 3085 3086 3071 3089 3090 3091 3076 3073 3087 3088 3074 3080 3094 3093 3095 3092 3096 3097 
30 31 328 327 63 64 361 360 3098 3099 3100 3085 3103 3104 3105 3090 3087 3101 3102 3088 3094 3108 3107 3109 3106 3110 3111 
31 32 329 328 64 65 362 361 3112 3113 3114 3099 3117 3118 3119 3104 3101 3115 3116 3102 3108 3122 3121 3123 3120 3124 3125 
33 34 331 330 66 67 364 363 2681 2682 2683 2684 3130 3131 3132 3133 3126 3127 3128 3129 3137 3135 3134 3136 2690 3138 3139 
34 35 332 331 67 68 365 364 2697 2698 2699 2682 3142 3143 3144 3131 3127 3140 3141 3128 3135 3146 3145 3147 2704 3148 3149 
35 36 333 332 68 69 366 365 2711 2712 2713 2698 3152 3153 3154 3143 3140 3150 3151 3141 3146 3156 3155 3157 2718 3158 3159 
36 37 334 333 69 70 367 366 2725 2726 2727 2712 3162 3163 3164 3153 3150 3160 3161 3151 3156 3166 3165 3167 2732 3168 3169 
37 38 335 334 70 71 368 367 2739 2740 2741 2726 3172 3173 3174 3163 3160 3170 3171 3161 3166 3176 3175 3177 2746 3178 3179 
38 39 336 335 71 72 369 368 2753 2754 2755 2740 3182 3183 3184 3173 3170 3180 3181 3171 3176 3186 3185 3187 2760 3188 3189 
39 40 337 336 72 73 370 369 2767 2768 2769 2754 3192 3193 3194 3183 3180 3190 3191 3181 3186 3196 3195 3197 2774 3198 3199 
40 41 338 337 73 74 371 370 2781 2782 2783 2768 3202 3203 3204 3193 3190 3200 3201 3191 3196 3206 3205 3207 2788 3208 3209 
41 42 339 338 74 75 372 371 2795 2796 2797 2782 3212 3213 3214 3203 3200 3210 3211 3201 3206 3216 3215 3217 2802 3218 3219 
42 43 340 339 75 76 373 372 2809 2810 2811 2796 3222 3223 3224 3213 3210 3220 3221 3211 3216 3226 3225 3227 2816 3228 3229 
43 44 341 340 76 77 374 373 2823 2824 2825 2810 3232 3233 3234 3223 3220 3230 3231 3221 3226 3236 3235 3237 2830 3238 3239 
44 45 342 341 77 78 375 374 2837 2838 2839 2824 3242 3243 3244 3233 3230 3240 3241 3231 3236 3246 3245 3247 2844 3248 3249 
45 46 343 342 78 79 376 375 2851 2852 2853 2838 3252 3253 3254 3243 3240 3250 3251 3241 3246 3256 3255 3257 2858 3258 3259 
46 47 344 343 79 80 377 376 2865 2866 2867 2852 3262 3263 3264 3253 3250 3260 3261 3251 3256 3266 3265 3267 2872 3268 3269 
47 48 345 344 80 81 378 377 2879 2880 2881 2866 3272 3273 3274 3263 3260 3270 3271 3261 3266 3276 3275 3277 2886 3278 3279 
48 49 346 345 81 82 379 378 2893 2894 2895 2880 3282 3283 3284 3273 3270 3280 3281 3271 3276 3286 3285 3287 2900 3288 3289 
49 50 347 346 82 83 380 379 2907 2908 2909 2894 3292 3293 3294 3283 3280 3290 3291 3281 3286 3296 3295 3297 2914 3298 3299 
50 51 348 347 83 84 381 380 2921 2922 2923 2908 3302 3303 3304 3293 3290 3300 3301 3291 3296 3306 3305 3307 2928 3308 3309 
51 52 349 348 84 85 382 381 2935 2936 2937 2922 3312 3313 3314 3303 3300 3310 3311 3301 3306 3316 3315 3317 2942 3318 3319 
52 53 350 349 85 86 383 382 2949 2950 2951 2936 3322 3323 3324 3313 3310 3320 3321 3311 3316 3326 3325 3327 2956 3328 3329 
53 54 351 350 86 87 384 383 2963 2964 2965 2950 3332 3333 3334 3323 3320 3330 3331 3321 3326 3336 3335 3337 2970 3338 3339 
54 55 352 351 87 88 385 384 2977 2978 2979 2964 3342 3343 3344 3333 3330 3340 3341 3331 3336 3346 3345 3347 2984 3348 3349 
55 56 353 352 88 89 386 385 2991 2992 2993 2978 3352 3353 3354 3343 3340 3350 3351 3341 3346 3356 3355 3357 2998 3358 3359 
56 57 354 353 89 90 387 386 3005 3006 3007 2992 3362 3363 3364 3353 3350 3360 3361 3351 3356 3366 3365 3367 3012 3368 3369 
57 58 355 354 90 91 388 387 3019 3020 3021 3006 3372 3373 3374 3363 3360 3370 3371 3361 3366 3376 3375 3377 3026 3378 3379 
58 59 356 355 91 92 389 388 3033 3034 3035 3020 3382 3383 3384 3373 3370 3380 3381 3371 3376 3386 3385 3387 3040 3388 3389 
59 60 357 356 92 93 390 389 3047 3048 3049 3034 3392 3393 3394 3383 3380 3390 3391 3381 3386 3396 3395 3397 3054 3398 3399 
60 61 358 357 93 94 391 390 3061 3062 3063 3048 3402 3403 3404 3393 3390 3400 3401 3391 3396 3406 3405 3407 3068 3408 3409 
61 62 359 358 94 95 392 391 3075 3076 3077 3062 3412 3413 3414 3403 3400 3410 3411 3401 3406 3416 3415 3417 3082 3418 3419 
62 63 360 359 95 96 393 392 3089 3090 3091 3076 3422 3423 3424 3413 3410 3420 3421 3411 3416 3426 3425 3427 3096 3428 3429 
63 64 361 360 96 97 394 393 3103 3104 3105 3090 3432 3433 3434 3423 3420 3430 3431 3421 3426 3436 3435 3437 3110 3438 3439 
64 65 362 361 97 98 395 394 3117 3118 3119 3104 3442 3443 3444 3433 3430 3440 3441 3431 3436 3446 3445 3447 3124 3448 3449 
66 67 364 363 99 100 397 396 3130 3131 3132 3133 3454 3455 3456 3457 3450 3451 3452 3453 3461 3459 3458 3460 3138 3462 3463 
67 68 365 364 100 101 398 397 3142 3143 3144 3131 3466 3467 3468 3455 3451 3464 3465 3452 3459 3470 3469 3471 3148 3472 3473 
68 69 366 365 101 102 399 398 3152 3153 3154 3143 3476 3477 3478 3467 3464 3474 3475 3465 3470 3480 3479 3481 3158 3482 3483 
69 70 367 366 102 103 400 399 3162 3163 3164 3153 3486 3487 3488 3477 3474 3484 3485 3475 3480 3490 3489 3491 3168 3492 3493 
70 71 368 367 103 104 401 400 3172 3173 3174 3163 3496 3497 3498 3487 3484 3494 3495 3485 3490 3500 3499 3501 3178 3502 3503 
71 72 369 368 104 105 402 401 3182 3183 3184 3173 3506 3507 3508 3497 3494 3504 3505 3495 3500 3510 3509 3511 3188 3512 3513 
72 73 370 369 105 106 403 402 3192 3193 3194 3183 3516 3517 3518 3507 3504 3514 3515 3505 3510 3520 3519 3521 3198 3522 3523 
73 74 371 370 106 107 404 403 3202 3203 3204 3193 3526 3527 3528 3517 3514 3524 3525 3515 3520 3530 3529 3531 3208 3532 3533 
74 75 372 371 107 108 405 404 3212 3213 3214 3203 3536 3537 3538 3527 3524 3534 3535 3525 3530 3540 3539 3541 3218 3542 3543 
75 76 373 372 108 109 406 405 3222 3223 3224 3213 3546 3547 3548 3537 3534 3544 3545 3535 3540 3550 3549 3551 3228 3552 3553 
76 77 374 373 109 110 407 406 3232 3233 3234 3223 3556 3557 3558 3547 3544 3554 3555 3545 3550 3560 3559 3561 3238 3562 3563 
77 78 375 374 110 111 408 407 3242 3243 3244 3233 3566 3567 3568 3557 3554 3564 3565 3555 3560 3570 3569 3571 3248 3572 3573 
78 79 376 375 111 112 409 408 3252 3253 3254 3243 3576 3577 3578 3567 3564 3574 3575 3565 3570 3580 3579 3581 3258 3582 3583 
79 80 377 376 112 113 410 409 3262 3263 3264 3253 3586 3587 3588 3577 3574 3584 3585 3575 3580 3590 3589 3591 3268 3592 3593 
80 81 378 377 113 114 411 410 3272 3273 3274 3263 3596 3597 3598 3587 3584 3594 3595 3585 3590 3600 3599 3601 3278 3602 3603 
81 82 379 378 114 115 412 411 3282 3283 3284 3273 3606 3607 3608 3597 3594 3604 3605 3595 3600 3610 3609 3611 3288 3612 3613 
82 83 380 379 115 116 413 412 3292 3293 3294 3283 3616 3617 3618 3607 3604 3614 3615 3605 3610 3620 3619 3621 3298 3622 3623 
83 84 381 380 116 117 414 413 3302 3303 3304 3293 3626 3627 3628 3617 3614 3624 3625 3615 3620 3630 3629 3631 3308 3632 3633 
84 85 382 381 117 118 415 414 3312 3313 3314 3303 3636 3637 3638 3627 3624 3634 3635 3625 3630 3640 3639 3641 3318 3642 3643 
85 86 383 382 118 119 416 415 3322 3323 3324 3313 3646 3647 3648 3637 3634 3644 3645 3635 3640 3650 3649 3651 3328 3652 3653 
86 87 384 383 119 120 417 416 3332 3333 3334 3323 3656 3657 3658 3647 3644 3654 3655 3645 3650 3660 3659 3661 3338 3662 3663 
87 88 385 384 120 121 418 417 3342 3343 3344 3333 3666 3667 3668 3657 3654 3664 3665 3655 3660 3670 3669 3671 3348 3672 3673 
88 89 386 385 121 122 419 418 3352 3353 3354 3343 3676 3677 3678 3667 3664 3674 3675 3665 3670 3680 3679 3681 3358 3682 3683 
89 90 387 386 122 123 420 419 3362 3363 3364 3353 3686 3687 3688 3677 3674 3684 3685 3675 3680 3690 3689 3691 3368 3692 3693 
90 91 388 387 123 124 421 420 3372 3373 3374 3363 3696 3697 3698 3687 3684 3694 3695 3685 3690 3700 3699 3701 3378 3702 3703 
91 92 389 388 124 125 422 421 3382 3383 3384 3373 3706 3707 3708 3697 3694 3704 3705 3695 3700 3710 3709 3711 3388 3712 3713 
92 93 390 389 125 126 423 422 3392 3393 3394 3383 3716 3717 3718 3707 3704 3714 3715 3705 3710 3720 3719 3721 3398 3722 3723 
93 94 391 390 126 127 424 423 3402 3403 3404 3393 3726 3727 3728 3717 3714 3724 3725 3715 3720 3730 3729 3731 3408 3732 3733 
94 95 392 391 127 128 425 424 3412 3413 3414 3403 3736 3737 3738 3727 3724 3734 3735 3725 3730 3740 3739 3741 3418 3742 3743 
95 96 393 392 128 129 426 425 3422 3423 3424 3413 3746 3747 3748 3737 3734 3744 3745 3735 3740 3750 3749 3751 3428 3752 3753 
96 97 394 393 129 130 427 426 3432 3433 3434 3423 3756 3757 3758 3747 3744 3754 3755 3745 3750 3760 3759 3761 3438 3762 3763 
97 98 395 394 130 131 428 427 3442 3443 3444 3433 3766 3767 3768 3757 3754 3764 3765 3755 3760 3770 3769 3771 3448 3772 3773 
99 100 397 396 132 133 430 429 3454 3455 3456 3457 3778 3779 3780 3781 3774 3775 3776 3777 3785 3783 3782 3784 3462 3786 3787 
100 101 398 397 133 134 431 430 3466 3467 3468 3455 3790 3791 3792 3779 3775 3788 3789 3776 3783 3794 3793 3795 3472 3796 3797 
101 102 399 398 134 135 432 431 3476 3477 3478 3467 3800 3801 3802 3791 3788 3798 3799 3789 3794 3804 3803 3805 3482 3806 3807 
102 103 400 399 135 136 433 432 3486 3487 3488 3477 3810 3811 3812 3801 3798 3808 3809 3799 3804 3814 3813 3815 3492 3816 3817 
103 104 401 400 136 137 434 433 3496 3497 3498 3487 3820 3821 3822 3811 3808 3818 3819 3809 3814 3824 3823 3825 3502 3826 3827 
104 105 402 401 137 138 435 434 3506 3507 3508 3497 3830 3831 3832 3821 3818 3828 3829 3819 3824 3834 3833 3835 3512 3836 3837 
105 106 403 402 138 139 436 435 3516 3517 3518 3507 3840 3841 3842 3831 3828 3838 3839 3829 3834 3844 3843 3845 3522 3846 3847 
106 107 404 403 139 140 437 436 3526 3527 3528 3517 3850 3851 3852 3841 3838 3848 3849 3839 3844 3854 3853 3855 3532 3856 3857 
107 108 405 404 140 141 438 437 3536 3537 3538 3527 3860 3861 3862 3851 3848 3858 3859 3849 3854 3864 3863 3865 3542 3866 3867 
108 109 406 405 141 142 439 438 3546 3547 3548 3537 3870 3871 3872 3861 3858 3868 3869 3859 3864 3874 3873 3875 3552 3876 3877 
109 110 407 406 142 143 440 439 3556 3557 3558 3547 3880 3881 3882 3871 3868 3878 3879 3869 3874 3884 3883 3885 3562 3886 3887 
110 111 408 407 143 144 441 440 3566 3567 3568 3557 3890 3891 3892 3881 3878 3888 3889 3879 3884 3894 3893 3895 3572 3896 3897 
111 112 409 408 144 145 442 441 3576 3577 3578 3567 3900 3901 3902 3891 3888 3898 3899 3889 3894 3904 3903 3905 3582 3906 3907 
112 113 410 409 145 146 443 442 3586 3587 3588 3577 3910 3911 3912 3901 3898 3908 3909 3899 3904 3914 3913 3915 3592 3916 3917 
113 114 411 410 146 147 444 443 3596 3597 3598 3587 3920 3921 3922 3911 3908 3918 3919 3909 3914 3924 3923 3925 3602 3926 3927 
114 115 412 411 147 148 445 444 3606 3607 3608 3597 3930 3931 3932 3921 3918 3928 3929 3919 3924 3934 3933 3935 3612 3936 3937 
115 116 413 412 148 149 446 445 3616 3617 3618 3607 3940 3941 3942 3931 3928 3938 3939 3929 3934 3944 3943 3945 3622 3946 3947 
116 117 414 413 149 150 447 446 3626 3627 3628 3617 3950 3951 3952 3941 3938 3948 3949 3939 3944 3954 3953 3955 3632 3956 3957 
117 118 415 414 150 151 448 447 3636 3637 3638 3627 3960 3961 3962 3951 3948 3958 3959 3949 3954 3964 3963 3965 3642 3966 3967 
118 119 416 415 151 152 449 448 3646 3647 3648 3637 3970 3971 3972 3961 3958 3968 3969 3959 3964 3974 3973 3975 3652 3976 3977 
119 120 417 416 152 153 450 449 3656 3657 3658 3647 3980 3981 3982 3971 3968 3978 3979 3969 3974 3984 3983 3985 3662 3986 3987 
120 121 418 417 153 154 451 450 3666 3667 3668 3657 3990 3991 3992 3981 3978 3988 3989 3979 3984 3994 3993 3995 3672 3996 3997 
121 122 419 418 154 155 452 451 3676 3677 3678 3667 4000 4001 4002 3991 3988 3998 3999 3989 3994 4004 4003 4005 3682 4006 4007 
122 123 420 419 155 156 453 452 3686 3687 3688 3677 4010 4011 4012 4001 3998 4008 4009 3999 4004 4014 4013 4015 3692 4016 4017 
123 124 421 420 156 157 454 453 3696 3697 3698 3687 4020 4021 4022 4011 4008 4018 4019 4009 4014 4024 4023 4025 3702 4026 4027 
124 125 422 421 157 158 455 454 3706 3707 3708 3697 4030 4031 4032 4021 4018 4028 4029 4019 4024 4034 4033 4035 3712 4036 4037 
125 126 423 422 158 159 456 455 3716 3717 3718 3707 4040 4041 4042 4031 4028 4038 4039 4029 4034 4044 4043 4045 3722 4046 4047 
126 127 424 423 159 160 457 456 3726 3727 3728 3717 4050 4051 4052 4041 4038 4048 4049 4039 4044 4054 4053 4055 3732 4056 4057 
127 128 425 424 160 161 458 457 3736 3737 3738 3727 4060 4061 4062 4051 4048 4058 4059 4049 4054 4064 4063 4065 3742 4066 4067 
128 129 426 425 161 162 459 458 3746 3747 3748 3737 4070 4071 4072 4061 4058 4068 4069 4059 4064 4074 4073 4075 3752 4076 4077 
129 130 427 426 162 163 460 459 3756 3757 3758 3747 4080 4081 4082 4071 4068 4078 4079 4069 4074 4084 4083 4085 3762 4086 4087 
130 131 428 427 163 164 461 460 3766 3767 3768 3757 4090 4091 4092 4081 4078 4088 4089 4079 4084 4094 4093 4095 3772 4096 4097 
132 133 430 429 165 166 463 462 3778 3779 3780 3781 4102 4103 4104 4105 4098 4099 4100 4101 4109 4107 4106 4108 3786 4110 4111 
133 134 431 430 166 167 464 463 3790 3791 3792 3779 4114 4115 4116 4103 4099 4112 4113 4100 4107 4118 4117 4119 3796 4120 4121 
134 135 432 431 167 168 465 464 3800 3801 3802 3791 4124 4125 4126 4115 4112 4122 4123 4113 4118 4128 4127 4129 3806 4130 4131 
135 136 433 432 168 169 466 465 3810 3811 3812 3801 4134 4135 4136 4125 4122 4132 4133 4123 4128 4138 4137 4139 3816 4140 4141 
136 137 434 433 169 170 467 466 3820 3821 3822 3811 4144 4145 4146 4135 4132 4142 4143 4133 4138 4148 4147 4149 3826 4150 4151 
137 138 435 434 170 171 468 467 3830 3831 3832 3821 4154 4155 4156 4145 4142 4152 4153 4143 4148 4158 4157 4159 3836 4160 4161 
138 139 436 435 171 172 469 468 3840 3841 3842 3831 4164 4165 4166 4155 4152 4162 4163 4153 4158 4168 4167 4169 3846 4170 4171 
139 140 437 436 172 173 470 469 3850 3851 3852 3841 4174 4175 4176 4165 4162 4172 4173 4163 4168 4178 4177 4179 3856 4180 4181 
140 141 438 437 173 174 471 470 3860 3861 3862 3851 4184 4185 4186 4175 4172 4182 4183 4173 4178 4188 4187 4189 3866 4190 4191 
141 142 439 438 174 175 472 471 3870 3871 3872 3861 4194 4195 4196 4185 4182 4192 4193 4183 4188 4198 4197 4199 3876 4200 4201 
142 143 440 439 175 176 473 472 3880 3881 3882 3871 4204 4205 4206 4195 4192 4202 4203 4193 4198 4208 4207 4209 3886 4210 4211 
143 144 441 440 176 177 474 473 3890 3891 3892 3881 4214 4215 4216 4205 4202 4212 4213 4203 4208 4218 4217 4219 3896 4220 4221 
144 145 442 441 177 178 475 474 3900 3901 3902 3891 4224 4225 4226 4215 4212 4222 4223 4213 4218 4228 4227 4229 3906 4230 4231 
145 146 443 442 178 179 476 475 3910 3911 3912 3901 4234 4235 4236 4225 4222 4232 4233 4223 4228 4238 4237 4239 3916 4240 4241 
146 147 444 443 179 180 477 476 3920 3921 3922 3911 4244 4245 4246 4235 4232 4242 4243 4233 4238 4248 4247 4249 3926 4250 4251 
147 148 445 444 180 181 478 477 3930 3931 3932 3921 4254 4255 4256 4245 4242 4252 4253 4243 4248 4258 4257 4259 3936 4260 4261 
148 149 446 445 181 182 479 478 3940 3941 3942 3931 4264 4265 4266 4255 4252 4262 4263 4253 4258 4268 4267 4269 3946 4270 4271 
149 150 447 446 182 183 480 479 3950 3951 3952 3941 4274 4275 4276 4265 4262 4272 4273 4263 4268 4278 4277 4279 3956 4280 4281 
150 151 448 447 183 184 481 480 3960 3961 3962 3951 4284 4285 4286 4275 4272 4282 4283 4273 4278 4288 4287 4289 3966 4290 4291 
151 152 449 448 184 185 482 481 3970 3971 3972 3961 4294 4295 4296 4285 4282 4292 4293 4283 4288 4298 4297 4299 3976 4300 4301 
152 153 450 449 185 186 483 482 3980 3981 3982 3971 4304 4305 4306 4295 4292 4302 4303 4293 4298 4308 4307 4309 3986 4310 4311 
153 154 451 450 186 187 484 483 3990 3991 3992 3981 4314 4315 4316 4305 4302 4312 4313 4303 4308 4318 4317 4319 3996 4320 4321 
154 155 452 451 187 188 485 484 4000 4001 4002 3991 4324 4325 4326 4315 4312 4322 4323 4313 4318 4328 4327 4329 4006 4330 4331 
155 156 453 452 188 189 486 485 4010 4011 4012 4001 4334 4335 4336 4325 4322 4332 4333 4323 4328 4338 4337 4339 4016 4340 4341 
156 157 454 453 189 190 487 486 4020 4021 4022 4011 4344 4345 4346 4335 4332 4342 4343 4333 4338 4348 4347 4349 4026 4350 4351 
157 158 455 454 190 191 488 487 4030 4031 4032 4021 4354 4355 4356 4345 4342 4352 4353 4343 4348 4358 4357 4359 4036 4360 4361 
158 159 456 455 191 192 489 488 4040 4041 4042 4031 4364 4365 4366 4355 4352 4362 4363 4353 4358 4368 4367 4369 4046 4370 4371 
159 160 457 456 192 193 490 489 4050 4051 4052 4041 4374 4375 4376 4365 4362 4372 4373 4363 4368 4378 4377 4379 4056 4380 4381 
160 161 458 457 193 194 491 490 4060 4061 4062 4051 4384 4385 4386 4375 4372 4382 4383 4373 4378 4388 4387 4389 4066 4390 4391 
161 162 459 458 194 195 492 491 4070 4071 4072 4061 4394 4395 4396 4385 4382 4392 4393 4383 4388 4398 4397 4399 4076 4400 4401 
162 163 460 459 195 196 493 492 4080 4081 4082 4071 4404 4405 4406 4395 4392 4402 4403 4393 4398 4408 4407 4409 4086 4410 4411 
163 164 461 460 196 197 494 493 4090 4091 4092 4081 4414 4415 4416 4405 4402 4412 4413 4403 4408 4418 4417 4419 4096 4420 4421 
165 166 463 462 198 199 496 495 4102 4103 4104 4105 4426 4427 4428 4429 4422 4423 4424 4425 4433 4431 4430 4432 4110 4434 4435 
166 167 464 463 199 200 497 496 4114 4115 4116 4103 4438 4439 4440 4427 4423 4436 4437 4424 4431 4442 4441 4443 4120 4444 4445 
167 168 465 464 200 201 498 497 4124 4125 4126 4115 4448 4449 4450 4439 4436 4446 4447 4437 4442 4452 4451 4453 4130 4454 4455 
168 169 466 465 201 202 499 498 4134 4135 4136 4125 4458 4459 4460 4449 4446 4456 4457 4447 4452 4462 4461 4463 4140 4464 4465 
169 170 467 466 202 203 500 499 4144 4145 4146 4135 4468 4469 4470 4459 4456 4466 4467 4457 4462 4472 4471 4473 4150 4474 4475 
170 171 468 467 203 204 501 500 4154 4155 4156 4145 4478 4479 4480 4469 4466 4476 4477 4467 4472 4482 4481 4483 4160 4484 4485 
171 172 469 468 204 205 502 501 4164 4165 4166 4155 4488 4489 4490 4479 4476 4486 4487 4477 4482 4492 4491 4493 4170 4494 4495 
172 173 470 469 205 206 503 502 4174 4175 4176 4165 4498 4499 4500 4489 4486 4496 4497 4487 4492 4502 4501 4503 4180 4504 4505 
173 174 471 470 206 207 504 503 4184 4185 4186 4175 4508 4509 4510 4499 4496 4506 4507 4497 4502 4512 4511 4513 4190 4514 4515 
174 175 472 471 207 208 505 504 4194 4195 4196 4185 4518 4519 4520 4509 4506 4516 4517 4507 4512 4522 4521 4523 4200 4524 4525 
175 176 473 472 208 209 506 505 4204 4205 4206 4195 4528 4529 4530 4519 4516 4526 4527 4517 4522 4532 4531 4533 4210 4534 4535 
176 177 474 473 209 210 507 506 4214 4215 4216 4205 4538 4539 4540 4529 4526 4536 4537 4527 4532 4542 4541 4543 4220 4544 4545 
177 178 475 474 210 211 508 507 4224 4225 4226 4215 4548 4549 4550 4539 4536 4546 4547 4537 4542 4552 4551 4553 4230 4554 4555 
178 179 476 475 211 212 509 508 4234 4235 4236 4225 4558 4559 4560 4549 4546 4556 4557 4547 4552 4562 4561 4563 4240 4564 4565 
179 180 477 476 212 213 510 509 4244 4245 4246 4235 4568 4569 4570 4559 4556 4566 4567 4557 4562 4572 4571 4573 4250 4574 4575 
180 181 478 477 213 214 511 510 4254 4255 4256 4245 4578 4579 4580 4569 4566 4576 4577 4567 4572 4582 4581 4583 4260 4584 4585 
181 182 479 478 214 215 512 511 4264 4265 4266 4255 4588 4589 4590 4579 4576 4586 4587 4577 4582 4592 4591 4593 4270 4594 4595 
182 183 480 479 215 216 513 512 4274 4275 4276 4265 4598 4599 4600 4589 4586 4596 4597 4587 4592 4602 4601 4603 4280 4604 4605 
183 184 481 480 216 217 514 513 4284 4285 4286 4275 4608 4609 4610 4599 4596 4606 4607 4597 4602 4612 4611 4613 4290 4614 4615 
184 185 482 481 217 218 515 514 4294 4295 4296 4285 4618 4619 4620 4609 4606 4616 4617 4607 4612 4622 4621 4623 4300 4624 4625 
185 186 483 482 218 219 516 515 4304 4305 4306 4295 4628 4629 4630 4619 4616 4626 4627 4617 4622 4632 4631 4633 4310 4634 4635 
186 187 484 483 219 220 517 516 4314 4315 4316 4305 4638 4639 4640 4629 4626 4636 4637 4627 4632 4642 4641 4643 4320 4644 4645 
187 188 485 484 220 221 518 517 4324 4325 4326 4315 4648 4649 4650 4639 4636 4646 4647 4637 4642 4652 4651 4653 4330 4654 4655 
188 189 486 485 221 222 519 518 4334 4335 4336 4325 4658 4659 4660 4649 4646 4656 4657 4647 4652 4662 4661 4663 4340 4664 4665 
189 190 487 486 222 223 520 519 4344 4345 4346 4335 4668 4669 4670 4659 4656 4666 4667 4657 4662 4672 4671 4673 4350 4674 4675 
190 191 488 487 223 224 521 520 4354 4355 4356 4345 4678 4679 4680 4669 4666 4676 4677 4667 4672 4682 4681 4683 4360 4684 4685 
191 192 489 488 224 225 522 521 4364 4365 4366 4355 4688 4689 4690 4679 4676 4686 4687 4677 4682 4692 4691 4693 4370 4694 4695 
192 193 490 489 225 226 523 522 4374 4375 4376 4365 4698 4699 4700 4689 4686 4696 4697 4687 4692 4702 4701 4703 4380 4704 4705 
193 194 491 490 226 227 524 523 4384 4385 4386 4375 4708 4709 4710 4699 4696 4706 4707 4697 4702 4712 4711 4713 4390 4714 4715 
194 195 492 491 227 228 525 524 4394 4395 4396 4385 4718 4719 4720 4709 4706 4716 4717 4707 4712 4722 4721 4723 4400 4724 4725 
195 196 493 492 228 229 526 525 4404 4405 4406 4395 4728 4729 4730 4719 4716 4726 4727 4717 4722 4732 4731 4733 4410 4734 4735 
196 197 494 493 229 230 527 526 4414 4415 4416 4405 4738 4739 4740 4729 4726 4736 4737 4727 4732 4742 4741 4743 4420 4744 4745 
198 199 496 495 231 232 529 528 4426 4427 4428 4429 4750 4751 4752 4753 4746 4747 4748 4749 4757 4755 4754 4756 4434 4758 4759 
199 200 497 496 232 233 530 529 4438 4439 4440 4427 4762 4763 4764 4751 4747 4760 4761 4748 4755 4766 4765 4767 4444 4768 4769 
200 201 498 497 233 234 531 530 4448 4449 4450 4439 4772 4773 4774 4763 4760 4770 4771 4761 4766 4776 4775 4777 4454 4778 4779 
201 202 499 498 234 235 532 531 4458 4459 4460 4449 4782 4783 4784 4773 4770 4780 4781 4771 4776 4786 4785 4787 4464 4788 4789 
202 203 500 499 235 236 533 532 4468 4469 4470 4459 4792 4793 4794 4783 4780 4790 4791 4781 4786 4796 4795 4797 4474 4798 4799 
203 204 501 500 236 237 534 533 4478 4479 4480 4469 4802 4803 4804 4793 4790 4800 4801 4791 4796 4806 4805 4807 4484 4808 4809 
204 205 502 501 237 238 535 534 4488 4489 4490 4479 4812 4813 4814 4803 4800 4810 4811 4801 4806 4816 4815 4817 4494 4818 4819 
205 206 503 502 238 239 536 535 4498 4499 4500 4489 4822 4823 4824 4813 4810 4820 4821 4811 4816 4826 4825 4827 4504 4828 4829 
206 207 504 503 239 240 537 536 4508 4509 4510 4499 4832 4833 4834 4823 4820 4830 4831 4821 4826 4836 4835 4837 4514 4838 4839 
207 208 505 504 240 241 538 537 4518 4519 4520 4509 4842 4843 4844 4833 4830 4840 4841 4831 4836 4846 4845 4847 4524 4848 4849 
208 209 506 505 241 242 539 538 4528 4529 4530 4519 4852 4853 4854 4843 4840 4850 4851 4841 4846 4856 4855 4857 4534 4858 4859 
209 210 507 506 242 243 540 539 4538 4539 4540 4529 4862 4863 4864 4853 4850 4860 4861 4851 4856 4866 4865 4867 4544 4868 4869 
210 211 508 507 243 244 541 540 4548 4549 4550 4539 4872 4873 4874 4863 4860 4870 4871 4861 4866 4876 4875 4877 4554 4878 4879 
211 212 509 508 244 245 542 541 4558 4559 4560 4549 4882 4883 4884 4873 4870 4880 4881 4871 4876 4886 4885 4887 4564 4888 4889 
212 213 510 509 245 246 543 542 4568 4569 4570 4559 4892 4893 4894 4883 4880 4890 4891 4881 4886 4896 4895 4897 4574 4898 4899 
213 214 511 510 246 247 544 543 4578 4579 4580 4569 4902 4903 4904 4893 4890 4900 4901 4891 4896 4906 4905 4907 4584 4908 4909 
214 215 512 511 247 248 545 544 4588 4589 4590 4579 4912 4913 4914 4903 4900 4910 4911 4901 4906 4916 4915 4917 4594 4918 4919 
215 216 513 512 248 249 546 545 4598 4599 4600 4589 4922 4923 4924 4913 4910 4920 4921 4911 4916 4926 4925 4927 4604 4928 4929 
216 217 514 513 249 250 547 546 4608 4609 4610 4599 4932 4933 4934 4923 4920 4930 4931 4921 4926 4936 4935 4937 4614 4938 4939 
217 218 515 514 250 251 548 547 4618 4619 4620 4609 4942 4943 4944 4933 4930 4940 4941 4931 4936 4946 4945 4947 4624 4948 4949 
218 219 516 515 251 252 549 548 4628 4629 4630 4619 4952 4953 4954 4943 4940 4950 4951 4941 4946 4956 4955 4957 4634 4958 4959 
219 220 517 516 252 253 550 549 4638 4639 4640 4629 4962 4963 4964 4953 4950 4960 4961 4951 4956 4966 4965 4967 4644 4968 4969 
220 221 518 517 253 254 551 550 4648 4649 4650 4639 4972 4973 4974 4963 4960 4970 4971 4961 4966 4976 4975 4977 4654 4978 4979 
221 222 519 518 254 255 552 551 4658 4659 4660 4649 4982 4983 4984 4973 4970 4980 4981 4971 4976 4986 4985 4987 4664 4988 4989 
222 223 520 519 255 256 553 552 4668 4669 4670 4659 4992 4993 4994 4983 4980 4990 4991 4981 4986 4996 4995 4997 4674 4998 4999 
223 224 521 520 256 257 554 553 4678 4679 4680 4669 5002 5003 5004 4993 4990 5000 5001 4991 4996 5006 5005 5007 4684 5008 5009 
224 225 522 521 257 258 555 554 4688 4689 4690 4679 5012 5013 5014 5003 5000 5010 5011 5001 5006 5016 5015 5017 4694 5018 5019 
225 226 523 522 258 259 556 555 4698 4699 4700 4689 5022 5023 5024 5013 5010 5020 5021 5011 5016 5026 5025 5027 4704 5028 5029 
226 227 524 523 259 260 557 556 4708 4709 4710 4699 5032 5033 5034 5023 5020 5030 5031 5021 5026 5036 5035 5037 4714 5038 5039 
227 228 525 524 260 261 558 557 4718 4719 4720 4709 5042 5043 5044 5033 5030 5040 5041 5031 5036 5046 5045 5047 4724 5048 5049 
228 229 526 525 261 262 559 558 4728 4729 4730 4719 5052 5053 5054 5043 5040 5050 5051 5041 5046 5056 5055 5057 4734 5058 5059 
229 230 527 526 262 263 560 559 4738 4739 4740 4729 5062 5063 5064 5053 5050 5060 5061 5051 5056 5066 5065 5067 4744 5068 5069 
231 232 529 528 264 265 562 561 4750 4751 4752 4753 5074 5075 5076 5077 5070 5071 5072 5073 5081 5079 5078 5080 4758 5082 5083 
232 233 530 529 265 266 563 562 4762 4763 4764 4751 5086 5087 5088 5075 5071 5084 5085 5072 5079 5090 5089 5091 4768 5092 5093 
233 234 531 530 266 267 564 563 4772 4773 4774 4763 5096 5097 5098 5087 5084 5094 5095 5085 5090 5100 5099 5101 4778 5102 5103 
234 235 532 531 267 268 565 564 4782 4783 4784 4773 5106 5107 5108 5097 5094 5104 5105 5095 5100 5110 5109 5111 4788 5112 5113 
235 236 533 532 268 269 566 565 4792 4793 4794 4783 5116 5117 5118 5107 5104 5114 5115 5105 5110 5120 5119 5121 4798 5122 5123 
236 237 534 533 269 270 567 566 4802 4803 4804 4793 5126 5127 5128 5117 5114 5124 5125 5115 5120 5130 5129 5131 4808 5132 5133 
237 238 535 534 270 271 568 567 4812 4813 4814 4803 5136 5137 5138 5127 5124 5134 5135 5125 5130 5140 5139 5141 4818 5142 5143 
238 239 536 535 271 272 569 568 4822 4823 4824 4813 5146 5147 5148 5137 5134 5144 5145 5135 5140 5150 5149 5151 4828 5152 5153 
239 240 537 536 272 273 570 569 4832 4833 4834 4823 5156 5157 5158 5147 5144 5154 5155 5145 5150 5160 5159 5161 4838 5162 5163 
240 241 538 537 273 274 571 570 4842 4843 4844 4833 5166 5167 5168 5157 5154 5164 5165 5155 5160 5170 5169 5171 4848 5172 5173 
241 242 539 538 274 275 572 571 4852 4853 4854 4843 5176 5177 5178 5167 5164 5174 5175 5165 5170 5180 5179 5181 4858 5182 5183 
242 243 540 539 275 276 573 572 4862 4863 4864 4853 5186 5187 5188 5177 5174 5184 5185 5175 5180 5190 5189 5191 4868 5192 5193 
243 244 541 540 276 277 574 573 4872 4873 4874 4863 5196 5197 5198 5187 5184 5194 5195 5185 5190 5200 5199 5201 4878 5202 5203 
244 245 542 541 277 278 575 574 4882 4883 4884 4873 5206 5207 5208 5197 5194 5204 5205 5195 5200 5210 5209 5211 4888 5212 5213 
245 246 543 542 278 279 576 575 4892 4893 4894 4883 5216 5217 5218 5207 5204 5214 5215 5205 5210 5220 5219 5221 4898 5222 5223 
246 247 544 543 279 280 577 576 4902 4903 4904 4893 5226 5227 5228 5217 5214 5224 5225 5215 5220 5230 5229 5231 4908 5232 5233 
247 248 545 544 280 281 578 577 4912 4913 4914 4903 5236 5237 5238 5227 5224 5234 5235 5225 5230 5240 5239 5241 4918 5242 5243 
248 249 546 545 281 282 579 578 4922 4923 4924 4913 5246 5247 5248 5237 5234 5244 5245 5235 5240 5250 5249 5251 4928 5252 5253 
249 250 547 546 282 283 580 579 4932 4933 4934 4923 5256 5257 5258 5247 5244 5254 5255 5245 5250 5260 5259 5261 4938 5262 5263 
250 251 548 547 283 284 581 580 4942 4943 4944 4933 5266 5267 5268 5257 5254 5264 5265 5255 5260 5270 5269 5271 4948 5272 5273 
251 252 549 548 284 285 582 581 4952 4953 4954 4943 5276 5277 5278 5267 5264 5274 5275 5265 5270 5280 5279 5281 4958 5282 5283 
252 253 550 549 285 286 583 582 4962 4963 4964 4953 5286 5287 5288 5277 5274 5284 5285 5275 5280 5290 5289 5291 4968 5292 5293 
253 254 551 550 286 287 584 583 4972 4973 4974 4963 5296 5297 5298 5287 5284 5294 5295 5285 5290 5300 5299 5301 4978 5302 5303 
254 255 552 551 287 288 585 584 4982 4983 4984 4973 5306 5307 5308 5297 5294 5304 5305 5295 5300 5310 5309 5311 4988 5312 5313 
255 256 553 552 288 289 586 585 4992 4993 4994 4983 5316 5317 5318 5307 5304 5314 5315 5305 5310 5320 5319 5321 4998 5322 5323 
256 257 554 553 289 290 587 586 5002 5003 5004 4993 5326 5327 5328 5317 5314 5324 5325 5315 5320 5330 5329 5331 5008 5332 5333 
257 258 555 554 290 291 588 587 5012 5013 5014 5003 5336 5337 5338 5327 5324 5334 5335 5325 5330 5340 5339 5341 5018 5342 5343 
258 259 556 555 291 292 589 588 5022 5023 5024 5013 5346 5347 5348 5337 5334 5344 5345 5335 5340 5350 5349 5351 5028 5352 5353 
259 260 557 556 292 293 590 589 5032 5033 5034 5023 5356 5357 5358 5347 5344 5354 5355 5345 5350 5360 5359 5361 5038 5362 5363 
260 261 558 557 293 294 591 590 5042 5043 5044 5033 5366 5367 5368 5357 5354 5364 5365 5355 5360 5370 5369 5371 5048 5372 5373 
261 262 559 558 294 295 592 591 5052 5053 5054 5043 5376 5377 5378 5367 5364 5374 5375 5365 5370 5380 5379 5381 5058 5382 5383 
262 263 560 559 295 296 593 592 5062 5063 5064 5053 5386 5387 5388 5377 5374 5384 5385 5375 5380 5390 5389 5391 5068 5392 5393 
297 298 595 594 330 331 628 627 2675 5394 5395 5396 2683 5399 5400 5401 2680 2679 5397 5398 5405 5403 2688 5404 5402 5406 5407 
298 299 596 595 331 332 629 628 2694 5408 5409 5394 2699 5411 5412 5399 2679 2696 5410 5397 5403 5414 2703 5415 5413 5416 5417 
299 300 597 596 332 333 630 629 2708 5418 5419 5408 2713 5421 5422 5411 2696 2710 5420 5410 5414 5424 2717 5425 5423 5426 5427 
300 301 598 597 333 334 631 630 2722 5428 5429 5418 2727 5431 5432 5421 2710 2724 5430 5420 5424 5434 2731 5435 5433 5436 5437 
301 302 599 598 334 335 632 631 2736 5438 5439 5428 2741 5441 5442 5431 2724 2738 5440 5430 5434 5444 2745 5445 5443 5446 5447 
302 303 600 599 335 336 633 632 2750 5448 5449 5438 2755 5451 5452 5441 2738 2752 5450 5440 5444 5454 2759 5455 5453 5456 5457 
303 304 601 600 336 337 634 633 2764 5458 5459 5448 2769 5461 5462 5451 2752 2766 5460 5450 5454 5464 2773 5465 5463 5466 5467 
304 305 602 601 337 338 635 634 2778 5468 5469 5458 2783 5471 5472 5461 2766 2780 5470 5460 5464 5474 2787 5475 5473 5476 5477 
305 306 603 602 338 339 636 635 2792 5478 5479 5468 2797 5481 5482 5471 2780 2794 5480 5470 5474 5484 2801 5485 5483 5486 5487 
306 307 604 603 339 340 637 636 2806 5488 5489 5478 2811 5491 5492 5481 2794 2808 5490 5480 5484 5494 2815 5495 5493 5496 5497 
307 308 605 604 340 341 638 637 2820 5498 5499 5488 2825 5501 5502 5491 2808 2822 5500 5490 5494 5504 2829 5505 5503 5506 5507 
308 309 606 605 341 342 639 638 2834 5508 5509 5498 2839 5511 5512 5501 2822 2836 5510 5500 5504 5514 2843 5515 5513 5516 5517 
309 310 607 606 342 343 640 639 2848 5518 5519 5508 2853 5521 5522 5511 2836 2850 5520 5510 5514 5524 2857 5525 5523 5526 5527 
310 311 608 607 343 344 641 640 2862 5528 5529 5518 2867 5531 5532 5521 2850 2864 5530 5520 5524 5534 2871 5535 5533 5536 5537 
311 312 609 608 344 345 642 641 2876 5538 5539 5528 2881 5541 5542 5531 2864 2878 5540 5530 5534 5544 2885 5545 5543 5546 5547 
312 313 610 609 345 346 643 642 2890 5548 5549 5538 2895 5551 5552 5541 2878 2892 5550 5540 5544 5554 2899 5555 5553 5556 5557 
313 314 611 610 346 347 644 643 2904 5558 5559 5548 2909 5561 5562 5551 2892 2906 5560 5550 5554 5564 2913 5565 5563 5566 5567 
314 315 612 611 347 348 645 644 2918 5568 5569 5558 2923 5571 5572 5561 2906 2920 5570 5560 5564 5574 2927 5575 5573 5576 5577 
315 316 613 612 348 349 646 645 2932 5578 5579 5568 2937 5581 5582 5571 2920 2934 5580 5570 5574 5584 2941 5585 5583 5586 5587 
316 317 614 613 349 350 647 646 2946 5588 5589 5578 2951 5591 5592 5581 2934 2948 5590 5580 5584 5594 2955 5595 5593 5596 5597 
317 318 615 614 350 351 648 647 2960 5598 5599 5588 2965 5601 5602 5591 2948 2962 5600 5590 5594 5604 2969 5605 5603 5606 5607 
318 319 616 615 351 352 649 648 2974 5608 5609 5598 2979 5611 5612 5601 2962 2976 5610 5600 5604 5614 2983 5615 5613 5616 5617 
319 320 617 616 352 353 650 649 2988 5618 5619 5608 2993 5621 5622 5611 2976 2990 5620 5610 5614 5624 2997 5625 5623 5626 5627 
320 321 618 617 353 354 651 650 3002 5628 5629 5618 3007 5631 5632 5621 2990 3004 5630 5620 5624 5634 3011 5635 5633 5636 5637 
321 322 619 618 354 355 652 651 3016 5638 5639 5628 3021 5641 5642 5631 3004 3018 5640 5630 5634 5644 3025 5645 5643 5646 5647 
322 323 620 619 355 356 653 652 3030 5648 5649 5638 3035 5651 5652 5641 3018 3032 5650 5640 5644 5654 3039 5655 5653 5656 5657 
323 324 621 620 356 357 654 653 3044 5658 5659 5648 3049 5661 5662 5651 3032 3046 5660 5650 5654 5664 3053 5665 5663 5666 5667 
324 325 622 621 357 358 655 654 3058 5668 5669 5658 3063 5671 5672 5661 3046 3060 5670 5660 5664 5674 3067 5675 5673 5676 5677 
325 326 623 622 358 359 656 655 3072 5678 5679 5668 3077 5681 5682 5671 3060 3074 5680 5670 5674 5684 3081 5685 5683 5686 5687 
326 327 624 623 359 360 657 656 3086 5688 5689 5678 3091 5691 5692 5681 3074 3088 5690 5680 5684 5694 3095 5695 5693 5696 5697 
327 328 625 624 360 361 658 657 3100 5698 5699 5688 3105 5701 5702 5691 3088 3102 5700 5690 5694 5704 3109 5705 5703 5706 5707 
328 329 626 625 361 362 659 658 3114 5708 5709 5698 3119 5711 5712 5701 3102 3116 5710 5700 5704 5714 3123 5715 5713 5716 5717 
330 331 628 627 363 364 661 660 2683 5399 5400 5401 3132 5720 5721 5722 3129 3128 5718 5719 5725 5723 3136 5724 5406 5726 5727 
331 332 629 628 364 365 662 661 2699 5411 5412 5399 3144 5729 5730 5720 3128 3141 5728 5718 5723 5731 3147 5732 5416 5733 5734 
332 333 630 629 365 366 663 662 2713 5421 5422 5411 3154 5736 5737 5729 3141 3151 5735 5728 5731 5738 3157 5739 5426 5740 5741 
333 334 631 630 366 367 664 663 2727 5431 5432 5421 3164 5743 5744 5736 3151 3161 5742 5735 5738 5745 3167 5746 5436 5747 5748 
334 335 632 631 367 368 665 664 2741 5441 5442 5431 3174 5750 5751 5743 3161 3171 5749 5742 5745 5752 3177 5753 5446 5754 5755 
335 336 633 632 368 369 666 665 2755 5451 5452 5441 3184 5757 5758 5750 3171 3181 5756 5749 5752 5759 3187 5760 5456 5761 5762 
336 337 634 633 369 370 667 666 2769 5461 5462 5451 3194 5764 5765 5757 3181 3191 5763 5756 5759 5766 3197 5767 5466 5768 5769 
337 338 635 634 370 371 668 667 2783 5471 5472 5461 3204 5771 5772 5764 3191 3201 5770 5763 5766 5773 3207 5774 5476 5775 5776 
338 339 636 635 371 372 669 668 2797 5481 5482 5471 3214 5778 5779 5771 3201 3211 5777 5770 5773 5780 3217 5781 5486 5782 5783 
339 340 637 636 372 373 670 669 2811 5491 5492 5481 3224 5785 5786 5778 3211 3221 5784 5777 5780 5787 3227 5788 5496 5789 5790 
340 341 638 637 373 374 671 670 2825 5501 5502 5491 3234 5792 5793 5785 3221 3231 5791 5784 5787 5794 3237 5795 5506 5796 5797 
341 342 639 638 374 375 672 671 2839 5511 5512 5501 3244 5799 5800 5792 3231 3241 5798 5791 5794 5801 3247 5802 5516 5803 5804 
342 343 640 639 375 376 673 672 2853 5521 5522 5511 3254 5806 5807 5799 3241 3251 5805 5798 5801 5808 3257 5809 5526 5810 5811 
343 344 641 640 376 377 674 673 2867 5531 5532 5521 3264 5813 5814 5806 3251 3261 5812 5805 5808 5815 3267 5816 5536 5817 5818 
344 345 642 641 377 378 675 674 2881 5541 5542 5531 3274 5820 5821 5813 3261 3271 5819 5812 5815 5822 3277 5823 5546 5824 5825 
345 346 643 642 378 379 676 675 2895 5551 5552 5541 3284 5827 5828 5820 3271 3281 5826 5819 5822 5829 3287 5830 5556 5831 5832 
346 347 644 643 379 380 677 676 2909 5561 5562 5551 3294 5834 5835 5827 3281 3291 5833 5826 5829 5836 3297 5837 5566 5838 5839 
347 348 645 644 380 381 678 677 2923 5571 5572 5561 3304 5841 5842 5834 3291 3301 5840 5833 5836 5843 3307 5844 5576 5845 5846 
348 349 646 645 381 382 679 678 2937 5581 5582 5571 3314 5848 5849 5841 3301 3311 5847 5840 5843 5850 3317 5851 5586 5852 5853 
349 350 647 646 382 383 680 679 2951 5591 5592 5581 3324 5855 5856 5848 3311 3321 5854 5847 5850 5857 3327 5858 5596 5859 5860 
350 351 648 647 383 384 681 680 2965 5601 5602 5591 3334 5862 5863 5855 3321 3331 5861 5854 5857 5864 3337 5865 5606 5866 5867 
351 352 649 648 384 385 682 681 2979 5611 5612 5601 3344 5869 5870 5862 3331 3341 5868 5861 5864 5871 3347 5872 5616 5873 5874 
352 353 650 649 385 386 683 682 2993 5621 5622 5611 3354 5876 5877 5869 3341 3351 5875 5868 5871 5878 3357 5879 5626 5880 5881 
353 354 651 650 386 387 684 683 3007 5631 5632 5621 3364 5883 5884 5876 3351 3361 5882 5875 5878 5885 3367 5886 5636 5887 5888 
354 355 652 651 387 388 685 684 3021 5641 5642 5631 3374 5890 5891 5883 3361 3371 5889 5882 5885 5892 3377 5893 5646 5894 5895 
355 356 653 652 388 389 686 685 3035 5651 5652 5641 3384 5897 5898 5890 3371 3381 5896 5889 5892 5899 3387 5900 5656 5901 5902 
356 357 654 653 389 390 687 686 3049 5661 5662 5651 3394 5904 5905 5897 3381 3391 5903 5896 5899 5906 3397 5907 5666 5908 5909 
357 358 655 654 390 391 688 687 3063 5671 5672 5661 3404 5911 5912 5904 3391 3401 5910 5903 5906 5913 3407 5914 5676 5915 5916 
358 359 656 655 391 392 689 688 3077 5681 5682 5671 3414 5918 5919 5911 3401 3411 5917 5910 5913 5920 3417 5921 5686 5922 5923 
359 360 657 656 392 393 690 689 3091 5691 5692 5681 3424 5925 5926 5918 3411 3421 5924 5917 5920 5927 3427 5928 5696 5929 5930 
360 361 658 657 393 394 691 690 3105 5701 5702 5691 3434 5932 5933 5925 3421 3431 5931 5924 5927 5934 3437 5935 5706 5936 5937 
361 362 659 658 394 395 692 691 3119 5711 5712 5701 3444 5939 5940 5932 3431 3441 5938 5931 5934 5941 3447 5942 5716 5943 5944 
363 364 661 660 396 397 694 693 3132 5720 5721 5722 3456 5947 5948 5949 3453 3452 5945 5946 5952 5950 3460 5951 5726 5953 5954 
364 365 662 661 397 398 695 694 3144 5729 5730 5720 3468 5956 5957 5947 3452 3465 5955 5945 5950 5958 3471 5959 5733 5960 5961 
365 366 663 662 398 399 696 695 3154 5736 5737 5729 3478 5963 5964 5956 3465 3475 5962 5955 5958 5965 3481 5966 5740 5967 5968 
366 367 664 663 399 400 697 696 3164 5743 5744 5736 3488 5970 5971 5963 3475 3485 5969 5962 5965 5972 3491 5973 5747 5974 5975 
367 368 665 664 400 401 698 697 3174 5750 5751 5743 3498 5977 5978 5970 3485 3495 5976 5969 5972 5979 3501 5980 5754 5981 5982 
368 369 666 665 401 402 699 698 3184 5757 5758 5750 3508 5984 5985 5977 3495 3505 5983 5976 5979 5986 3511 5987 5761 5988 5989 
369 370 667 666 402 403 700 699 3194 5764 5765 5757 3518 5991 5992 5984 3505 3515 5990 5983 5986 5993 3521 5994 5768 5995 5996 
370 371 668 667 403 404 701 700 3204 5771 5772 5764 3528 5998 5999 5991 3515 3525 5997 5990 5993 6000 3531 6001 5775 6002 6003 
371 372 669 668 404 405 702 701 3214 5778 5779 5771 3538 6005 6006 5998 3525 3535 6004 5997 6000 6007 3541 6008 5782 6009 6010 
372 373 670 669 405 406 703 702 3224 5785 5786 5778 3548 6012 6013 6005 3535 3545 6011 6004 6007 6014 3551 6015 5789 6016 6017 
373 374 671 670 406 407 704 703 3234 5792 5793 5785 3558 6019 6020 6012 3545 3555 6018 6011 6014 6021 3561 6022 5796 6023 6024 
374 375 672 671 407 408 705 704 3244 5799 5800 5792 3568 6026 6027 6019 3555 3565 6025 6018 6021 6028 3571 6029 5803 6030 6031 
375 376 673 672 408 409 706 705 3254 5806 5807 5799 3578 6033 6034 6026 3565 3575 6032 6025 6028 6035 3581 6036 5810 6037 6038 
376 377 674 673 409 410 707 706 3264 5813 5814 5806 3588 6040 6041 6033 3575 3585 6039 6032 6035 6042 3591 6043 5817 6044 6045 
377 378 675 674 410 411 708 707 3274 5820 5821 5813 3598 6047 6048 6040 3585 3595 6046 6039 6042 6049 3601 6050 5824 6051 6052 
378 379 676 675 411 412 709 708 3284 5827 5828 5820 3608 6054 6055 6047 3595 3605 6053 6046 6049 6056 3611 6057 5831 6058 6059 
379 380 677 676 412 413 710 709 3294 5834 5835 5827 3618 6061 6062 6054 3605 3615 6060 6053 6056 6063 3621 6064 5838 6065 6066 
380 381 678 677 413 414 711 710 3304 5841 5842 5834 3628 6068 6069 6061 3615 3625 6067 6060 6063 6070 3631 6071 5845 6072 6073 
381 382 679 678 414 415 712 711 3314 5848 5849 5841 3638 6075 6076 6068 3625 3635 6074 6067 6070 6077 3641 6078 5852 6079 6080 
382 383 680 679 415 416 713 712 3324 5855 5856 5848 3648 6082 6083 6075 3635 3645 6081 6074 6077 6084 3651 6085 5859 6086 6087 
383 384 681 680 416 417 714 713 3334 5862 5863 5855 3658 6089 6090 6082 3645 3655 6088 6081 6084 6091 3661 6092 5866 6093 6094 
384 385 682 681 417 418 715 714 3344 5869 5870 5862 3668 6096 6097 6089 3655 3665 6095 6088 6091 6098 3671 6099 5873 6100 6101 
385 386 683 682 418 419 716 715 3354 5876 5877 5869 3678 6103 6104 6096 3665 3675 6102 6095 6098 6105 3681 6106 5880 6107 6108 
386 387 684 683 419 420 717 716 3364 5883 5884 5876 3688 6110 6111 6103 3675 3685 6109 6102 6105 6112 3691 6113 5887 6114 6115 
387 388 685 684 420 421 718 717 3374 5890 5891 5883 3698 6117 6118 6110 3685 3695 6116 6109 6112 6119 3701 6120 5894 6121 6122 
388 389 686 685 421 422 719 718 3384 5897 5898 5890 3708 6124 6125 6117 3695 3705 6123 6116 6119 6126 3711 6127 5901 6128 6129 
389 390 687 686 422 423 720 719 3394 5904 5905 5897 3718 6131 6132 6124 3705 3715 6130 6123 6126 6133 3721 6134 5908 6135 6136 
390 391 688 687 423 424 721 720 3404 5911 5912 5904 3728 6138 6139 6131 3715 3725 6137 6130 6133 6140 3731 6141 5915 6142 6143 
391 392 689 688 424 425 722 721 3414 5918 5919 5911 3738 6145 6146 6138 3725 3735 6144 6137 6140 6147 3741 6148 5922 6149 6150 
392 393 690 689 425 426 723 722 3424 5925 5926 5918 3748 6152 6153 6145 3735 3745 6151 6144 6147 6154 3751 6155 5929 6156 6157 
393 394 691 690 426 427 724 723 3434 5932 5933 5925 3758 6159 6160 6152 3745 3755 6158 6151 6154 6161 3761 6162 5936 6163 6164 
394 395 692 691 427 428 725 724 3444 5939 5940 5932 3768 6166 6167 6159 3755 3765 6165 6158 6161 6168 3771 6169 5943 6170 6171 
396 397 694 693 429 430 727 726 3456 5947 5948 5949 3780 6174 6175 6176 3777 3776 6172 6173 6179 6177 3784 6178 5953 6180 6181 
397 398 695 694 430 431 728 727 3468 5956 5957 5947 3792 6183 6184 6174 3776 3789 6182 6172 6177 6185 3795 6186 5960 6187 6188 
398 399 696 695 431 432 729 728 3478 5963 5964 5956 3802 6190 6191 6183 3789 3799 6189 6182 6185 6192 3805 6193 5967 6194 6195 
399 400 697 696 432 433 730 729 3488 5970 5971 5963 3812 6197 6198 6190 3799 3809 6196 6189 6192 6199 3815 6200 5974 6201 6202 
400 401 698 697 433 434 731 730 3498 5977 5978 5970 3822 6204 6205 6197 3809 3819 6203 6196 6199 6206 3825 6207 5981 6208 6209 
401 402 699 698 434 435 732 731 3508 5984 5985 5977 3832 6211 6212 6204 3819 3829 6210 6203 6206 6213 3835 6214 5988 6215 6216 
402 403 700 699 435 436 733 732 3518 5991 5992 5984 3842 6218 6219 6211 3829 3839 6217 6210 6213 6220 3845 6221 5995 6222 6223 
403 404 701 700 436 437 734 733 3528 5998 5999 5991 3852 6225 6226 6218 3839 3849 6224 6217 6220 6227 3855 6228 6002 6229 6230 
404 405 702 701 437 438 735 734 3538 6005 6006 5998 3862 6232 6233 6225 3849 3859 6231 6224 6227 6234 3865 6235 6009 6236 6237 
405 406 703 702 438 439 736 735 3548 6012 6013 6005 3872 6239 6240 6232 3859 3869 6238 6231 6234 6241 3875 6242 6016 6243 6244 
406 407 704 703 439 440 737 736 3558 6019 6020 6012 3882 6246 6247 6239 3869 3879 6245 6238 6241 6248 3885 6249 6023 6250 6251 
407 408 705 704 440 441 738 737 3568 6026 6027 6019 3892 6253 6254 6246 3879 3889 6252 6245 6248 6255 3895 6256 6030 6257 6258 
408 409 706 705 441 442 739 738 3578 6033 6034 6026 3902 6260 6261 6253 3889 3899 6259 6252 6255 6262 3905 6263 6037 6264 6265 
409 410 707 706 442 443 740 739 3588 6040 6041 6033 3912 6267 6268 6260 3899 3909 6266 6259 6262 6269 3915 6270 6044 6271 6272 
410 411 708 707 443 444 741 740 3598 6047 6048 6040 3922 6274 6275 6267 3909 3919 6273 6266 6269 6276 3925 6277 6051 6278 6279 
411 412 709 708 444 445 742 741 3608 6054 6055 6047 3932 6281 6282 6274 3919 3929 6280 6273 6276 6283 3935 6284 6058 6285 6286 
412 413 710 709 445 446 743 742 3618 6061 6062 6054 3942 6288 6289 6281 3929 3939 6287 6280 6283 6290 3945 6291 6065 6292 6293 
413 414 711 710 446 447 744 743 3628 6068 6069 6061 3952 6295 6296 6288 3939 3949 6294 6287 6290 6297 3955 6298 6072 6299 6300 
414 415 712 711 447 448 745 744 3638 6075 6076 6068 3962 6302 6303 6295 3949 3959 6301 6294 6297 6304 3965 6305 6079 6306 6307 
415 416 713 712 448 449 746 745 3648 6082 6083 6075 3972 6309 6310 6302 3959 3969 6308 6301 6304 6311 3975 6312 6086 6313 6314 
416 417 714 713 449 450 747 746 3658 6089 6090 6082 3982 6316 6317 6309 3969 3979 6315 6308 6311 6318 3985 6319 6093 6320 6321 
417 418 715 714 450 451 748 747 3668 6096 6097 6089 3992 6323 6324 6316 3979 3989 6322 6315 6318 6325 3995 6326 6100 6327 6328 
418 419 716 715 451 452 749 748 3678 6103 6104 6096 4002 6330 6331 6323 3989 3999 6329 6322 6325 6332 4005 6333 6107 6334 6335 
419 420 717 716 452 453 750 749 3688 6110 6111 6103 4012 6337 6338 6330 3999 4009 6336 6329 6332 6339 4015 6340 6114 6341 6342 
420 421 718 717 453 454 751 750 3698 6117 6118 6110 4022 6344 6345 6337 4009 4019 6343 6336 6339 6346 4025 6347 6121 6348 6349 
421 422 719 718 454 455 752 751 3708 6124 6125 6117 4032 6351 6352 6344 4019 4029 6350 6343 6346 6353 4035 6354 6128 6355 6356 
422 423 720 719 455 456 753 752 3718 6131 6132 6124 4042 6358 6359 6351 4029 4039 6357 6350 6353 6360 4045 6361 6135 6362 6363 
423 424 721 720 456 457 754 753 3728 6138 6139 6131 4052 6365 6366 6358 4039 4049 6364 6357 6360 6367 4055 6368 6142 6369 6370 
424 425 722 721 457 458 755 754 3738 6145 6146 6138 4062 6372 6373 6365 4049 4059 6371 6364 6367 6374 4065 6375 6149 6376 6377 
425 426 723 722 458 459 756 755 3748 6152 6153 6145 4072 6379 6380 6372 4059 4069 6378 6371 6374 6381 4075 6382 6156 6383 6384 
426 427 724 723 459 460 757 756 3758 6159 6160 6152 4082 6386 6387 6379 4069 4079 6385 6378 6381 6388 4085 6389 6163 6390 6391 
427 428 725 724 460 461 758 757 3768 6166 6167 6159 4092 6393 6394 6386 4079 4089 6392 6385 6388 6395 4095 6396 6170 6397 6398 
429 430 727 726 462 463 760 759 3780 6174 6175 6176 4104 6401 6402 6403 4101 4100 6399 6400 6406 6404 4108 6405 6180 6407 6408 
430 431 728 727 463 464 761 760 3792 6183 6184 6174 4116 6410 6411 6401 4100 4113 6409 6399 6404 6412 4119 6413 6187 6414 6415 
431 432 729 728 464 465 762 761 3802 6190 6191 6183 4126 6417 6418 6410 4113 4123 6416 6409 6412 6419 4129 6420 6194 6421 6422 
432 433 730 729 465 466 763 762 3812 6197 6198 6190 4136 6424 6425 6417 4123 4133 6423 6416 6419 6426 4139 6427 6201 6428 6429 
433 434 731 730 466 467 764 763 3822 6204 6205 6197 4146 6431 6432 6424 4133 4143 6430 6423 6426 6433 4149 6434 6208 6435 6436 
434 435 732 731 467 468 765 764 3832 6211 6212 6204 4156 6438 6439 6431 4143 4153 6437 6430 6433 6440 4159 6441 6215 6442 6443 
435 436 733 732 468 469 766 765 3842 6218 6219 6211 4166 6445 6446 6438 4153 4163 6444 6437 6440 6447 4169 6448 6222 6449 6450 
436 437 734 733 469 470 767 766 3852 6225 6226 6218 4176 6452 6453 6445 4163 4173 6451 6444 6447 6454 4179 6455 6229 6456 6457 
437 438 735 734 470 471 768 767 3862 6232 6233 6225 4186 6459 6460 6452 4173 4183 6458 6451 6454 6461 4189 6462 6236 6463 6464 
438 439 736 735 471 472 769 768 3872 6239 6240 6232 4196 6466 6467 6459 4183 4193 6465 6458 6461 6468 4199 6469 6243 6470 6471 
439 440 737 736 472 473 770 769 3882 6246 6247 6239 4206 6473 6474 6466 4193 4203 6472 6465 6468 6475 4209 6476 6250 6477 6478 
440 441 738 737 473 474 771 770 3892 6253 6254 6246 4216 6480 6481 6473 4203 4213 6479 6472 6475 6482 4219 6483 6257 6484 6485 
441 442 739 738 474 475 772 771 3902 6260 6261 6253 4226 6487 6488 6480 4213 4223 6486 6479 6482 6489 4229 6490 6264 6491 6492 
442 443 740 739 475 476 773 772 3912 6267 6268 6260 4236 6494 6495 6487 4223 4233 6493 6486 6489 6496 4239 6497 6271 6498 6499 
443 444 741 740 476 477 774 773 3922 6274 6275 6267 4246 6501 6502 6494 4233 4243 6500 6493 6496 6503 4249 6504 6278 6505 6506 
444 445 742 741 477 478 775 774 3932 6281 6282 6274 4256 6508 6509 6501 4243 4253 6507 6500 6503 6510 4259 6511 6285 6512 6513 
445 446 743 742 478 479 776 775 3942 6288 6289 6281 4266 6515 6516 6508 4253 4263 6514 6507 6510 6517 4269 6518 6292 6519 6520 
446 447 744 743 479 480 777 776 3952 6295 6296 6288 4276 6522 6523 6515 4263 4273 6521 6514 6517 6524 4279 6525 6299 6526 6527 
447 448 745 744 480 481 778 777 3962 6302 6303 6295 4286 6529 6530 6522 4273 4283 6528 6521 6524 6531 4289 6532 6306 6533 6534 
448 449 746 745 481 482 779 778 3972 6309 6310 6302 4296 6536 6537 6529 4283 4293 6535 6528 6531 6538 4299 6539 6313 6540 6541 
449 450 747 746 482 483 780 779 3982 6316 6317 6309 4306 6543 6544 6536 4293 4303 6542 6535 6538 6545 4309 6546 6320 6547 6548 
450 451 748 747 483 484 781 780 3992 6323 6324 6316 4316 6550 6551 6543 4303 4313 6549 6542 6545 6552 4319 6553 6327 6554 6555 
451 452 749 748 484 485 782 781 4002 6330 6331 6323 4326 6557 6558 6550 4313 4323 6556 6549 6552 6559 4329 6560 6334 6561 6562 
452 453 750 749 485 486 783 782 4012 6337 6338 6330 4336 6564 6565 6557 4323 4333 6563 6556 6559 6566 4339 6567 6341 6568 6569 
453 454 751 750 486 487 784 783 4022 6344 6345 6337 4346 6571 6572 6564 4333 4343 6570 6563 6566 6573 4349 6574 6348 6575 6576 
454 455 752 751 487 488 785 784 4032 6351 6352 6344 4356 6578 6579 6571 4343 4353 6577 6570 6573 6580 4359 6581 6355 6582 6583 
455 456 753 752 488 489 786 785 4042 6358 6359 6351 4366 6585 6586 6578 4353 4363 6584 6577 6580 6587 4369 6588 6362 6589 6590 
456 457 754 753 489 490 787 786 4052 6365 6366 6358 4376 6592 6593 6585 4363 4373 6591 6584 6587 6594 4379 6595 6369 6596 6597 
457 458 755 754 490 491 788 787 4062 6372 6373 6365 4386 6599 6600 6592 4373 4383 6598 6591 6594 6601 4389 6602 6376 6603 6604 
458 459 756 755 491 492 789 788 4072 6379 6380 6372 4396 6606 6607 6599 4383 4393 6605 6598 6601 6608 4399 6609 6383 6610 6611 
459 460 757 756 492 493 790 789 4082 6386 6387 6379 4406 6613 6614 6606 4393 4403 6612 6605 6608 6615 4409 6616 6390 6617 6618 
460 461 758 757 493 494 791 790 4092 6393 6394 6386 4416 6620 6621 6613 4403 4413 6619 6612 6615 6622 4419 6623 6397 6624 6625 
462 463 760 759 495 496 793 792 4104 6401 6402 6403 4428 6628 6629 6630 4425 4424 6626 6627 6633 6631 4432 6632 6407 6634 6635 
463 464 761 760 496 497 794 793 4116 6410 6411 6401 4440 6637 6638 6628 4424 4437 6636 6626 6631 6639 4443 6640 6414 6641 6642 
464 465 762 761 497 498 795 794 4126 6417 6418 6410 4450 6644 6645 6637 4437 4447 6643 6636 6639 6646 4453 6647 6421 6648 6649 
465 466 763 762 498 499 796 795 4136 6424 6425 6417 4460 6651 6652 6644 4447 4457 6650 6643 6646 6653 4463 6654 6428 6655 6656 
466 467 764 763 499 500 797 796 4146 6431 6432 6424 4470 6658 6659 6651 4457 4467 6657 6650 6653 6660 4473 6661 6435 6662 6663 
467 468 765 764 500 501 798 797 4156 6438 6439 6431 4480 6665 6666 6658 4467 4477 6664 6657 6660 6667 4483 6668 6442 6669 6670 
468 469 766 765 501 502 799 798 4166 6445 6446 6438 4490 6672 6673 6665 4477 4487 6671 6664 6667 6674 4493 6675 6449 6676 6677 
469 470 767 766 502 503 800 799 4176 6452 6453 6445 4500 6679 6680 6672 4487 4497 6678 6671 6674 6681 4503 6682 6456 6683 6684 
470 471 768 767 503 504 801 800 4186 6459 6460 6452 4510 6686 6687 6679 4497 4507 6685 6678 6681 6688 4513 6689 6463 6690 6691 
471 472 769 768 504 505 802 801 4196 6466 6467 6459 4520 6693 6694 6686 4507 4517 6692 6685 6688 6695 4523 6696 6470 6697 6698 
472 473 770 769 505 506 803 802 4206 6473 6474 6466 4530 6700 6701 6693 4517 4527 6699 6692 6695 6702 4533 6703 6477 6704 6705 
473 474 771 770 506 507 804 803 4216 6480 6481 6473 4540 6707 6708 6700 4527 4537 6706 6699 6702 6709 4543 6710 6484 6711 6712 
474 475 772 771 507 508 805 804 4226 6487 6488 6480 4550 6714 6715 6707 4537 4547 6713 6706 6709 6716 4553 6717 6491 6718 6719 
475 476 773 772 508 509 806 805 4236 6494 6495 6487 4560 6721 6722 6714 4547 4557 6720 6713 6716 6723 4563 6724 6498 6725 6726 
476 477 774 773 509 510 807 806 4246 6501 6502 6494 4570 6728 6729 6721 4557 4567 6727 6720 6723 6730 4573 6731 6505 6732 6733 
477 478 775 774 510 511 808 807 4256 6508 6509 6501 4580 6735 6736 6728 4567 4577 6734 6727 6730 6737 4583 6738 6512 6739 6740 
478 479 776 775 511 512 809 808 4266 6515 6516 6508 4590 6742 6743 6735 4577 4587 6741 6734 6737 6744 4593 6745 6519 6746 6747 
479 480 777 776 512 513 810 809 4276 6522 6523 6515 4600 6749 6750 6742 4587 4597 6748 6741 6744 6751 4603 6752 6526 6753 6754 
480 481 778 777 513 514 811 810 4286 6529 6530 6522 4610 6756 6757 6749 4597 4607 6755 6748 6751 6758 4613 6759 6533 6760 6761 
481 482 779 778 514 515 812 811 4296 6536 6537 6529 4620 6763 6764 6756 4607 4617 6762 6755 6758 6765 4623 6766 6540 6767 6768 
482 483 780 779 515 516 813 812 4306 6543 6544 6536 4630 6770 6771 6763 4617 4627 6769 6762 6765 6772 4633 6773 6547 6774 6775 
483 484 781 780 516 517 814 813 4316 6550 6551 6543 4640 6777 6778 6770 4627 4637 6776 6769 6772 6779 4643 6780 6554 6781 6782 
484 485 782 781 517 518 815 814 4326 6557 6558 6550 4650 6784 6785 6777 4637 4647 6783 6776 6779 6786 4653 6787 6561 6788 6789 
485 486 783 782 518 519 816 815 4336 6564 6565 6557 4660 6791 6792 6784 4647 4657 6790 6783 6786 6793 4663 6794 6568 6795 6796 
486 487 784 783 519 520 817 816 4346 6571 6572 6564 4670 6798 6799 6791 4657 4667 6797 6790 6793 6800 4673 6801 6575 6802 6803 
487 488 785 784 520 521 818 817 4356 6578 6579 6571 4680 6805 6806 6798 4667 4677 6804 6797 6800 6807 4683 6808 6582 6809 6810 
488 489 786 785 521 522 819 818 4366 6585 6586 6578 4690 6812 6813 6805 4677 4687 6811 6804 6807 6814 4693 6815 6589 6816 6817 
489 490 787 786 522 523 820 819 4376 6592 6593 6585 4700 6819 6820 6812 4687 4697 6818 6811 6814 6821 4703 6822 6596 6823 6824 
490 491 788 787 523 524 821 820 4386 6599 6600 6592 4710 6826 6827 6819 4697 4707 6825 6818 6821 6828 4713 6829 6603 6830 6831 
491 492 789 788 524 525 822 821 4396 6606 6607 6599 4720 6833 6834 6826 4707 4717 6832 6825 6828 6835 4723 6836 6610 6837 6838 
492 493 790 789 525 526 823 822 4406 6613 6614 6606 4730 6840 6841 6833 4717 4727 6839 6832 6835 6842 4733 6843 6617 6844 6845 
493 494 791 790 526 527 824 823 4416 6620 6621 6613 4740 6847 6848 6840 4727 4737 6846 6839 6842 6849 4743 6850 6624 6851 6852 
495 496 793 792 528 529 826 825 4428 6628 6629 6630 4752 6855 6856 6857 4749 4748 6853 6854 6860 6858 4756 6859 6634 6861 6862 
496 497 794 793 529 530 827 826 4440 6637 6638 6628 4764 6864 6865 6855 4748 4761 6863 6853 6858 6866 4767 6867 6641 6868 6869 
497 498 795 794 530 531 828 827 4450 6644 6645 6637 4774 6871 6872 6864 4761 4771 6870 6863 6866 6873 4777 6874 6648 6875 6876 
498 499 796 795 531 532 829 828 4460 6651 6652 6644 4784 6878 6879 6871 4771 4781 6877 6870 6873 6880 4787 6881 6655 6882 6883 
499 500 797 796 532 533 830 829 4470 6658 6659 6651 4794 6885 6886 6878 4781 4791 6884 6877 6880 6887 4797 6888 6662 6889 6890 
500 501 798 797 533 534 831 830 4480 6665 6666 6658 4804 6892 6893 6885 4791 4801 6891 6884 6887 6894 4807 6895 6669 6896 6897 
501 502 799 798 534 535 832 831 4490 6672 6673 6665 4814 6899 6900 6892 4801 4811 6898 6891 6894 6901 4817 6902 6676 6903 6904 
502 503 800 799 535 536 833 832 4500 6679 6680 6672 4824 6906 6907 6899 4811 4821 6905 6898 6901 6908 4827 6909 6683 6910 6911 
503 504 801 800 536 537 834 833 4510 6686 6687 6679 4834 6913 6914 6906 4821 4831 6912 6905 6908 6915 4837 6916 6690 6917 6918 
504 505 802 801 537 538 835 834 4520 6693 6694 6686 4844 6920 6921 6913 4831 4841 6919 6912 6915 6922 4847 6923 6697 6924 6925 
505 506 803 802 538 539 836 835 4530 6700 6701 6693 4854 6927 6928 6920 4841 4851 6926 6919 6922 6929 4857 6930 6704 6931 6932 
506 507 804 803 539 540 837 836 4540 6707 6708 6700 4864 6934 6935 6927 4851 4861 6933 6926 6929 6936 4867 6937 6711 6938 6939 
507 508 805 804 540 541 838 837 4550 6714 6715 6707 4874 6941 6942 6934 4861 4871 6940 6933 6936 6943 4877 6944 6718 6945 6946 
508 509 806 805 541 542 839 838 4560 6721 6722 6714 4884 6948 6949 6941 4871 4881 6947 6940 6943 6950 4887 6951 6725 6952 6953 
509 510 807 806 542 543 840 839 4570 6728 6729 6721 4894 6955 6956 6948 4881 4891 6954 6947 6950 6957 4897 6958 6732 6959 6960 
510 511 808 807 543 544 841 840 4580 6735 6736 6728 4904 6962 6963 6955 4891 4901 6961 6954 6957 6964 4907 6965 6739 6966 6967 
511 512 809 808 544 545 842 841 4590 6742 6743 6735 4914 6969 6970 6962 4901 4911 6968 6961 6964 6971 4917 6972 6746 6973 6974 
512 513 810 809 545 546 843 842 4600 6749 6750 6742 4924 6976 6977 6969 4911 4921 6975 6968 6971 6978 4927 6979 6753 6980 6981 
513 514 811 810 546 547 844 843 4610 6756 6757 6749 4934 6983 6984 6976 4921 4931 6982 6975 6978 6985 4937 6986 6760 6987 6988 
514 515 812 811 547 548 845 844 4620 6763 6764 6756 4944 6990 6991 6983 4931 4941 6989 6982 6985 6992 4947 6993 6767 6994 6995 
515 516 813 812 548 549 846 845 4630 6770 6771 6763 4954 6997 6998 6990 4941 4951 6996 6989 6992 6999 4957 7000 6774 7001 7002 
516 517 814 813 549 550 847 846 4640 6777 6778 6770 4964 7004 7005 6997 4951 4961 7003 6996 6999 7006 4967 7007 6781 7008 7009 
517 518 815 814 550 551 848 847 4650 6784 6785 6777 4974 7011 7012 7004 4961 4971 7010 7003 7006 7013 4977 7014 6788 7015 7016 
518 519 816 815 551 552 849 848 4660 6791 6792 6784 4984 7018 7019 7011 4971 4981 7017 7010 7013 7020 4987 7021 6795 7022 7023 
519 520 817 816 552 553 850 849 4670 6798 6799 6791 4994 7025 7026 7018 4981 4991 7024 7017 7020 7027 4997 7028 6802 7029 7030 
520 521 818 817 553 554 851 850 4680 6805 6806 6798 5004 7032 7033 7025 4991 5001 7031 7024 7027 7034 5007 7035 6809 7036 7037 
521 522 819 818 554 555 852 851 4690 6812 6813 6805 5014 7039 7040 7032 5001 5011 7038 7031 7034 7041 5017 7042 6816 7043 7044 
522 523 820 819 555 556 853 852 4700 6819 6820 6812 5024 7046 7047 7039 5011 5021 7045 7038 7041 7048 5027 7049 6823 7050 7051 
523 524 821 820 556 557 854 853 4710 6826 6827 6819 5034 7053 7054 7046 5021 5031 7052 7045 7048 7055 5037 7056 6830 7057 7058 
524 525 822 821 557 558 855 854 4720 6833 6834 6826 5044 7060 7061 7053 5031 5041 7059 7052 7055 7062 5047 7063 6837 7064 7065 
525 526 823 822 558 559 856 855 4730 6840 6841 6833 5054 7067 7068 7060 5041 5051 7066 7059 7062 7069 5057 7070 6844 7071 7072 
526 527 824 823 559 560 857 856 4740 6847 6848 6840 5064 7074 7075 7067 5051 5061 7073 7066 7069 7076 5067 7077 6851 7078 7079 
528 529 826 825 561 562 859 858 4752 6855 6856 6857 5076 7082 7083 7084 5073 5072 7080 7081 7087 7085 5080 7086 6861 7088 7089 
529 530 827 826 562 563 860 859 4764 6864 6865 6855 5088 7091 7092 7082 5072 5085 7090 7080 7085 7093 5091 7094 6868 7095 7096 
530 531 828 827 563 564 861 860 4774 6871 6872 6864 5098 7098 7099 7091 5085 5095 7097 7090 7093 7100 5101 7101 6875 7102 7103 
531 532 829 828 564 565 862 861 4784 6878 6879 6871 5108 7105 7106 7098 5095 5105 7104 7097 7100 7107 5111 7108 6882 7109 7110 
532 533 830 829 565 566 863 862 4794 6885 6886 6878 5118 7112 7113 7105 5105 5115 7111 7104 7107 7114 5121 7115 6889 7116 7117 
533 534 831 830 566 567 864 863 4804 6892 6893 6885 5128 7119 7120 7112 5115 5125 7118 7111 7114 7121 5131 7122 6896 7123 7124 
534 535 832 831 567 568 865 864 4814 6899 6900 6892 5138 7126 7127 7119 5125 5135 7125 7118 7121 7128 5141 7129 6903 7130 7131 
535 536 833 832 568 569 866 865 4824 6906 6907 6899 5148 7133 7134 7126 5135 5145 7132 7125 7128 7135 5151 7136 6910 7137 7138 
536 537 834 833 569 570 867 866 4834 6913 6914 6906 5158 7140 7141 7133 5145 5155 7139 7132 7135 7142 5161 7143 6917 7144 7145 
537 538 835 834 570 571 868 867 4844 6920 6921 6913 5168 7147 7148 7140 5155 5165 7146 7139 7142 7149 5171 7150 6924 7151 7152 
538 539 836 835 571 572 869 868 4854 6927 6928 6920 5178 7154 7155 7147 5165 5175 7153 7146 7149 7156 5181 7157 6931 7158 7159 
539 540 837 836 572 573 870 869 4864 6934 6935 6927 5188 7161 7162 7154 5175 5185 7160 7153 7156 7163 5191 7164 6938 7165 7166 
540 541 838 837 573 574 871 870 4874 6941 6942 6934 5198 7168 7169 7161 5185 5195 7167 7160 7163 7170 5201 7171 6945 7172 7173 
541 542 839 838 574 575 872 871 4884 6948 6949 6941 5208 7175 7176 7168 5195 5205 7174 7167 7170 7177 5211 7178 6952 7179 7180 
542 543 840 839 575 576 873 872 4894 6955 6956 6948 5218 7182 7183 7175 5205 5215 7181 7174 7177 7184 5221 7185 6959 7186 7187 
543 544 841 840 576 577 874 873 4904 6962 6963 6955 5228 7189 7190 7182 5215 5225 7188 7181 7184 7191 5231 7192 6966 7193 7194 
544 545 842 841 577 578 875 874 4914 6969 6970 6962 5238 7196 7197 7189 5225 5235 7195 7188 7191 7198 5241 7199 6973 7200 7201 
545 546 843 842 578 579 876 875 4924 6976 6977 6969 5248 7203 7204 7196 5235 5245 7202 7195 7198 7205 5251 7206 6980 7207 7208 
546 547 844 843 579 580 877 876 4934 6983 6984 6976 5258 7210 7211 7203 5245 5255 7209 7202 7205 7212 5261 7213 6987 7214 7215 
547 548 845 844 580 581 878 877 4944 6990 6991 6983 5268 7217 7218 7210 5255 5265 7216 7209 7212 7219 5271 7220 6994 7221 7222 
548 549 846 845 581 582 879 878 4954 6997 6998 6990 5278 7224 7225 7217 5265 5275 7223 7216 7219 7226 5281 7227 7001 7228 7229 
549 550 847 846 582 583 880 879 4964 7004 7005 6997 5288 7231 7232 7224 5275 5285 7230 7223 7226 7233 5291 7234 7008 7235 7236 
550 551 848 847 583 584 881 880 4974 7011 7012 7004 5298 7238 7239 7231 5285 5295 7237 7230 7233 7240 5301 7241 7015 7242 7243 
551 552 849 848 584 585 882 881 4984 7018 7019 7011 5308 7245 7246 7238 5295 5305 7244 7237 7240 7247 5311 7248 7022 7249 7250 
552 553 850 849 585 586 883 882 4994 7025 7026 7018 5318 7252 7253 7245 5305 5315 7251 7244 7247 7254 5321 7255 7029 7256 7257 
553 554 851 850 586 587 884 883 5004 7032 7033 7025 5328 7259 7260 7252 5315 5325 7258 7251 7254 7261 5331 7262 7036 7263 7264 
554 555 852 851 587 588 885 884 5014 7039 7040 7032 5338 7266 7267 7259 5325 5335 7265 7258 7261 7268 5341 7269 7043 7270 7271 
555 556 853 852 588 589 886 885 5024 7046 7047 7039 5348 7273 7274 7266 5335 5345 7272 7265 7268 7275 5351 7276 7050 7277 7278 
556 557 854 853 589 590 887 886 5034 7053 7054 7046 5358 7280 7281 7273 5345 5355 7279 7272 7275 7282 5361 7283 7057 7284 7285 
557 558 855 854 590 591 888 887 5044 7060 7061 7053 5368 7287 7288 7280 5355 5365 7286 7279 7282 7289 5371 7290 7064 7291 7292 
558 559 856 855 591 592 889 888 5054 7067 7068 7060 5378 7294 7295 7287 5365 5375 7293 7286 7289 7296 5381 7297 7071 7298 7299 
559 560 857 856 592 593 890 889 5064 7074 7075 7067 5388 7301 7302 7294 5375 5385 7300 7293 7296 7303 5391 7304 7078 7305 7306 
594 595 892 891 627 628 925 924 5395 7307 7308 7309 5400 7312 7313 7314 5398 5397 7310 7311 7318 7316 5404 7317 7315 7319 7320 
595 596 893 892 628 629 926 925 5409 7321 7322 7307 5412 7324 7325 7312 5397 5410 7323 7310 7316 7327 5415 7328 7326 7329 7330 
596 597 894 893 629 630 927 926 5419 7331 7332 7321 5422 7334 7335 7324 5410 5420 7333 7323 7327 7337 5425 7338 7336 7339 7340 
597 598 895 894 630 631 928 927 5429 7341 7342 7331 5432 7344 7345 7334 5420 5430 7343 7333 7337 7347 5435 7348 7346 7349 7350 
598 599 896 895 631 632 929 928 5439 7351 7352 7341 5442 7354 7355 7344 5430 5440 7353 7343 7347 7357 5445 7358 7356 7359 7360 
599 600 897 896 632 633 930 929 5449 7361 7362 7351 5452 7364 7365 7354 5440 5450 7363 7353 7357 7367 5455 7368 7366 7369 7370 
600 601 898 897 633 634 931 930 5459 7371 7372 7361 5462 7374 7375 7364 5450 5460 7373 7363 7367 7377 5465 7378 7376 7379 7380 
601 602 899 898 634 635 932 931 5469 7381 7382 7371 5472 7384 7385 7374 5460 5470 7383 7373 7377 7387 5475 7388 7386 7389 7390 
602 603 900 899 635 636 933 932 5479 7391 7392 7381 5482 7394 7395 7384 5470 5480 7393 7383 7387 7397 5485 7398 7396 7399 7400 
603 604 901 900 636 637 934 933 5489 7401 7402 7391 5492 7404 7405 7394 5480 5490 7403 7393 7397 7407 5495 7408 7406 7409 7410 
604 605 902 901 637 638 935 934 5499 7411 7412 7401 5502 7414 7415 7404 5490 5500 7413 7403 7407 7417 5505 7418 7416 7419 7420 
605 606 903 902 638 639 936 935 5509 7421 7422 7411 5512 7424 7425 7414 5500 5510 7423 7413 7417 7427 5515 7428 7426 7429 7430 
606 607 904 903 639 640 937 936 5519 7431 7432 7421 5522 7434 7435 7424 5510 5520 7433 7423 7427 7437 5525 7438 7436 7439 7440 
607 608 905 904 640 641 938 937 5529 7441 7442 7431 5532 7444 7445 7434 5520 5530 7443 7433 7437 7447 5535 7448 7446 7449 7450 
608 609 906 905 641 642 939 938 5539 7451 7452 7441 5542 7454 7455 7444 5530 5540 7453 7443 7447 7457 5545 7458 7456 7459 7460 
609 610 907 906 642 643 940 939 5549 7461 7462 7451 5552 7464 7465 7454 5540 5550 7463 7453 7457 7467 5555 7468 7466 7469 7470 
610 611 908 907 643 644 941 940 5559 7471 7472 7461 5562 7474 7475 7464 5550 5560 7473 7463 7467 7477 5565 7478 7476 7479 7480 
611 612 909 908 644 645 942 941 5569 7481 7482 7471 5572 7484 7485 7474 5560 5570 7483 7473 7477 7487 5575 7488 7486 7489 7490 
612 613 910 909 645 646 943 942 5579 7491 7492 7481 5582 7494 7495 7484 5570 5580 7493 7483 7487 7497 5585 7498 7496 7499 7500 
613 614 911 910 646 647 944 943 5589 7501 7502 7491 5592 7504 7505 7494 5580 5590 7503 7493 7497 7507 5595 7508 7506 7509 7510 
614 615 912 911 647 648 945 944 5599 7511 7512 7501 5602 7514 7515 7504 5590 5600 7513 7503 7507 7517 5605 7518 7516 7519 7520 
615 616 913 912 648 649 946 945 5609 7521 7522 7511 5612 7524 7525 7514 5600 5610 7523 7513 7517 7527 5615 7528 7526 7529 7530 
616 617 914 913 649 650 947 946 5619 7531 7532 7521 5622 7534 7535 7524 5610 5620 7533 7523 7527 7537 5625 7538 7536 7539 7540 
617 618 915 914 650 651 948 947 5629 7541 7542 7531 5632 7544 7545 7534 5620 5630 7543 7533 7537 7547 5635 7548 7546 7549 7550 
618 619 916 915 651 652 949 948 5639 7551 7552 7541 5642 7554 7555 7544 5630 5640 7553 7543 7547 7557 5645 7558 7556 7559 7560 
619 620 917 916 652 653 950 949 5649 7561 7562 7551 5652 7564 7565 7554 5640 5650 7563 7553 7557 7567 5655 7568 7566 7569 7570 
620 621 918 917 653 654 951 950 5659 7571 7572 7561 5662 7574 7575 7564 5650 5660 7573 7563 7567 7577 5665 7578 7576 7579 7580 
621 622 919 918 654 655 952 951 5669 7581 7582 7571 5672 7584 7585 7574 5660 5670 7583 7573 7577 7587 5675 7588 7586 7589 7590 
622 623 920 919 655 656 953 952 5679 7591 7592 7581 5682 7594 7595 7584 5670 5680 7593 7583 7587 7597 5685 7598 7596 7599 7600 
623 624 921 920 656 657 954 953 5689 7601 7602 7591 5692 7604 7605 7594 5680 5690 7603 7593 7597 7607 5695 7608 7606 7609 7610 
624 625 922 921 657 658 955 954 5699 7611 7612 7601 5702 7614 7615 7604 5690 5700 7613 7603 7607 7617 5705 7618 7616 7619 7620 
625 626 923 922 658 659 956 955 5709 7621 7622 7611 5712 7624 7625 7614 5700 5710 7623 7613 7617 7627 5715 7628 7626 7629 7630 
627 628 925 924 660 661 958 957 5400 7312 7313 7314 5721 7633 7634 7635 5719 5718 7631 7632 7638 7636 5724 7637 7319 7639 7640 
628 629 926 925 661 662 959 958 5412 7324 7325 7312 5730 7642 7643 7633 5718 5728 7641 7631 7636 7644 5732 7645 7329 7646 7647 
629 630 927 926 662 663 960 959 5422 7334 7335 7324 5737 7649 7650 7642 5728 5735 7648 7641 7644 7651 5739 7652 7339 7653 7654 
630 631 928 927 663 664 961 960 5432 7344 7345 7334 5744 7656 7657 7649 5735 5742 7655 7648 7651 7658 5746 7659 7349 7660 7661 
631 632 929 928 664 665 962 961 5442 7354 7355 7344 5751 7663 7664 7656 5742 5749 7662 7655 7658 7665 5753 7666 7359 7667 7668 
632 633 930 929 665 666 963 962 5452 7364 7365 7354 5758 7670 7671 7663 5749 5756 7669 7662 7665 7672 5760 7673 7369 7674 7675 
633 634 931 930 666 667 964 963 5462 7374 7375 7364 5765 7677 7678 7670 5756 5763 7676 7669 7672 7679 5767 7680 7379 7681 7682 
634 635 932 931 667 668 965 964 5472 7384 7385 7374 5772 7684 7685 7677 5763 5770 7683 7676 7679 7686 5774 7687 7389 7688 7689 
635 636 933 932 668 669 966 965 5482 7394 7395 7384 5779 7691 7692 7684 5770 5777 7690 7683 7686 7693 5781 7694 7399 7695 7696 
636 637 934 933 669 670 967 966 5492 7404 7405 7394 5786 7698 7699 7691 5777 5784 7697 7690 7693 7700 5788 7701 7409 7702 7703 
637 638 935 934 670 671 968 967 5502 7414 7415 7404 5793 7705 7706 7698 5784 5791 7704 7697 7700 7707 5795 7708 7419 7709 7710 
638 639 936 935 671 672 969 968 5512 7424 7425 7414 5800 7712 7713 7705 5791 5798 7711 7704 7707 7714 5802 7715 7429 7716 7717 
639 640 937 936 672 673 970 969 5522 7434 7435 7424 5807 7719 7720 7712 5798 5805 7718 7711 7714 7721 5809 7722 7439 7723 7724 
640 641 938 937 673 674 971 970 5532 7444 7445 7434 5814 7726 7727 7719 5805 5812 7725 7718 7721 7728 5816 7729 7449 7730 7731 
641 642 939 938 674 675 972 971 5542 7454 7455 7444 5821 7733 7734 7726 5812 5819 7732 7725 7728 7735 5823 7736 7459 7737 7738 
642 643 940 939 675 676 973 972 5552 7464 7465 7454 5828 7740 7741 7733 5819 5826 7739 7732 7735 7742 5830 7743 7469 7744 7745 
643 644 941 940 676 677 974 973 5562 7474 7475 7464 5835 7747 7748 7740 5826 5833 7746 7739 7742 7749 5837 7750 7479 7751 7752 
644 645 942 941 677 678 975 974 5572 7484 7485 7474 5842 7754 7755 7747 5833 5840 7753 7746 7749 7756 5844 7757 7489 7758 7759 
645 646 943 942 678 679 976 975 5582 7494 7495 7484 5849 7761 7762 7754 5840 5847 7760 7753 7756 7763 5851 7764 7499 7765 7766 
646 647 944 943 679 680 977 976 5592 7504 7505 7494 5856 7768 7769 7761 5847 5854 7767 7760 7763 7770 5858 7771 7509 7772 7773 
647 648 945 944 680 681 978 977 5602 7514 7515 7504 5863 7775 7776 7768 5854 5861 7774 7767 7770 7777 5865 7778 7519 7779 7780 
648 649 946 945 681 682 979 978 5612 7524 7525 7514 5870 7782 7783 7775 5861 5868 7781 7774 7777 7784 5872 7785 7529 7786 7787 
649 650 947 946 682 683 980 979 5622 7534 7535 7524 5877 7789 7790 7782 5868 5875 7788 7781 7784 7791 5879 7792 7539 7793 7794 
650 651 948 947 683 684 981 980 5632 7544 7545 7534 5884 7796 7797 7789 5875 5882 7795 7788 7791 7798 5886 7799 7549 7800 7801 
651 652 949 948 684 685 982 981 5642 7554 7555 7544 5891 7803 7804 7796 5882 5889 7802 7795 7798 7805 5893 7806 7559 7807 7808 
652 653 950 949 685 686 983 982 5652 7564 7565 7554 5898 7810 7811 7803 5889 5896 7809 7802 7805 7812 5900 7813 7569 7814 7815 
653 654 951 950 686 687 984 983 5662 7574 7575 7564 5905 7817 7818 7810 5896 5903 7816 7809 7812 7819 5907 7820 7579 7821 7822 
654 655 952 951 687 688 985 984 5672 7584 7585 7574 5912 7824 7825 7817 5903 5910 7823 7816 7819 7826 5914 7827 7589 7828 7829 
655 656 953 952 688 689 986 985 5682 7594 7595 7584 5919 7831 7832 7824 5910 5917 7830 7823 7826 7833 5921 7834 7599 7835 7836 
656 657 954 953 689 690 987 986 5692 7604 7605 7594 5926 7838 7839 7831 5917 5924 7837 7830 7833 7840 5928 7841 7609 7842 7843 
657 658 955 954 690 691 988 987 5702 7614 7615 7604 5933 7845 7846 7838 5924 5931 7844 7837 7840 7847 5935 7848 7619 7849 7850 
658 659 956 955 691 692 989 988 5712 7624 7625 7614 5940 7852 7853 7845 5931 5938 7851 7844 7847 7854 5942 7855 7629 7856 7857 
660 661 958 957 693 694 991 990 5721 7633 7634 7635 5948 7860 7861 7862 5946 5945 7858 7859 7865 7863 5951 7864 7639 7866 7867 
661 662 959 958 694 695 992 991 5730 7642 7643 7633 5957 7869 7870 7860 5945 5955 7868 7858 7863 7871 5959 7872 7646 7873 7874 
662 663 960 959 695 696 993 992 5737 7649 7650 7642 5964 7876 7877 7869 5955 5962 7875 7868 7871 7878 5966 7879 7653 7880 7881 
663 664 961 960 696 697 994 993 5744 7656 7657 7649 5971 7883 7884 7876 5962 5969 7882 7875 7878 7885 5973 7886 7660 7887 7888 
664 665 962 961 697 698 995 994 5751 7663 7664 7656 5978 7890 7891 7883 5969 5976 7889 7882 7885 7892 5980 7893 7667 7894 7895 
665 666 963 962 698 699 996 995 5758 7670 7671 7663 5985 7897 7898 7890 5976 5983 7896 7889 7892 7899 5987 7900 7674 7901 7902 
666 667 964 963 699 700 997 996 5765 7677 7678 7670 5992 7904 7905 7897 5983 5990 7903 7896 7899 7906 5994 7907 7681 7908 7909 
667 668 965 964 700 701 998 997 5772 7684 7685 7677 5999 7911 7912 7904 5990 5997 7910 7903 7906 7913 6001 7914 7688 7915 7916 
668 669 966 965 701 702 999 998 5779 7691 7692 7684 6006 7918 7919 7911 5997 6004 7917 7910 7913 7920 6008 7921 7695 7922 7923 
669 670 967 966 702 703 1000 999 5786 7698 7699 7691 6013 7925 7926 7918 6004 6011 7924 7917 7920 7927 6015 7928 7702 7929 7930 
670 671 968 967 703 704 1001 1000 5793 7705 7706 7698 6020 7932 7933 7925 6011 6018 7931 7924 7927 7934 6022 7935 7709 7936 7937 
671 672 969 968 704 705 1002 1001 5800 7712 7713 7705 6027 7939 7940 7932 6018 6025 7938 7931 7934 7941 6029 7942 7716 7943 7944 
672 673 970 969 705 706 1003 1002 5807 7719 7720 7712 6034 7946 7947 7939 6025 6032 7945 7938 7941 7948 6036 7949 7723 7950 7951 
673 674 971 970 706 707 1004 1003 5814 7726 7727 7719 6041 7953 7954 7946 6032 6039 7952 7945 7948 7955 6043 7956 7730 7957 7958 
674 675 972 971 707 708 1005 1004 5821 7733 7734 7726 6048 7960 7961 7953 6039 6046 7959 7952 7955 7962 6050 7963 7737 7964 7965 
675 676 973 972 708 709 1006 1005 5828 7740 7741 7733 6055 7967 7968 7960 6046 6053 7966 7959 7962 7969 6057 7970 7744 7971 7972 
676 677 974 973 709 710 1007 1006 5835 7747 7748 7740 6062 7974 7975 7967 6053 6060 7973 7966 7969 7976 6064 7977 7751 7978 7979 
677 678 975 974 710 711 1008 1007 5842 7754 7755 7747 6069 7981 7982 7974 6060 6067 7980 7973 7976 7983 6071 7984 7758 7985 7986 
678 679 976 975 711 712 1009 1008 5849 7761 7762 7754 6076 7988 7989 7981 6067 6074 7987 7980 7983 7990 6078 7991 7765 7992 7993 
679 680 977 976 712 713 1010 1009 5856 7768 7769 7761 6083 7995 7996 7988 6074 6081 7994 7987 7990 7997 6085 7998 7772 7999 8000 
680 681 978 977 713 714 1011 1010 5863 7775 7776 7768 6090 8002 8003 7995 6081 6088 8001 7994 7997 8004 6092 8005 7779 8006 8007 
681 682 979 978 714 715 1012 1011 5870 7782 7783 7775 6097 8009 8010 8002 6088 6095 8008 8001 8004 8011 6099 8012 7786 8013 8014 
682 683 980 979 715 716 1013 1012 5877 7789 7790 7782 6104 8016 8017 8009 6095 6102 8015 8008 8011 8018 6106 8019 7793 8020 8021 
683 684 981 980 716 717 1014 1013 5884 7796 7797 7789 6111 8023 8024 8016 6102 6109 8022 8015 8018 8025 6113 8026 7800 8027 8028 
684 685 982 981 717 718 1015 1014 5891 7803 7804 7796 6118 8030 8031 8023 6109 6116 8029 8022 8025 8032 6120 8033 7807 8034 8035 
685 686 983 982 718 719 1016 1015 5898 7810 7811 7803 6125 8037 8038 8030 6116 6123 8036 8029 8032 8039 6127 8040 7814 8041 8042 
686 687 984 983 719 720 1017 1016 5905 7817 7818 7810 6132 8044 8045 8037 6123 6130 8043 8036 8039 8046 6134 8047 7821 8048 8049 
687 688 985 984 720 721 1018 1017 5912 7824 7825 7817 6139 8051 8052 8044 6130 6137 8050 8043 8046 8053 6141 8054 7828 8055 8056 
688 689 986 985 721 722 1019 1018 5919 7831 7832 7824 6146 8058 8059 8051 6137 6144 8057 8050 8053 8060 6148 8061 7835 8062 8063 
689 690 987 986 722 723 1020 1019 5926 7838 7839 7831 6153 8065 8066 8058 6144 6151 8064 8057 8060 8067 6155 8068 7842 8069 8070 
690 691 988 987 723 724 1021 1020 5933 7845 7846 7838 6160 8072 8073 8065 6151 6158 8071 8064 8067 8074 6162 8075 7849 8076 8077 
691 692 989 988 724 725 1022 1021 5940 7852 7853 7845 6167 8079 8080 8072 6158 6165 8078 8071 8074 8081 6169 8082 7856 8083 8084 
693 694 991 990 726 727 1024 1023 5948 7860 7861 7862 6175 8087 8088 8089 6173 6172 8085 8086 8092 8090 6178 8091 7866 8093 8094 
694 695 992 991 727 728 1025 1024 5957 7869 7870 7860 6184 8096 8097 8087 6172 6182 8095 8085 8090 8098 6186 8099 7873 8100 8101 
695 696 993 992 728 729 1026 1025 5964 7876 7877 7869 6191 8103 8104 8096 6182 6189 8102 8095 8098 8105 6193 8106 7880 8107 8108 
696 697 994 993 729 730 1027 1026 5971 7883 7884 7876 6198 8110 8111 8103 6189 6196 8109 8102 8105 8112 6200 8113 7887 8114 8115 
697 698 995 994 730 731 1028 1027 5978 7890 7891 7883 6205 8117 8118 8110 6196 6203 8116 8109 8112 8119 6207 8120 7894 8121 8122 
698 699 996 995 731 732 1029 1028 5985 7897 7898 7890 6212 8124 8125 8117 6203 6210 8123 8116 8119 8126 6214 8127 7901 8128 8129 
699 700 997 996 732 733 1030 1029 5992 7904 7905 7897 6219 8131 8132 8124 6210 6217 8130 8123 8126 8133 6221 8134 7908 8135 8136 
700 701 998 997 733 734 1031 1030 5999 7911 7912 7904 6226 8138 8139 8131 6217 6224 8137 8130 8133 8140 6228 8141 7915 8142 8143 
701 702 999 998 734 735 1032 1031 6006 7918 7919 7911 6233 8145 8146 8138 6224 6231 8144 8137 8140 8147 6235 8148 7922 8149 8150 
702 703 1000 999 735 736 1033 1032 6013 7925 7926 7918 6240 8152 8153 8145 6231 6238 8151 8144 8147 8154 6242 8155 7929 8156 8157 
703 704 1001 1000 736 737 1034 1033 6020 7932 7933 7925 6247 8159 8160 8152 6238 6245 8158 8151 8154 8161 6249 8162 7936 8163 8164 
704 705 1002 1001 737 738 1035 1034 6027 7939 7940 7932 6254 8166 8167 8159 6245 6252 8165 8158 8161 8168 6256 8169 7943 8170 8171 
705 706 1003 1002 738 739 1036 1035 6034 7946 7947 7939 6261 8173 8174 8166 6252 6259 8172 8165 8168 8175 6263 8176 7950 8177 8178 
706 707 1004 1003 739 740 1037 1036 6041 7953 7954 7946 6268 8180 8181 8173 6259 6266 8179 8172 8175 8182 6270 8183 7957 8184 8185 
707 708 1005 1004 740 741 1038 1037 6048 7960 7961 7953 6275 8187 8188 8180 6266 6273 8186 8179 8182 8189 6277 8190 7964 8191 8192 
708 709 1006 1005 741 742 1039 1038 6055 7967 7968 7960 6282 8194 8195 8187 6273 6280 8193 8186 8189 8196 6284 8197 7971 8198 8199 
709 710 1007 1006 742 743 1040 1039 6062 7974 7975 7967 6289 8201 8202 8194 6280 6287 8200 8193 8196 8203 6291 8204 7978 8205 8206 
710 711 1008 1007 743 744 1041 1040 6069 7981 7982 7974 6296 8208 8209 8201 6287 6294 8207 8200 8203 8210 6298 8211 7985 8212 8213 
711 712 1009 1008 744 745 1042 1041 6076 7988 7989 7981 6303 8215 8216 8208 6294 6301 8214 8207 8210 8217 6305 8218 7992 8219 8220 
712 713 1010 1009 745 746 1043 1042 6083 7995 7996 7988 6310 8222 8223 8215 6301 6308 8221 8214 8217 8224 6312 8225 7999 8226 8227 
713 714 1011 1010 746 747 1044 1043 6090 8002 8003 7995 6317 8229 8230 8222 6308 6315 8228 8221 8224 8231 6319 8232 8006 8233 8234 
714 715 1012 1011 747 748 1045 1044 6097 8009 8010 8002 6324 8236 8237 8229 6315 6322 8235 8228 8231 8238 6326 8239 8013 8240 8241 
715 716 1013 1012 748 749 1046 1045 6104 8016 8017 8009 6331 8243 8244 8236 6322 6329 8242 8235 8238 8245 6333 8246 8020 8247 8248 
716 717 1014 1013 749 750 1047 1046 6111 8023 8024 8016 6338 8250 8251 8243 6329 6336 8249 8242 8245 8252 6340 8253 8027 8254 8255 
717 718 1015 1014 750 751 1048 1047 6118 8030 8031 8023 6345 8257 8258 8250 6336 6343 8256 8249 8252 8259 6347 8260 8034 8261 8262 
718 719 1016 1015 751 752 1049 1048 6125 8037 8038 8030 6352 8264 8265 8257 6343 6350 8263 8256 8259 8266 6354 8267 8041 8268 8269 
719 720 1017 1016 752 753 1050 1049 6132 8044 8045 8037 6359 8271 8272 8264 6350 6357 8270 8263 8266 8273 6361 8274 8048 8275 8276 
720 721 1018 1017 753 754 1051 1050 6139 8051 8052 8044 6366 8278 8279 8271 6357 6364 8277 8270 8273 8280 6368 8281 8055 8282 8283 
721 722 1019 1018 754 755 1052 1051 6146 8058 8059 8051 6373 8285 8286 8278 6364 6371 8284 8277 8280 8287 6375 8288 8062 8289 8290 
722 723 1020 1019 755 756 1053 1052 6153 8065 8066 8058 6380 8292 8293 8285 6371 6378 8291 8284 8287 8294 6382 8295 8069 8296 8297 
723 724 1021 1020 756 757 1054 1053 6160 8072 8073 8065 6387 8299 8300 8292 6378 6385 8298 8291 8294 8301 6389 8302 8076 8303 8304 
724 725 1022 1021 757 758 1055 1054 6167 8079 8080 8072 6394 8306 8307 8299 6385 6392 8305 8298 8301 8308 6396 8309 8083 8310 8311 
726 727 1024 1023 759 760 1057 1056 6175 8087 8088 8089 6402 8314 8315 8316 6400 6399 8312 8313 8319 8317 6405 8318 8093 8320 8321 
727 728 1025 1024 760 761 1058 1057 6184 8096 8097 8087 6411 8323 8324 8314 6399 6409 8322 8312 8317 8325 6413 8326 8100 8327 8328 
728 729 1026 1025 761 762 1059 1058 6191 8103 8104 8096 6418 8330 8331 8323 6409 6416 8329 8322 8325 8332 6420 8333 8107 8334 8335 
729 730 1027 1026 762 763 1060 1059 6198 8110 8111 8103 6425 8337 8338 8330 6416 6423 8336 8329 8332 8339 6427 8340 8114 8341 8342 
730 731 1028 1027 763 764 1061 1060 6205 8117 8118 8110 6432 8344 8345 8337 6423 6430 8343 8336 8339 8346 6434 8347 8121 8348 8349 
731 732 1029 1028 764 765 1062 1061 6212 8124 8125 8117 6439 8351 8352 8344 6430 6437 8350 8343 8346 8353 6441 8354 8128 8355 8356 
732 733 1030 1029 765 766 1063 1062 6219 8131 8132 8124 6446 8358 8359 8351 6437 6444 8357 8350 8353 8360 6448 8361 8135 8362 8363 
733 734 1031 1030 766 767 1064 1063 6226 8138 8139 8131 6453 8365 8366 8358 6444 6451 8364 8357 8360 8367 6455 8368 8142 8369 8370 
734 735 1032 1031 767 768 1065 1064 6233 8145 8146 8138 6460 8372 8373 8365 6451 6458 8371 8364 8367 8374 6462 8375 8149 8376 8377 
735 736 1033 1032 768 769 1066 1065 6240 8152 8153 8145 6467 8379 8380 8372 6458 6465 8378 8371 8374 8381 6469 8382 8156 8383 8384 
736 737 1034 1033 769 770 1067 1066 6247 8159 8160 8152 6474 8386 8387 8379 6465 6472 8385 8378 8381 8388 6476 8389 8163 8390 8391 
737 738 1035 1034 770 771 1068 1067 6254 8166 8167 8159 6481 8393 8394 8386 6472 6479 8392 8385 8388 8395 6483 8396 8170 8397 8398 
738 739 1036 1035 771 772 1069 1068 6261 8173 8174 8166 6488 8400 8401 8393 6479 6486 8399 8392 8395 8402 6490 8403 8177 8404 8405 
739 740 1037 1036 772 773 1070 1069 6268 8180 8181 8173 6495 8407 8408 8400 6486 6493 8406 8399 8402 8409 6497 8410 8184 8411 8412 
740 741 1038 1037 773 774 1071 1070 6275 8187 8188 8180 6502 8414 8415 8407 6493 6500 8413 8406 8409 8416 6504 8417 8191 8418 8419 
741 742 1039 1038 774 775 1072 1071 6282 8194 8195 8187 6509 8421 8422 8414 6500 6507 8420 8413 8416 8423 6511 8424 8198 8425 8426 
742 743 1040 1039 775 776 1073 1072 6289 8201 8202 8194 6516 8428 8429 8421 6507 6514 8427 8420 8423 8430 6518 8431 8205 8432 8433 
743 744 1041 1040 776 777 1074 1073 6296 8208 8209 8201 6523 8435 8436 8428 6514 6521 8434 8427 8430 8437 6525 8438 8212 8439 8440 
744 745 1042 1041 777 778 1075 1074 6303 8215 8216 8208 6530 8442 8443 8435 6521 6528 8441 8434 8437 8444 6532 8445 8219 8446 8447 
745 746 1043 1042 778 779 1076 1075 6310 8222 8223 8215 6537 8449 8450 8442 6528 6535 8448 8441 8444 8451 6539 8452 8226 8453 8454 
746 747 1044 1043 779 780 1077 1076 6317 8229 8230 8222 6544 8456 8457 8449 6535 6542 8455 8448 8451 8458 6546 8459 8233 8460 8461 
747 748 1045 1044 780 781 1078 1077 6324 8236 8237 8229 6551 8463 8464 8456 6542 6549 8462 8455 8458 8465 6553 8466 8240 8467 8468 
748 749 1046 1045 781 782 1079 1078 6331 8243 8244 8236 6558 8470 8471 8463 6549 6556 8469 8462 8465 8472 6560 8473 8247 8474 8475 
749 750 1047 1046 782 783 1080 1079 6338 8250 8251 8243 6565 8477 8478 8470 6556 6563 8476 8469 8472 8479 6567 8480 8254 8481 8482 
750 751 1048 1047 783 784 1081 1080 6345 8257 8258 8250 6572 8484 8485 8477 6563 6570 8483 8476 8479 8486 6574 8487 8261 8488 8489 
751 752 1049 1048 784 785 1082 1081 6352 8264 8265 8257 6579 8491 8492 8484 6570 6577 8490 8483 8486 8493 6581 8494 8268 8495 8496 
752 753 1050 1049 785 786 1083 1082 6359 8271 8272 8264 6586 8498 8499 8491 6577 6584 8497 8490 8493 8500 6588 8501 8275 8502 8503 
753 754 1051 1050 786 787 1084 1083 6366 8278 8279 8271 6593 8505 8506 8498 6584 6591 8504 8497 8500 8507 6595 8508 8282 8509 8510 
754 755 1052 1051 787 788 1085 1084 6373 8285 8286 8278 6600 8512 8513 8505 6591 6598 8511 8504 8507 8514 6602 8515 8289 8516 8517 
755 756 1053 1052 788 789 1086 1085 6380 8292 8293 8285 6607 8519 8520 8512 6598 6605 8518 8511 8514 8521 6609 8522 8296 8523 8524 
756 757 1054 1053 789 790 1087 1086 6387 8299 8300 8292 6614 8526 8527 8519 6605 6612 8525 8518 8521 8528 6616 8529 8303 8530 8531 
757 758 1055 1054 790 791 1088 1087 6394 8306 8307 8299 6621 8533 8534 8526 6612 6619 8532 8525 8528 8535 6623 8536 8310 8537 8538 
759 760 1057 1056 792 793 1090 1089 6402 8314 8315 8316 6629 8541 8542 8543 6627 6626 8539 8540 8546 8544 6632 8545 8320 8547 8548 
760 761 1058 1057 793 794 1091 1090 6411 8323 8324 8314 6638 8550 8551 8541 6626 6636 8549 8539 8544 8552 6640 8553 8327 8554 8555 
761 762 1059 1058 794 795 1092 1091 6418 8330 8331 8323 6645 8557 8558 8550 6636 6643 8556 8549 8552 8559 6647 8560 8334 8561 8562 
762 763 1060 1059 795 796 1093 1092 6425 8337 8338 8330 6652 8564 8565 8557 6643 6650 8563 8556 8559 8566 6654 8567 8341 8568 8569 
763 764 1061 1060 796 797 1094 1093 6432 8344 8345 8337 6659 8571 8572 8564 6650 6657 8570 8563 8566 8573 6661 8574 8348 8575 8576 
764 765 1062 1061 797 798 1095 1094 6439 8351 8352 8344 6666 8578 8579 8571 6657 6664 8577 8570 8573 8580 6668 8581 8355 8582 8583 
765 766 1063 1062 798 799 1096 1095 6446 8358 8359 8351 6673 8585 8586 8578 6664 6671 8584 8577 8580 8587 6675 8588 8362 8589 8590 
766 767 1064 1063 799 800 1097 1096 6453 8365 8366 8358 6680 8592 8593 8585 6671 6678 8591 8584 8587 8594 6682 8595 8369 8596 8597 
767 768 1065 1064 800 801 1098 1097 6460 8372 8373 8365 6687 8599 8600 8592 6678 6685 8598 8591 8594 8601 6689 8602 8376 8603 8604 
768 769 1066 1065 801 802 1099 1098 6467 8379 8380 8372 6694 8606 8607 8599 6685 6692 8605 8598 8601 8608 6696 8609 8383 8610 8611 
769 770 1067 1066 802 803 1100 1099 6474 8386 8387 8379 6701 8613 8614 8606 6692 6699 8612 8605 8608 8615 6703 8616 8390 8617 8618 
770 771 1068 1067 803 804 1101 1100 6481 8393 8394 8386 6708 8620 8621 8613 6699 6706 8619 8612 8615 8622 6710 8623 8397 8624 8625 
771 772 1069 1068 804 805 1102 1101 6488 8400 8401 8393 6715 8627 8628 8620 6706 6713 8626 8619 8622 8629 6717 8630 8404 8631 8632 
772 773 1070 1069 805 806 1103 1102 6495 8407 8408 8400 6722 8634 8635 8627 6713 6720 8633 8626 8629 8636 6724 8637 8411 8638 8639 
773 774 1071 1070 806 807 1104 1103 6502 8414 8415 8407 6729 8641 8642 8634 6720 6727 8640 8633 8636 8643 6731 8644 8418 8645 8646 
774 775 1072 1071 807 808 1105 1104 6509 8421 8422 8414 6736 8648 8649 8641 6727 6734 8647 8640 8643 8650 6738 8651 8425 8652 8653 
775 776 1073 1072 808 809 1106 1105 6516 8428 8429 8421 6743 8655 8656 8648 6734 6741 8654 8647 8650 8657 6745 8658 8432 8659 8660 
776 777 1074 1073 809 810 1107 1106 6523 8435 8436 8428 6750 8662 8663 8655 6741 6748 8661 8654 8657 8664 6752 8665 8439 8666 8667 
777 778 1075 1074 810 811 1108 1107 6530 8442 8443 8435 6757 8669 8670 8662 6748 6755 8668 8661 8664 8671 6759 8672 8446 8673 8674 
778 779 1076 1075 811 812 1109 1108 6537 8449 8450 8442 6764 8676 8677 8669 6755 6762 8675 8668 8671 8678 6766 8679 8453 8680 8681 
779 780 1077 1076 812 813 1110 1109 6544 8456 8457 8449 6771 8683 8684 8676 6762 6769 8682 8675 8678 8685 6773 8686 8460 8687 8688 
780 781 1078 1077 813 814 1111 1110 6551 8463 8464 8456 6778 8690 8691 8683 6769 6776 8689 8682 8685 8692 6780 8693 8467 8694 8695 
781 782 1079 1078 814 815 1112 1111 6558 8470 8471 8463 6785 8697 8698 8690 6776 6783 8696 8689 8692 8699 6787 8700 8474 8701 8702 
782 783 1080 1079 815 816 1113 1112 6565 8477 8478 8470 6792 8704 8705 8697 6783 6790 8703 8696 8699 8706 6794 8707 8481 8708 8709 
783 784 1081 1080 816 817 1114 1113 6572 8484 8485 8477 6799 8711 8712 8704 6790 6797 8710 8703 8706 8713 6801 8714 8488 8715 8716 
784 785 1082 1081 817 818 1115 1114 6579 8491 8492 8484 6806 8718 8719 8711 6797 6804 8717 8710 8713 8720 6808 8721 8495 8722 8723 
785 786 1083 1082 818 819 1116 1115 6586 8498 8499 8491 6813 8725 8726 8718 6804 6811 8724 8717 8720 8727 6815 8728 8502 8729 8730 
786 787 1084 1083 819 820 1117 1116 6593 8505 8506 8498 6820 8732 8733 8725 6811 6818 8731 8724 8727 8734 6822 8735 8509 8736 8737 
787 788 1085 1084 820 821 1118 1117 6600 8512 8513 8505 6827 8739 8740 8732 6818 6825 8738 8731 8734 8741 6829 8742 8516 8743 8744 
788 789 1086 1085 821 822 1119 1118 6607 8519 8520 8512 6834 8746 8747 8739 6825 6832 8745 8738 8741 8748 6836 8749 8523 8750 8751 
789 790 1087 1086 822 823 1120 1119 6614 8526 8527 8519 6841 8753 8754 8746 6832 6839 8752 8745 8748 8755 6843 8756 8530 8757 8758 
790 791 1088 1087 823 824 1121 1120 6621 8533 8534 8526 6848 8760 8761 8753 6839 6846 8759 8752 8755 8762 6850 8763 8537 8764 8765 
792 793 1090 1089 825 826 1123 1122 6629 8541 8542 8543 6856 8768 8769 8770 6854 6853 8766 8767 8773 8771 6859 8772 8547 8774 8775 
793 794 1091 1090 826 827 1124 1123 6638 8550 8551 8541 6865 8777 8778 8768 6853 6863 8776 8766 8771 8779 6867 8780 8554 8781 8782 
794 795 1092 1091 827 828 1125 1124 6645 8557 8558 8550 6872 8784 8785 8777 6863 6870 8783 8776 8779 8786 6874 8787 8561 8788 8789 
795 796 1093 1092 828 829 1126 1125 6652 8564 8565 8557 6879 8791 8792 8784 6870 6877 8790 8783 8786 8793 6881 8794 8568 8795 8796 
796 797 1094 1093 829 830 1127 1126 6659 8571 8572 8564 6886 8798 8799 8791 6877 6884 8797 8790 8793 8800 6888 8801 8575 8802 8803 
797 798 1095 1094 830 831 1128 1127 6666 8578 8579 8571 6893 8805 8806 8798 6884 6891 8804 8797 8800 8807 6895 8808 8582 8809 8810 
798 799 1096 1095 831 832 1129 1128 6673 8585 8586 8578 6900 8812 8813 8805 6891 6898 8811 8804 8807 8814 6902 8815 8589 8816 8817 
799 800 1097 1096 832 833 1130 1129 6680 8592 8593 8585 6907 8819 8820 8812 6898 6905 8818 8811 8814 8821 6909 8822 8596 8823 8824 
800 801 1098 1097 833 834 1131 1130 6687 8599 8600 8592 6914 8826 8827 8819 6905 6912 8825 8818 8821 8828 6916 8829 8603 8830 8831 
801 802 1099 1098 834 835 1132 1131 6694 8606 8607 8599 6921 8833 8834 8826 6912 6919 8832 8825 8828 8835 6923 8836 8610 8837 8838 
802 803 1100 1099 835 836 1133 1132 6701 8613 8614 8606 6928 8840 8841 8833 6919 6926 8839 8832 8835 8842 6930 8843 8617 8844 8845 
803 804 1101 1100 836 837 1134 1133 6708 8620 8621 8613 6935 8847 8848 8840 6926 6933 8846 8839 8842 8849 6937 8850 8624 8851 8852 
804 805 1102 1101 837 838 1135 1134 6715 8627 8628 8620 6942 8854 8855 8847 6933 6940 8853 8846 8849 8856 6944 8857 8631 8858 8859 
805 806 1103 1102 838 839 1136 1135 6722 8634 8635 8627 6949 8861 8862 8854 6940 6947 8860 8853 8856 8863 6951 8864 8638 8865 8866 
806 807 1104 1103 839 840 1137 1136 6729 8641 8642 8634 6956 8868 8869 8861 6947 6954 8867 8860 8863 8870 6958 8871 8645 8872 8873 
807 808 1105 1104 840 841 1138 1137 6736 8648 8649 8641 6963 8875 8876 8868 6954 6961 8874 8867 8870 8877 6965 8878 8652 8879 8880 
808 809 1106 1105 841 842 1139 1138 6743 8655 8656 8648 6970 8882 8883 8875 6961 6968 8881 8874 8877 8884 6972 8885 8659 8886 8887 
809 810 1107 1106 842 843 1140 1139 6750 8662 8663 8655 6977 8889 8890 8882 6968 6975 8888 8881 8884 8891 6979 8892 8666 8893 8894 
810 811 1108 1107 843 844 1141 1140 6757 8669 8670 8662 6984 8896 8897 8889 6975 6982 8895 8888 8891 8898 6986 8899 8673 8900 8901 
811 812 1109 1108 844 845 1142 1141 6764 8676 8677 8669 6991 8903 8904 8896 6982 6989 8902 8895 8898 8905 6993 8906 8680 8907 8908 
812 813 1110 1109 845 846 1143 1142 6771 8683 8684 8676 6998 8910 8911 8903 6989 6996 8909 8902 8905 8912 7000 8913 8687 8914 8915 
813 814 1111 1110 846 847 1144 1143 6778 8690 8691 8683 7005 8917 8918 8910 6996 7003 8916 8909 8912 8919 7007 8920 8694 8921 8922 
814 815 1112 1111 847 848 1145 1144 6785 8697 8698 8690 7012 8924 8925 8917 7003 7010 8923 8916 8919 8926 7014 8927 8701 8928 8929 
815 816 1113 1112 848 849 1146 1145 6792 8704 8705 8697 7019 8931 8932 8924 7010 7017 8930 8923 8926 8933 7021 8934 8708 8935 8936 
816 817 1114 1113 849 850 1147 1146 6799 8711 8712 8704 7026 8938 8939 8931 7017 7024 8937 8930 8933 8940 7028 8941 8715 8942 8943 
817 818 1115 1114 850 851 1148 1147 6806 8718 8719 8711 7033 8945 8946 8938 7024 7031 8944 8937 8940 8947 7035 8948 8722 8949 8950 
818 819 1116 1115 851 852 1149 1148 6813 8725 8726 8718 7040 8952 8953 8945 7031 7038 8951 8944 8947 8954 7042 8955 8729 8956 8957 
819 820 1117 1116 852 853 1150 1149 6820 8732 8733 8725 7047 8959 8960 8952 7038 7045 8958 8951 8954 8961 7049 8962 8736 8963 8964 
820 821 1118 1117 853 854 1151 1150 6827 8739 8740 8732 7054 8966 8967 8959 7045 7052 8965 8958 8961 8968 7056 8969 8743 8970 8971 
821 822 1119 1118 854 855 1152 1151 6834 8746 8747 8739 7061 8973 8974 8966 7052 7059 8972 8965 8968 8975 7063 8976 8750 8977 8978 
822 823 1120 1119 855 856 1153 1152 6841 8753 8754 8746 7068 8980 8981 8973 7059 7066 8979 8972 8975 8982 7070 8983 8757 8984 8985 
823 824 1121 1120 856 857 1154 1153 6848 8760 8761 8753 7075 8987 8988 8980 7066 7073 8986 8979 8982 8989 7077 8990 8764 8991 8992 
825 826 1123 1122 858 859 1156 1155 6856 8768 8769 8770 7083 8995 8996 8997 7081 7080 8993 8994 9000 8998 7086 8999 8774 9001 9002 
826 827 1124 1123 859 860 1157 1156 6865 8777 8778 8768 7092 9004 9005 8995 7080 7090 9003 8993 8998 9006 7094 9007 8781 9008 9009 
827 828 1125 1124 860 861 1158 1157 6872 8784 8785 8777 7099 9011 9012 9004 7090 7097 9010 9003 9006 9013 7101 9014 8788 9015 9016 
828 829 1126 1125 861 862 1159 1158 6879 8791 8792 8784 7106 9018 9019 9011 7097 7104 9017 9010 9013 9020 7108 9021 8795 9022 9023 
829 830 1127 1126 862 863 1160 1159 6886 8798 8799 8791 7113 9025 9026 9018 7104 7111 9024 9017 9020 9027 7115 9028 8802 9029 9030 
830 831 1128 1127 863 864 1161 1160 6893 8805 8806 8798 7120 9032 9033 9025 7111 7118 9031 9024 9027 9034 7122 9035 8809 9036 9037 
831 832 1129 1128 864 865 1162 1161 6900 8812 8813 8805 7127 9039 9040 9032 7118 7125 9038 9031 9034 9041 7129 9042 8816 9043 9044 
832 833 1130 1129 865 866 1163 1162 6907 8819 8820 8812 7134 9046 9047 9039 7125 7132 9045 9038 9041 9048 7136 9049 8823 9050 9051 
833 834 1131 1130 866 867 1164 1163 6914 8826 8827 8819 7141 9053 9054 9046 7132 7139 9052 9045 9048 9055 7143 9056 8830 9057 9058 
834 835 1132 1131 867 868 1165 1164 6921 8833 8834 8826 7148 9060 9061 9053 7139 7146 9059 9052 9055 9062 7150 9063 8837 9064 9065 
835 836 1133 1132 868 869 1166 1165 6928 8840 8841 8833 7155 9067 9068 9060 7146 7153 9066 9059 9062 9069 7157 9070 8844 9071 9072 
836 837 1134 1133 869 870 1167 1166 6935 8847 8848 8840 7162 9074 9075 9067 7153 7160 9073 9066 9069 9076 7164 9077 8851 9078 9079 
837 838 1135 1134 870 871 1168 1167 6942 8854 8855 8847 7169 9081 9082 9074 7160 7167 9080 9073 9076 9083 7171 9084 8858 9085 9086 
838 839 1136 1135 871 872 1169 1168 6949 8861 8862 8854 7176 9088 9089 9081 7167 7174 9087 9080 9083 9090 7178 9091 8865 9092 9093 
839 840 1137 1136 872 873 1170 1169 6956 8868 8869 8861 7183 9095 9096 9088 7174 7181 9094 9087 9090 9097 7185 9098 8872 9099 9100 
840 841 1138 1137 873 874 1171 1170 6963 8875 8876 8868 7190 9102 9103 9095 7181 7188 9101 9094 9097 9104 7192 9105 8879 9106 9107 
841 842 1139 1138 874 875 1172 1171 6970 8882 8883 8875 7197 9109 9110 9102 7188 7195 9108 9101 9104 9111 7199 9112 8886 9113 9114 
842 843 1140 1139 875 876 1173 1172 6977 8889 8890 8882 7204 9116 9117 9109 7195 7202 9115 9108 9111 9118 7206 9119 8893 9120 9121 
843 844 1141 1140 876 877 1174 1173 6984 8896 8897 8889 7211 9123 9124 9116 7202 7209 9122 9115 9118 9125 7213 9126 8900 9127 9128 
844 845 1142 1141 877 878 1175 1174 6991 8903 8904 8896 7218 9130 9131 9123 7209 7216 9129 9122 9125 9132 7220 9133 8907 9134 9135 
845 846 1143 1142 878 879 1176 1175 6998 8910 8911 8903 7225 9137 9138 9130 7216 7223 9136 9129 9132 9139 7227 9140 8914 9141 9142 
846 847 1144 1143 879 880 1177 1176 7005 8917 8918 8910 7232 9144 9145 9137 7223 7230 9143 9136 9139 9146 7234 9147 8921 9148 9149 
847 848 1145 1144 880 881 1178 1177 7012 8924 8925 8917 7239 9151 9152 9144 7230 7237 9150 9143 9146 9153 7241 9154 8928 9155 9156 
848 849 1146 1145 881 882 1179 1178 7019 8931 8932 8924 7246 9158 9159 9151 7237 7244 9157 9150 9153 9160 7248 9161 8935 9162 9163 
849 850 1147 1146 882 883 1180 1179 7026 8938 8939 8931 7253 9165 9166 9158 7244 7251 9164 9157 9160 9167 7255 9168 8942 9169 9170 
850 851 1148 1147 883 884 1181 1180 7033 8945 8946 8938 7260 9172 9173 9165 7251 7258 9171 9164 9167 9174 7262 9175 8949 9176 9177 
851 852 1149 1148 884 885 1182 1181 7040 8952 8953 8945 7267 9179 9180 9172 7258 7265 9178 9171 9174 9181 7269 9182 8956 9183 9184 
852 853 1150 1149 885 886 1183 1182 7047 8959 8960 8952 7274 9186 9187 9179 7265 7272 9185 9178 9181 9188 7276 9189 8963 9190 9191 
853 854 1151 1150 886 887 1184 1183 7054 8966 8967 8959 7281 9193 9194 9186 7272 7279 9192 9185 9188 9195 7283 9196 8970 9197 9198 
854 855 1152 1151 887 888 1185 1184 7061 8973 8974 8966 7288 9200 9201 9193 7279 7286 9199 9192 9195 9202 7290 9203 8977 9204 9205 
855 856 1153 1152 888 889 1186 1185 7068 8980 8981 8973 7295 9207 9208 9200 7286 7293 9206 9199 9202 9209 7297 9210 8984 9211 9212 
856 857 1154 1153 889 890 1187 1186 7075 8987 8988 8980 7302 9214 9215 9207 7293 7300 9213 9206 9209 9216 7304 9217 8991 9218 9219 
891 892 1189 1188 924 925 1222 1221 7308 9220 9221 9222 7313 9225 9226 9227 7311 7310 9223 9224 9231 9229 7317 9230 9228 9232 9233 
892 893 1190 1189 925 926 1223 1222 7322 9234 9235 9220 7325 9237 9238 9225 7310 7323 9236 9223 9229 9240 7328 9241 9239 9242 9243 
893 894 1191 1190 926 927 1224 1223 7332 9244 9245 9234 7335 9247 9248 9237 7323 7333 9246 9236 9240 9250 7338 9251 9249 9252 9253 
894 895 1192 1191 927 928 1225 1224 7342 9254 9255 9244 7345 9257 9258 9247 7333 7343 9256 9246 9250 9260 7348 9261 9259 9262 9263 
895 896 1193 1192 928 929 1226 1225 7352 9264 9265 9254 7355 9267 9268 9257 7343 7353 9266 9256 9260 9270 7358 9271 9269 9272 9273 
896 897 1194 1193 929 930 1227 1226 7362 9274 9275 9264 7365 9277 9278 9267 7353 7363 9276 9266 9270 9280 7368 9281 9279 9282 9283 
897 898 1195 1194 930 931 1228 1227 7372 9284 9285 9274 7375 9287 9288 9277 7363 7373 9286 9276 9280 9290 7378 9291 9289 9292 9293 
898 899 1196 1195 931 932 1229 1228 7382 9294 9295 9284 7385 9297 9298 9287 7373 7383 9296 9286 9290 9300 7388 9301 9299 9302 9303 
899 900 1197 1196 932 933 1230 1229 7392 9304 9305 9294 7395 9307 9308 9297 7383 7393 9306 9296 9300 9310 7398 9311 9309 9312 9313 
900 901 1198 1197 933 934 1231 1230 7402 9314 9315 9304 7405 9317 9318 9307 7393 7403 9316 9306 9310 9320 7408 9321 9319 9322 9323 
901 902 1199 1198 934 935 1232 1231 7412 9324 9325 9314 7415 9327 9328 9317 7403 7413 9326 9316 9320 9330 7418 9331 9329 9332 9333 
902 903 1200 1199 935 936 1233 1232 7422 9334 9335 9324 7425 9337 9338 9327 7413 7423 9336 9326 9330 9340 7428 9341 9339 9342 9343 
903 904 1201 1200 936 937 1234 1233 7432 9344 9345 9334 7435 9347 9348 9337 7423 7433 9346 9336 9340 9350 7438 9351 9349 9352 9353 
904 905 1202 1201 937 938 1235 1234 7442 9354 9355 9344 7445 9357 9358 9347 7433 7443 9356 9346 9350 9360 7448 9361 9359 9362 9363 
905 906 1203 1202 938 939 1236 1235 7452 9364 9365 9354 7455 9367 9368 9357 7443 7453 9366 9356 9360 9370 7458 9371 9369 9372 9373 
906 907 1204 1203 939 940 1237 1236 7462 9374 9375 9364 7465 9377 9378 9367 7453 7463 9376 9366 9370 9380 7468 9381 9379 9382 9383 
907 908 1205 1204 940 941 1238 1237 7472 9384 9385 9374 7475 9387 9388 9377 7463 7473 9386 9376 9380 9390 7478 9391 9389 9392 9393 
908 909 1206 1205 941 942 1239 1238 7482 9394 9395 9384 7485 9397 9398 9387 7473 7483 9396 9386 9390 9400 7488 9401 9399 9402 9403 
909 910 1207 1206 942 943 1240 1239 7492 9404 9405 9394 7495 9407 9408 9397 7483 7493 9406 9396 9400 9410 7498 9411 9409 9412 9413 
910 911 1208 1207 943 944 1241 1240 7502 9414 9415 9404 7505 9417 9418 9407 7493 7503 9416 9406 9410 9420 7508 9421 9419 9422 9423 
911 912 1209 1208 944 945 1242 1241 7512 9424 9425 9414 7515 9427 9428 9417 7503 7513 9426 9416 9420 9430 7518 9431 9429 9432 9433 
912 913 1210 1209 945 946 1243 1242 7522 9434 9435 9424 7525 9437 9438 9427 7513 7523 9436 9426 9430 9440 7528 9441 9439 9442 9443 
913 914 1211 1210 946 947 1244 1243 7532 9444 9445 9434 7535 9447 9448 9437 7523 7533 9446 9436 9440 9450 7538 9451 9449 9452 9453 
914 915 1212 1211 947 948 1245 1244 7542 9454 9455 9444 7545 9457 9458 9447 7533 7543 9456 9446 9450 9460 7548 9461 9459 9462 9463 
915 916 1213 1212 948 949 1246 1245 7552 9464 9465 9454 7555 9467 9468 9457 7543 7553 9466 9456 9460 9470 7558 9471 9469 9472 9473 
916 917 1214 1213 949 950 1247 1246 7562 9474 9475 9464 7565 9477 9478 9467 7553 7563 9476 9466 9470 9480 7568 9481 9479 9482 9483 
917 918 1215 1214 950 951 1248 1247 7572 9484 9485 9474 7575 9487 9488 9477 7563 7573 9486 9476 9480 9490 7578 9491 9489 9492 9493 
918 919 1216 1215 951 952 1249 1248 7582 9494 9495 9484 7585 9497 9498 9487 7573 7583 9496 9486 9490 9500 7588 9501 9499 9502 9503 
919 920 1217 1216 952 953 1250 1249 7592 9504 9505 9494 7595 9507 9508 9497 7583 7593 9506 9496 9500 9510 7598 9511 9509 9512 9513 
920 921 1218 1217 953 954 1251 1250 7602 9514 9515 9504 7605 9517 9518 9507 7593 7603 9516 9506 9510 9520 7608 9521 9519 9522 9523 
921 922 1219 1218 954 955 1252 1251 7612 9524 9525 9514 7615 9527 9528 9517 7603 7613 9526 9516 9520 9530 7618 9531 9529 9532 9533 
922 923 1220 1219 955 956 1253 1252 7622 9534 9535 9524 7625 9537 9538 9527 7613 7623 9536 9526 9530 9540 7628 9541 9539 9542 9543 
924 925 1222 1221 957 958 1255 1254 7313 9225 9226 9227 7634 9546 9547 9548 7632 7631 9544 9545 9551 9549 7637 9550 9232 9552 9553 
925 926 1223 1222 958 959 1256 1255 7325 9237 9238 9225 7643 9555 9556 9546 7631 7641 9554 9544 9549 9557 7645 9558 9242 9559 9560 
926 927 1224 1223 959 960 1257 1256 7335 9247 9248 9237 7650 9562 9563 9555 7641 7648 9561 9554 9557 9564 7652 9565 9252 9566 9567 
927 928 1225 1224 960 961 1258 1257 7345 9257 9258 9247 7657 9569 9570 9562 7648 7655 9568 9561 9564 9571 7659 9572 9262 9573 9574 
928 929 1226 1225 961 962 1259 1258 7355 9267 9268 9257 7664 9576 9577 9569 7655 7662 9575 9568 9571 9578 7666 9579 9272 9580 9581 
929 930 1227 1226 962 963 1260 1259 7365 9277 9278 9267 7671 9583 9584 9576 7662 7669 9582 9575 9578 9585 7673 9586 9282 9587 9588 
930 931 1228 1227 963 964 1261 1260 7375 9287 9288 9277 7678 9590 9591 9583 7669 7676 9589 9582 9585 9592 7680 9593 9292 9594 9595 
931 932 1229 1228 964 965 1262 1261 7385 9297 9298 9287 7685 9597 9598 9590 7676 7683 9596 9589 9592 9599 7687 9600 9302 9601 9602 
932 933 1230 1229 965 966 1263 1262 7395 9307 9308 9297 7692 9604 9605 9597 7683 7690 9603 9596 9599 9606 7694 9607 9312 9608 9609 
933 934 1231 1230 966 967 1264 1263 7405 9317 9318 9307 7699 9611 9612 9604 7690 7697 9610 9603 9606 9613 7701 9614 9322 9615 9616 
934 935 1232 1231 967 968 1265 1264 7415 9327 9328 9317 7706 9618 9619 9611 7697 7704 9617 9610 9613 9620 7708 9621 9332 9622 9623 
935 936 1233 1232 968 969 1266 1265 7425 9337 9338 9327 7713 9625 9626 9618 7704 7711 9624 9617 9620 9627 7715 9628 9342 9629 9630 
936 937 1234 1233 969 970 1267 1266 7435 9347 9348 9337 7720 9632 9633 9625 7711 7718 9631 9624 9627 9634 7722 9635 9352 9636 9637 
937 938 1235 1234 970 971 1268 1267 7445 9357 9358 9347 7727 9639 9640 9632 7718 7725 9638 9631 9634 9641 7729 9642 9362 9643 9644 
938 939 1236 1235 971 972 1269 1268 7455 9367 9368 9357 7734 9646 9647 9639 7725 7732 9645 9638 9641 9648 7736 9649 9372 9650 9651 
939 940 1237 1236 972 973 1270 1269 7465 9377 9378 9367 7741 9653 9654 9646 7732 7739 9652 9645 9648 9655 7743 9656 9382 9657 9658 
940 941 1238 1237 973 974 1271 1270 7475 9387 9388 9377 7748 9660 9661 9653 7739 7746 9659 9652 9655 9662 7750 9663 9392 9664 9665 
941 942 1239 1238 974 975 1272 1271 7485 9397 9398 9387 7755 9667 9668 9660 7746 7753 9666 9659 9662 9669 7757 9670 9402 9671 9672 
942 943 1240 1239 975 976 1273 1272 7495 9407 9408 9397 7762 9674 9675 9667 7753 7760 9673 9666 9669 9676 7764 9677 9412 9678 9679 
943 944 1241 1240 976 977 1274 1273 7505 9417 9418 9407 7769 9681 9682 9674 7760 7767 9680 9673 9676 9683 7771 9684 9422 9685 9686 
944 945 1242 1241 977 978 1275 1274 7515 9427 9428 9417 7776 9688 9689 9681 7767 7774 9687 9680 9683 9690 7778 9691 9432 9692 9693 
945 946 1243 1242 978 979 1276 1275 7525 9437 9438 9427 7783 9695 9696 9688 7774 7781 9694 9687 9690 9697 7785 9698 9442 9699 9700 
946 947 1244 1243 979 980 1277 1276 7535 9447 9448 9437 7790 9702 9703 9695 7781 7788 9701 9694 9697 9704 7792 9705 9452 9706 9707 
947 948 1245 1244 980 981 1278 1277 7545 9457 9458 9447 7797 9709 9710 9702 7788 7795 9708 9701 9704 9711 7799 9712 9462 9713 9714 
948 949 1246 1245 981 982 1279 1278 7555 9467 9468 9457 7804 9716 9717 9709 7795 7802 9715 9708 9711 9718 7806 9719 9472 9720 9721 
949 950 1247 1246 982 983 1280 1279 7565 9477 9478 9467 7811 9723 9724 9716 7802 7809 9722 9715 9718 9725 7813 9726 9482 9727 9728 
950 951 1248 1247 983 984 1281 1280 7575 9487 9488 9477 7818 9730 9731 9723 7809 7816 9729 9722 9725 9732 7820 9733 9492 9734 9735 
951 952 1249 1248 984 985 1282 1281 7585 9497 9498 9487 7825 9737 9738 9730 7816 7823 9736 9729 9732 9739 7827 9740 9502 9741 9742 
952 953 1250 1249 985 986 1283 1282 7595 9507 9508 9497 7832 9744 9745 9737 7823 7830 9743 9736 9739 9746 7834 9747 9512 9748 9749 
953 954 1251 1250 986 987 1284 1283 7605 9517 9518 9507 7839 9751 9752 9744 7830 7837 9750 9743 9746 9753 7841 9754 9522 9755 9756 
954 955 1252 1251 987 988 1285 1284 7615 9527 9528 9517 7846 9758 9759 9751 7837 7844 9757 9750 9753 9760 7848 9761 9532 9762 9763 
955 956 1253 1252 988 989 1286 1285 7625 9537 9538 9527 7853 9765 9766 9758 7844 7851 9764 9757 9760 9767 7855 9768 9542 9769 9770 
957 958 1255 1254 990 991 1288 1287 7634 9546 9547 9548 7861 9773 9774 9775 7859 7858 9771 9772 9778 9776 7864 9777 9552 9779 9780 
958 959 1256 1255 991 992 1289 1288 7643 9555 9556 9546 7870 9782 9783 9773 7858 7868 9781 9771 9776 9784 7872 9785 9559 9786 9787 
959 960 1257 1256 992 993 1290 1289 7650 9562 9563 9555 7877 9789 9790 9782 7868 7875 9788 9781 9784 9791 7879 9792 9566 9793 9794 
960 961 1258 1257 993 994 1291 1290 7657 9569 9570 9562 7884 9796 9797 9789 7875 7882 9795 9788 9791 9798 7886 9799 9573 9800 9801 
961 962 1259 1258 994 995 1292 1291 7664 9576 9577 9569 7891 9803 9804 9796 7882 7889 9802 9795 9798 9805 7893 9806 9580 9807 9808 
962 963 1260 1259 995 996 1293 1292 7671 9583 9584 9576 7898 9810 9811 9803 7889 7896 9809 9802 9805 9812 7900 9813 9587 9814 9815 
963 964 1261 1260 996 997 1294 1293 7678 9590 9591 9583 7905 9817 9818 9810 7896 7903 9816 9809 9812 9819 7907 9820 9594 9821 9822 
964 965 1262 1261 997 998 1295 1294 7685 9597 9598 9590 7912 9824 9825 9817 7903 7910 9823 9816 9819 9826 7914 9827 9601 9828 9829 
965 966 1263 1262 998 999 1296 1295 7692 9604 9605 9597 7919 9831 9832 9824 7910 7917 9830 9823 9826 9833 7921 9834 9608 9835 9836 
966 967 1264 1263 999 1000 1297 1296 7699 9611 9612 9604 7926 9838 9839 9831 7917 7924 9837 9830 9833 9840 7928 9841 9615 9842 9843 
967 968 1265 1264 1000 1001 1298 1297 7706 9618 9619 9611 7933 9845 9846 9838 7924 7931 9844 9837 9840 9847 7935 9848 9622 9849 9850 
968 969 1266 1265 1001 1002 1299 1298 7713 9625 9626 9618 7940 9852 9853 9845 7931 7938 9851 9844 9847 9854 7942 9855 9629 9856 9857 
969 970 1267 1266 1002 1003 1300 1299 7720 9632 9633 9625 7947 9859 9860 9852 7938 7945 9858 9851 9854 9861 7949 9862 9636 9863 9864 
970 971 1268 1267 1003 1004 1301 1300 7727 9639 9640 9632 7954 9866 9867 9859 7945 7952 9865 9858 9861 9868 7956 9869 9643 9870 9871 
971 972 1269 1268 1004 1005 1302 1301 7734 9646 9647 9639 7961 9873 9874 9866 7952 7959 9872 9865 9868 9875 7963 9876 9650 9877 9878 
972 973 1270 1269 1005 1006 1303 1302 7741 9653 9654 9646 7968 9880 9881 9873 7959 7966 9879 9872 9875 9882 7970 9883 9657 9884 9885 
973 974 1271 1270 1006 1007 1304 1303 7748 9660 9661 9653 7975 9887 9888 9880 7966 7973 9886 9879 9882 9889 7977 9890 9664 9891 9892 
974 975 1272 1271 1007 1008 1305 1304 7755 9667 9668 9660 7982 9894 9895 9887 7973 7980 9893 9886 9889 9896 7984 9897 9671 9898 9899 
975 976 1273 1272 1008 1009 1306 1305 7762 9674 9675 9667 7989 9901 9902 9894 7980 7987 9900 9893 9896 9903 7991 9904 9678 9905 9906 
976 977 1274 1273 1009 1010 1307 1306 7769 9681 9682 9674 7996 9908 9909 9901 7987 7994 9907 9900 9903 9910 7998 9911 9685 9912 9913 
977 978 1275 1274 1010 1011 1308 1307 7776 9688 9689 9681 8003 9915 9916 9908 7994 8001 9914 9907 9910 9917 8005 9918 9692 9919 9920 
978 979 1276 1275 1011 1012 1309 1308 7783 9695 9696 9688 8010 9922 9923 9915 8001 8008 9921 9914 9917 9924 8012 9925 9699 9926 9927 
979 980 1277 1276 1012 1013 1310 1309 7790 9702 9703 9695 8017 9929 9930 9922 8008 8015 9928 9921 9924 9931 8019 9932 9706 9933 9934 
980 981 1278 1277 1013 1014 1311 1310 7797 9709 9710 9702 8024 9936 9937 9929 8015 8022 9935 9928 9931 9938 8026 9939 9713 9940 9941 
981 982 1279 1278 1014 1015 1312 1311 7804 9716 9717 9709 8031 9943 9944 9936 8022 8029 9942 9935 9938 9945 8033 9946 9720 9947 9948 
982 983 1280 1279 1015 1016 1313 1312 7811 9723 9724 9716 8038 9950 9951 9943 8029 8036 9949 9942 9945 9952 8040 9953 9727 9954 9955 
983 984 1281 1280 1016 1017 1314 1313 7818 9730 9731 9723 8045 9957 9958 9950 8036 8043 9956 9949 9952 9959 8047 9960 9734 9961 9962 
984 985 1282 1281 1017 1018 1315 1314 7825 9737 9738 9730 8052 9964 9965 9957 8043 8050 9963 9956 9959 9966 8054 9967 9741 9968 9969 
985 986 1283 1282 1018 1019 1316 1315 7832 9744 9745 9737 8059 9971 9972 9964 8050 8057 9970 9963 9966 9973 8061 9974 9748 9975 9976 
986 987 1284 1283 1019 1020 1317 1316 7839 9751 9752 9744 8066 9978 9979 9971 8057 8064 9977 9970 9973 9980 8068 9981 9755 9982 9983 
987 988 1285 1284 1020 1021 1318 1317 7846 9758 9759 9751 8073 9985 9986 9978 8064 8071 9984 9977 9980 9987 8075 9988 9762 9989 9990 
988 989 1286 1285 1021 1022 1319 1318 7853 9765 9766 9758 8080 9992 9993 9985 8071 8078 9991 9984 9987 9994 8082 9995 9769 9996 9997 
990 991 1288 1287 1023 1024 1321 1320 7861 9773 9774 9775 8088 10000 10001 10002 8086 8085 9998 9999 10005 10003 8091 10004 9779 10006 10007 
991 992 1289 1288 1024 1025 1322 1321 7870 9782 9783 9773 8097 10009 10010 10000 8085 8095 10008 9998 10003 10011 8099 10012 9786 10013 10014 
992 993 1290 1289 1025 1026 1323 1322 7877 9789 9790 9782 8104 10016 10017 10009 8095 8102 10015 10008 10011 10018 8106 10019 9793 10020 10021 
993 994 1291 1290 1026 1027 1324 1323 7884 9796 9797 9789 8111 10023 10024 10016 8102 8109 10022 10015 10018 10025 8113 10026 9800 10027 10028 
994 995 1292 1291 1027 1028 1325 1324 7891 9803 9804 9796 8118 10030 10031 10023 8109 8116 10029 10022 10025 10032 8120 10033 9807 10034 10035 
995 996 1293 1292 1028 1029 1326 1325 7898 9810 9811 9803 8125 10037 10038 10030 8116 8123 10036 10029 10032 10039 8127 10040 9814 10041 10042 
996 997 1294 1293 1029 1030 1327 1326 7905 9817 9818 9810 8132 10044 10045 10037 8123 8130 10043 10036 10039 10046 8134 10047 9821 10048 10049 
997 998 1295 1294 1030 1031 1328 1327 7912 9824 9825 9817 8139 10051 10052 10044 8130 8137 10050 10043 10046 10053 8141 10054 9828 10055 10056 
998 999 1296 1295 1031 1032 1329 1328 7919 9831 9832 9824 8146 10058 10059 10051 8137 8144 10057 10050 10053 10060 8148 10061 9835 10062 10063 
999 1000 1297 1296 1032 1033 1330 1329 7926 9838 9839 9831 8153 10065 10066 10058 8144 8151 10064 10057 10060 10067 8155 10068 9842 10069 10070 
1000 1001 1298 1297 1033 1034 1331 1330 7933 9845 9846 9838 8160 10072 10073 10065 8151 8158 10071 10064 10067 10074 8162 10075 9849 10076 10077 
1001 1002 1299 1298 1034 1035 1332 1331 7940 9852 9853 9845 8167 10079 10080 10072 8158 8165 10078 10071 10074 10081 8169 10082 9856 10083 10084 
1002 1003 1300 1299 1035 1036 1333 1332 7947 9859 9860 9852 8174 10086 10087 10079 8165 8172 10085 10078 10081 10088 8176 10089 9863 10090 10091 
1003 1004 1301 1300 1036 1037 1334 1333 7954 9866 9867 9859 8181 10093 10094 10086 8172 8179 10092 10085 10088 10095 8183 10096 9870 10097 10098 
1004 1005 1302 1301 1037 1038 1335 1334 7961 9873 9874 9866 8188 10100 10101 10093 8179 8186 10099 10092 10095 10102 8190 10103 9877 10104 10105 
1005 1006 1303 1302 1038 1039 1336 1335 7968 9880 9881 9873 8195 10107 10108 10100 8186 8193 10106 10099 10102 10109 8197 10110 9884 10111 10112 
1006 1007 1304 1303 1039 1040 1337 1336 7975 9887 9888 9880 8202 10114 10115 10107 8193 8200 10113 10106 10109 10116 8204 10117 9891 10118 10119 
1007 1008 1305 1304 1040 1041 1338 1337 7982 9894 9895 9887 8209 10121 10122 10114 8200 8207 10120 10113 10116 10123 8211 10124 9898 10125 10126 
1008 1009 1306 1305 1041 1042 1339 1338 7989 9901 9902 9894 8216 10128 10129 10121 8207 8214 10127 10120 10123 10130 8218 10131 9905 10132 10133 
1009 1010 1307 1306 1042 1043 1340 1339 7996 9908 9909 9901 8223 10135 10136 10128 8214 8221 10134 10127 10130 10137 8225 10138 9912 10139 10140 
1010 1011 1308 1307 1043 1044 1341 1340 8003 9915 9916 9908 8230 10142 10143 10135 8221 8228 10141 10134 10137 10144 8232 10145 9919 10146 10147 
1011 1012 1309 1308 1044 1045 1342 1341 8010 9922 9923 9915 8237 10149 10150 10142 8228 8235 10148 10141 10144 10151 8239 10152 9926 10153 10154 
1012 1013 1310 1309 1045 1046 1343 1342 8017 9929 9930 9922 8244 10156 10157 10149 8235 8242 10155 10148 10151 10158 8246 10159 9933 10160 10161 
1013 1014 1311 1310 1046 1047 1344 1343 8024 9936 9937 9929 8251 10163 10164 10156 8242 8249 10162 10155 10158 10165 8253 10166 9940 10167 10168 
1014 1015 1312 1311 1047 1048 1345 1344 8031 9943 9944 9936 8258 10170 10171 10163 8249 8256 10169 10162 10165 10172 8260 10173 9947 10174 10175 
1015 1016 1313 1312 1048 1049 1346 1345 8038 9950 9951 9943 8265 10177 10178 10170 8256 8263 10176 10169 10172 10179 8267 10180 9954 10181 10182 
1016 1017 1314 1313 1049 1050 1347 1346 8045 9957 9958 9950 8272 10184 10185 10177 8263 8270 10183 10176 10179 10186 8274 10187 9961 10188 10189 
1017 1018 1315 1314 1050 1051 1348 1347 8052 9964 9965 9957 8279 10191 10192 10184 8270 8277 10190 10183 10186 10193 8281 10194 9968 10195 10196 
1018 1019 1316 1315 1051 1052 1349 1348 8059 9971 9972 9964 8286 10198 10199 10191 8277 8284 10197 10190 10193 10200 8288 10201 9975 10202 10203 
1019 1020 1317 1316 1052 1053 1350 1349 8066 9978 9979 9971 8293 10205 10206 10198 8284 8291 10204 10197 10200 10207 8295 10208 9982 10209 10210 
1020 1021 1318 1317 1053 1054 1351 1350 8073 9985 9986 9978 8300 10212 10213 10205 8291 8298 10211 10204 10207 10214 8302 10215 9989 10216 10217 
1021 1022 1319 1318 1054 1055 1352 1351 8080 9992 9993 9985 8307 10219 10220 10212 8298 8305 10218 10211 10214 10221 8309 10222 9996 10223 10224 
1023 1024 1321 1320 1056 1057 1354 1353 8088 10000 10001 10002 8315 10227 10228 10229 8313 8312 10225 10226 10232 10230 8318 10231 10006 10233 10234 
1024 1025 1322 1321 1057 1058 1355 1354 8097 10009 10010 10000 8324 10236 10237 10227 8312 8322 10235 10225 10230 10238 8326 10239 10013 10240 10241 
1025 1026 1323 1322 1058 1059 1356 1355 8104 10016 10017 10009 8331 10243 10244 10236 8322 8329 10242 10235 10238 10245 8333 10246 10020 10247 10248 
1026 1027 1324 1323 1059 1060 1357 1356 8111 10023 10024 10016 8338 10250 10251 10243 8329 8336 10249 10242 10245 10252 8340 10253 10027 10254 10255 
1027 1028 1325 1324 1060 1061 1358 1357 8118 10030 10031 10023 8345 10257 10258 10250 8336 8343 10256 10249 10252 10259 8347 10260 10034 10261 10262 
1028 1029 1326 1325 1061 1062 1359 1358 8125 10037 10038 10030 8352 10264 10265 10257 8343 8350 10263 10256 10259 10266 8354 10267 10041 10268 10269 
1029 1030 1327 1326 1062 1063 1360 1359 8132 10044 10045 10037 8359 10271 10272 10264 8350 8357 10270 10263 10266 10273 8361 10274 10048 10275 10276 
1030 1031 1328 1327 1063 1064 1361 1360 8139 10051 10052 10044 8366 10278 10279 10271 8357 8364 10277 10270 10273 10280 8368 10281 10055 10282 10283 
1031 1032 1329 1328 1064 1065 1362 1361 8146 10058 10059 10051 8373 10285 10286 10278 8364 8371 10284 10277 10280 10287 8375 10288 10062 10289 10290 
1032 1033 1330 1329 1065 1066 1363 1362 8153 10065 10066 10058 8380 10292 10293 10285 8371 8378 10291 10284 10287 10294 8382 10295 10069 10296 10297 
1033 1034 1331 1330 1066 1067 1364 1363 8160 10072 10073 10065 8387 10299 10300 10292 8378 8385 10298 10291 10294 10301 8389 10302 10076 10303 10304 
1034 1035 1332 1331 1067 1068 1365 1364 8167 10079 10080 10072 8394 10306 10307 10299 8385 8392 10305 10298 10301 10308 8396 10309 10083 10310 10311 
1035 1036 1333 1332 1068 1069 1366 1365 8174 10086 10087 10079 8401 10313 10314 10306 8392 8399 10312 10305 10308 10315 8403 10316 10090 10317 10318 
1036 1037 1334 1333 1069 1070 1367 1366 8181 10093 10094 10086 8408 10320 10321 10313 8399 8406 10319 10312 10315 10322 8410 10323 10097 10324 10325 
1037 1038 1335 1334 1070 1071 1368 1367 8188 10100 10101 10093 8415 10327 10328 10320 8406 8413 10326 10319 10322 10329 8417 10330 10104 10331 10332 
1038 1039 1336 1335 1071 1072 1369 1368 8195 10107 10108 10100 8422 10334 10335 10327 8413 8420 10333 10326 10329 10336 8424 10337 10111 10338 10339 
1039 1040 1337 1336 1072 1073 1370 1369 8202 10114 10115 10107 8429 10341 10342 10334 8420 8427 10340 10333 10336 10343 8431 10344 10118 10345 10346 
1040 1041 1338 1337 1073 1074 1371 1370 8209 10121 10122 10114 8436 10348 10349 10341 8427 8434 10347 10340 10343 10350 8438 10351 10125 10352 10353 
1041 1042 1339 1338 1074 1075 1372 1371 8216 10128 10129 10121 8443 10355 10356 10348 8434 8441 10354 10347 10350 10357 8445 10358 10132 10359 10360 
1042 1043 1340 1339 1075 1076 1373 1372 8223 10135 10136 10128 8450 10362 10363 10355 8441 8448 10361 10354 10357 10364 8452 10365 10139 10366 10367 
1043 1044 1341 1340 1076 1077 1374 1373 8230 10142 10143 10135 8457 10369 10370 10362 8448 8455 10368 10361 10364 10371 8459 10372 10146 10373 10374 
1044 1045 1342 1341 1077 1078 1375 1374 8237 10149 10150 10142 8464 10376 10377 10369 8455 8462 10375 10368 10371 10378 8466 10379 10153 10380 10381 
1045 1046 1343 1342 1078 1079 1376 1375 8244 10156 10157 10149 8471 10383 10384 10376 8462 8469 10382 10375 10378 10385 8473 10386 10160 10387 10388 
1046 1047 1344 1343 1079 1080 1377 1376 8251 10163 10164 10156 8478 10390 10391 10383 8469 8476 10389 10382 10385 10392 8480 10393 10167 10394 10395 
1047 1048 1345 1344 1080 1081 1378 1377 8258 10170 10171 10163 8485 10397 10398 10390 8476 8483 10396 10389 10392 10399 8487 10400 10174 10401 10402 
1048 1049 1346 1345 1081 1082 1379 1378 8265 10177 10178 10170 8492 10404 10405 10397 8483 8490 10403 10396 10399 10406 8494 10407 10181 10408 10409 
1049 1050 1347 1346 1082 1083 1380 1379 8272 10184 10185 10177 8499 10411 10412 10404 8490 8497 10410 10403 10406 10413 8501 10414 10188 10415 10416 
1050 1051 1348 1347 1083 1084 1381 1380 8279 10191 10192 10184 8506 10418 10419 10411 8497 8504 10417 10410 10413 10420 8508 10421 10195 10422 10423 
1051 1052 1349 1348 1084 1085 1382 1381 8286 10198 10199 10191 8513 10425 10426 10418 8504 8511 10424 10417 10420 10427 8515 10428 10202 10429 10430 
1052 1053 1350 1349 1085 1086 1383 1382 8293 10205 10206 10198 8520 10432 10433 10425 8511 8518 10431 10424 10427 10434 8522 10435 10209 10436 10437 
1053 1054 1351 1350 1086 1087 1384 1383 8300 10212 10213 10205 8527 10439 10440 10432 8518 8525 10438 10431 10434 10441 8529 10442 10216 10443 10444 
1054 1055 1352 1351 1087 1088 1385 1384 8307 10219 10220 10212 8534 10446 10447 10439 8525 8532 10445 10438 10441 10448 8536 10449 10223 10450 10451 
1056 1057 1354 1353 1089 1090 1387 1386 8315 10227 10228 10229 8542 10454 10455 10456 8540 8539 10452 10453 10459 10457 8545 10458 10233 10460 10461 
1057 1058 1355 1354 1090 1091 1388 1387 8324 10236 10237 10227 8551 10463 10464 10454 8539 8549 10462 10452 10457 10465 8553 10466 10240 10467 10468 
1058 1059 1356 1355 1091 1092 1389 1388 8331 10243 10244 10236 8558 10470 10471 10463 8549 8556 10469 10462 10465 10472 8560 10473 10247 10474 10475 
1059 1060 1357 1356 1092 1093 1390 1389 8338 10250 10251 10243 8565 10477 10478 10470 8556 8563 10476 10469 10472 10479 8567 10480 10254 10481 10482 
1060 1061 1358 1357 1093 1094 1391 1390 8345 10257 10258 10250 8572 10484 10485 10477 8563 8570 10483 10476 10479 10486 8574 10487 10261 10488 10489 
1061 1062 1359 1358 1094 1095 1392 1391 8352 10264 10265 10257 8579 10491 10492 10484 8570 8577 10490 10483 10486 10493 8581 10494 10268 10495 10496 
1062 1063 1360 1359 1095 1096 1393 1392 8359 10271 10272 10264 8586 10498 10499 10491 8577 8584 10497 10490 10493 10500 8588 10501 10275 10502 10503 
1063 1064 1361 1360 1096 1097 1394 1393 8366 10278 10279 10271 8593 10505 10506 10498 8584 8591 10504 10497 10500 10507 8595 10508 10282 10509 10510 
1064 1065 1362 1361 1097 1098 1395 1394 8373 10285 10286 10278 8600 10512 10513 10505 8591 8598 10511 10504 10507 10514 8602 10515 10289 10516 10517 
1065 1066 1363 1362 1098 1099 1396 1395 8380 10292 10293 10285 8607 10519 10520 10512 8598 8605 10518 10511 10514 10521 8609 10522 10296 10523 10524 
1066 1067 1364 1363 1099 1100 1397 1396 8387 10299 10300 10292 8614 10526 10527 10519 8605 8612 10525 10518 10521 10528 8616 10529 10303 10530 10531 
1067 1068 1365 1364 1100 1101 1398 1397 8394 10306 10307 10299 8621 10533 10534 10526 8612 8619 10532 10525 10528 10535 8623 10536 10310 10537 10538 
1068 1069 1366 1365 1101 1102 1399 1398 8401 10313 10314 10306 8628 10540 10541 10533 8619 8626 10539 10532 10535 10542 8630 10543 10317 10544 10545 
1069 1070 1367 1366 1102 1103 1400 1399 8408 10320 10321 10313 8635 10547 10548 10540 8626 8633 10546 10539 10542 10549 8637 10550 10324 10551 10552 
1070 1071 1368 1367 1103 1104 1401 1400 8415 10327 10328 10320 8642 10554 10555 10547 8633 8640 10553 10546 10549 10556 8644 10557 10331 10558 10559 
1071 1072 1369 1368 1104 1105 1402 1401 8422 10334 10335 10327 8649 10561 10562 10554 8640 8647 10560 10553 10556 10563 8651 10564 10338 10565 10566 
1072 1073 1370 1369 1105 1106 1403 1402 8429 10341 10342 10334 8656 10568 10569 10561 8647 8654 10567 10560 10563 10570 8658 10571 10345 10572 10573 
1073 1074 1371 1370 1106 1107 1404 1403 8436 10348 10349 10341 8663 10575 10576 10568 8654 8661 10574 10567 10570 10577 8665 10578 10352 10579 10580 
1074 1075 1372 1371 1107 1108 1405 1404 8443 10355 10356 10348 8670 10582 10583 10575 8661 8668 10581 10574 10577 10584 8672 10585 10359 10586 10587 
1075 1076 1373 1372 1108 1109 1406 1405 8450 10362 10363 10355 8677 10589 10590 10582 8668 8675 10588 10581 10584 10591 8679 10592 10366 10593 10594 
1076 1077 1374 1373 1109 1110 1407 1406 8457 10369 10370 10362 8684 10596 10597 10589 8675 8682 10595 10588 10591 10598 8686 10599 10373 10600 10601 
1077 1078 1375 1374 1110 1111 1408 1407 8464 10376 10377 10369 8691 10603 10604 10596 8682 8689 10602 10595 10598 10605 8693 10606 10380 10607 10608 
1078 1079 1376 1375 1111 1112 1409 1408 8471 10383 10384 10376 8698 10610 10611 10603 8689 8696 10609 10602 10605 10612 8700 10613 10387 10614 10615 
1079 1080 1377 1376 1112 1113 1410 1409 8478 10390 10391 10383 8705 10617 10618 10610 8696 8703 10616 10609 10612 10619 8707 10620 10394 10621 10622 
1080 1081 1378 1377 1113 1114 1411 1410 8485 10397 10398 10390 8712 10624 10625 10617 8703 8710 10623 10616 10619 10626 8714 10627 10401 10628 10629 
1081 1082 1379 1378 1114 1115 1412 1411 8492 10404 10405 10397 8719 10631 10632 10624 8710 8717 10630 10623 10626 10633 8721 10634 10408 10635 10636 
1082 1083 1380 1379 1115 1116 1413 1412 8499 10411 10412 10404 8726 10638 10639 10631 8717 8724 10637 10630 10633 10640 8728 10641 10415 10642 10643 
1083 1084 1381 1380 1116 1117 1414 1413 8506 10418 10419 10411 8733 10645 10646 10638 8724 8731 10644 10637 10640 10647 8735 10648 10422 10649 10650 
1084 1085 1382 1381 1117 1118 1415 1414 8513 10425 10426 10418 8740 10652 10653 10645 8731 8738 10651 10644 10647 10654 8742 10655 10429 10656 10657 
1085 1086 1383 1382 1118 1119 1416 1415 8520 10432 10433 10425 8747 10659 10660 10652 8738 8745 10658 10651 10654 10661 8749 10662 10436 10663 10664 
1086 1087 1384 1383 1119 1120 1417 1416 8527 10439 10440 10432 8754 10666 10667 10659 8745 8752 10665 10658 10661 10668 8756 10669 10443 10670 10671 
1087 1088 1385 1384 1120 1121 1418 1417 8534 10446 10447 10439 8761 10673 10674 10666 8752 8759 10672 10665 10668 10675 8763 10676 10450 10677 10678 
1089 1090 1387 1386 1122 1123 1420 1419 8542 10454 10455 10456 8769 10681 10682 10683 8767 8766 10679 10680 10686 10684 8772 10685 10460 10687 10688 
1090 1091 1388 1387 1123 1124 1421 1420 8551 10463 10464 10454 8778 10690 10691 10681 8766 8776 10689 10679 10684 10692 8780 10693 10467 10694 10695 
1091 1092 1389 1388 1124 1125 1422 1421 8558 10470 10471 10463 8785 10697 10698 10690 8776 8783 10696 10689 10692 10699 8787 10700 10474 10701 10702 
1092 1093 1390 1389 1125 1126 1423 1422 8565 10477 10478 10470 8792 10704 10705 10697 8783 8790 10703 10696 10699 10706 8794 10707 10481 10708 10709 
1093 1094 1391 1390 1126 1127 1424 1423 8572 10484 10485 10477 8799 10711 10712 10704 8790 8797 10710 10703 10706 10713 8801 10714 10488 10715 10716 
1094 1095 1392 1391 1127 1128 1425 1424 8579 10491 10492 10484 8806 10718 10719 10711 8797 8804 10717 10710 10713 10720 8808 10721 10495 10722 10723 
1095 1096 1393 1392 1128 1129 1426 1425 8586 10498 10499 10491 8813 10725 10726 10718 8804 8811 10724 10717 10720 10727 8815 10728 10502 10729 10730 
1096 1097 1394 1393 1129 1130 1427 1426 8593 10505 10506 10498 8820 10732 10733 10725 8811 8818 10731 10724 10727 10734 8822 10735 10509 10736 10737 
1097 1098 1395 1394 1130 1131 1428 1427 8600 10512 10513 10505 8827 10739 10740 10732 8818 8825 10738 10731 10734 10741 8829 10742 10516 10743 10744 
1098 1099 1396 1395 1131 1132 1429 1428 8607 10519 10520 10512 8834 10746 10747 10739 8825 8832 10745 10738 10741 10748 8836 10749 10523 10750 10751 
1099 1100 1397 1396 1132 1133 1430 1429 8614 10526 10527 10519 8841 10753 10754 10746 8832 8839 10752 10745 10748 10755 8843 10756 10530 10757 10758 
1100 1101 1398 1397 1133 1134 1431 1430 8621 10533 10534 10526 8848 10760 10761 10753 8839 8846 10759 10752 10755 10762 8850 10763 10537 10764 10765 
1101 1102 1399 1398 1134 1135 1432 1431 8628 10540 10541 10533 8855 10767 10768 10760 8846 8853 10766 10759 10762 10769 8857 10770 10544 10771 10772 
1102 1103 1400 1399 1135 1136 1433 1432 8635 10547 10548 10540 8862 10774 10775 10767 8853 8860 10773 10766 10769 10776 8864 10777 10551 10778 10779 
1103 1104 1401 1400 1136 1137 1434 1433 8642 10554 10555 10547 8869 10781 10782 10774 8860 8867 10780 10773 10776 10783 8871 10784 10558 10785 10786 
1104 1105 1402 1401 1137 1138 1435 1434 8649 10561 10562 10554 8876 10788 10789 10781 8867 8874 10787 10780 10783 10790 8878 10791 10565 10792 10793 
1105 1106 1403 1402 1138 1139 1436 1435 8656 10568 10569 10561 8883 10795 10796 10788 8874 8881 10794 10787 10790 10797 8885 10798 10572 10799 10800 
1106 1107 1404 1403 1139 1140 1437 1436 8663 10575 10576 10568 8890 10802 10803 10795 8881 8888 10801 10794 10797 10804 8892 10805 10579 10806 10807 
1107 1108 1405 1404 1140 1141 1438 1437 8670 10582 10583 10575 8897 10809 10810 10802 8888 8895 10808 10801 10804 10811 8899 10812 10586 10813 10814 
1108 1109 1406 1405 1141 1142 1439 1438 8677 10589 10590 10582 8904 10816 10817 10809 8895 8902 10815 10808 10811 10818 8906 10819 10593 10820 10821 
1109 1110 1407 1406 1142 1143 1440 1439 8684 10596 10597 10589 8911 10823 10824 10816 8902 8909 10822 10815 10818 10825 8913 10826 10600 10827 10828 
1110 1111 1408 1407 1143 1144 1441 1440 8691 10603 10604 10596 8918 10830 10831 10823 8909 8916 10829 10822 10825 10832 8920 10833 10607 10834 10835 
1111 1112 1409 1408 1144 1145 1442 1441 8698 10610 10611 10603 8925 10837 10838 10830 8916 8923 10836 10829 10832 10839 8927 10840 10614 10841 10842 
1112 1113 1410 1409 1145 1146 1443 1442 8705 10617 10618 10610 8932 10844 10845 10837 8923 8930 10843 10836 10839 10846 8934 10847 10621 10848 10849 
1113 1114 1411 1410 1146 1147 1444 1443 8712 10624 10625 10617 8939 10851 10852 10844 8930 8937 10850 10843 10846 10853 8941 10854 10628 10855 10856 
1114 1115 1412 1411 1147 1148 1445 1444 8719 10631 10632 10624 8946 10858 10859 10851 8937 8944 10857 10850 10853 10860 8948 10861 10635 10862 10863 
1115 1116 1413 1412 1148 1149 1446 1445 8726 10638 10639 10631 8953 10865 10866 10858 8944 8951 10864 10857 10860 10867 8955 10868 10642 10869 10870 
1116 1117 1414 1413 1149 1150 1447 1446 8733 10645 10646 10638 8960 10872 10873 10865 8951 8958 10871 10864 10867 10874 8962 10875 10649 10876 10877 
1117 1118 1415 1414 1150 1151 1448 1447 8740 10652 10653 10645 8967 10879 10880 10872 8958 8965 10878 10871 10874 10881 8969 10882 10656 10883 10884 
1118 1119 1416 1415 1151 1152 1449 1448 8747 10659 10660 10652 8974 10886 10887 10879 8965 8972 10885 10878 10881 10888 8976 10889 10663 10890 10891 
1119 1120 1417 1416 1152 1153 1450 1449 8754 10666 10667 10659 8981 10893 10894 10886 8972 8979 10892 10885 10888 10895 8983 10896 10670 10897 10898 
1120 1121 1418 1417 1153 1154 1451 1450 8761 10673 10674 10666 8988 10900 10901 10893 8979 8986 10899 10892 10895 10902 8990 10903 10677 10904 10905 
1122 1123 1420 1419 1155 1156 1453 1452 8769 10681 10682 10683 8996 10908 10909 10910 8994 8993 10906 10907 10913 10911 8999 10912 10687 10914 10915 
1123 1124 1421 1420 1156 1157 1454 1453 8778 10690 10691 10681 9005 10917 10918 10908 8993 9003 10916 10906 10911 10919 9007 10920 10694 10921 10922 
1124 1125 1422 1421 1157 1158 1455 1454 8785 10697 10698 10690 9012 10924 10925 10917 9003 9010 10923 10916 10919 10926 9014 10927 10701 10928 10929 
1125 1126 1423 1422 1158 1159 1456 1455 8792 10704 10705 10697 9019 10931 10932 10924 9010 9017 10930 10923 10926 10933 9021 10934 10708 10935 10936 
1126 1127 1424 1423 1159 1160 1457 1456 8799 10711 10712 10704 9026 10938 10939 10931 9017 9024 10937 10930 10933 10940 9028 10941 10715 10942 10943 
1127 1128 1425 1424 1160 1161 1458 1457 8806 10718 10719 10711 9033 10945 10946 10938 9024 9031 10944 10937 10940 10947 9035 10948 10722 10949 10950 
1128 1129 1426 1425 1161 1162 1459 1458 8813 10725 10726 10718 9040 10952 10953 10945 9031 9038 10951 10944 10947 10954 9042 10955 10729 10956 10957 
1129 1130 1427 1426 1162 1163 1460 1459 8820 10732 10733 10725 9047 10959 10960 10952 9038 9045 10958 10951 10954 10961 9049 10962 10736 10963 10964 
1130 1131 1428 1427 1163 1164 1461 1460 8827 10739 10740 10732 9054 10966 10967 10959 9045 9052 10965 10958 10961 10968 9056 10969 10743 10970 10971 
1131 1132 1429 1428 1164 1165 1462 1461 8834 10746 10747 10739 9061 10973 10974 10966 9052 9059 10972 10965 10968 10975 9063 10976 10750 10977 10978 
1132 1133 1430 1429 1165 1166 1463 1462 8841 10753 10754 10746 9068 10980 10981 10973 9059 9066 10979 10972 10975 10982 9070 10983 10757 10984 10985 
1133 1134 1431 1430 1166 1167 1464 1463 8848 10760 10761 10753 9075 10987 10988 10980 9066 9073 10986 10979 10982 10989 9077 10990 10764 10991 10992 
1134 1135 1432 1431 1167 1168 1465 1464 8855 10767 10768 10760 9082 10994 10995 10987 9073 9080 10993 10986 10989 10996 9084 10997 10771 10998 10999 
1135 1136 1433 1432 1168 1169 1466 1465 8862 10774 10775 10767 9089 11001 11002 10994 9080 9087 11000 10993 10996 11003 9091 11004 10778 11005 11006 
1136 1137 1434 1433 1169 1170 1467 1466 8869 10781 10782 10774 9096 11008 11009 11001 9087 9094 11007 11000 11003 11010 9098 11011 10785 11012 11013 
1137 1138 1435 1434 1170 1171 1468 1467 8876 10788 10789 10781 9103 11015 11016 11008 9094 9101 11014 11007 11010 11017 9105 11018 10792 11019 11020 
1138 1139 1436 1435 1171 1172 1469 1468 8883 10795 10796 10788 9110 11022 11023 11015 9101 9108 11021 11014 11017 11024 9112 11025 10799 11026 11027 
1139 1140 1437 1436 1172 1173 1470 1469 8890 10802 10803 10795 9117 11029 11030 11022 9108 9115 11028 11021 11024 11031 9119 11032 10806 11033 11034 
1140 1141 1438 1437 1173 1174 1471 1470 8897 10809 10810 10802 9124 11036 11037 11029 9115 9122 11035 11028 11031 11038 9126 11039 10813 11040 11041 
1141 1142 1439 1438 1174 1175 1472 1471 8904 10816 10817 10809 9131 11043 11044 11036 9122 9129 11042 11035 11038 11045 9133 11046 10820 11047 11048 
1142 1143 1440 1439 1175 1176 1473 1472 8911 10823 10824 10816 9138 11050 11051 11043 9129 9136 11049 11042 11045 11052 9140 11053 10827 11054 11055 
1143 1144 1441 1440 1176 1177 1474 1473 8918 10830 10831 10823 9145 11057 11058 11050 9136 9143 11056 11049 11052 11059 9147 11060 10834 11061 11062 
1144 1145 1442 1441 1177 1178 1475 1474 8925 10837 10838 10830 9152 11064 11065 11057 9143 9150 11063 11056 11059 11066 9154 11067 10841 11068 11069 
1145 1146 1443 1442 1178 1179 1476 1475 8932 10844 10845 10837 9159 11071 11072 11064 9150 9157 11070 11063 11066 11073 9161 11074 10848 11075 11076 
1146 1147 1444 1443 1179 1180 1477 1476 8939 10851 10852 10844 9166 11078 11079 11071 9157 9164 11077 11070 11073 11080 9168 11081 10855 11082 11083 
1147 1148 1445 1444 1180 1181 1478 1477 8946 10858 10859 10851 9173 11085 11086 11078 9164 9171 11084 11077 11080 11087 9175 11088 10862 11089 11090 
1148 1149 1446 1445 1181 1182 1479 1478 8953 10865 10866 10858 9180 11092 11093 11085 9171 9178 11091 11084 11087 11094 9182 11095 10869 11096 11097 
1149 1150 1447 1446 1182 1183 1480 1479 8960 10872 10873 10865 9187 11099 11100 11092 9178 9185 11098 11091 11094 11101 9189 11102 10876 11103 11104 
1150 1151 1448 1447 1183 1184 1481 1480 8967 10879 10880 10872 9194 11106 11107 11099 9185 9192 11105 11098 11101 11108 9196 11109 10883 11110 11111 
1151 1152 1449 1448 1184 1185 1482 1481 8974 10886 10887 10879 9201 11113 11114 11106 9192 9199 11112 11105 11108 11115 9203 11116 10890 11117 11118 
1152 1153 1450 1449 1185 1186 1483 1482 8981 10893 10894 10886 9208 11120 11121 11113 9199 9206 11119 11112 11115 11122 9210 11123 10897 11124 11125 
1153 1154 1451 1450 1186 1187 1484 1483 8988 10900 10901 10893 9215 11127 11128 11120 9206 9213 11126 11119 11122 11129 9217 11130 10904 11131 11132 
1188 1189 1486 1485 1221 1222 1519 1518 9221 11133 11134 11135 9226 11138 11139 11140 9224 9223 11136 11137 11144 11142 9230 11143 11141 11145 11146 
1189 1190 1487 1486 1222 1223 1520 1519 9235 11147 11148 11133 9238 11150 11151 11138 9223 9236 11149 11136 11142 11153 9241 11154 11152 11155 11156 
1190 1191 1488 1487 1223 1224 1521 1520 9245 11157 11158 11147 9248 11160 11161 11150 9236 9246 11159 11149 11153 11163 9251 11164 11162 11165 11166 
1191 1192 1489 1488 1224 1225 1522 1521 9255 11167 11168 11157 9258 11170 11171 11160 9246 9256 11169 11159 11163 11173 9261 11174 11172 11175 11176 
1192 1193 1490 1489 1225 1226 1523 1522 9265 11177 11178 11167 9268 11180 11181 11170 9256 9266 11179 11169 11173 11183 9271 11184 11182 11185 11186 
1193 1194 1491 1490 1226 1227 1524 1523 9275 11187 11188 11177 9278 11190 11191 11180 9266 9276 11189 11179 11183 11193 9281 11194 11192 11195 11196 
1194 1195 1492 1491 1227 1228 1525 1524 9285 11197 11198 11187 9288 11200 11201 11190 9276 9286 11199 11189 11193 11203 9291 11204 11202 11205 11206 
1195 1196 1493 1492 1228 1229 1526 1525 9295 11207 11208 11197 9298 11210 11211 11200 9286 9296 11209 11199 11203 11213 9301 11214 11212 11215 11216 
1196 1197 1494 1493 1229 1230 1527 1526 9305 11217 11218 11207 9308 11220 11221 11210 9296 9306 11219 11209 11213 11223 9311 11224 11222 11225 11226 
1197 1198 1495 1494 1230 1231 1528 1527 9315 11227 11228 11217 9318 11230 11231 11220 9306 9316 11229 11219 11223 11233 9321 11234 11232 11235 11236 
1198 1199 1496 1495 1231 1232 1529 1528 9325 11237 11238 11227 9328 11240 11241 11230 9316 9326 11239 11229 11233 11243 9331 11244 11242 11245 11246 
1199 1200 1497 1496 1232 1233 1530 1529 9335 11247 11248 11237 9338 11250 11251 11240 9326 9336 11249 11239 11243 11253 9341 11254 11252 11255 11256 
1200 1201 1498 1497 1233 1234 1531 1530 9345 11257 11258 11247 9348 11260 11261 11250 9336 9346 11259 11249 11253 11263 9351 11264 11262 11265 11266 
1201 1202 1499 1498 1234 1235 1532 1531 9355 11267 11268 11257 9358 11270 11271 11260 9346 9356 11269 11259 11263 11273 9361 11274 11272 11275 11276 
1202 1203 1500 1499 1235 1236 1533 1532 9365 11277 11278 11267 9368 11280 11281 11270 9356 9366 11279 11269 11273 11283 9371 11284 11282 11285 11286 
1203 1204 1501 1500 1236 1237 1534 1533 9375 11287 11288 11277 9378 11290 11291 11280 9366 9376 11289 11279 11283 11293 9381 11294 11292 11295 11296 
1204 1205 1502 1501 1237 1238 1535 1534 9385 11297 11298 11287 9388 11300 11301 11290 9376 9386 11299 11289 11293 11303 9391 11304 11302 11305 11306 
1205 1206 1503 1502 1238 1239 1536 1535 9395 11307 11308 11297 9398 11310 11311 11300 9386 9396 11309 11299 11303 11313 9401 11314 11312 11315 11316 
1206 1207 1504 1503 1239 1240 1537 1536 9405 11317 11318 11307 9408 11320 11321 11310 9396 9406 11319 11309 11313 11323 9411 11324 11322 11325 11326 
1207 1208 1505 1504 1240 1241 1538 1537 9415 11327 11328 11317 9418 11330 11331 11320 9406 9416 11329 11319 11323 11333 9421 11334 11332 11335 11336 
1208 1209 1506 1505 1241 1242 1539 1538 9425 11337 11338 11327 9428 11340 11341 11330 9416 9426 11339 11329 11333 11343 9431 11344 11342 11345 11346 
1209 1210 1507 1506 1242 1243 1540 1539 9435 11347 11348 11337 9438 11350 11351 11340 9426 9436 11349 11339 11343 11353 9441 11354 11352 11355 11356 
1210 1211 1508 1507 1243 1244 1541 1540 9445 11357 11358 11347 9448 11360 11361 11350 9436 9446 11359 11349 11353 11363 9451 11364 11362 11365 11366 
1211 1212 1509 1508 1244 1245 1542 1541 9455 11367 11368 11357 9458 11370 11371 11360 9446 9456 11369 11359 11363 11373 9461 11374 11372 11375 11376 
1212 1213 1510 1509 1245 1246 1543 1542 9465 11377 11378 11367 9468 11380 11381 11370 9456 9466 11379 11369 11373 11383 9471 11384 11382 11385 11386 
1213 1214 1511 1510 1246 1247 1544 1543 9475 11387 11388 11377 9478 11390 11391 11380 9466 9476 11389 11379 11383 11393 9481 11394 11392 11395 11396 
1214 1215 1512 1511 1247 1248 1545 1544 9485 11397 11398 11387 9488 11400 11401 11390 9476 9486 11399 11389 11393 11403 9491 11404 11402 11405 11406 
1215 1216 1513 1512 1248 1249 1546 1545 9495 11407 11408 11397 9498 11410 11411 11400 9486 9496 11409 11399 11403 11413 9501 11414 11412 11415 11416 
1216 1217 1514 1513 1249 1250 1547 1546 9505 11417 11418 11407 9508 11420 11421 11410 9496 9506 11419 11409 11413 11423 9511 11424 11422 11425 11426 
1217 1218 1515 1514 1250 1251 1548 1547 9515 11427 11428 11417 9518 11430 11431 11420 9506 9516 11429 11419 11423 11433 9521 11434 11432 11435 11436 
1218 1219 1516 1515 1251 1252 1549 1548 9525 11437 11438 11427 9528 11440 11441 11430 9516 9526 11439 11429 11433 11443 9531 11444 11442 11445 11446 
1219 1220 1517 1516 1252 1253 1550 1549 9535 11447 11448 11437 9538 11450 11451 11440 9526 9536 11449 11439 11443 11453 9541 11454 11452 11455 11456 
1221 1222 1519 1518 1254 1255 1552 1551 9226 11138 11139 11140 9547 11459 11460 11461 9545 9544 11457 11458 11464 11462 9550 11463 11145 11465 11466 
1222 1223 1520 1519 1255 1256 1553 1552 9238 11150 11151 11138 9556 11468 11469 11459 9544 9554 11467 11457 11462 11470 9558 11471 11155 11472 11473 
1223 1224 1521 1520 1256 1257 1554 1553 9248 11160 11161 11150 9563 11475 11476 11468 9554 9561 11474 11467 11470 11477 9565 11478 11165 11479 11480 
1224 1225 1522 1521 1257 1258 1555 1554 9258 11170 11171 11160 9570 11482 11483 11475 9561 9568 11481 11474 11477 11484 9572 11485 11175 11486 11487 
1225 1226 1523 1522 1258 1259 1556 1555 9268 11180 11181 11170 9577 11489 11490 11482 9568 9575 11488 11481 11484 11491 9579 11492 11185 11493 11494 
1226 1227 1524 1523 1259 1260 1557 1556 9278 11190 11191 11180 9584 11496 11497 11489 9575 9582 11495 11488 11491 11498 9586 11499 11195 11500 11501 
1227 1228 1525 1524 1260 1261 1558 1557 9288 11200 11201 11190 9591 11503 11504 11496 9582 9589 11502 11495 11498 11505 9593 11506 11205 11507 11508 
1228 1229 1526 1525 1261 1262 1559 1558 9298 11210 11211 11200 9598 11510 11511 11503 9589 9596 11509 11502 11505 11512 9600 11513 11215 11514 11515 
1229 1230 1527 1526 1262 1263 1560 1559 9308 11220 11221 11210 9605 11517 11518 11510 9596 9603 11516 11509 11512 11519 9607 11520 11225 11521 11522 
1230 1231 1528 1527 1263 1264 1561 1560 9318 11230 11231 11220 9612 11524 11525 11517 9603 9610 11523 11516 11519 11526 9614 11527 11235 11528 11529 
1231 1232 1529 1528 1264 1265 1562 1561 9328 11240 11241 11230 9619 11531 11532 11524 9610 9617 11530 11523 11526 11533 9621 11534 11245 11535 11536 
1232 1233 1530 1529 1265 1266 1563 1562 9338 11250 11251 11240 9626 11538 11539 11531 9617 9624 11537 11530 11533 11540 9628 11541 11255 11542 11543 
1233 1234 1531 1530 1266 1267 1564 1563 9348 11260 11261 11250 9633 11545 11546 11538 9624 9631 11544 11537 11540 11547 9635 11548 11265 11549 11550 
1234 1235 1532 1531 1267 1268 1565 1564 9358 11270 11271 11260 9640 11552 11553 11545 9631 9638 11551 11544 11547 11554 9642 11555 11275 11556 11557 
1235 1236 1533 1532 1268 1269 1566 1565 9368 11280 11281 11270 9647 11559 11560 11552 9638 9645 11558 11551 11554 11561 9649 11562 11285 11563 11564 
1236 1237 1534 1533 1269 1270 1567 1566 9378 11290 11291 11280 9654 11566 11567 11559 9645 9652 11565 11558 11561 11568 9656 11569 11295 11570 11571 
1237 1238 1535 1534 1270 1271 1568 1567 9388 11300 11301 11290 9661 11573 11574 11566 9652 9659 11572 11565 11568 11575 9663 11576 11305 11577 11578 
1238 1239 1536 1535 1271 1272 1569 1568 9398 11310 11311 11300 9668 11580 11581 11573 9659 9666 11579 11572 11575 11582 9670 11583 11315 11584 11585 
1239 1240 1537 1536 1272 1273 1570 1569 9408 11320 11321 11310 9675 11587 11588 11580 9666 9673 11586 11579 11582 11589 9677 11590 11325 11591 11592 
1240 1241 1538 1537 1273 1274 1571 1570 9418 11330 11331 11320 9682 11594 11595 11587 9673 9680 11593 11586 11589 11596 9684 11597 11335 11598 11599 
1241 1242 1539 1538 1274 1275 1572 1571 9428 11340 11341 11330 9689 11601 11602 11594 9680 9687 11600 11593 11596 11603 9691 11604 11345 11605 11606 
1242 1243 1540 1539 1275 1276 1573 1572 9438 11350 11351 11340 9696 11608 11609 11601 9687 9694 11607 11600 11603 11610 9698 11611 11355 11612 11613 
1243 1244 1541 1540 1276 1277 1574 1573 9448 11360 11361 11350 9703 11615 11616 11608 9694 9701 11614 11607 11610 11617 9705 11618 11365 11619 11620 
1244 1245 1542 1541 1277 1278 1575 1574 9458 11370 11371 11360 9710 11622 11623 11615 9701 9708 11621 11614 11617 11624 9712 11625 11375 11626 11627 
1245 1246 1543 1542 1278 1279 1576 1575 9468 11380 11381 11370 9717 11629 11630 11622 9708 9715 11628 11621 11624 11631 9719 11632 11385 11633 11634 
1246 1247 1544 1543 1279 1280 1577 1576 9478 11390 11391 11380 9724 11636 11637 11629 9715 9722 11635 11628 11631 11638 9726 11639 11395 11640 11641 
1247 1248 1545 1544 1280 1281 1578 1577 9488 11400 11401 11390 9731 11643 11644 11636 9722 9729 11642 11635 11638 11645 9733 11646 11405 11647 11648 
1248 1249 1546 1545 1281 1282 1579 1578 9498 11410 11411 11400 9738 11650 11651 11643 9729 9736 11649 11642 11645 11652 9740 11653 11415 11654 11655 
1249 1250 1547 1546 1282 1283 1580 1579 9508 11420 11421 11410 9745 11657 11658 11650 9736 9743 11656 11649 11652 11659 9747 11660 11425 11661 11662 
1250 1251 1548 1547 1283 1284 1581 1580 9518 11430 11431 11420 9752 11664 11665 11657 9743 9750 11663 11656 11659 11666 9754 11667 11435 11668 11669 
1251 1252 1549 1548 1284 1285 1582 1581 9528 11440 11441 11430 9759 11671 11672 11664 9750 9757 11670 11663 11666 11673 9761 11674 11445 11675 11676 
1252 1253 1550 1549 1285 1286 1583 1582 9538 11450 11451 11440 9766 11678 11679 11671 9757 9764 11677 11670 11673 11680 9768 11681 11455 11682 11683 
1254 1255 1552 1551 1287 1288 1585 1584 9547 11459 11460 11461 9774 11686 11687 11688 9772 9771 11684 11685 11691 11689 9777 11690 11465 11692 11693 
1255 1256 1553 1552 1288 1289 1586 1585 9556 11468 11469 11459 9783 11695 11696 11686 9771 9781 11694 11684 11689 11697 9785 11698 11472 11699 11700 
1256 1257 1554 1553 1289 1290 1587 1586 9563 11475 11476 11468 9790 11702 11703 11695 9781 9788 11701 11694 11697 11704 9792 11705 11479 11706 11707 
1257 1258 1555 1554 1290 1291 1588 1587 9570 11482 11483 11475 9797 11709 11710 11702 9788 9795 11708 11701 11704 11711 9799 11712 11486 11713 11714 
1258 1259 1556 1555 1291 1292 1589 1588 9577 11489 11490 11482 9804 11716 11717 11709 9795 9802 11715 11708 11711 11718 9806 11719 11493 11720 11721 
1259 1260 1557 1556 1292 1293 1590 1589 9584 11496 11497 11489 9811 11723 11724 11716 9802 9809 11722 11715 11718 11725 9813 11726 11500 11727 11728 
1260 1261 1558 1557 1293 1294 1591 1590 9591 11503 11504 11496 9818 11730 11731 11723 9809 9816 11729 11722 11725 11732 9820 11733 11507 11734 11735 
1261 1262 1559 1558 1294 1295 1592 1591 9598 11510 11511 11503 9825 11737 11738 11730 9816 9823 11736 11729 11732 11739 9827 11740 11514 11741 11742 
1262 1263 1560 1559 1295 1296 1593 1592 9605 11517 11518 11510 9832 11744 11745 11737 9823 9830 11743 11736 11739 11746 9834 11747 11521 11748 11749 
1263 1264 1561 1560 1296 1297 1594 1593 9612 11524 11525 11517 9839 11751 11752 11744 9830 9837 11750 11743 11746 11753 9841 11754 11528 11755 11756 
1264 1265 1562 1561 1297 1298 1595 1594 9619 11531 11532 11524 9846 11758 11759 11751 9837 9844 11757 11750 11753 11760 9848 11761 11535 11762 11763 
1265 1266 1563 1562 1298 1299 1596 1595 9626 11538 11539 11531 9853 11765 11766 11758 9844 9851 11764 11757 11760 11767 9855 11768 11542 11769 11770 
1266 1267 1564 1563 1299 1300 1597 1596 9633 11545 11546 11538 9860 11772 11773 11765 9851 9858 11771 11764 11767 11774 9862 11775 11549 11776 11777 
1267 1268 1565 1564 1300 1301 1598 1597 9640 11552 11553 11545 9867 11779 11780 11772 9858 9865 11778 11771 11774 11781 9869 11782 11556 11783 11784 
1268 1269 1566 1565 1301 1302 1599 1598 9647 11559 11560 11552 9874 11786 11787 11779 9865 9872 11785 11778 11781 11788 9876 11789 11563 11790 11791 
1269 1270 1567 1566 1302 1303 1600 1599 9654 11566 11567 11559 9881 11793 11794 11786 9872 9879 11792 11785 11788 11795 9883 11796 11570 11797 11798 
1270 1271 1568 1567 1303 1304 1601 1600 9661 11573 11574 11566 9888 11800 11801 11793 9879 9886 11799 11792 11795 11802 9890 11803 11577 11804 11805 
1271 1272 1569 1568 1304 1305 1602 1601 9668 11580 11581 11573 9895 11807 11808 11800 9886 9893 11806 11799 11802 11809 9897 11810 11584 11811 11812 
1272 1273 1570 1569 1305 1306 1603 1602 9675 11587 11588 11580 9902 11814 11815 11807 9893 9900 11813 11806 11809 11816 9904 11817 11591 11818 11819 
1273 1274 1571 1570 1306 1307 1604 1603 9682 11594 11595 11587 9909 11821 11822 11814 9900 9907 11820 11813 11816 11823 9911 11824 11598 11825 11826 
1274 1275 1572 1571 1307 1308 1605 1604 9689 11601 11602 11594 9916 11828 11829 11821 9907 9914 11827 11820 11823 11830 9918 11831 11605 11832 11833 
1275 1276 1573 1572 1308 1309 1606 1605 9696 11608 11609 11601 9923 11835 11836 11828 9914 9921 11834 11827 11830 11837 9925 11838 11612 11839 11840 
1276 1277 1574 1573 1309 1310 1607 1606 9703 11615 11616 11608 9930 11842 11843 11835 9921 9928 11841 11834 11837 11844 9932 11845 11619 11846 11847 
1277 1278 1575 1574 1310 1311 1608 1607 9710 11622 11623 11615 9937 11849 11850 11842 9928 9935 11848 11841 11844 11851 9939 11852 11626 11853 11854 
1278 1279 1576 1575 1311 1312 1609 1608 9717 11629 11630 11622 9944 11856 11857 11849 9935 9942 11855 11848 11851 11858 9946 11859 11633 11860 11861 
1279 1280 1577 1576 1312 1313 1610 1609 9724 11636 11637 11629 9951 11863 11864 11856 9942 9949 11862 11855 11858 11865 9953 11866 11640 11867 11868 
1280 1281 1578 1577 1313 1314 1611 1610 9731 11643 11644 11636 9958 11870 11871 11863 9949 9956 11869 11862 11865 11872 9960 11873 11647 11874 11875 
1281 1282 1579 1578 1314 1315 1612 1611 9738 11650 11651 11643 9965 11877 11878 11870 9956 9963 11876 11869 11872 11879 9967 11880 11654 11881 11882 
1282 1283 1580 1579 1315 1316 1613 1612 9745 11657 11658 11650 9972 11884 11885 11877 9963 9970 11883 11876 11879 11886 9974 11887 11661 11888 11889 
1283 1284 1581 1580 1316 1317 1614 1613 9752 11664 11665 11657 9979 11891 11892 11884 9970 9977 11890 11883 11886 11893 9981 11894 11668 11895 11896 
1284 1285 1582 1581 1317 1318 1615 1614 9759 11671 11672 11664 9986 11898 11899 11891 9977 9984 11897 11890 11893 11900 9988 11901 11675 11902 11903 
1285 1286 1583 1582 1318 1319 1616 1615 9766 11678 11679 11671 9993 11905 11906 11898 9984 9991 11904 11897 11900 11907 9995 11908 11682 11909 11910 
1287 1288 1585 1584 1320 1321 1618 1617 9774 11686 11687 11688 10001 11913 11914 11915 9999 9998 11911 11912 11918 11916 10004 11917 11692 11919 11920 
1288 1289 1586 1585 1321 1322 1619 1618 9783 11695 11696 11686 10010 11922 11923 11913 9998 10008 11921 11911 11916 11924 10012 11925 11699 11926 11927 
1289 1290 1587 1586 1322 1323 1620 1619 9790 11702 11703 11695 10017 11929 11930 11922 10008 10015 11928 11921 11924 11931 10019 11932 11706 11933 11934 
1290 1291 1588 1587 1323 1324 1621 1620 9797 11709 11710 11702 10024 11936 11937 11929 10015 10022 11935 11928 11931 11938 10026 11939 11713 11940 11941 
1291 1292 1589 1588 1324 1325 1622 1621 9804 11716 11717 11709 10031 11943 11944 11936 10022 10029 11942 11935 11938 11945 10033 11946 11720 11947 11948 
1292 1293 1590 1589 1325 1326 1623 1622 9811 11723 11724 11716 10038 11950 11951 11943 10029 10036 11949 11942 11945 11952 10040 11953 11727 11954 11955 
1293 1294 1591 1590 1326 1327 1624 1623 9818 11730 11731 11723 10045 11957 11958 11950 10036 10043 11956 11949 11952 11959 10047 11960 11734 11961 11962 
1294 1295 1592 1591 1327 1328 1625 1624 9825 11737 11738 11730 10052 11964 11965 11957 10043 10050 11963 11956 11959 11966 10054 11967 11741 11968 11969 
1295 1296 1593 1592 1328 1329 1626 1625 9832 11744 11745 11737 10059 11971 11972 11964 10050 10057 11970 11963 11966 11973 10061 11974 11748 11975 11976 
1296 1297 1594 1593 1329 1330 1627 1626 9839 11751 11752 11744 10066 11978 11979 11971 10057 10064 11977 11970 11973 11980 10068 11981 11755 11982 11983 
1297 1298 1595 1594 1330 1331 1628 1627 9846 11758 11759 11751 10073 11985 11986 11978 10064 10071 11984 11977 11980 11987 10075 11988 11762 11989 11990 
1298 1299 1596 1595 1331 1332 1629 1628 9853 11765 11766 11758 10080 11992 11993 11985 10071 10078 11991 11984 11987 11994 10082 11995 11769 11996 11997 
1299 1300 1597 1596 1332 1333 1630 1629 9860 11772 11773 11765 10087 11999 12000 11992 10078 10085 11998 11991 11994 12001 10089 12002 11776 12003 12004 
1300 1301 1598 1597 1333 1334 1631 1630 9867 11779 11780 11772 10094 12006 12007 11999 10085 10092 12005 11998 12001 12008 10096 12009 11783 12010 12011 
1301 1302 1599 1598 1334 1335 1632 1631 9874 11786 11787 11779 10101 12013 12014 12006 10092 10099 12012 12005 12008 12015 10103 12016 11790 12017 12018 
1302 1303 1600 1599 1335 1336 1633 1632 9881 11793 11794 11786 10108 12020 12021 12013 10099 10106 12019 12012 12015 12022 10110 12023 11797 12024 12025 
1303 1304 1601 1600 1336 1337 1634 1633 9888 11800 11801 11793 10115 12027 12028 12020 10106 10113 12026 12019 12022 12029 10117 12030 11804 12031 12032 
1304 1305 1602 1601 1337 1338 1635 1634 9895 11807 11808 11800 10122 12034 12035 12027 10113 10120 12033 12026 12029 12036 10124 12037 11811 12038 12039 
1305 1306 1603 1602 1338 1339 1636 1635 9902 11814 11815 11807 10129 12041 12042 12034 10120 10127 12040 12033 12036 12043 10131 12044 11818 12045 12046 
1306 1307 1604 1603 1339 1340 1637 1636 9909 11821 11822 11814 10136 12048 12049 12041 10127 10134 12047 12040 12043 12050 10138 12051 11825 12052 12053 
1307 1308 1605 1604 1340 1341 1638 1637 9916 11828 11829 11821 10143 12055 12056 12048 10134 10141 12054 12047 12050 12057 10145 12058 11832 12059 12060 
1308 1309 1606 1605 1341 1342 1639 1638 9923 11835 11836 11828 10150 12062 12063 12055 10141 10148 12061 12054 12057 12064 10152 12065 11839 12066 12067 
1309 1310 1607 1606 1342 1343 1640 1639 9930 11842 11843 11835 10157 12069 12070 12062 10148 10155 12068 12061 12064 12071 10159 12072 11846 12073 12074 
1310 1311 1608 1607 1343 1344 1641 1640 9937 11849 11850 11842 10164 12076 12077 12069 10155 10162 12075 12068 12071 12078 10166 12079 11853 12080 12081 
1311 1312 1609 1608 1344 1345 1642 1641 9944 11856 11857 11849 10171 12083 12084 12076 10162 10169 12082 12075 12078 12085 10173 12086 11860 12087 12088 
1312 1313 1610 1609 1345 1346 1643 1642 9951 11863 11864 11856 10178 12090 12091 12083 10169 10176 12089 12082 12085 12092 10180 12093 11867 12094 12095 
1313 1314 1611 1610 1346 1347 1644 1643 9958 11870 11871 11863 10185 12097 12098 12090 10176 10183 12096 12089 12092 12099 10187 12100 11874 12101 12102 
1314 1315 1612 1611 1347 1348 1645 1644 9965 11877 11878 11870 10192 12104 12105 12097 10183 10190 12103 12096 12099 12106 10194 12107 11881 12108 12109 
1315 1316 1613 1612 1348 1349 1646 1645 9972 11884 11885 11877 10199 12111 12112 12104 10190 10197 12110 12103 12106 12113 10201 12114 11888 12115 12116 
1316 1317 1614 1613 1349 1350 1647 1646 9979 11891 11892 11884 10206 12118 12119 12111 10197 10204 12117 12110 12113 12120 10208 12121 11895 12122 12123 
1317 1318 1615 1614 1350 1351 1648 1647 9986 11898 11899 11891 10213 12125 12126 12118 10204 10211 12124 12117 12120 12127 10215 12128 11902 12129 12130 
1318 1319 1616 1615 1351 1352 1649 1648 9993 11905 11906 11898 10220 12132 12133 12125 10211 10218 12131 12124 12127 12134 10222 12135 11909 12136 12137 
1320 1321 1618 1617 1353 1354 1651 1650 10001 11913 11914 11915 10228 12140 12141 12142 10226 10225 12138 12139 12145 12143 10231 12144 11919 12146 12147 
1321 1322 1619 1618 1354 1355 1652 1651 10010 11922 11923 11913 10237 12149 12150 12140 10225 10235 12148 12138 12143 12151 10239 12152 11926 12153 12154 
1322 1323 1620 1619 1355 1356 1653 1652 10017 11929 11930 11922 10244 12156 12157 12149 10235 10242 12155 12148 12151 12158 10246 12159 11933 12160 12161 
1323 1324 1621 1620 1356 1357 1654 1653 10024 11936 11937 11929 10251 12163 12164 12156 10242 10249 12162 12155 12158 12165 10253 12166 11940 12167 12168 
1324 1325 1622 1621 1357 1358 1655 1654 10031 11943 11944 11936 10258 12170 12171 12163 10249 10256 12169 12162 12165 12172 10260 12173 11947 12174 12175 
1325 1326 1623 1622 1358 1359 1656 1655 10038 11950 11951 11943 10265 12177 12178 12170 10256 10263 12176 12169 12172 12179 10267 12180 11954 12181 12182 
1326 1327 1624 1623 1359 1360 1657 1656 10045 11957 11958 11950 10272 12184 12185 12177 10263 10270 12183 12176 12179 12186 10274 12187 11961 12188 12189 
1327 1328 1625 1624 1360 1361 1658 1657 10052 11964 11965 11957 10279 12191 12192 12184 10270 10277 12190 12183 12186 12193 10281 12194 11968 12195 12196 
1328 1329 1626 1625 1361 1362 1659 1658 10059 11971 11972 11964 10286 12198 12199 12191 10277 10284 12197 12190 12193 12200 10288 12201 11975 12202 12203 
1329 1330 1627 1626 1362 1363 1660 1659 10066 11978 11979 11971 10293 12205 12206 12198 10284 10291 12204 12197 12200 12207 10295 12208 11982 12209 12210 
1330 1331 1628 1627 1363 1364 1661 1660 10073 11985 11986 11978 10300 12212 12213 12205 10291 10298 12211 12204 12207 12214 10302 12215 11989 12216 12217 
1331 1332 1629 1628 1364 1365 1662 1661 10080 11992 11993 11985 10307 12219 12220 12212 10298 10305 12218 12211 12214 12221 10309 12222 11996 12223 12224 
1332 1333 1630 1629 1365 1366 1663 1662 10087 11999 12000 11992 10314 12226 12227 12219 10305 10312 12225 12218 12221 12228 10316 12229 12003 12230 12231 
1333 1334 1631 1630 1366 1367 1664 1663 10094 12006 12007 11999 10321 12233 12234 12226 10312 10319 12232 12225 12228 12235 10323 12236 12010 12237 12238 
1334 1335 1632 1631 1367 1368 1665 1664 10101 12013 12014 12006 10328 12240 12241 12233 10319 10326 12239 12232 12235 12242 10330 12243 12017 12244 12245 
1335 1336 1633 1632 1368 1369 1666 1665 10108 12020 12021 12013 10335 12247 12248 12240 10326 10333 12246 12239 12242 12249 10337 12250 12024 12251 12252 
1336 1337 1634 1633 1369 1370 1667 1666 10115 12027 12028 12020 10342 12254 12255 12247 10333 10340 12253 12246 12249 12256 10344 12257 12031 12258 12259 
1337 1338 1635 1634 1370 1371 1668 1667 10122 12034 12035 12027 10349 12261 12262 12254 10340 10347 12260 12253 12256 12263 10351 12264 12038 12265 12266 
1338 1339 1636 1635 1371 1372 1669 1668 10129 12041 12042 12034 10356 12268 12269 12261 10347 10354 12267 12260 12263 12270 10358 12271 12045 12272 12273 
1339 1340 1637 1636 1372 1373 1670 1669 10136 12048 12049 12041 10363 12275 12276 12268 10354 10361 12274 12267 12270 12277 10365 12278 12052 12279 12280 
1340 1341 1638 1637 1373 1374 1671 1670 10143 12055 12056 12048 10370 12282 12283 12275 10361 10368 12281 12274 12277 12284 10372 12285 12059 12286 12287 
1341 1342 1639 1638 1374 1375 1672 1671 10150 12062 12063 12055 10377 12289 12290 12282 10368 10375 12288 12281 12284 12291 10379 12292 12066 12293 12294 
1342 1343 1640 1639 1375 1376 1673 1672 10157 12069 12070 12062 10384 12296 12297 12289 10375 10382 12295 12288 12291 12298 10386 12299 12073 12300 12301 
1343 1344 1641 1640 1376 1377 1674 1673 10164 12076 12077 12069 10391 12303 12304 12296 10382 10389 12302 12295 12298 12305 10393 12306 12080 12307 12308 
1344 1345 1642 1641 1377 1378 1675 1674 10171 12083 12084 12076 10398 12310 12311 12303 10389 10396 12309 12302 12305 12312 10400 12313 12087 12314 12315 
1345 1346 1643 1642 1378 1379 1676 1675 10178 12090 12091 12083 10405 12317 12318 12310 10396 10403 12316 12309 12312 12319 10407 12320 12094 12321 12322 
1346 1347 1644 1643 1379 1380 1677 1676 10185 12097 12098 12090 10412 12324 12325 12317 10403 10410 12323 12316 12319 12326 10414 12327 12101 12328 12329 
1347 1348 1645 1644 1380 1381 1678 1677 10192 12104 12105 12097 10419 12331 12332 12324 10410 10417 12330 12323 12326 12333 10421 12334 12108 12335 12336 
1348 1349 1646 1645 1381 1382 1679 1678 10199 12111 12112 12104 10426 12338 12339 12331 10417 10424 12337 12330 12333 12340 10428 12341 12115 12342 12343 
1349 1350 1647 1646 1382 1383 1680 1679 10206 12118 12119 12111 10433 12345 12346 12338 10424 10431 12344 12337 12340 12347 10435 12348 12122 12349 12350 
1350 1351 1648 1647 1383 1384 1681 1680 10213 12125 12126 12118 10440 12352 12353 12345 10431 10438 12351 12344 12347 12354 10442 12355 12129 12356 12357 
1351 1352 1649 1648 1384 1385 1682 1681 10220 12132 12133 12125 10447 12359 12360 12352 10438 10445 12358 12351 12354 12361 10449 12362 12136 12363 12364 
1353 1354 1651 1650 1386 1387 1684 1683 10228 12140 12141 12142 10455 12367 12368 12369 10453 10452 12365 12366 12372 12370 10458 12371 12146 12373 12374 
1354 1355 1652 1651 1387 1388 1685 1684 10237 12149 12150 12140 10464 12376 12377 12367 10452 10462 12375 12365 12370 12378 10466 12379 12153 12380 12381 
1355 1356 1653 1652 1388 1389 1686 1685 10244 12156 12157 12149 10471 12383 12384 12376 10462 10469 12382 12375 12378 12385 10473 12386 12160 12387 12388 
1356 1357 1654 1653 1389 1390 1687 1686 10251 12163 12164 12156 10478 12390 12391 12383 10469 10476 12389 12382 12385 12392 10480 12393 12167 12394 12395 
1357 1358 1655 1654 1390 1391 1688 1687 10258 12170 12171 12163 10485 12397 12398 12390 10476 10483 12396 12389 12392 12399 10487 12400 12174 12401 12402 
1358 1359 1656 1655 1391 1392 1689 1688 10265 12177 12178 12170 10492 12404 12405 12397 10483 10490 12403 12396 12399 12406 10494 12407 12181 12408 12409 
1359 1360 1657 1656 1392 1393 1690 1689 10272 12184 12185 12177 10499 12411 12412 12404 10490 10497 12410 12403 12406 12413 10501 12414 12188 12415 12416 
1360 1361 1658 1657 1393 1394 1691 1690 10279 12191 12192 12184 10506 12418 12419 12411 10497 10504 12417 12410 12413 12420 10508 12421 12195 12422 12423 
1361 1362 1659 1658 1394 1395 1692 1691 10286 12198 12199 12191 10513 12425 12426 12418 10504 10511 12424 12417 12420 12427 10515 12428 12202 12429 12430 
1362 1363 1660 1659 1395 1396 1693 1692 10293 12205 12206 12198 10520 12432 12433 12425 10511 10518 12431 12424 12427 12434 10522 12435 12209 12436 12437 
1363 1364 1661 1660 1396 1397 1694 1693 10300 12212 12213 12205 10527 12439 12440 12432 10518 10525 12438 12431 12434 12441 10529 12442 12216 12443 12444 
1364 1365 1662 1661 1397 1398 1695 1694 10307 12219 12220 12212 10534 12446 12447 12439 10525 10532 12445 12438 12441 12448 10536 12449 12223 12450 12451 
1365 1366 1663 1662 1398 1399 1696 1695 10314 12226 12227 12219 10541 12453 12454 12446 10532 10539 12452 12445 12448 12455 10543 12456 12230 12457 12458 
1366 1367 1664 1663 1399 1400 1697 1696 10321 12233 12234 12226 10548 12460 12461 12453 10539 10546 12459 12452 12455 12462 10550 12463 12237 12464 12465 
1367 1368 1665 1664 1400 1401 1698 1697 10328 12240 12241 12233 10555 12467 12468 12460 10546 10553 12466 12459 12462 12469 10557 12470 12244 12471 12472 
1368 1369 1666 1665 1401 1402 1699 1698 10335 12247 12248 12240 10562 12474 12475 12467 10553 10560 12473 12466 12469 12476 10564 12477 12251 12478 12479 
1369 1370 1667 1666 1402 1403 1700 1699 10342 12254 12255 12247 10569 12481 12482 12474 10560 10567 12480 12473 12476 12483 10571 12484 12258 12485 12486 
1370 1371 1668 1667 1403 1404 1701 1700 10349 12261 12262 12254 10576 12488 12489 12481 10567 10574 12487 12480 12483 12490 10578 12491 12265 12492 12493 
1371 1372 1669 1668 1404 1405 1702 1701 10356 12268 12269 12261 10583 12495 12496 12488 10574 10581 12494 12487 12490 12497 10585 12498 12272 12499 12500 
1372 1373 1670 1669 1405 1406 1703 1702 10363 12275 12276 12268 10590 12502 12503 12495 10581 10588 12501 12494 12497 12504 10592 12505 12279 12506 12507 
1373 1374 1671 1670 1406 1407 1704 1703 10370 12282 12283 12275 10597 12509 12510 12502 10588 10595 12508 12501 12504 12511 10599 12512 12286 12513 12514 
1374 1375 1672 1671 1407 1408 1705 1704 10377 12289 12290 12282 10604 12516 12517 12509 10595 10602 12515 12508 12511 12518 10606 12519 12293 12520 12521 
1375 1376 1673 1672 1408 1409 1706 1705 10384 12296 12297 12289 10611 12523 12524 12516 10602 10609 12522 12515 12518 12525 10613 12526 12300 12527 12528 
1376 1377 1674 1673 1409 1410 1707 1706 10391 12303 12304 12296 10618 12530 12531 12523 10609 10616 12529 12522 12525 12532 10620 12533 12307 12534 12535 
1377 1378 1675 1674 1410 1411 1708 1707 10398 12310 12311 12303 10625 12537 12538 12530 10616 10623 12536 12529 12532 12539 10627 12540 12314 12541 12542 
1378 1379 1676 1675 1411 1412 1709 1708 10405 12317 12318 12310 10632 12544 12545 12537 10623 10630 12543 12536 12539 12546 10634 12547 12321 12548 12549 
1379 1380 1677 1676 1412 1413 1710 1709 10412 12324 12325 12317 10639 12551 12552 12544 10630 10637 12550 12543 12546 12553 10641 12554 12328 12555 12556 
1380 1381 1678 1677 1413 1414 1711 1710 10419 12331 12332 12324 10646 12558 12559 12551 10637 10644 12557 12550 12553 12560 10648 12561 12335 12562 12563 
1381 1382 1679 1678 1414 1415 1712 1711 10426 12338 12339 12331 10653 12565 12566 12558 10644 10651 12564 12557 12560 12567 10655 12568 12342 12569 12570 
1382 1383 1680 1679 1415 1416 1713 1712 10433 12345 12346 12338 10660 12572 12573 12565 10651 10658 12571 12564 12567 12574 10662 12575 12349 12576 12577 
1383 1384 1681 1680 1416 1417 1714 1713 10440 12352 12353 12345 10667 12579 12580 12572 10658 10665 12578 12571 12574 12581 10669 12582 12356 12583 12584 
1384 1385 1682 1681 1417 1418 1715 1714 10447 12359 12360 12352 10674 12586 12587 12579 10665 10672 12585 12578 12581 12588 10676 12589 12363 12590 12591 
1386 1387 1684 1683 1419 1420 1717 1716 10455 12367 12368 12369 10682 12594 12595 12596 10680 10679 12592 12593 12599 12597 10685 12598 12373 12600 12601 
1387 1388 1685 1684 1420 1421 1718 1717 10464 12376 12377 12367 10691 12603 12604 12594 10679 10689 12602 12592 12597 12605 10693 12606 12380 12607 12608 
1388 1389 1686 1685 1421 1422 1719 1718 10471 12383 12384 12376 10698 12610 12611 12603 10689 10696 12609 12602 12605 12612 10700 12613 12387 12614 12615 
1389 1390 1687 1686 1422 1423 1720 1719 10478 12390 12391 12383 10705 12617 12618 12610 10696 10703 12616 12609 12612 12619 10707 12620 12394 12621 12622 
1390 1391 1688 1687 1423 1424 1721 1720 10485 12397 12398 12390 10712 12624 12625 12617 10703 10710 12623 12616 12619 12626 10714 12627 12401 12628 12629 
1391 1392 1689 1688 1424 1425 1722 1721 10492 12404 12405 12397 10719 12631 12632 12624 10710 10717 12630 12623 12626 12633 10721 12634 12408 12635 12636 
1392 1393 1690 1689 1425 1426 1723 1722 10499 12411 12412 12404 10726 12638 12639 12631 10717 10724 12637 12630 12633 12640 10728 12641 12415 12642 12643 
1393 1394 1691 1690 1426 1427 1724 1723 10506 12418 12419 12411 10733 12645 12646 12638 10724 10731 12644 12637 12640 12647 10735 12648 12422 12649 12650 
1394 1395 1692 1691 1427 1428 1725 1724 10513 12425 12426 12418 10740 12652 12653 12645 10731 10738 12651 12644 12647 12654 10742 12655 12429 12656 12657 
1395 1396 1693 1692 1428 1429 1726 1725 10520 12432 12433 12425 10747 12659 12660 12652 10738 10745 12658 12651 12654 12661 10749 12662 12436 12663 12664 
1396 1397 1694 1693 1429 1430 1727 1726 10527 12439 12440 12432 10754 12666 12667 12659 10745 10752 12665 12658 12661 12668 10756 12669 12443 12670 12671 
1397 1398 1695 1694 1430 1431 1728 1727 10534 12446 12447 12439 10761 12673 12674 12666 10752 10759 12672 12665 12668 12675 10763 12676 12450 12677 12678 
1398 1399 1696 1695 1431 1432 1729 1728 10541 12453 12454 12446 10768 12680 12681 12673 10759 10766 12679 12672 12675 12682 10770 12683 12457 12684 12685 
1399 1400 1697 1696 1432 1433 1730 1729 10548 12460 12461 12453 10775 12687 12688 12680 10766 10773 12686 12679 12682 12689 10777 12690 12464 12691 12692 
1400 1401 1698 1697 1433 1434 1731 1730 10555 12467 12468 12460 10782 12694 12695 12687 10773 10780 12693 12686 12689 12696 10784 12697 12471 12698 12699 
1401 1402 1699 1698 1434 1435 1732 1731 10562 12474 12475 12467 10789 12701 12702 12694 10780 10787 12700 12693 12696 12703 10791 12704 12478 12705 12706 
1402 1403 1700 1699 1435 1436 1733 1732 10569 12481 12482 12474 10796 12708 12709 12701 10787 10794 12707 12700 12703 12710 10798 12711 12485 12712 12713 
1403 1404 1701 1700 1436 1437 1734 1733 10576 12488 12489 12481 10803 12715 12716 12708 10794 10801 12714 12707 12710 12717 10805 12718 12492 12719 12720 
1404 1405 1702 1701 1437 1438 1735 1734 10583 12495 12496 12488 10810 12722 12723 12715 10801 10808 12721 12714 12717 12724 10812 12725 12499 12726 12727 
1405 1406 1703 1702 1438 1439 1736 1735 10590 12502 12503 12495 10817 12729 12730 12722 10808 10815 12728 12721 12724 12731 10819 12732 12506 12733 12734 
1406 1407 1704 1703 1439 1440 1737 1736 10597 12509 12510 12502 10824 12736 12737 12729 10815 10822 12735 12728 12731 12738 10826 12739 12513 12740 12741 
1407 1408 1705 1704 1440 1441 1738 1737 10604 12516 12517 12509 10831 12743 12744 12736 10822 10829 12742 12735 12738 12745 10833 12746 12520 12747 12748 
1408 1409 1706 1705 1441 1442 1739 1738 10611 12523 12524 12516 10838 12750 12751 12743 10829 10836 12749 12742 12745 12752 10840 12753 12527 12754 12755 
1409 1410 1707 1706 1442 1443 1740 1739 10618 12530 12531 12523 10845 12757 12758 12750 10836 10843 12756 12749 12752 12759 10847 12760 12534 12761 12762 
1410 1411 1708 1707 1443 1444 1741 1740 10625 12537 12538 12530 10852 12764 12765 12757 10843 10850 12763 12756 12759 12766 10854 12767 12541 12768 12769 
1411 1412 1709 1708 1444 1445 1742 1741 10632 12544 12545 12537 10859 12771 12772 12764 10850 10857 12770 12763 12766 12773 10861 12774 12548 12775 12776 
1412 1413 1710 1709 1445 1446 1743 1742 10639 12551 12552 12544 10866 12778 12779 12771 10857 10864 12777 12770 12773 12780 10868 12781 12555 12782 12783 
1413 1414 1711 1710 1446 1447 1744 1743 10646 12558 12559 12551 10873 12785 12786 12778 10864 10871 12784 12777 12780 12787 10875 12788 12562 12789 12790 
1414 1415 1712 1711 1447 1448 1745 1744 10653 12565 12566 12558 10880 12792 12793 12785 10871 10878 12791 12784 12787 12794 10882 12795 12569 12796 12797 
1415 1416 1713 1712 1448 1449 1746 1745 10660 12572 12573 12565 10887 12799 12800 12792 10878 10885 12798 12791 12794 12801 10889 12802 12576 12803 12804 
1416 1417 1714 1713 1449 1450 1747 1746 10667 12579 12580 12572 10894 12806 12807 12799 10885 10892 12805 12798 12801 12808 10896 12809 12583 12810 12811 
1417 1418 1715 1714 1450 1451 1748 1747 10674 12586 12587 12579 10901 12813 12814 12806 10892 10899 12812 12805 12808 12815 10903 12816 12590 12817 12818 
1419 1420 1717 1716 1452 1453 1750 1749 10682 12594 12595 12596 10909 12821 12822 12823 10907 10906 12819 12820 12826 12824 10912 12825 12600 12827 12828 
1420 1421 1718 1717 1453 1454 1751 1750 10691 12603 12604 12594 10918 12830 12831 12821 10906 10916 12829 12819 12824 12832 10920 12833 12607 12834 12835 
1421 1422 1719 1718 1454 1455 1752 1751 10698 12610 12611 12603 10925 12837 12838 12830 10916 10923 12836 12829 12832 12839 10927 12840 12614 12841 12842 
1422 1423 1720 1719 1455 1456 1753 1752 10705 12617 12618 12610 10932 12844 12845 12837 10923 10930 12843 12836 12839 12846 10934 12847 12621 12848 12849 
1423 1424 1721 1720 1456 1457 1754 1753 10712 12624 12625 12617 10939 12851 12852 12844 10930 10937 12850 12843 12846 12853 10941 12854 12628 12855 12856 
1424 1425 1722 1721 1457 1458 1755 1754 10719 12631 12632 12624 10946 12858 12859 12851 10937 10944 12857 12850 12853 12860 10948 12861 12635 12862 12863 
1425 1426 1723 1722 1458 1459 1756 1755 10726 12638 12639 12631 10953 12865 12866 12858 10944 10951 12864 12857 12860 12867 10955 12868 12642 12869 12870 
1426 1427 1724 1723 1459 1460 1757 1756 10733 12645 12646 12638 10960 12872 12873 12865 10951 10958 12871 12864 12867 12874 10962 12875 12649 12876 12877 
1427 1428 1725 1724 1460 1461 1758 1757 10740 12652 12653 12645 10967 12879 12880 12872 10958 10965 12878 12871 12874 12881 10969 12882 12656 12883 12884 
1428 1429 1726 1725 1461 1462 1759 1758 10747 12659 12660 12652 10974 12886 12887 12879 10965 10972 12885 12878 12881 12888 10976 12889 12663 12890 12891 
1429 1430 1727 1726 1462 1463 1760 1759 10754 12666 12667 12659 10981 12893 12894 12886 10972 10979 12892 12885 12888 12895 10983 12896 12670 12897 12898 
1430 1431 1728 1727 1463 1464 1761 1760 10761 12673 12674 12666 10988 12900 12901 12893 10979 10986 12899 12892 12895 12902 10990 12903 12677 12904 12905 
1431 1432 1729 1728 1464 1465 1762 1761 10768 12680 12681 12673 10995 12907 12908 12900 10986 10993 12906 12899 12902 12909 10997 12910 12684 12911 12912 
1432 1433 1730 1729 1465 1466 1763 1762 10775 12687 12688 12680 11002 12914 12915 12907 10993 11000 12913 12906 12909 12916 11004 12917 12691 12918 12919 
1433 1434 1731 1730 1466 1467 1764 1763 10782 12694 12695 12687 11009 12921 12922 12914 11000 11007 12920 12913 12916 12923 11011 12924 12698 12925 12926 
1434 1435 1732 1731 1467 1468 1765 1764 10789 12701 12702 12694 11016 12928 12929 12921 11007 11014 12927 12920 12923 12930 11018 12931 12705 12932 12933 
1435 1436 1733 1732 1468 1469 1766 1765 10796 12708 12709 12701 11023 12935 12936 12928 11014 11021 12934 12927 12930 12937 11025 12938 12712 12939 12940 
1436 1437 1734 1733 1469 1470 1767 1766 10803 12715 12716 12708 11030 12942 12943 12935 11021 11028 12941 12934 12937 12944 11032 12945 12719 12946 12947 
1437 1438 1735 1734 1470 1471 1768 1767 10810 12722 12723 12715 11037 12949 12950 12942 11028 11035 12948 12941 12944 12951 11039 12952 12726 12953 12954 
1438 1439 1736 1735 1471 1472 1769 1768 10817 12729 12730 12722 11044 12956 12957 12949 11035 11042 12955 12948 12951 12958 11046 12959 12733 12960 12961 
1439 1440 1737 1736 1472 1473 1770 1769 10824 12736 12737 12729 11051 12963 12964 12956 11042 11049 12962 12955 12958 12965 11053 12966 12740 12967 12968 
1440 1441 1738 1737 1473 1474 1771 1770 10831 12743 12744 12736 11058 12970 12971 12963 11049 11056 12969 12962 12965 12972 11060 12973 12747 12974 12975 
1441 1442 1739 1738 1474 1475 1772 1771 10838 12750 12751 12743 11065 12977 12978 12970 11056 11063 12976 12969 12972 12979 11067 12980 12754 12981 12982 
1442 1443 1740 1739 1475 1476 1773 1772 10845 12757 12758 12750 11072 12984 12985 12977 11063 11070 12983 12976 12979 12986 11074 12987 12761 12988 12989 
1443 1444 1741 1740 1476 1477 1774 1773 10852 12764 12765 12757 11079 12991 12992 12984 11070 11077 12990 12983 12986 12993 11081 12994 12768 12995 12996 
1444 1445 1742 1741 1477 1478 1775 1774 10859 12771 12772 12764 11086 12998 12999 12991 11077 11084 12997 12990 12993 13000 11088 13001 12775 13002 13003 
1445 1446 1743 1742 1478 1479 1776 1775 10866 12778 12779 12771 11093 13005 13006 12998 11084 11091 13004 12997 13000 13007 11095 13008 12782 13009 13010 
1446 1447 1744 1743 1479 1480 1777 1776 10873 12785 12786 12778 11100 13012 13013 13005 11091 11098 13011 13004 13007 13014 11102 13015 12789 13016 13017 
1447 1448 1745 1744 1480 1481 1778 1777 10880 12792 12793 12785 11107 13019 13020 13012 11098 11105 13018 13011 13014 13021 11109 13022 12796 13023 13024 
1448 1449 1746 1745 1481 1482 1779 1778 10887 12799 12800 12792 11114 13026 13027 13019 11105 11112 13025 13018 13021 13028 11116 13029 12803 13030 13031 
1449 1450 1747 1746 1482 1483 1780 1779 10894 12806 12807 12799 11121 13033 13034 13026 11112 11119 13032 13025 13028 13035 11123 13036 12810 13037 13038 
1450 1451 1748 1747 1483 1484 1781 1780 10901 12813 12814 12806 11128 13040 13041 13033 11119 11126 13039 13032 13035 13042 11130 13043 12817 13044 13045 
1485 1486 1783 1782 1518 1519 1816 1815 11134 13046 13047 13048 11139 13051 13052 13053 11137 11136 13049 13050 13057 13055 11143 13056 13054 13058 13059 
1486 1487 1784 1783 1519 1520 1817 1816 11148 13060 13061 13046 11151 13063 13064 13051 11136 11149 13062 13049 13055 13066 11154 13067 13065 13068 13069 
1487 1488 1785 1784 1520 1521 1818 1817 11158 13070 13071 13060 11161 13073 13074 13063 11149 11159 13072 13062 13066 13076 11164 13077 13075 13078 13079 
1488 1489 1786 1785 1521 1522 1819 1818 11168 13080 13081 13070 11171 13083 13084 13073 11159 11169 13082 13072 13076 13086 11174 13087 13085 13088 13089 
1489 1490 1787 1786 1522 1523 1820 1819 11178 13090 13091 13080 11181 13093 13094 13083 11169 11179 13092 13082 13086 13096 11184 13097 13095 13098 13099 
1490 1491 1788 1787 1523 1524 1821 1820 11188 13100 13101 13090 11191 13103 13104 13093 11179 11189 13102 13092 13096 13106 11194 13107 13105 13108 13109 
1491 1492 1789 1788 1524 1525 1822 1821 11198 13110 13111 13100 11201 13113 13114 13103 11189 11199 13112 13102 13106 13116 11204 13117 13115 13118 13119 
1492 1493 1790 1789 1525 1526 1823 1822 11208 13120 13121 13110 11211 13123 13124 13113 11199 11209 13122 13112 13116 13126 11214 13127 13125 13128 13129 
1493 1494 1791 1790 1526 1527 1824 1823 11218 13130 13131 13120 11221 13133 13134 13123 11209 11219 13132 13122 13126 13136 11224 13137 13135 13138 13139 
1494 1495 1792 1791 1527 1528 1825 1824 11228 13140 13141 13130 11231 13143 13144 13133 11219 11229 13142 13132 13136 13146 11234 13147 13145 13148 13149 
1495 1496 1793 1792 1528 1529 1826 1825 11238 13150 13151 13140 11241 13153 13154 13143 11229 11239 13152 13142 13146 13156 11244 13157 13155 13158 13159 
1496 1497 1794 1793 1529 1530 1827 1826 11248 13160 13161 13150 11251 13163 13164 13153 11239 11249 13162 13152 13156 13166 11254 13167 13165 13168 13169 
1497 1498 1795 1794 1530 1531 1828 1827 11258 13170 13171 13160 11261 13173 13174 13163 11249 11259 13172 13162 13166 13176 11264 13177 13175 13178 13179 
1498 1499 1796 1795 1531 1532 1829 1828 11268 13180 13181 13170 11271 13183 13184 13173 11259 11269 13182 13172 13176 13186 11274 13187 13185 13188 13189 
1499 1500 1797 1796 1532 1533 1830 1829 11278 13190 13191 13180 11281 13193 13194 13183 11269 11279 13192 13182 13186 13196 11284 13197 13195 13198 13199 
1500 1501 1798 1797 1533 1534 1831 1830 11288 13200 13201 13190 11291 13203 13204 13193 11279 11289 13202 13192 13196 13206 11294 13207 13205 13208 13209 
1501 1502 1799 1798 1534 1535 1832 1831 11298 13210 13211 13200 11301 13213 13214 13203 11289 11299 13212 13202 13206 13216 11304 13217 13215 13218 13219 
1502 1503 1800 1799 1535 1536 1833 1832 11308 13220 13221 13210 11311 13223 13224 13213 11299 11309 13222 13212 13216 13226 11314 13227 13225 13228 13229 
1503 1504 1801 1800 1536 1537 1834 1833 11318 13230 13231 13220 11321 13233 13234 13223 11309 11319 13232 13222 13226 13236 11324 13237 13235 13238 13239 
1504 1505 1802 1801 1537 1538 1835 1834 11328 13240 13241 13230 11331 13243 13244 13233 11319 11329 13242 13232 13236 13246 11334 13247 13245 13248 13249 
1505 1506 1803 1802 1538 1539 1836 1835 11338 13250 13251 13240 11341 13253 13254 13243 11329 11339 13252 13242 13246 13256 11344 13257 13255 13258 13259 
1506 1507 1804 1803 1539 1540 1837 1836 11348 13260 13261 13250 11351 13263 13264 13253 11339 11349 13262 13252 13256 13266 11354 13267 13265 13268 13269 
1507 1508 1805 1804 1540 1541 1838 1837 11358 13270 13271 13260 11361 13273 13274 13263 11349 11359 13272 13262 13266 13276 11364 13277 13275 13278 13279 
1508 1509 1806 1805 1541 1542 1839 1838 11368 13280 13281 13270 11371 13283 13284 13273 11359 11369 13282 13272 13276 13286 11374 13287 13285 13288 13289 
1509 1510 1807 1806 1542 1543 1840 1839 11378 13290 13291 13280 11381 13293 13294 13283 11369 11379 13292 13282 13286 13296 11384 13297 13295 13298 13299 
1510 1511 1808 1807 1543 1544 1841 1840 11388 13300 13301 13290 11391 13303 13304 13293 11379 11389 13302 13292 13296 13306 11394 13307 13305 13308 13309 
1511 1512 1809 1808 1544 1545 1842 1841 11398 13310 13311 13300 11401 13313 13314 13303 11389 11399 13312 13302 13306 13316 11404 13317 13315 13318 13319 
1512 1513 1810 1809 1545 1546 1843 1842 11408 13320 13321 13310 11411 13323 13324 13313 11399 11409 13322 13312 13316 13326 11414 13327 13325 13328 13329 
1513 1514 1811 1810 1546 1547 1844 1843 11418 13330 13331 13320 11421 13333 13334 13323 11409 11419 13332 13322 13326 13336 11424 13337 13335 13338 13339 
1514 1515 1812 1811 1547 1548 1845 1844 11428 13340 13341 13330 11431 13343 13344 13333 11419 11429 13342 13332 13336 13346 11434 13347 13345 13348 13349 
1515 1516 1813 1812 1548 1549 1846 1845 11438 13350 13351 13340 11441 13353 13354 13343 11429 11439 13352 13342 13346 13356 11444 13357 13355 13358 13359 
1516 1517 1814 1813 1549 1550 1847 1846 11448 13360 13361 13350 11451 13363 13364 13353 11439 11449 13362 13352 13356 13366 11454 13367 13365 13368 13369 
1518 1519 1816 1815 1551 1552 1849 1848 11139 13051 13052 13053 11460 13372 13373 13374 11458 11457 13370 13371 13377 13375 11463 13376 13058 13378 13379 
1519 1520 1817 1816 1552 1553 1850 1849 11151 13063 13064 13051 11469 13381 13382 13372 11457 11467 13380 13370 13375 13383 11471 13384 13068 13385 13386 
1520 1521 1818 1817 1553 1554 1851 1850 11161 13073 13074 13063 11476 13388 13389 13381 11467 11474 13387 13380 13383 13390 11478 13391 13078 13392 13393 
1521 1522 1819 1818 1554 1555 1852 1851 11171 13083 13084 13073 11483 13395 13396 13388 11474 11481 13394 13387 13390 13397 11485 13398 13088 13399 13400 
1522 1523 1820 1819 1555 1556 1853 1852 11181 13093 13094 13083 11490 13402 13403 13395 11481 11488 13401 13394 13397 13404 11492 13405 13098 13406 13407 
1523 1524 1821 1820 1556 1557 1854 1853 11191 13103 13104 13093 11497 13409 13410 13402 11488 11495 13408 13401 13404 13411 11499 13412 13108 13413 13414 
1524 1525 1822 1821 1557 1558 1855 1854 11201 13113 13114 13103 11504 13416 13417 13409 11495 11502 13415 13408 13411 13418 11506 13419 13118 13420 13421 
1525 1526 1823 1822 1558 1559 1856 1855 11211 13123 13124 13113 11511 13423 13424 13416 11502 11509 13422 13415 13418 13425 11513 13426 13128 13427 13428 
1526 1527 1824 1823 1559 1560 1857 1856 11221 13133 13134 13123 11518 13430 13431 13423 11509 11516 13429 13422 13425 13432 11520 13433 13138 13434 13435 
1527 1528 1825 1824 1560 1561 1858 1857 11231 13143 13144 13133 11525 13437 13438 13430 11516 11523 13436 13429 13432 13439 11527 13440 13148 13441 13442 
1528 1529 1826 1825 1561 1562 1859 1858 11241 13153 13154 13143 11532 13444 13445 13437 11523 11530 13443 13436 13439 13446 11534 13447 13158 13448 13449 
1529 1530 1827 1826 1562 1563 1860 1859 11251 13163 13164 13153 11539 13451 13452 13444 11530 11537 13450 13443 13446 13453 11541 13454 13168 13455 13456 
1530 1531 1828 1827 1563 1564 1861 1860 11261 13173 13174 13163 11546 13458 13459 13451 11537 11544 13457 13450 13453 13460 11548 13461 13178 13462 13463 
1531 1532 1829 1828 1564 1565 1862 1861 11271 13183 13184 13173 11553 13465 13466 13458 11544 11551 13464 13457 13460 13467 11555 13468 13188 13469 13470 
1532 1533 1830 1829 1565 1566 1863 1862 11281 13193 13194 13183 11560 13472 13473 13465 11551 11558 13471 13464 13467 13474 11562 13475 13198 13476 13477 
1533 1534 1831 1830 1566 1567 1864 1863 11291 13203 13204 13193 11567 13479 13480 13472 11558 11565 13478 13471 13474 13481 11569 13482 13208 13483 13484 
1534 1535 1832 1831 1567 1568 1865 1864 11301 13213 13214 13203 11574 13486 13487 13479 11565 11572 13485 13478 13481 13488 11576 13489 13218 13490 13491 
1535 1536 1833 1832 1568 1569 1866 1865 11311 13223 13224 13213 11581 13493 13494 13486 11572 11579 13492 13485 13488 13495 11583 13496 13228 13497 13498 
1536 1537 1834 1833 1569 1570 1867 1866 11321 13233 13234 13223 11588 13500 13501 13493 11579 11586 13499 13492 13495 13502 11590 13503 13238 13504 13505 
1537 1538 1835 1834 1570 1571 1868 1867 11331 13243 13244 13233 11595 13507 13508 13500 11586 11593 13506 13499 13502 13509 11597 13510 13248 13511 13512 
1538 1539 1836 1835 1571 1572 1869 1868 11341 13253 13254 13243 11602 13514 13515 13507 11593 11600 13513 13506 13509 13516 11604 13517 13258 13518 13519 
1539 1540 1837 1836 1572 1573 1870 1869 11351 13263 13264 13253 11609 13521 13522 13514 11600 11607 13520 13513 13516 13523 11611 13524 13268 13525 13526 
1540 1541 1838 1837 1573 1574 1871 1870 11361 13273 13274 13263 11616 13528 13529 13521 11607 11614 13527 13520 13523 13530 11618 13531 13278 13532 13533 
1541 1542 1839 1838 1574 1575 1872 1871 11371 13283 13284 13273 11623 13535 13536 13528 11614 11621 13534 13527 13530 13537 11625 13538 13288 13539 13540 
1542 1543 1840 1839 1575 1576 1873 1872 11381 13293 13294 13283 11630 13542 13543 13535 11621 11628 13541 13534 13537 13544 11632 13545 13298 13546 13547 
1543 1544 1841 1840 1576 1577 1874 1873 11391 13303 13304 13293 11637 13549 13550 13542 11628 11635 13548 13541 13544 13551 11639 13552 13308 13553 13554 
1544 1545 1842 1841 1577 1578 1875 1874 11401 13313 13314 13303 11644 13556 13557 13549 11635 11642 13555 13548 13551 13558 11646 13559 13318 13560 13561 
1545 1546 1843 1842 1578 1579 1876 1875 11411 13323 13324 13313 11651 13563 13564 13556 11642 11649 13562 13555 13558 13565 11653 13566 13328 13567 13568 
1546 1547 1844 1843 1579 1580 1877 1876 11421 13333 13334 13323 11658 13570 13571 13563 11649 11656 13569 13562 13565 13572 11660 13573 13338 13574 13575 
1547 1548 1845 1844 1580 1581 1878 1877 11431 13343 13344 13333 11665 13577 13578 13570 11656 11663 13576 13569 13572 13579 11667 13580 13348 13581 13582 
1548 1549 1846 1845 1581 1582 1879 1878 11441 13353 13354 13343 11672 13584 13585 13577 11663 11670 13583 13576 13579 13586 11674 13587 13358 13588 13589 
1549 1550 1847 1846 1582 1583 1880 1879 11451 13363 13364 13353 11679 13591 13592 13584 11670 11677 13590 13583 13586 13593 11681 13594 13368 13595 13596 
1551 1552 1849 1848 1584 1585 1882 1881 11460 13372 13373 13374 11687 13599 13600 13601 11685 11684 13597 13598 13604 13602 11690 13603 13378 13605 13606 
1552 1553 1850 1849 1585 1586 1883 1882 11469 13381 13382 13372 11696 13608 13609 13599 11684 11694 13607 13597 13602 13610 11698 13611 13385 13612 13613 
1553 1554 1851 1850 1586 1587 1884 1883 11476 13388 13389 13381 11703 13615 13616 13608 11694 11701 13614 13607 13610 13617 11705 13618 13392 13619 13620 
1554 1555 1852 1851 1587 1588 1885 1884 11483 13395 13396 13388 11710 13622 13623 13615 11701 11708 13621 13614 13617 13624 11712 13625 13399 13626 13627 
1555 1556 1853 1852 1588 1589 1886 1885 11490 13402 13403 13395 11717 13629 13630 13622 11708 11715 13628 13621 13624 13631 11719 13632 13406 13633 13634 
1556 1557 1854 1853 1589 1590 1887 1886 11497 13409 13410 13402 11724 13636 13637 13629 11715 11722 13635 13628 13631 13638 11726 13639 13413 13640 13641 
1557 1558 1855 1854 1590 1591 1888 1887 11504 13416 13417 13409 11731 13643 13644 13636 11722 11729 13642 13635 13638 13645 11733 13646 13420 13647 13648 
1558 1559 1856 1855 1591 1592 1889 1888 11511 13423 13424 13416 11738 13650 13651 13643 11729 11736 13649 13642 13645 13652 11740 13653 13427 13654 13655 
1559 1560 1857 1856 1592 1593 1890 1889 11518 13430 13431 13423 11745 13657 13658 13650 11736 11743 13656 13649 13652 13659 11747 13660 13434 13661 13662 
1560 1561 1858 1857 1593 1594 1891 1890 11525 13437 13438 13430 11752 13664 13665 13657 11743 11750 13663 13656 13659 13666 11754 13667 13441 13668 13669 
1561 1562 1859 1858 1594 1595 1892 1891 11532 13444 13445 13437 11759 13671 13672 13664 11750 11757 13670 13663 13666 13673 11761 13674 13448 13675 13676 
1562 1563 1860 1859 1595 1596 1893 1892 11539 13451 13452 13444 11766 13678 13679 13671 11757 11764 13677 13670 13673 13680 11768 13681 13455 13682 13683 
1563 1564 1861 1860 1596 1597 1894 1893 11546 13458 13459 13451 11773 13685 13686 13678 11764 11771 13684 13677 13680 13687 11775 13688 13462 13689 13690 
1564 1565 1862 1861 1597 1598 1895 1894 11553 13465 13466 13458 11780 13692 13693 13685 11771 11778 13691 13684 13687 13694 11782 13695 13469 13696 13697 
1565 1566 1863 1862 1598 1599 1896 1895 11560 13472 13473 13465 11787 13699 13700 13692 11778 11785 13698 13691 13694 13701 11789 13702 13476 13703 13704 
1566 1567 1864 1863 1599 1600 1897 1896 11567 13479 13480 13472 11794 13706 13707 13699 11785 11792 13705 13698 13701 13708 11796 13709 13483 13710 13711 
1567 1568 1865 1864 1600 1601 1898 1897 11574 13486 13487 13479 11801 13713 13714 13706 11792 11799 13712 13705 13708 13715 11803 13716 13490 13717 13718 
1568 1569 1866 1865 1601 1602 1899 1898 11581 13493 13494 13486 11808 13720 13721 13713 11799 11806 13719 13712 13715 13722 11810 13723 13497 13724 13725 
1569 1570 1867 1866 1602 1603 1900 1899 11588 13500 13501 13493 11815 13727 13728 13720 11806 11813 13726 13719 13722 13729 11817 13730 13504 13731 13732 
1570 1571 1868 1867 1603 1604 1901 1900 11595 13507 13508 13500 11822 13734 13735 13727 11813 11820 13733 13726 13729 13736 11824 13737 13511 13738 13739 
1571 1572 1869 1868 1604 1605 1902 1901 11602 13514 13515 13507 11829 13741 13742 13734 11820 11827 13740 13733 13736 13743 11831 13744 13518 13745 13746 
1572 1573 1870 1869 1605 1606 1903 1902 11609 13521 13522 13514 11836 13748 13749 13741 11827 11834 13747 13740 13743 13750 11838 13751 13525 13752 13753 
1573 1574 1871 1870 1606 1607 1904 1903 11616 13528 13529 13521 11843 13755 13756 13748 11834 11841 13754 13747 13750 13757 11845 13758 13532 13759 13760 
1574 1575 1872 1871 1607 1608 1905 1904 11623 13535 13536 13528 11850 13762 13763 13755 11841 11848 13761 13754 13757 13764 11852 13765 13539 13766 13767 
1575 1576 1873 1872 1608 1609 1906 1905 11630 13542 13543 13535 11857 13769 13770 13762 11848 11855 13768 13761 13764 13771 11859 13772 13546 13773 13774 
1576 1577 1874 1873 1609 1610 1907 1906 11637 13549 13550 13542 11864 13776 13777 13769 11855 11862 13775 13768 13771 13778 11866 13779 13553 13780 13781 
1577 1578 1875 1874 1610 1611 1908 1907 11644 13556 13557 13549 11871 13783 13784 13776 11862 11869 13782 13775 13778 13785 11873 13786 13560 13787 13788 
1578 1579 1876 1875 1611 1612 1909 1908 11651 13563 13564 13556 11878 13790 13791 13783 11869 11876 13789 13782 13785 13792 11880 13793 13567 13794 13795 
1579 1580 1877 1876 1612 1613 1910 1909 11658 13570 13571 13563 11885 13797 13798 13790 11876 11883 13796 13789 13792 13799 11887 13800 13574 13801 13802 
1580 1581 1878 1877 1613 1614 1911 1910 11665 13577 13578 13570 11892 13804 13805 13797 11883 11890 13803 13796 13799 13806 11894 13807 13581 13808 13809 
1581 1582 1879 1878 1614 1615 1912 1911 11672 13584 13585 13577 11899 13811 13812 13804 11890 11897 13810 13803 13806 13813 11901 13814 13588 13815 13816 
1582 1583 1880 1879 1615 1616 1913 1912 11679 13591 13592 13584 11906 13818 13819 13811 11897 11904 13817 13810 13813 13820 11908 13821 13595 13822 13823 
1584 1585 1882 1881 1617 1618 1915 1914 11687 13599 13600 13601 11914 13826 13827 13828 11912 11911 13824 13825 13831 13829 11917 13830 13605 13832 13833 
1585 1586 1883 1882 1618 1619 1916 1915 11696 13608 13609 13599 11923 13835 13836 13826 11911 11921 13834 13824 13829 13837 11925 13838 13612 13839 13840 
1586 1587 1884 1883 1619 1620 1917 1916 11703 13615 13616 13608 11930 13842 13843 13835 11921 11928 13841 13834 13837 13844 11932 13845 13619 13846 13847 
1587 1588 1885 1884 1620 1621 1918 1917 11710 13622 13623 13615 11937 13849 13850 13842 11928 11935 13848 13841 13844 13851 11939 13852 13626 13853 13854 
1588 1589 1886 1885 1621 1622 1919 1918 11717 13629 13630 13622 11944 13856 13857 13849 11935 11942 13855 13848 13851 13858 11946 13859 13633 13860 13861 
1589 1590 1887 1886 1622 1623 1920 1919 11724 13636 13637 13629 11951 13863 13864 13856 11942 11949 13862 13855 13858 13865 11953 13866 13640 13867 13868 
1590 1591 1888 1887 1623 1624 1921 1920 11731 13643 13644 13636 11958 13870 13871 13863 11949 11956 13869 13862 13865 13872 11960 13873 13647 13874 13875 
1591 1592 1889 1888 1624 1625 1922 1921 11738 13650 13651 13643 11965 13877 13878 13870 11956 11963 13876 13869 13872 13879 11967 13880 13654 13881 13882 
1592 1593 1890 1889 1625 1626 1923 1922 11745 13657 13658 13650 11972 13884 13885 13877 11963 11970 13883 13876 13879 13886 11974 13887 13661 13888 13889 
1593 1594 1891 1890 1626 1627 1924 1923 11752 13664 13665 13657 11979 13891 13892 13884 11970 11977 13890 13883 13886 13893 11981 13894 13668 13895 13896 
1594 1595 1892 1891 1627 1628 1925 1924 11759 13671 13672 13664 11986 13898 13899 13891 11977 11984 13897 13890 13893 13900 11988 13901 13675 13902 13903 
1595 1596 1893 1892 1628 1629 1926 1925 11766 13678 13679 13671 11993 13905 13906 13898 11984 11991 13904 13897 13900 13907 11995 13908 13682 13909 13910 
1596 1597 1894 1893 1629 1630 1927 1926 11773 13685 13686 13678 12000 13912 13913 13905 11991 11998 13911 13904 13907 13914 12002 13915 13689 13916 13917 
1597 1598 1895 1894 1630 1631 1928 1927 11780 13692 13693 13685 12007 13919 13920 13912 11998 12005 13918 13911 13914 13921 12009 13922 13696 13923 13924 
1598 1599 1896 1895 1631 1632 1929 1928 11787 13699 13700 13692 12014 13926 13927 13919 12005 12012 13925 13918 13921 13928 12016 13929 13703 13930 13931 
1599 1600 1897 1896 1632 1633 1930 1929 11794 13706 13707 13699 12021 13933 13934 13926 12012 12019 13932 13925 13928 13935 12023 13936 13710 13937 13938 
1600 1601 1898 1897 1633 1634 1931 1930 11801 13713 13714 13706 12028 13940 13941 13933 12019 12026 13939 13932 13935 13942 12030 13943 13717 13944 13945 
1601 1602 1899 1898 1634 1635 1932 1931 11808 13720 13721 13713 12035 13947 13948 13940 12026 12033 13946 13939 13942 13949 12037 13950 13724 13951 13952 
1602 1603 1900 1899 1635 1636 1933 1932 11815 13727 13728 13720 12042 13954 13955 13947 12033 12040 13953 13946 13949 13956 12044 13957 13731 13958 13959 
1603 1604 1901 1900 1636 1637 1934 1933 11822 13734 13735 13727 12049 13961 13962 13954 12040 12047 13960 13953 13956 13963 12051 13964 13738 13965 13966 
1604 1605 1902 1901 1637 1638 1935 1934 11829 13741 13742 13734 12056 13968 13969 13961 12047 12054 13967 13960 13963 13970 12058 13971 13745 13972 13973 
1605 1606 1903 1902 1638 1639 1936 1935 11836 13748 13749 13741 12063 13975 13976 13968 12054 12061 13974 13967 13970 13977 12065 13978 13752 13979 13980 
1606 1607 1904 1903 1639 1640 1937 1936 11843 13755 13756 13748 12070 13982 13983 13975 12061 12068 13981 13974 13977 13984 12072 13985 13759 13986 13987 
1607 1608 1905 1904 1640 1641 1938 1937 11850 13762 13763 13755 12077 13989 13990 13982 12068 12075 13988 13981 13984 13991 12079 13992 13766 13993 13994 
1608 1609 1906 1905 1641 1642 1939 1938 11857 13769 13770 13762 12084 13996 13997 13989 12075 12082 13995 13988 13991 13998 12086 13999 13773 14000 14001 
1609 1610 1907 1906 1642 1643 1940 1939 11864 13776 13777 13769 12091 14003 14004 13996 12082 12089 14002 13995 13998 14005 12093 14006 13780 14007 14008 
1610 1611 1908 1907 1643 1644 1941 1940 11871 13783 13784 13776 12098 14010 14011 14003 12089 12096 14009 14002 14005 14012 12100 14013 13787 14014 14015 
1611 1612 1909 1908 1644 1645 1942 1941 11878 13790 13791 13783 12105 14017 14018 14010 12096 12103 14016 14009 14012 14019 12107 14020 13794 14021 14022 
1612 1613 1910 1909 1645 1646 1943 1942 11885 13797 13798 13790 12112 14024 14025 14017 12103 12110 14023 14016 14019 14026 12114 14027 13801 14028 14029 
1613 1614 1911 1910 1646 1647 1944 1943 11892 13804 13805 13797 12119 14031 14032 14024 12110 12117 14030 14023 14026 14033 12121 14034 13808 14035 14036 
1614 1615 1912 1911 1647 1648 1945 1944 11899 13811 13812 13804 12126 14038 14039 14031 12117 12124 14037 14030 14033 14040 12128 14041 13815 14042 14043 
1615 1616 1913 1912 1648 1649 1946 1945 11906 13818 13819 13811 12133 14045 14046 14038 12124 12131 14044 14037 14040 14047 12135 14048 13822 14049 14050 
1617 1618 1915 1914 1650 1651 1948 1947 11914 13826 13827 13828 12141 14053 14054 14055 12139 12138 14051 14052 14058 14056 12144 14057 13832 14059 14060 
1618 1619 1916 1915 1651 1652 1949 1948 11923 13835 13836 13826 12150 14062 14063 14053 12138 12148 14061 14051 14056 14064 12152 14065 13839 14066 14067 
1619 1620 1917 1916 1652 1653 1950 1949 11930 13842 13843 13835 12157 14069 14070 14062 12148 12155 14068 14061 14064 14071 12159 14072 13846 14073 14074 
1620 1621 1918 1917 1653 1654 1951 1950 11937 13849 13850 13842 12164 14076 14077 14069 12155 12162 14075 14068 14071 14078 12166 14079 13853 14080 14081 
1621 1622 1919 1918 1654 1655 1952 1951 11944 13856 13857 13849 12171 14083 14084 14076 12162 12169 14082 14075 14078 14085 12173 14086 13860 14087 14088 
1622 1623 1920 1919 1655 1656 1953 1952 11951 13863 13864 13856 12178 14090 14091 14083 12169 12176 14089 14082 14085 14092 12180 14093 13867 14094 14095 
1623 1624 1921 1920 1656 1657 1954 1953 11958 13870 13871 13863 12185 14097 14098 14090 12176 12183 14096 14089 14092 14099 12187 14100 13874 14101 14102 
1624 1625 1922 1921 1657 1658 1955 1954 11965 13877 13878 13870 12192 14104 14105 14097 12183 12190 14103 14096 14099 14106 12194 14107 13881 14108 14109 
1625 1626 1923 1922 1658 1659 1956 1955 11972 13884 13885 13877 12199 14111 14112 14104 12190 12197 14110 14103 14106 14113 12201 14114 13888 14115 14116 
1626 1627 1924 1923 1659 1660 1957 1956 11979 13891 13892 13884 12206 14118 14119 14111 12197 12204 14117 14110 14113 14120 12208 14121 13895 14122 14123 
1627 1628 1925 1924 1660 1661 1958 1957 11986 13898 13899 13891 12213 14125 14126 14118 12204 12211 14124 14117 14120 14127 12215 14128 13902 14129 14130 
1628 1629 1926 1925 1661 1662 1959 1958 11993 13905 13906 13898 12220 14132 14133 14125 12211 12218 14131 14124 14127 14134 12222 14135 13909 14136 14137 
1629 1630 1927 1926 1662 1663 1960 1959 12000 13912 13913 13905 12227 14139 14140 14132 12218 12225 14138 14131 14134 14141 12229 14142 13916 14143 14144 
1630 1631 1928 1927 1663 1664 1961 1960 12007 13919 13920 13912 12234 14146 14147 14139 12225 12232 14145 14138 14141 14148 12236 14149 13923 14150 14151 
1631 1632 1929 1928 1664 1665 1962 1961 12014 13926 13927 13919 12241 14153 14154 14146 12232 12239 14152 14145 14148 14155 12243 14156 13930 14157 14158 
1632 1633 1930 1929 1665 1666 1963 1962 12021 13933 13934 13926 12248 14160 14161 14153 12239 12246 14159 14152 14155 14162 12250 14163 13937 14164 14165 
1633 1634 1931 1930 1666 1667 1964 1963 12028 13940 13941 13933 12255 14167 14168 14160 12246 12253 14166 14159 14162 14169 12257 14170 13944 14171 14172 
1634 1635 1932 1931 1667 1668 1965 1964 12035 13947 13948 13940 12262 14174 14175 14167 12253 12260 14173 14166 14169 14176 12264 14177 13951 14178 14179 
1635 1636 1933 1932 1668 1669 1966 1965 12042 13954 13955 13947 12269 14181 14182 14174 12260 12267 14180 14173 14176 14183 12271 14184 13958 14185 14186 
1636 1637 1934 1933 1669 1670 1967 1966 12049 13961 13962 13954 12276 14188 14189 14181 12267 12274 14187 14180 14183 14190 12278 14191 13965 14192 14193 
1637 1638 1935 1934 1670 1671 1968 1967 12056 13968 13969 13961 12283 14195 14196 14188 12274 12281 14194 14187 14190 14197 12285 14198 13972 14199 14200 
1638 1639 1936 1935 1671 1672 1969 1968 12063 13975 13976 13968 12290 14202 14203 14195 12281 12288 14201 14194 14197 14204 12292 14205 13979 14206 14207 
1639 1640 1937 1936 1672 1673 1970 1969 12070 13982 13983 13975 12297 14209 14210 14202 12288 12295 14208 14201 14204 14211 12299 14212 13986 14213 14214 
1640 1641 1938 1937 1673 1674 1971 1970 12077 13989 13990 13982 12304 14216 14217 14209 12295 12302 14215 14208 14211 14218 12306 14219 13993 14220 14221 
1641 1642 1939 1938 1674 1675 1972 1971 12084 13996 13997 13989 12311 14223 14224 14216 12302 12309 14222 14215 14218 14225 12313 14226 14000 14227 14228 
1642 1643 1940 1939 1675 1676 1973 1972 12091 14003 14004 13996 12318 14230 14231 14223 12309 12316 14229 14222 14225 14232 12320 14233 14007 14234 14235 
1643 1644 1941 1940 1676 1677 1974 1973 12098 14010 14011 14003 12325 14237 14238 14230 12316 12323 14236 14229 14232 14239 12327 14240 14014 14241 14242 
1644 1645 1942 1941 1677 1678 1975 1974 12105 14017 14018 14010 12332 14244 14245 14237 12323 12330 14243 14236 14239 14246 12334 14247 14021 14248 14249 
1645 1646 1943 1942 1678 1679 1976 1975 12112 14024 14025 14017 12339 14251 14252 14244 12330 12337 14250 14243 14246 14253 12341 14254 14028 14255 14256 
1646 1647 1944 1943 1679 1680 1977 1976 12119 14031 14032 14024 12346 14258 14259 14251 12337 12344 14257 14250 14253 14260 12348 14261 14035 14262 14263 
1647 1648 1945 1944 1680 1681 1978 1977 12126 14038 14039 14031 12353 14265 14266 14258 12344 12351 14264 14257 14260 14267 12355 14268 14042 14269 14270 
1648 1649 1946 1945 1681 1682 1979 1978 12133 14045 14046 14038 12360 14272 14273 14265 12351 12358 14271 14264 14267 14274 12362 14275 14049 14276 14277 
1650 1651 1948 1947 1683 1684 1981 1980 12141 14053 14054 14055 12368 14280 14281 14282 12366 12365 14278 14279 14285 14283 12371 14284 14059 14286 14287 
1651 1652 1949 1948 1684 1685 1982 1981 12150 14062 14063 14053 12377 14289 14290 14280 12365 12375 14288 14278 14283 14291 12379 14292 14066 14293 14294 
1652 1653 1950 1949 1685 1686 1983 1982 12157 14069 14070 14062 12384 14296 14297 14289 12375 12382 14295 14288 14291 14298 12386 14299 14073 14300 14301 
1653 1654 1951 1950 1686 1687 1984 1983 12164 14076 14077 14069 12391 14303 14304 14296 12382 12389 14302 14295 14298 14305 12393 14306 14080 14307 14308 
1654 1655 1952 1951 1687 1688 1985 1984 12171 14083 14084 14076 12398 14310 14311 14303 12389 12396 14309 14302 14305 14312 12400 14313 14087 14314 14315 
1655 1656 1953 1952 1688 1689 1986 1985 12178 14090 14091 14083 12405 14317 14318 14310 12396 12403 14316 14309 14312 14319 12407 14320 14094 14321 14322 
1656 1657 1954 1953 1689 1690 1987 1986 12185 14097 14098 14090 12412 14324 14325 14317 12403 12410 14323 14316 14319 14326 12414 14327 14101 14328 14329 
1657 1658 1955 1954 1690 1691 1988 1987 12192 14104 14105 14097 12419 14331 14332 14324 12410 12417 14330 14323 14326 14333 12421 14334 14108 14335 14336 
1658 1659 1956 1955 1691 1692 1989 1988 12199 14111 14112 14104 12426 14338 14339 14331 12417 12424 14337 14330 14333 14340 12428 14341 14115 14342 14343 
1659 1660 1957 1956 1692 1693 1990 1989 12206 14118 14119 14111 12433 14345 14346 14338 12424 12431 14344 14337 14340 14347 12435 14348 14122 14349 14350 
1660 1661 1958 1957 1693 1694 1991 1990 12213 14125 14126 14118 12440 14352 14353 14345 12431 12438 14351 14344 14347 14354 12442 14355 14129 14356 14357 
1661 1662 1959 1958 1694 1695 1992 1991 12220 14132 14133 14125 12447 14359 14360 14352 12438 12445 14358 14351 14354 14361 12449 14362 14136 14363 14364 
1662 1663 1960 1959 1695 1696 1993 1992 12227 14139 14140 14132 12454 14366 14367 14359 12445 12452 14365 14358 14361 14368 12456 14369 14143 14370 14371 
1663 1664 1961 1960 1696 1697 1994 1993 12234 14146 14147 14139 12461 14373 14374 14366 12452 12459 14372 14365 14368 14375 12463 14376 14150 14377 14378 
1664 1665 1962 1961 1697 1698 1995 1994 12241 14153 14154 14146 12468 14380 14381 14373 12459 12466 14379 14372 14375 14382 12470 14383 14157 14384 14385 
1665 1666 1963 1962 1698 1699 1996 1995 12248 14160 14161 14153 12475 14387 14388 14380 12466 12473 14386 14379 14382 14389 12477 14390 14164 14391 14392 
1666 1667 1964 1963 1699 1700 1997 1996 12255 14167 14168 14160 12482 14394 14395 14387 12473 12480 14393 14386 14389 14396 12484 14397 14171 14398 14399 
1667 1668 1965 1964 1700 1701 1998 1997 12262 14174 14175 14167 12489 14401 14402 14394 12480 12487 14400 14393 14396 14403 12491 14404 14178 14405 14406 
1668 1669 1966 1965 1701 1702 1999 1998 12269 14181 14182 14174 12496 14408 14409 14401 12487 12494 14407 14400 14403 14410 12498 14411 14185 14412 14413 
1669 1670 1967 1966 1702 1703 2000 1999 12276 14188 14189 14181 12503 14415 14416 14408 12494 12501 14414 14407 14410 14417 12505 14418 14192 14419 14420 
1670 1671 1968 1967 1703 1704 2001 2000 12283 14195 14196 14188 12510 14422 14423 14415 12501 12508 14421 14414 14417 14424 12512 14425 14199 14426 14427 
1671 1672 1969 1968 1704 1705 2002 2001 12290 14202 14203 14195 12517 14429 14430 14422 12508 12515 14428 14421 14424 14431 12519 14432 14206 14433 14434 
1672 1673 1970 1969 1705 1706 2003 2002 12297 14209 14210 14202 12524 14436 14437 14429 12515 12522 14435 14428 14431 14438 12526 14439 14213 14440 14441 
1673 1674 1971 1970 1706 1707 2004 2003 12304 14216 14217 14209 12531 14443 14444 14436 12522 12529 14442 14435 14438 14445 12533 14446 14220 14447 14448 
1674 1675 1972 1971 1707 1708 2005 2004 12311 14223 14224 14216 12538 14450 14451 14443 12529 12536 14449 14442 14445 14452 12540 14453 14227 14454 14455 
1675 1676 1973 1972 1708 1709 2006 2005 12318 14230 14231 14223 12545 14457 14458 14450 12536 12543 14456 14449 14452 14459 12547 14460 14234 14461 14462 
1676 1677 1974 1973 1709 1710 2007 2006 12325 14237 14238 14230 12552 14464 14465 14457 12543 12550 14463 14456 14459 14466 12554 14467 14241 14468 14469 
1677 1678 1975 1974 1710 1711 2008 2007 12332 14244 14245 14237 12559 14471 14472 14464 12550 12557 14470 14463 14466 14473 12561 14474 14248 14475 14476 
1678 1679 1976 1975 1711 1712 2009 2008 12339 14251 14252 14244 12566 14478 14479 14471 12557 12564 14477 14470 14473 14480 12568 14481 14255 14482 14483 
1679 1680 1977 1976 1712 1713 2010 2009 12346 14258 14259 14251 12573 14485 14486 14478 12564 12571 14484 14477 14480 14487 12575 14488 14262 14489 14490 
1680 1681 1978 1977 1713 1714 2011 2010 12353 14265 14266 14258 12580 14492 14493 14485 12571 12578 14491 14484 14487 14494 12582 14495 14269 14496 14497 
1681 1682 1979 1978 1714 1715 2012 2011 12360 14272 14273 14265 12587 14499 14500 14492 12578 12585 14498 14491 14494 14501 12589 14502 14276 14503 14504 
1683 1684 1981 1980 1716 1717 2014 2013 12368 14280 14281 14282 12595 14507 14508 14509 12593 12592 14505 14506 14512 14510 12598 14511 14286 14513 14514 
1684 1685 1982 1981 1717 1718 2015 2014 12377 14289 14290 14280 12604 14516 14517 14507 12592 12602 14515 14505 14510 14518 12606 14519 14293 14520 14521 
1685 1686 1983 1982 1718 1719 2016 2015 12384 14296 14297 14289 12611 14523 14524 14516 12602 12609 14522 14515 14518 14525 12613 14526 14300 14527 14528 
1686 1687 1984 1983 1719 1720 2017 2016 12391 14303 14304 14296 12618 14530 14531 14523 12609 12616 14529 14522 14525 14532 12620 14533 14307 14534 14535 
1687 1688 1985 1984 1720 1721 2018 2017 12398 14310 14311 14303 12625 14537 14538 14530 12616 12623 14536 14529 14532 14539 12627 14540 14314 14541 14542 
1688 1689 1986 1985 1721 1722 2019 2018 12405 14317 14318 14310 12632 14544 14545 14537 12623 12630 14543 14536 14539 14546 12634 14547 14321 14548 14549 
1689 1690 1987 1986 1722 1723 2020 2019 12412 14324 14325 14317 12639 14551 14552 14544 12630 12637 14550 14543 14546 14553 12641 14554 14328 14555 14556 
1690 1691 1988 1987 1723 1724 2021 2020 12419 14331 14332 14324 12646 14558 14559 14551 12637 12644 14557 14550 14553 14560 12648 14561 14335 14562 14563 
1691 1692 1989 1988 1724 1725 2022 2021 12426 14338 14339 14331 12653 14565 14566 14558 12644 12651 14564 14557 14560 14567 12655 14568 14342 14569 14570 
1692 1693 1990 1989 1725 1726 2023 2022 12433 14345 14346 14338 12660 14572 14573 14565 12651 12658 14571 14564 14567 14574 12662 14575 14349 14576 14577 
1693 1694 1991 1990 1726 1727 2024 2023 12440 14352 14353 14345 12667 14579 14580 14572 12658 12665 14578 14571 14574 14581 12669 14582 14356 14583 14584 
1694 1695 1992 1991 1727 1728 2025 2024 12447 14359 14360 14352 12674 14586 14587 14579 12665 12672 14585 14578 14581 14588 12676 14589 14363 14590 14591 
1695 1696 1993 1992 1728 1729 2026 2025 12454 14366 14367 14359 12681 14593 14594 14586 12672 12679 14592 14585 14588 14595 12683 14596 14370 14597 14598 
1696 1697 1994 1993 1729 1730 2027 2026 12461 14373 14374 14366 12688 14600 14601 14593 12679 12686 14599 14592 14595 14602 12690 14603 14377 14604 14605 
1697 1698 1995 1994 1730 1731 2028 2027 12468 14380 14381 14373 12695 14607 14608 14600 12686 12693 14606 14599 14602 14609 12697 14610 14384 14611 14612 
1698 1699 1996 1995 1731 1732 2029 2028 12475 14387 14388 14380 12702 14614 14615 14607 12693 12700 14613 14606 14609 14616 12704 14617 14391 14618 14619 
1699 1700 1997 1996 1732 1733 2030 2029 12482 14394 14395 14387 12709 14621 14622 14614 12700 12707 14620 14613 14616 14623 12711 14624 14398 14625 14626 
1700 1701 1998 1997 1733 1734 2031 2030 12489 14401 14402 14394 12716 14628 14629 14621 12707 12714 14627 14620 14623 14630 12718 14631 14405 14632 14633 
1701 1702 1999 1998 1734 1735 2032 2031 12496 14408 14409 14401 12723 14635 14636 14628 12714 12721 14634 14627 14630 14637 12725 14638 14412 14639 14640 
1702 1703 2000 1999 1735 1736 2033 2032 12503 14415 14416 14408 12730 14642 14643 14635 12721 12728 14641 14634 14637 14644 12732 14645 14419 14646 14647 
1703 1704 2001 2000 1736 1737 2034 2033 12510 14422 14423 14415 12737 14649 14650 14642 12728 12735 14648 14641 14644 14651 12739 14652 14426 14653 14654 
1704 1705 2002 2001 1737 1738 2035 2034 12517 14429 14430 14422 12744 14656 14657 14649 12735 12742 14655 14648 14651 14658 12746 14659 14433 14660 14661 
1705 1706 2003 2002 1738 1739 2036 2035 12524 14436 14437 14429 12751 14663 14664 14656 12742 12749 14662 14655 14658 14665 12753 14666 14440 14667 14668 
1706 1707 2004 2003 1739 1740 2037 2036 12531 14443 14444 14436 12758 14670 14671 14663 12749 12756 14669 14662 14665 14672 12760 14673 14447 14674 14675 
1707 1708 2005 2004 1740 1741 2038 2037 12538 14450 14451 14443 12765 14677 14678 14670 12756 12763 14676 14669 14672 14679 12767 14680 14454 14681 14682 
1708 1709 2006 2005 1741 1742 2039 2038 12545 14457 14458 14450 12772 14684 14685 14677 12763 12770 14683 14676 14679 14686 12774 14687 14461 14688 14689 
1709 1710 2007 2006 1742 1743 2040 2039 12552 14464 14465 14457 12779 14691 14692 14684 12770 12777 14690 14683 14686 14693 12781 14694 14468 14695 14696 
1710 1711 2008 2007 1743 1744 2041 2040 12559 14471 14472 14464 12786 14698 14699 14691 12777 12784 14697 14690 14693 14700 12788 14701 14475 14702 14703 
1711 1712 2009 2008 1744 1745 2042 2041 12566 14478 14479 14471 12793 14705 14706 14698 12784 12791 14704 14697 14700 14707 12795 14708 14482 14709 14710 
1712 1713 2010 2009 1745 1746 2043 2042 12573 14485 14486 14478 12800 14712 14713 14705 12791 12798 14711 14704 14707 14714 12802 14715 14489 14716 14717 
1713 1714 2011 2010 1746 1747 2044 2043 12580 14492 14493 14485 12807 14719 14720 14712 12798 12805 14718 14711 14714 14721 12809 14722 14496 14723 14724 
1714 1715 2012 2011 1747 1748 2045 2044 12587 14499 14500 14492 12814 14726 14727 14719 12805 12812 14725 14718 14721 14728 12816 14729 14503 14730 14731 
1716 1717 2014 2013 1749 1750 2047 2046 12595 14507 14508 14509 12822 14734 14735 14736 12820 12819 14732 14733 14739 14737 12825 14738 14513 14740 14741 
1717 1718 2015 2014 1750 1751 2048 2047 12604 14516 14517 14507 12831 14743 14744 14734 12819 12829 14742 14732 14737 14745 12833 14746 14520 14747 14748 
1718 1719 2016 2015 1751 1752 2049 2048 12611 14523 14524 14516 12838 14750 14751 14743 12829 12836 14749 14742 14745 14752 12840 14753 14527 14754 14755 
1719 1720 2017 2016 1752 1753 2050 2049 12618 14530 14531 14523 12845 14757 14758 14750 12836 12843 14756 14749 14752 14759 12847 14760 14534 14761 14762 
1720 1721 2018 2017 1753 1754 2051 2050 12625 14537 14538 14530 12852 14764 14765 14757 12843 12850 14763 14756 14759 14766 12854 14767 14541 14768 14769 
1721 1722 2019 2018 1754 1755 2052 2051 12632 14544 14545 14537 12859 14771 14772 14764 12850 12857 14770 14763 14766 14773 12861 14774 14548 14775 14776 
1722 1723 2020 2019 1755 1756 2053 2052 12639 14551 14552 14544 12866 14778 14779 14771 12857 12864 14777 14770 14773 14780 12868 14781 14555 14782 14783 
1723 1724 2021 2020 1756 1757 2054 2053 12646 14558 14559 14551 12873 14785 14786 14778 12864 12871 14784 14777 14780 14787 12875 14788 14562 14789 14790 
1724 1725 2022 2021 1757 1758 2055 2054 12653 14565 14566 14558 12880 14792 14793 14785 12871 12878 14791 14784 14787 14794 12882 14795 14569 14796 14797 
1725 1726 2023 2022 1758 1759 2056 2055 12660 14572 14573 14565 12887 14799 14800 14792 12878 12885 14798 14791 14794 14801 12889 14802 14576 14803 14804 
1726 1727 2024 2023 1759 1760 2057 2056 12667 14579 14580 14572 12894 14806 14807 14799 12885 12892 14805 14798 14801 14808 12896 14809 14583 14810 14811 
1727 1728 2025 2024 1760 1761 2058 2057 12674 14586 14587 14579 12901 14813 14814 14806 12892 12899 14812 14805 14808 14815 12903 14816 14590 14817 14818 
1728 1729 2026 2025 1761 1762 2059 2058 12681 14593 14594 14586 12908 14820 14821 14813 12899 12906 14819 14812 14815 14822 12910 14823 14597 14824 14825 
1729 1730 2027 2026 1762 1763 2060 2059 12688 14600 14601 14593 12915 14827 14828 14820 12906 12913 14826 14819 14822 14829 12917 14830 14604 14831 14832 
1730 1731 2028 2027 1763 1764 2061 2060 12695 14607 14608 14600 12922 14834 14835 14827 12913 12920 14833 14826 14829 14836 12924 14837 14611 14838 14839 
1731 1732 2029 2028 1764 1765 2062 2061 12702 14614 14615 14607 12929 14841 14842 14834 12920 12927 14840 14833 14836 14843 12931 14844 14618 14845 14846 
1732 1733 2030 2029 1765 1766 2063 2062 12709 14621 14622 14614 12936 14848 14849 14841 12927 12934 14847 14840 14843 14850 12938 14851 14625 14852 14853 
1733 1734 2031 2030 1766 1767 2064 2063 12716 14628 14629 14621 12943 14855 14856 14848 12934 12941 14854 14847 14850 14857 12945 14858 14632 14859 14860 
1734 1735 2032 2031 1767 1768 2065 2064 12723 14635 14636 14628 12950 14862 14863 14855 12941 12948 14861 14854 14857 14864 12952 14865 14639 14866 14867 
1735 1736 2033 2032 1768 1769 2066 2065 12730 14642 14643 14635 12957 14869 14870 14862 12948 12955 14868 14861 14864 14871 12959 14872 14646 14873 14874 
1736 1737 2034 2033 1769 1770 2067 2066 12737 14649 14650 14642 12964 14876 14877 14869 12955 12962 14875 14868 14871 14878 12966 14879 14653 14880 14881 
1737 1738 2035 2034 1770 1771 2068 2067 12744 14656 14657 14649 12971 14883 14884 14876 12962 12969 14882 14875 14878 14885 12973 14886 14660 14887 14888 
1738 1739 2036 2035 1771 1772 2069 2068 12751 14663 14664 14656 12978 14890 14891 14883 12969 12976 14889 14882 14885 14892 12980 14893 14667 14894 14895 
1739 1740 2037 2036 1772 1773 2070 2069 12758 14670 14671 14663 12985 14897 14898 14890 12976 12983 14896 14889 14892 14899 12987 14900 14674 14901 14902 
1740 1741 2038 2037 1773 1774 2071 2070 12765 14677 14678 14670 12992 14904 14905 14897 12983 12990 14903 14896 14899 14906 12994 14907 14681 14908 14909 
1741 1742 2039 2038 1774 1775 2072 2071 12772 14684 14685 14677 12999 14911 14912 14904 12990 12997 14910 14903 14906 14913 13001 14914 14688 14915 14916 
1742 1743 2040 2039 1775 1776 2073 2072 12779 14691 14692 14684 13006 14918 14919 14911 12997 13004 14917 14910 14913 14920 13008 14921 14695 14922 14923 
1743 1744 2041 2040 1776 1777 2074 2073 12786 14698 14699 14691 13013 14925 14926 14918 13004 13011 14924 14917 14920 14927 13015 14928 14702 14929 14930 
1744 1745 2042 2041 1777 1778 2075 2074 12793 14705 14706 14698 13020 14932 14933 14925 13011 13018 14931 14924 14927 14934 13022 14935 14709 14936 14937 
1745 1746 2043 2042 1778 1779 2076 2075 12800 14712 14713 14705 13027 14939 14940 14932 13018 13025 14938 14931 14934 14941 13029 14942 14716 14943 14944 
1746 1747 2044 2043 1779 1780 2077 2076 12807 14719 14720 14712 13034 14946 14947 14939 13025 13032 14945 14938 14941 14948 13036 14949 14723 14950 14951 
1747 1748 2045 2044 1780 1781 2078 2077 12814 14726 14727 14719 13041 14953 14954 14946 13032 13039 14952 14945 14948 14955 13043 14956 14730 14957 14958 
1782 1783 2080 2079 1815 1816 2113 2112 13047 14959 14960 14961 13052 14964 14965 14966 13050 13049 14962 14963 14970 14968 13056 14969 14967 14971 14972 
1783 1784 2081 2080 1816 1817 2114 2113 13061 14973 14974 14959 13064 14976 14977 14964 13049 13062 14975 14962 14968 14979 13067 14980 14978 14981 14982 
1784 1785 2082 2081 1817 1818 2115 2114 13071 14983 14984 14973 13074 14986 14987 14976 13062 13072 14985 14975 14979 14989 13077 14990 14988 14991 14992 
1785 1786 2083 2082 1818 1819 2116 2115 13081 14993 14994 14983 13084 14996 14997 14986 13072 13082 14995 14985 14989 14999 13087 15000 14998 15001 15002 
1786 1787 2084 2083 1819 1820 2117 2116 13091 15003 15004 14993 13094 15006 15007 14996 13082 13092 15005 14995 14999 15009 13097 15010 15008 15011 15012 
1787 1788 2085 2084 1820 1821 2118 2117 13101 15013 15014 15003 13104 15016 15017 15006 13092 13102 15015 15005 15009 15019 13107 15020 15018 15021 15022 
1788 1789 2086 2085 1821 1822 2119 2118 13111 15023 15024 15013 13114 15026 15027 15016 13102 13112 15025 15015 15019 15029 13117 15030 15028 15031 15032 
1789 1790 2087 2086 1822 1823 2120 2119 13121 15033 15034 15023 13124 15036 15037 15026 13112 13122 15035 15025 15029 15039 13127 15040 15038 15041 15042 
1790 1791 2088 2087 1823 1824 2121 2120 13131 15043 15044 15033 13134 15046 15047 15036 13122 13132 15045 15035 15039 15049 13137 15050 15048 15051 15052 
1791 1792 2089 2088 1824 1825 2122 2121 13141 15053 15054 15043 13144 15056 15057 15046 13132 13142 15055 15045 15049 15059 13147 15060 15058 15061 15062 
1792 1793 2090 2089 1825 1826 2123 2122 13151 15063 15064 15053 13154 15066 15067 15056 13142 13152 15065 15055 15059 15069 13157 15070 15068 15071 15072 
1793 1794 2091 2090 1826 1827 2124 2123 13161 15073 15074 15063 13164 15076 15077 15066 13152 13162 15075 15065 15069 15079 13167 15080 15078 15081 15082 
1794 1795 2092 2091 1827 1828 2125 2124 13171 15083 15084 15073 13174 15086 15087 15076 13162 13172 15085 15075 15079 15089 13177 15090 15088 15091 15092 
1795 1796 2093 2092 1828 1829 2126 2125 13181 15093 15094 15083 13184 15096 15097 15086 13172 13182 15095 15085 15089 15099 13187 15100 15098 15101 15102 
1796 1797 2094 2093 1829 1830 2127 2126 13191 15103 15104 15093 13194 15106 15107 15096 13182 13192 15105 15095 15099 15109 13197 15110 15108 15111 15112 
1797 1798 2095 2094 1830 1831 2128 2127 13201 15113 15114 15103 13204 15116 15117 15106 13192 13202 15115 15105 15109 15119 13207 15120 15118 15121 15122 
1798 1799 2096 2095 1831 1832 2129 2128 13211 15123 15124 15113 13214 15126 15127 15116 13202 13212 15125 15115 15119 15129 13217 15130 15128 15131 15132 
1799 1800 2097 2096 1832 1833 2130 2129 13221 15133 15134 15123 13224 15136 15137 15126 13212 13222 15135 15125 15129 15139 13227 15140 15138 15141 15142 
1800 1801 2098 2097 1833 1834 2131 2130 13231 15143 15144 15133 13234 15146 15147 15136 13222 13232 15145 15135 15139 15149 13237 15150 15148 15151 15152 
1801 1802 2099 2098 1834 1835 2132 2131 13241 15153 15154 15143 13244 15156 15157 15146 13232 13242 15155 15145 15149 15159 13247 15160 15158 15161 15162 
1802 1803 2100 2099 1835 1836 2133 2132 13251 15163 15164 15153 13254 15166 15167 15156 13242 13252 15165 15155 15159 15169 13257 15170 15168 15171 15172 
1803 1804 2101 2100 1836 1837 2134 2133 13261 15173 15174 15163 13264 15176 15177 15166 13252 13262 15175 15165 15169 15179 13267 15180 15178 15181 15182 
1804 1805 2102 2101 1837 1838 2135 2134 13271 15183 15184 15173 13274 15186 15187 15176 13262 13272 15185 15175 15179 15189 13277 15190 15188 15191 15192 
1805 1806 2103 2102 1838 1839 2136 2135 13281 15193 15194 15183 13284 15196 15197 15186 13272 13282 15195 15185 15189 15199 13287 15200 15198 15201 15202 
1806 1807 2104 2103 1839 1840 2137 2136 13291 15203 15204 15193 13294 15206 15207 15196 13282 13292 15205 15195 15199 15209 13297 15210 15208 15211 15212 
1807 1808 2105 2104 1840 1841 2138 2137 13301 15213 15214 15203 13304 15216 15217 15206 13292 13302 15215 15205 15209 15219 13307 15220 15218 15221 15222 
1808 1809 2106 2105 1841 1842 2139 2138 13311 15223 15224 15213 13314 15226 15227 15216 13302 13312 15225 15215 15219 15229 13317 15230 15228 15231 15232 
1809 1810 2107 2106 1842 1843 2140 2139 13321 15233 15234 15223 13324 15236 15237 15226 13312 13322 15235 15225 15229 15239 13327 15240 15238 15241 15242 
1810 1811 2108 2107 1843 1844 2141 2140 13331 15243 15244 15233 13334 15246 15247 15236 13322 13332 15245 15235 15239 15249 13337 15250 15248 15251 15252 
1811 1812 2109 2108 1844 1845 2142 2141 13341 15253 15254 15243 13344 15256 15257 15246 13332 13342 15255 15245 15249 15259 13347 15260 15258 15261 15262 
1812 1813 2110 2109 1845 1846 2143 2142 13351 15263 15264 15253 13354 15266 15267 15256 13342 13352 15265 15255 15259 15269 13357 15270 15268 15271 15272 
1813 1814 2111 2110 1846 1847 2144 2143 13361 15273 15274 15263 13364 15276 15277 15266 13352 13362 15275 15265 15269 15279 13367 15280 15278 15281 15282 
1815 1816 2113 2112 1848 1849 2146 2145 13052 14964 14965 14966 13373 15285 15286 15287 13371 13370 15283 15284 15290 15288 13376 15289 14971 15291 15292 
1816 1817 2114 2113 1849 1850 2147 2146 13064 14976 14977 14964 13382 15294 15295 15285 13370 13380 15293 15283 15288 15296 13384 15297 14981 15298 15299 
1817 1818 2115 2114 1850 1851 2148 2147 13074 14986 14987 14976 13389 15301 15302 15294 13380 13387 15300 15293 15296 15303 13391 15304 14991 15305 15306 
1818 1819 2116 2115 1851 1852 2149 2148 13084 14996 14997 14986 13396 15308 15309 15301 13387 13394 15307 15300 15303 15310 13398 15311 15001 15312 15313 
1819 1820 2117 2116 1852 1853 2150 2149 13094 15006 15007 14996 13403 15315 15316 15308 13394 13401 15314 15307 15310 15317 13405 15318 15011 15319 15320 
1820 1821 2118 2117 1853 1854 2151 2150 13104 15016 15017 15006 13410 15322 15323 15315 13401 13408 15321 15314 15317 15324 13412 15325 15021 15326 15327 
1821 1822 2119 2118 1854 1855 2152 2151 13114 15026 15027 15016 13417 15329 15330 15322 13408 13415 15328 15321 15324 15331 13419 15332 15031 15333 15334 
1822 1823 2120 2119 1855 1856 2153 2152 13124 15036 15037 15026 13424 15336 15337 15329 13415 13422 15335 15328 15331 15338 13426 15339 15041 15340 15341 
1823 1824 2121 2120 1856 1857 2154 2153 13134 15046 15047 15036 13431 15343 15344 15336 13422 13429 15342 15335 15338 15345 13433 15346 15051 15347 15348 
1824 1825 2122 2121 1857 1858 2155 2154 13144 15056 15057 15046 13438 15350 15351 15343 13429 13436 15349 15342 15345 15352 13440 15353 15061 15354 15355 
1825 1826 2123 2122 1858 1859 2156 2155 13154 15066 15067 15056 13445 15357 15358 15350 13436 13443 15356 15349 15352 15359 13447 15360 15071 15361 15362 
1826 1827 2124 2123 1859 1860 2157 2156 13164 15076 15077 15066 13452 15364 15365 15357 13443 13450 15363 15356 15359 15366 13454 15367 15081 15368 15369 
1827 1828 2125 2124 1860 1861 2158 2157 13174 15086 15087 15076 13459 15371 15372 15364 13450 13457 15370 15363 15366 15373 13461 15374 15091 15375 15376 
1828 1829 2126 2125 1861 1862 2159 2158 13184 15096 15097 15086 13466 15378 15379 15371 13457 13464 15377 15370 15373 15380 13468 15381 15101 15382 15383 
1829 1830 2127 2126 1862 1863 2160 2159 13194 15106 15107 15096 13473 15385 15386 15378 13464 13471 15384 15377 15380 15387 13475 15388 15111 15389 15390 
1830 1831 2128 2127 1863 1864 2161 2160 13204 15116 15117 15106 13480 15392 15393 15385 13471 13478 15391 15384 15387 15394 13482 15395 15121 15396 15397 
1831 1832 2129 2128 1864 1865 2162 2161 13214 15126 15127 15116 13487 15399 15400 15392 13478 13485 15398 15391 15394 15401 13489 15402 15131 15403 15404 
1832 1833 2130 2129 1865 1866 2163 2162 13224 15136 15137 15126 13494 15406 15407 15399 13485 13492 15405 15398 15401 15408 13496 15409 15141 15410 15411 
1833 1834 2131 2130 1866 1867 2164 2163 13234 15146 15147 15136 13501 15413 15414 15406 13492 13499 15412 15405 15408 15415 13503 15416 15151 15417 15418 
1834 1835 2132 2131 1867 1868 2165 2164 13244 15156 15157 15146 13508 15420 15421 15413 13499 13506 15419 15412 15415 15422 13510 15423 15161 15424 15425 
1835 1836 2133 2132 1868 1869 2166 2165 13254 15166 15167 15156 13515 15427 15428 15420 13506 13513 15426 15419 15422 15429 13517 15430 15171 15431 15432 
1836 1837 2134 2133 1869 1870 2167 2166 13264 15176 15177 15166 13522 15434 15435 15427 13513 13520 15433 15426 15429 15436 13524 15437 15181 15438 15439 
1837 1838 2135 2134 1870 1871 2168 2167 13274 15186 15187 15176 13529 15441 15442 15434 13520 13527 15440 15433 15436 15443 13531 15444 15191 15445 15446 
1838 1839 2136 2135 1871 1872 2169 2168 13284 15196 15197 15186 13536 15448 15449 15441 13527 13534 15447 15440 15443 15450 13538 15451 15201 15452 15453 
1839 1840 2137 2136 1872 1873 2170 2169 13294 15206 15207 15196 13543 15455 15456 15448 13534 13541 15454 15447 15450 15457 13545 15458 15211 15459 15460 
1840 1841 2138 2137 1873 1874 2171 2170 13304 15216 15217 15206 13550 15462 15463 15455 13541 13548 15461 15454 15457 15464 13552 15465 15221 15466 15467 
1841 1842 2139 2138 1874 1875 2172 2171 13314 15226 15227 15216 13557 15469 15470 15462 13548 13555 15468 15461 15464 15471 13559 15472 15231 15473 15474 
1842 1843 2140 2139 1875 1876 2173 2172 13324 15236 15237 15226 13564 15476 15477 15469 13555 13562 15475 15468 15471 15478 13566 15479 15241 15480 15481 
1843 1844 2141 2140 1876 1877 2174 2173 13334 15246 15247 15236 13571 15483 15484 15476 13562 13569 15482 15475 15478 15485 13573 15486 15251 15487 15488 
1844 1845 2142 2141 1877 1878 2175 2174 13344 15256 15257 15246 13578 15490 15491 15483 13569 13576 15489 15482 15485 15492 13580 15493 15261 15494 15495 
1845 1846 2143 2142 1878 1879 2176 2175 13354 15266 15267 15256 13585 15497 15498 15490 13576 13583 15496 15489 15492 15499 13587 15500 15271 15501 15502 
1846 1847 2144 2143 1879 1880 2177 2176 13364 15276 15277 15266 13592 15504 15505 15497 13583 13590 15503 15496 15499 15506 13594 15507 15281 15508 15509 
1848 1849 2146 2145 1881 1882 2179 2178 13373 15285 15286 15287 13600 15512 15513 15514 13598 13597 15510 15511 15517 15515 13603 15516 15291 15518 15519 
1849 1850 2147 2146 1882 1883 2180 2179 13382 15294 15295 15285 13609 15521 15522 15512 13597 13607 15520 15510 15515 15523 13611 15524 15298 15525 15526 
1850 1851 2148 2147 1883 1884 2181 2180 13389 15301 15302 15294 13616 15528 15529 15521 13607 13614 15527 15520 15523 15530 13618 15531 15305 15532 15533 
1851 1852 2149 2148 1884 1885 2182 2181 13396 15308 15309 15301 13623 15535 15536 15528 13614 13621 15534 15527 15530 15537 13625 15538 15312 15539 15540 
1852 1853 2150 2149 1885 1886 2183 2182 13403 15315 15316 15308 13630 15542 15543 15535 13621 13628 15541 15534 15537 15544 13632 15545 15319 15546 15547 
1853 1854 2151 2150 1886 1887 2184 2183 13410 15322 15323 15315 13637 15549 15550 15542 13628 13635 15548 15541 15544 15551 13639 15552 15326 15553 15554 
1854 1855 2152 2151 1887 1888 2185 2184 13417 15329 15330 15322 13644 15556 15557 15549 13635 13642 15555 15548 15551 15558 13646 15559 15333 15560 15561 
1855 1856 2153 2152 1888 1889 2186 2185 13424 15336 15337 15329 13651 15563 15564 15556 13642 13649 15562 15555 15558 15565 13653 15566 15340 15567 15568 
1856 1857 2154 2153 1889 1890 2187 2186 13431 15343 15344 15336 13658 15570 15571 15563 13649 13656 15569 15562 15565 15572 13660 15573 15347 15574 15575 
1857 1858 2155 2154 1890 1891 2188 2187 13438 15350 15351 15343 13665 15577 15578 15570 13656 13663 15576 15569 15572 15579 13667 15580 15354 15581 15582 
1858 1859 2156 2155 1891 1892 2189 2188 13445 15357 15358 15350 13672 15584 15585 15577 13663 13670 15583 15576 15579 15586 13674 15587 15361 15588 15589 
1859 1860 2157 2156 1892 1893 2190 2189 13452 15364 15365 15357 13679 15591 15592 15584 13670 13677 15590 15583 15586 15593 13681 15594 15368 15595 15596 
1860 1861 2158 2157 1893 1894 2191 2190 13459 15371 15372 15364 13686 15598 15599 15591 13677 13684 15597 15590 15593 15600 13688 15601 15375 15602 15603 
1861 1862 2159 2158 1894 1895 2192 2191 13466 15378 15379 15371 13693 15605 15606 15598 13684 13691 15604 15597 15600 15607 13695 15608 15382 15609 15610 
1862 1863 2160 2159 1895 1896 2193 2192 13473 15385 15386 15378 13700 15612 15613 15605 13691 13698 15611 15604 15607 15614 13702 15615 15389 15616 15617 
1863 1864 2161 2160 1896 1897 2194 2193 13480 15392 15393 15385 13707 15619 15620 15612 13698 13705 15618 15611 15614 15621 13709 15622 15396 15623 15624 
1864 1865 2162 2161 1897 1898 2195 2194 13487 15399 15400 15392 13714 15626 15627 15619 13705 13712 15625 15618 15621 15628 13716 15629 15403 15630 15631 
1865 1866 2163 2162 1898 1899 2196 2195 13494 15406 15407 15399 13721 15633 15634 15626 13712 13719 15632 15625 15628 15635 13723 15636 15410 15637 15638 
1866 1867 2164 2163 1899 1900 2197 2196 13501 15413 15414 15406 13728 15640 15641 15633 13719 13726 15639 15632 15635 15642 13730 15643 15417 15644 15645 
1867 1868 2165 2164 1900 1901 2198 2197 13508 15420 15421 15413 13735 15647 15648 15640 13726 13733 15646 15639 15642 15649 13737 15650 15424 15651 15652 
1868 1869 2166 2165 1901 1902 2199 2198 13515 15427 15428 15420 13742 15654 15655 15647 13733 13740 15653 15646 15649 15656 13744 15657 15431 15658 15659 
1869 1870 2167 2166 1902 1903 2200 2199 13522 15434 15435 15427 13749 15661 15662 15654 13740 13747 15660 15653 15656 15663 13751 15664 15438 15665 15666 
1870 1871 2168 2167 1903 1904 2201 2200 13529 15441 15442 15434 13756 15668 15669 15661 13747 13754 15667 15660 15663 15670 13758 15671 15445 15672 15673 
1871 1872 2169 2168 1904 1905 2202 2201 13536 15448 15449 15441 13763 15675 15676 15668 13754 13761 15674 15667 15670 15677 13765 15678 15452 15679 15680 
1872 1873 2170 2169 1905 1906 2203 2202 13543 15455 15456 15448 13770 15682 15683 15675 13761 13768 15681 15674 15677 15684 13772 15685 15459 15686 15687 
1873 1874 2171 2170 1906 1907 2204 2203 13550 15462 15463 15455 13777 15689 15690 15682 13768 13775 15688 15681 15684 15691 13779 15692 15466 15693 15694 
1874 1875 2172 2171 1907 1908 2205 2204 13557 15469 15470 15462 13784 15696 15697 15689 13775 13782 15695 15688 15691 15698 13786 15699 15473 15700 15701 
1875 1876 2173 2172 1908 1909 2206 2205 13564 15476 15477 15469 13791 15703 15704 15696 13782 13789 15702 15695 15698 15705 13793 15706 15480 15707 15708 
1876 1877 2174 2173 1909 1910 2207 2206 13571 15483 15484 15476 13798 15710 15711 15703 13789 13796 15709 15702 15705 15712 13800 15713 15487 15714 15715 
1877 1878 2175 2174 1910 1911 2208 2207 13578 15490 15491 15483 13805 15717 15718 15710 13796 13803 15716 15709 15712 15719 13807 15720 15494 15721 15722 
1878 1879 2176 2175 1911 1912 2209 2208 13585 15497 15498 15490 13812 15724 15725 15717 13803 13810 15723 15716 15719 15726 13814 15727 15501 15728 15729 
1879 1880 2177 2176 1912 1913 2210 2209 13592 15504 15505 15497 13819 15731 15732 15724 13810 13817 15730 15723 15726 15733 13821 15734 15508 15735 15736 
1881 1882 2179 2178 1914 1915 2212 2211 13600 15512 15513 15514 13827 15739 15740 15741 13825 13824 15737 15738 15744 15742 13830 15743 15518 15745 15746 
1882 1883 2180 2179 1915 1916 2213 2212 13609 15521 15522 15512 13836 15748 15749 15739 13824 13834 15747 15737 15742 15750 13838 15751 15525 15752 15753 
1883 1884 2181 2180 1916 1917 2214 2213 13616 15528 15529 15521 13843 15755 15756 15748 13834 13841 15754 15747 15750 15757 13845 15758 15532 15759 15760 
1884 1885 2182 2181 1917 1918 2215 2214 13623 15535 15536 15528 13850 15762 15763 15755 13841 13848 15761 15754 15757 15764 13852 15765 15539 15766 15767 
1885 1886 2183 2182 1918 1919 2216 2215 13630 15542 15543 15535 13857 15769 15770 15762 13848 13855 15768 15761 15764 15771 13859 15772 15546 15773 15774 
1886 1887 2184 2183 1919 1920 2217 2216 13637 15549 15550 15542 13864 15776 15777 15769 13855 13862 15775 15768 15771 15778 13866 15779 15553 15780 15781 
1887 1888 2185 2184 1920 1921 2218 2217 13644 15556 15557 15549 13871 15783 15784 15776 13862 13869 15782 15775 15778 15785 13873 15786 15560 15787 15788 
1888 1889 2186 2185 1921 1922 2219 2218 13651 15563 15564 15556 13878 15790 15791 15783 13869 13876 15789 15782 15785 15792 13880 15793 15567 15794 15795 
1889 1890 2187 2186 1922 1923 2220 2219 13658 15570 15571 15563 13885 15797 15798 15790 13876 13883 15796 15789 15792 15799 13887 15800 15574 15801 15802 
1890 1891 2188 2187 1923 1924 2221 2220 13665 15577 15578 15570 13892 15804 15805 15797 13883 13890 15803 15796 15799 15806 13894 15807 15581 15808 15809 
1891 1892 2189 2188 1924 1925 2222 2221 13672 15584 15585 15577 13899 15811 15812 15804 13890 13897 15810 15803 15806 15813 13901 15814 15588 15815 15816 
1892 1893 2190 2189 1925 1926 2223 2222 13679 15591 15592 15584 13906 15818 15819 15811 13897 13904 15817 15810 15813 15820 13908 15821 15595 15822 15823 
1893 1894 2191 2190 1926 1927 2224 2223 13686 15598 15599 15591 13913 15825 15826 15818 13904 13911 15824 15817 15820 15827 13915 15828 15602 15829 15830 
1894 1895 2192 2191 1927 1928 2225 2224 13693 15605 15606 15598 13920 15832 15833 15825 13911 13918 15831 15824 15827 15834 13922 15835 15609 15836 15837 
1895 1896 2193 2192 1928 1929 2226 2225 13700 15612 15613 15605 13927 15839 15840 15832 13918 13925 15838 15831 15834 15841 13929 15842 15616 15843 15844 
1896 1897 2194 2193 1929 1930 2227 2226 13707 15619 15620 15612 13934 15846 15847 15839 13925 13932 15845 15838 15841 15848 13936 15849 15623 15850 15851 
1897 1898 2195 2194 1930 1931 2228 2227 13714 15626 15627 15619 13941 15853 15854 15846 13932 13939 15852 15845 15848 15855 13943 15856 15630 15857 15858 
1898 1899 2196 2195 1931 1932 2229 2228 13721 15633 15634 15626 13948 15860 15861 15853 13939 13946 15859 15852 15855 15862 13950 15863 15637 15864 15865 
1899 1900 2197 2196 1932 1933 2230 2229 13728 15640 15641 15633 13955 15867 15868 15860 13946 13953 15866 15859 15862 15869 13957 15870 15644 15871 15872 
1900 1901 2198 2197 1933 1934 2231 2230 13735 15647 15648 15640 13962 15874 15875 15867 13953 13960 15873 15866 15869 15876 13964 15877 15651 15878 15879 
1901 1902 2199 2198 1934 1935 2232 2231 13742 15654 15655 15647 13969 15881 15882 15874 13960 13967 15880 15873 15876 15883 13971 15884 15658 15885 15886 
1902 1903 2200 2199 1935 1936 2233 2232 13749 15661 15662 15654 13976 15888 15889 15881 13967 13974 15887 15880 15883 15890 13978 15891 15665 15892 15893 
1903 1904 2201 2200 1936 1937 2234 2233 13756 15668 15669 15661 13983 15895 15896 15888 13974 13981 15894 15887 15890 15897 13985 15898 15672 15899 15900 
1904 1905 2202 2201 1937 1938 2235 2234 13763 15675 15676 15668 13990 15902 15903 15895 13981 13988 15901 15894 15897 15904 13992 15905 15679 15906 15907 
1905 1906 2203 2202 1938 1939 2236 2235 13770 15682 15683 15675 13997 15909 15910 15902 13988 13995 15908 15901 15904 15911 13999 15912 15686 15913 15914 
1906 1907 2204 2203 1939 1940 2237 2236 13777 15689 15690 15682 14004 15916 15917 15909 13995 14002 15915 15908 15911 15918 14006 15919 15693 15920 15921 
1907 1908 2205 2204 1940 1941 2238 2237 13784 15696 15697 15689 14011 15923 15924 15916 14002 14009 15922 15915 15918 15925 14013 15926 15700 15927 15928 
1908 1909 2206 2205 1941 1942 2239 2238 13791 15703 15704 15696 14018 15930 15931 15923 14009 14016 15929 15922 15925 15932 14020 15933 15707 15934 15935 
1909 1910 2207 2206 1942 1943 2240 2239 13798 15710 15711 15703 14025 15937 15938 15930 14016 14023 15936 15929 15932 15939 14027 15940 15714 15941 15942 
1910 1911 2208 2207 1943 1944 2241 2240 13805 15717 15718 15710 14032 15944 15945 15937 14023 14030 15943 15936 15939 15946 14034 15947 15721 15948 15949 
1911 1912 2209 2208 1944 1945 2242 2241 13812 15724 15725 15717 14039 15951 15952 15944 14030 14037 15950 15943 15946 15953 14041 15954 15728 15955 15956 
1912 1913 2210 2209 1945 1946 2243 2242 13819 15731 15732 15724 14046 15958 15959 15951 14037 14044 15957 15950 15953 15960 14048 15961 15735 15962 15963 
1914 1915 2212 2211 1947 1948 2245 2244 13827 15739 15740 15741 14054 15966 15967 15968 14052 14051 15964 15965 15971 15969 14057 15970 15745 15972 15973 
1915 1916 2213 2212 1948 1949 2246 2245 13836 15748 15749 15739 14063 15975 15976 15966 14051 14061 15974 15964 15969 15977 14065 15978 15752 15979 15980 
1916 1917 2214 2213 1949 1950 2247 2246 13843 15755 15756 15748 14070 15982 15983 15975 14061 14068 15981 15974 15977 15984 14072 15985 15759 15986 15987 
1917 1918 2215 2214 1950 1951 2248 2247 13850 15762 15763 15755 14077 15989 15990 15982 14068 14075 15988 15981 15984 15991 14079 15992 15766 15993 15994 
1918 1919 2216 2215 1951 1952 2249 2248 13857 15769 15770 15762 14084 15996 15997 15989 14075 14082 15995 15988 15991 15998 14086 15999 15773 16000 16001 
1919 1920 2217 2216 1952 1953 2250 2249 13864 15776 15777 15769 14091 16003 16004 15996 14082 14089 16002 15995 15998 16005 14093 16006 15780 16007 16008 
1920 1921 2218 2217 1953 1954 2251 2250 13871 15783 15784 15776 14098 16010 16011 16003 14089 14096 16009 16002 16005 16012 14100 16013 15787 16014 16015 
1921 1922 2219 2218 1954 1955 2252 2251 13878 15790 15791 15783 14105 16017 16018 16010 14096 14103 16016 16009 16012 16019 14107 16020 15794 16021 16022 
1922 1923 2220 2219 1955 1956 2253 2252 13885 15797 15798 15790 14112 16024 16025 16017 14103 14110 16023 16016 16019 16026 14114 16027 15801 16028 16029 
1923 1924 2221 2220 1956 1957 2254 2253 13892 15804 15805 15797 14119 16031 16032 16024 14110 14117 16030 16023 16026 16033 14121 16034 15808 16035 16036 
1924 1925 2222 2221 1957 1958 2255 2254 13899 15811 15812 15804 14126 16038 16039 16031 14117 14124 16037 16030 16033 16040 14128 16041 15815 16042 16043 
1925 1926 2223 2222 1958 1959 2256 2255 13906 15818 15819 15811 14133 16045 16046 16038 14124 14131 16044 16037 16040 16047 14135 16048 15822 16049 16050 
1926 1927 2224 2223 1959 1960 2257 2256 13913 15825 15826 15818 14140 16052 16053 16045 14131 14138 16051 16044 16047 16054 14142 16055 15829 16056 16057 
1927 1928 2225 2224 1960 1961 2258 2257 13920 15832 15833 15825 14147 16059 16060 16052 14138 14145 16058 16051 16054 16061 14149 16062 15836 16063 16064 
1928 1929 2226 2225 1961 1962 2259 2258 13927 15839 15840 15832 14154 16066 16067 16059 14145 14152 16065 16058 16061 16068 14156 16069 15843 16070 16071 
1929 1930 2227 2226 1962 1963 2260 2259 13934 15846 15847 15839 14161 16073 16074 16066 14152 14159 16072 16065 16068 16075 14163 16076 15850 16077 16078 
1930 1931 2228 2227 1963 1964 2261 2260 13941 15853 15854 15846 14168 16080 16081 16073 14159 14166 16079 16072 16075 16082 14170 16083 15857 16084 16085 
1931 1932 2229 2228 1964 1965 2262 2261 13948 15860 15861 15853 14175 16087 16088 16080 14166 14173 16086 16079 16082 16089 14177 16090 15864 16091 16092 
1932 1933 2230 2229 1965 1966 2263 2262 13955 15867 15868 15860 14182 16094 16095 16087 14173 14180 16093 16086 16089 16096 14184 16097 15871 16098 16099 
1933 1934 2231 2230 1966 1967 2264 2263 13962 15874 15875 15867 14189 16101 16102 16094 14180 14187 16100 16093 16096 16103 14191 16104 15878 16105 16106 
1934 1935 2232 2231 1967 1968 2265 2264 13969 15881 15882 15874 14196 16108 16109 16101 14187 14194 16107 16100 16103 16110 14198 16111 15885 16112 16113 
1935 1936 2233 2232 1968 1969 2266 2265 13976 15888 15889 15881 14203 16115 16116 16108 14194 14201 16114 16107 16110 16117 14205 16118 15892 16119 16120 
1936 1937 2234 2233 1969 1970 2267 2266 13983 15895 15896 15888 14210 16122 16123 16115 14201 14208 16121 16114 16117 16124 14212 16125 15899 16126 16127 
1937 1938 2235 2234 1970 1971 2268 2267 13990 15902 15903 15895 14217 16129 16130 16122 14208 14215 16128 16121 16124 16131 14219 16132 15906 16133 16134 
1938 1939 2236 2235 1971 1972 2269 2268 13997 15909 15910 15902 14224 16136 16137 16129 14215 14222 16135 16128 16131 16138 14226 16139 15913 16140 16141 
1939 1940 2237 2236 1972 1973 2270 2269 14004 15916 15917 15909 14231 16143 16144 16136 14222 14229 16142 16135 16138 16145 14233 16146 15920 16147 16148 
1940 1941 2238 2237 1973 1974 2271 2270 14011 15923 15924 15916 14238 16150 16151 16143 14229 14236 16149 16142 16145 16152 14240 16153 15927 16154 16155 
1941 1942 2239 2238 1974 1975 2272 2271 14018 15930 15931 15923 14245 16157 16158 16150 14236 14243 16156 16149 16152 16159 14247 16160 15934 16161 16162 
1942 1943 2240 2239 1975 1976 2273 2272 14025 15937 15938 15930 14252 16164 16165 16157 14243 14250 16163 16156 16159 16166 14254 16167 15941 16168 16169 
1943 1944 2241 2240 1976 1977 2274 2273 14032 15944 15945 15937 14259 16171 16172 16164 14250 14257 16170 16163 16166 16173 14261 16174 15948 16175 16176 
1944 1945 2242 2241 1977 1978 2275 2274 14039 15951 15952 15944 14266 16178 16179 16171 14257 14264 16177 16170 16173 16180 14268 16181 15955 16182 16183 
1945 1946 2243 2242 1978 1979 2276 2275 14046 15958 15959 15951 14273 16185 16186 16178 14264 14271 16184 16177 16180 16187 14275 16188 15962 16189 16190 
1947 1948 2245 2244 1980 1981 2278 2277 14054 15966 15967 15968 14281 16193 16194 16195 14279 14278 16191 16192 16198 16196 14284 16197 15972 16199 16200 
1948 1949 2246 2245 1981 1982 2279 2278 14063 15975 15976 15966 14290 16202 16203 16193 14278 14288 16201 16191 16196 16204 14292 16205 15979 16206 16207 
1949 1950 2247 2246 1982 1983 2280 2279 14070 15982 15983 15975 14297 16209 16210 16202 14288 14295 16208 16201 16204 16211 14299 16212 15986 16213 16214 
1950 1951 2248 2247 1983 1984 2281 2280 14077 15989 15990 15982 14304 16216 16217 16209 14295 14302 16215 16208 16211 16218 14306 16219 15993 16220 16221 
1951 1952 2249 2248 1984 1985 2282 2281 14084 15996 15997 15989 14311 16223 16224 16216 14302 14309 16222 16215 16218 16225 14313 16226 16000 16227 16228 
1952 1953 2250 2249 1985 1986 2283 2282 14091 16003 16004 15996 14318 16230 16231 16223 14309 14316 16229 16222 16225 16232 14320 16233 16007 16234 16235 
1953 1954 2251 2250 1986 1987 2284 2283 14098 16010 16011 16003 14325 16237 16238 16230 14316 14323 16236 16229 16232 16239 14327 16240 16014 16241 16242 
1954 1955 2252 2251 1987 1988 2285 2284 14105 16017 16018 16010 14332 16244 16245 16237 14323 14330 16243 16236 16239 16246 14334 16247 16021 16248 16249 
1955 1956 2253 2252 1988 1989 2286 2285 14112 16024 16025 16017 14339 16251 16252 16244 14330 14337 16250 16243 16246 16253 14341 16254 16028 16255 16256 
1956 1957 2254 2253 1989 1990 2287 2286 14119 16031 16032 16024 14346 16258 16259 16251 14337 14344 16257 16250 16253 16260 14348 16261 16035 16262 16263 
1957 1958 2255 2254 1990 1991 2288 2287 14126 16038 16039 16031 14353 16265 16266 16258 14344 14351 16264 16257 16260 16267 14355 16268 16042 16269 16270 
1958 1959 2256 2255 1991 1992 2289 2288 14133 16045 16046 16038 14360 16272 16273 16265 14351 14358 16271 16264 16267 16274 14362 16275 16049 16276 16277 
1959 1960 2257 2256 1992 1993 2290 2289 14140 16052 16053 16045 14367 16279 16280 16272 14358 14365 16278 16271 16274 16281 14369 16282 16056 16283 16284 
1960 1961 2258 2257 1993 1994 2291 2290 14147 16059 16060 16052 14374 16286 16287 16279 14365 14372 16285 16278 16281 16288 14376 16289 16063 16290 16291 
1961 1962 2259 2258 1994 1995 2292 2291 14154 16066 16067 16059 14381 16293 16294 16286 14372 14379 16292 16285 16288 16295 14383 16296 16070 16297 16298 
1962 1963 2260 2259 1995 1996 2293 2292 14161 16073 16074 16066 14388 16300 16301 16293 14379 14386 16299 16292 16295 16302 14390 16303 16077 16304 16305 
1963 1964 2261 2260 1996 1997 2294 2293 14168 16080 16081 16073 14395 16307 16308 16300 14386 14393 16306 16299 16302 16309 14397 16310 16084 16311 16312 
1964 1965 2262 2261 1997 1998 2295 2294 14175 16087 16088 16080 14402 16314 16315 16307 14393 14400 16313 16306 16309 16316 14404 16317 16091 16318 16319 
1965 1966 2263 2262 1998 1999 2296 2295 14182 16094 16095 16087 14409 16321 16322 16314 14400 14407 16320 16313 16316 16323 14411 16324 16098 16325 16326 
1966 1967 2264 2263 1999 2000 2297 2296 14189 16101 16102 16094 14416 16328 16329 16321 14407 14414 16327 16320 16323 16330 14418 16331 16105 16332 16333 
1967 1968 2265 2264 2000 2001 2298 2297 14196 16108 16109 16101 14423 16335 16336 16328 14414 14421 16334 16327 16330 16337 14425 16338 16112 16339 16340 
1968 1969 2266 2265 2001 2002 2299 2298 14203 16115 16116 16108 14430 16342 16343 16335 14421 14428 16341 16334 16337 16344 14432 16345 16119 16346 16347 
1969 1970 2267 2266 2002 2003 2300 2299 14210 16122 16123 16115 14437 16349 16350 16342 14428 14435 16348 16341 16344 16351 14439 16352 16126 16353 16354 
1970 1971 2268 2267 2003 2004 2301 2300 14217 16129 16130 16122 14444 16356 16357 16349 14435 14442 16355 16348 16351 16358 14446 16359 16133 16360 16361 
1971 1972 2269 2268 2004 2005 2302 2301 14224 16136 16137 16129 14451 16363 16364 16356 14442 14449 16362 16355 16358 16365 14453 16366 16140 16367 16368 
1972 1973 2270 2269 2005 2006 2303 2302 14231 16143 16144 16136 14458 16370 16371 16363 14449 14456 16369 16362 16365 16372 14460 16373 16147 16374 16375 
1973 1974 2271 2270 2006 2007 2304 2303 14238 16150 16151 16143 14465 16377 16378 16370 14456 14463 16376 16369 16372 16379 14467 16380 16154 16381 16382 
1974 1975 2272 2271 2007 2008 2305 2304 14245 16157 16158 16150 14472 16384 16385 16377 14463 14470 16383 16376 16379 16386 14474 16387 16161 16388 16389 
1975 1976 2273 2272 2008 2009 2306 2305 14252 16164 16165 16157 14479 16391 16392 16384 14470 14477 16390 16383 16386 16393 14481 16394 16168 16395 16396 
1976 1977 2274 2273 2009 2010 2307 2306 14259 16171 16172 16164 14486 16398 16399 16391 14477 14484 16397 16390 16393 16400 14488 16401 16175 16402 16403 
1977 1978 2275 2274 2010 2011 2308 2307 14266 16178 16179 16171 14493 16405 16406 16398 14484 14491 16404 16397 16400 16407 14495 16408 16182 16409 16410 
1978 1979 2276 2275 2011 2012 2309 2308 14273 16185 16186 16178 14500 16412 16413 16405 14491 14498 16411 16404 16407 16414 14502 16415 16189 16416 16417 
1980 1981 2278 2277 2013 2014 2311 2310 14281 16193 16194 16195 14508 16420 16421 16422 14506 14505 16418 16419 16425 16423 14511 16424 16199 16426 16427 
1981 1982 2279 2278 2014 2015 2312 2311 14290 16202 16203 16193 14517 16429 16430 16420 14505 14515 16428 16418 16423 16431 14519 16432 16206 16433 16434 
1982 1983 2280 2279 2015 2016 2313 2312 14297 16209 16210 16202 14524 16436 16437 16429 14515 14522 16435 16428 16431 16438 14526 16439 16213 16440 16441 
1983 1984 2281 2280 2016 2017 2314 2313 14304 16216 16217 16209 14531 16443 16444 16436 14522 14529 16442 16435 16438 16445 14533 16446 16220 16447 16448 
1984 1985 2282 2281 2017 2018 2315 2314 14311 16223 16224 16216 14538 16450 16451 16443 14529 14536 16449 16442 16445 16452 14540 16453 16227 16454 16455 
1985 1986 2283 2282 2018 2019 2316 2315 14318 16230 16231 16223 14545 16457 16458 16450 14536 14543 16456 16449 16452 16459 14547 16460 16234 16461 16462 
1986 1987 2284 2283 2019 2020 2317 2316 14325 16237 16238 16230 14552 16464 16465 16457 14543 14550 16463 16456 16459 16466 14554 16467 16241 16468 16469 
1987 1988 2285 2284 2020 2021 2318 2317 14332 16244 16245 16237 14559 16471 16472 16464 14550 14557 16470 16463 16466 16473 14561 16474 16248 16475 16476 
1988 1989 2286 2285 2021 2022 2319 2318 14339 16251 16252 16244 14566 16478 16479 16471 14557 14564 16477 16470 16473 16480 14568 16481 16255 16482 16483 
1989 1990 2287 2286 2022 2023 2320 2319 14346 16258 16259 16251 14573 16485 16486 16478 14564 14571 16484 16477 16480 16487 14575 16488 16262 16489 16490 
1990 1991 2288 2287 2023 2024 2321 2320 14353 16265 16266 16258 14580 16492 16493 16485 14571 14578 16491 16484 16487 16494 14582 16495 16269 16496 16497 
1991 1992 2289 2288 2024 2025 2322 2321 14360 16272 16273 16265 14587 16499 16500 16492 14578 14585 16498 16491 16494 16501 14589 16502 16276 16503 16504 
1992 1993 2290 2289 2025 2026 2323 2322 14367 16279 16280 16272 14594 16506 16507 16499 14585 14592 16505 16498 16501 16508 14596 16509 16283 16510 16511 
1993 1994 2291 2290 2026 2027 2324 2323 14374 16286 16287 16279 14601 16513 16514 16506 14592 14599 16512 16505 16508 16515 14603 16516 16290 16517 16518 
1994 1995 2292 2291 2027 2028 2325 2324 14381 16293 16294 16286 14608 16520 16521 16513 14599 14606 16519 16512 16515 16522 14610 16523 16297 16524 16525 
1995 1996 2293 2292 2028 2029 2326 2325 14388 16300 16301 16293 14615 16527 16528 16520 14606 14613 16526 16519 16522 16529 14617 16530 16304 16531 16532 
1996 1997 2294 2293 2029 2030 2327 2326 14395 16307 16308 16300 14622 16534 16535 16527 14613 14620 16533 16526 16529 16536 14624 16537 16311 16538 16539 
1997 1998 2295 2294 2030 2031 2328 2327 14402 16314 16315 16307 14629 16541 16542 16534 14620 14627 16540 16533 16536 16543 14631 16544 16318 16545 16546 
1998 1999 2296 2295 2031 2032 2329 2328 14409 16321 16322 16314 14636 16548 16549 16541 14627 14634 16547 16540 16543 16550 14638 16551 16325 16552 16553 
1999 2000 2297 2296 2032 2033 2330 2329 14416 16328 16329 16321 14643 16555 16556 16548 14634 14641 16554 16547 16550 16557 14645 16558 16332 16559 16560 
2000 2001 2298 2297 2033 2034 2331 2330 14423 16335 16336 16328 14650 16562 16563 16555 14641 14648 16561 16554 16557 16564 14652 16565 16339 16566 16567 
2001 2002 2299 2298 2034 2035 2332 2331 14430 16342 16343 16335 14657 16569 16570 16562 14648 14655 16568 16561 16564 16571 14659 16572 16346 16573 16574 
2002 2003 2300 2299 2035 2036 2333 2332 14437 16349 16350 16342 14664 16576 16577 16569 14655 14662 16575 16568 16571 16578 14666 16579 16353 16580 16581 
2003 2004 2301 2300 2036 2037 2334 2333 14444 16356 16357 16349 14671 16583 16584 16576 14662 14669 16582 16575 16578 16585 14673 16586 16360 16587 16588 
2004 2005 2302 2301 2037 2038 2335 2334 14451 16363 16364 16356 14678 16590 16591 16583 14669 14676 16589 16582 16585 16592 14680 16593 16367 16594 16595 
2005 2006 2303 2302 2038 2039 2336 2335 14458 16370 16371 16363 14685 16597 16598 16590 14676 14683 16596 16589 16592 16599 14687 16600 16374 16601 16602 
2006 2007 2304 2303 2039 2040 2337 2336 14465 16377 16378 16370 14692 16604 16605 16597 14683 14690 16603 16596 16599 16606 14694 16607 16381 16608 16609 
2007 2008 2305 2304 2040 2041 2338 2337 14472 16384 16385 16377 14699 16611 16612 16604 14690 14697 16610 16603 16606 16613 14701 16614 16388 16615 16616 
2008 2009 2306 2305 2041 2042 2339 2338 14479 16391 16392 16384 14706 16618 16619 16611 14697 14704 16617 16610 16613 16620 14708 16621 16395 16622 16623 
2009 2010 2307 2306 2042 2043 2340 2339 14486 16398 16399 16391 14713 16625 16626 16618 14704 14711 16624 16617 16620 16627 14715 16628 16402 16629 16630 
2010 2011 2308 2307 2043 2044 2341 2340 14493 16405 16406 16398 14720 16632 16633 16625 14711 14718 16631 16624 16627 16634 14722 16635 16409 16636 16637 
2011 2012 2309 2308 2044 2045 2342 2341 14500 16412 16413 16405 14727 16639 16640 16632 14718 14725 16638 16631 16634 16641 14729 16642 16416 16643 16644 
2013 2014 2311 2310 2046 2047 2344 2343 14508 16420 16421 16422 14735 16647 16648 16649 14733 14732 16645 16646 16652 16650 14738 16651 16426 16653 16654 
2014 2015 2312 2311 2047 2048 2345 2344 14517 16429 16430 16420 14744 16656 16657 16647 14732 14742 16655 16645 16650 16658 14746 16659 16433 16660 16661 
2015 2016 2313 2312 2048 2049 2346 2345 14524 16436 16437 16429 14751 16663 16664 16656 14742 14749 16662 16655 16658 16665 14753 16666 16440 16667 16668 
2016 2017 2314 2313 2049 2050 2347 2346 14531 16443 16444 16436 14758 16670 16671 16663 14749 14756 16669 16662 16665 16672 14760 16673 16447 16674 16675 
2017 2018 2315 2314 2050 2051 2348 2347 14538 16450 16451 16443 14765 16677 16678 16670 14756 14763 16676 16669 16672 16679 14767 16680 16454 16681 16682 
2018 2019 2316 2315 2051 2052 2349 2348 14545 16457 16458 16450 14772 16684 16685 16677 14763 14770 16683 16676 16679 16686 14774 16687 16461 16688 16689 
2019 2020 2317 2316 2052 2053 2350 2349 14552 16464 16465 16457 14779 16691 16692 16684 14770 14777 16690 16683 16686 16693 14781 16694 16468 16695 16696 
2020 2021 2318 2317 2053 2054 2351 2350 14559 16471 16472 16464 14786 16698 16699 16691 14777 14784 16697 16690 16693 16700 14788 16701 16475 16702 16703 
2021 2022 2319 2318 2054 2055 2352 2351 14566 16478 16479 16471 14793 16705 16706 16698 14784 14791 16704 16697 16700 16707 14795 16708 16482 16709 16710 
2022 2023 2320 2319 2055 2056 2353 2352 14573 16485 16486 16478 14800 16712 16713 16705 14791 14798 16711 16704 16707 16714 14802 16715 16489 16716 16717 
2023 2024 2321 2320 2056 2057 2354 2353 14580 16492 16493 16485 14807 16719 16720 16712 14798 14805 16718 16711 16714 16721 14809 16722 16496 16723 16724 
2024 2025 2322 2321 2057 2058 2355 2354 14587 16499 16500 16492 14814 16726 16727 16719 14805 14812 16725 16718 16721 16728 14816 16729 16503 16730 16731 
2025 2026 2323 2322 2058 2059 2356 2355 14594 16506 16507 16499 14821 16733 16734 16726 14812 14819 16732 16725 16728 16735 14823 16736 16510 16737 16738 
2026 2027 2324 2323 2059 2060 2357 2356 14601 16513 16514 16506 14828 16740 16741 16733 14819 14826 16739 16732 16735 16742 14830 16743 16517 16744 16745 
2027 2028 2325 2324 2060 2061 2358 2357 14608 16520 16521 16513 14835 16747 16748 16740 14826 14833 16746 16739 16742 16749 14837 16750 16524 16751 16752 
2028 2029 2326 2325 2061 2062 2359 2358 14615 16527 16528 16520 14842 16754 16755 16747 14833 14840 16753 16746 16749 16756 14844 16757 16531 16758 16759 
2029 2030 2327 2326 2062 2063 2360 2359 14622 16534 16535 16527 14849 16761 16762 16754 14840 14847 16760 16753 16756 16763 14851 16764 16538 16765 16766 
2030 2031 2328 2327 2063 2064 2361 2360 14629 16541 16542 16534 14856 16768 16769 16761 14847 14854 16767 16760 16763 16770 14858 16771 16545 16772 16773 
2031 2032 2329 2328 2064 2065 2362 2361 14636 16548 16549 16541 14863 16775 16776 16768 14854 14861 16774 16767 16770 16777 14865 16778 16552 16779 16780 
2032 2033 2330 2329 2065 2066 2363 2362 14643 16555 16556 16548 14870 16782 16783 16775 14861 14868 16781 16774 16777 16784 14872 16785 16559 16786 16787 
2033 2034 2331 2330 2066 2067 2364 2363 14650 16562 16563 16555 14877 16789 16790 16782 14868 14875 16788 16781 16784 16791 14879 16792 16566 16793 16794 
2034 2035 2332 2331 2067 2068 2365 2364 14657 16569 16570 16562 14884 16796 16797 16789 14875 14882 16795 16788 16791 16798 14886 16799 16573 16800 16801 
2035 2036 2333 2332 2068 2069 2366 2365 14664 16576 16577 16569 14891 16803 16804 16796 14882 14889 16802 16795 16798 16805 14893 16806 16580 16807 16808 
2036 2037 2334 2333 2069 2070 2367 2366 14671 16583 16584 16576 14898 16810 16811 16803 14889 14896 16809 16802 16805 16812 14900 16813 16587 16814 16815 
2037 2038 2335 2334 2070 2071 2368 2367 14678 16590 16591 16583 14905 16817 16818 16810 14896 14903 16816 16809 16812 16819 14907 16820 16594 16821 16822 
2038 2039 2336 2335 2071 2072 2369 2368 14685 16597 16598 16590 14912 16824 16825 16817 14903 14910 16823 16816 16819 16826 14914 16827 16601 16828 16829 
2039 2040 2337 2336 2072 2073 2370 2369 14692 16604 16605 16597 14919 16831 16832 16824 14910 14917 16830 16823 16826 16833 14921 16834 16608 16835 16836 
2040 2041 2338 2337 2073 2074 2371 2370 14699 16611 16612 16604 14926 16838 16839 16831 14917 14924 16837 16830 16833 16840 14928 16841 16615 16842 16843 
2041 2042 2339 2338 2074 2075 2372 2371 14706 16618 16619 16611 14933 16845 16846 16838 14924 14931 16844 16837 16840 16847 14935 16848 16622 16849 16850 
2042 2043 2340 2339 2075 2076 2373 2372 14713 16625 16626 16618 14940 16852 16853 16845 14931 14938 16851 16844 16847 16854 14942 16855 16629 16856 16857 
2043 2044 2341 2340 2076 2077 2374 2373 14720 16632 16633 16625 14947 16859 16860 16852 14938 14945 16858 16851 16854 16861 14949 16862 16636 16863 16864 
2044 2045 2342 2341 2077 2078 2375 2374 14727 16639 16640 16632 14954 16866 16867 16859 14945 14952 16865 16858 16861 16868 14956 16869 16643 16870 16871 
2079 2080 2377 2376 2112 2113 2410 2409 14960 16872 16873 16874 14965 16877 16878 16879 14963 14962 16875 16876 16883 16881 14969 16882 16880 16884 16885 
2080 2081 2378 2377 2113 2114 2411 2410 14974 16886 16887 16872 14977 16889 16890 16877 14962 14975 16888 16875 16881 16892 14980 16893 16891 16894 16895 
2081 2082 2379 2378 2114 2115 2412 2411 14984 16896 16897 16886 14987 16899 16900 16889 14975 14985 16898 16888 16892 16902 14990 16903 16901 16904 16905 
2082 2083 2380 2379 2115 2116 2413 2412 14994 16906 16907 16896 14997 16909 16910 16899 14985 14995 16908 16898 16902 16912 15000 16913 16911 16914 16915 
2083 2084 2381 2380 2116 2117 2414 2413 15004 16916 16917 16906 15007 16919 16920 16909 14995 15005 16918 16908 16912 16922 15010 16923 16921 16924 16925 
2084 2085 2382 2381 2117 2118 2415 2414 15014 16926 16927 16916 15017 16929 16930 16919 15005 15015 16928 16918 16922 16932 15020 16933 16931 16934 16935 
2085 2086 2383 2382 2118 2119 2416 2415 15024 16936 16937 16926 15027 16939 16940 16929 15015 15025 16938 16928 16932 16942 15030 16943 16941 16944 16945 
2086 2087 2384 2383 2119 2120 2417 2416 15034 16946 16947 16936 15037 16949 16950 16939 15025 15035 16948 16938 16942 16952 15040 16953 16951 16954 16955 
2087 2088 2385 2384 2120 2121 2418 2417 15044 16956 16957 16946 15047 16959 16960 16949 15035 15045 16958 16948 16952 16962 15050 16963 16961 16964 16965 
2088 2089 2386 2385 2121 2122 2419 2418 15054 16966 16967 16956 15057 16969 16970 16959 15045 15055 16968 16958 16962 16972 15060 16973 16971 16974 16975 
2089 2090 2387 2386 2122 2123 2420 2419 15064 16976 16977 16966 15067 16979 16980 16969 15055 15065 16978 16968 16972 16982 15070 16983 16981 16984 16985 
2090 2091 2388 2387 2123 2124 2421 2420 15074 16986 16987 16976 15077 16989 16990 16979 15065 15075 16988 16978 16982 16992 15080 16993 16991 16994 16995 
2091 2092 2389 2388 2124 2125 2422 2421 15084 16996 16997 16986 15087 16999 17000 16989 15075 15085 16998 16988 16992 17002 15090 17003 17001 17004 17005 
2092 2093 2390 2389 2125 2126 2423 2422 15094 17006 17007 16996 15097 17009 17010 16999 15085 15095 17008 16998 17002 17012 15100 17013 17011 17014 17015 
2093 2094 2391 2390 2126 2127 2424 2423 15104 17016 17017 17006 15107 17019 17020 17009 15095 15105 17018 17008 17012 17022 15110 17023 17021 17024 17025 
2094 2095 2392 2391 2127 2128 2425 2424 15114 17026 17027 17016 15117 17029 17030 17019 15105 15115 17028 17018 17022 17032 15120 17033 17031 17034 17035 
2095 2096 2393 2392 2128 2129 2426 2425 15124 17036 17037 17026 15127 17039 17040 17029 15115 15125 17038 17028 17032 17042 15130 17043 17041 17044 17045 
2096 2097 2394 2393 2129 2130 2427 2426 15134 17046 17047 17036 15137 17049 17050 17039 15125 15135 17048 17038 17042 17052 15140 17053 17051 17054 17055 
2097 2098 2395 2394 2130 2131 2428 2427 15144 17056 17057 17046 15147 17059 17060 17049 15135 15145 17058 17048 17052 17062 15150 17063 17061 17064 17065 
2098 2099 2396 2395 2131 2132 2429 2428 15154 17066 17067 17056 15157 17069 17070 17059 15145 15155 17068 17058 17062 17072 15160 17073 17071 17074 17075 
2099 2100 2397 2396 2132 2133 2430 2429 15164 17076 17077 17066 15167 17079 17080 17069 15155 15165 17078 17068 17072 17082 15170 17083 17081 17084 17085 
2100 2101 2398 2397 2133 2134 2431 2430 15174 17086 17087 17076 15177 17089 17090 17079 15165 15175 17088 17078 17082 17092 15180 17093 17091 17094 17095 
2101 2102 2399 2398 2134 2135 2432 2431 15184 17096 17097 17086 15187 17099 17100 17089 15175 15185 17098 17088 17092 17102 15190 17103 17101 17104 17105 
2102 2103 2400 2399 2135 2136 2433 2432 15194 17106 17107 17096 15197 17109 17110 17099 15185 15195 17108 17098 17102 17112 15200 17113 17111 17114 17115 
2103 2104 2401 2400 2136 2137 2434 2433 15204 17116 17117 17106 15207 17119 17120 17109 15195 15205 17118 17108 17112 17122 15210 17123 17121 17124 17125 
2104 2105 2402 2401 2137 2138 2435 2434 15214 17126 17127 17116 15217 17129 17130 17119 15205 15215 17128 17118 17122 17132 15220 17133 17131 17134 17135 
2105 2106 2403 2402 2138 2139 2436 2435 15224 17136 17137 17126 15227 17139 17140 17129 15215 15225 17138 17128 17132 17142 15230 17143 17141 17144 17145 
2106 2107 2404 2403 2139 2140 2437 2436 15234 17146 17147 17136 15237 17149 17150 17139 15225 15235 17148 17138 17142 17152 15240 17153 17151 17154 17155 
2107 2108 2405 2404 2140 2141 2438 2437 15244 17156 17157 17146 15247 17159 17160 17149 15235 15245 17158 17148 17152 17162 15250 17163 17161 17164 17165 
2108 2109 2406 2405 2141 2142 2439 2438 15254 17166 17167 17156 15257 17169 17170 17159 15245 15255 17168 17158 17162 17172 15260 17173 17171 17174 17175 
2109 2110 2407 2406 2142 2143 2440 2439 15264 17176 17177 17166 15267 17179 17180 17169 15255 15265 17178 17168 17172 17182 15270 17183 17181 17184 17185 
2110 2111 2408 2407 2143 2144 2441 2440 15274 17186 17187 17176 15277 17189 17190 17179 15265 15275 17188 17178 17182 17192 15280 17193 17191 17194 17195 
2112 2113 2410 2409 2145 2146 2443 2442 14965 16877 16878 16879 15286 17198 17199 17200 15284 15283 17196 17197 17203 17201 15289 17202 16884 17204 17205 
2113 2114 2411 2410 2146 2147 2444 2443 14977 16889 16890 16877 15295 17207 17208 17198 15283 15293 17206 17196 17201 17209 15297 17210 16894 17211 17212 
2114 2115 2412 2411 2147 2148 2445 2444 14987 16899 16900 16889 15302 17214 17215 17207 15293 15300 17213 17206 17209 17216 15304 17217 16904 17218 17219 
2115 2116 2413 2412 2148 2149 2446 2445 14997 16909 16910 16899 15309 17221 17222 17214 15300 15307 17220 17213 17216 17223 15311 17224 16914 17225 17226 
2116 2117 2414 2413 2149 2150 2447 2446 15007 16919 16920 16909 15316 17228 17229 17221 15307 15314 17227 17220 17223 17230 15318 17231 16924 17232 17233 
2117 2118 2415 2414 2150 2151 2448 2447 15017 16929 16930 16919 15323 17235 17236 17228 15314 15321 17234 17227 17230 17237 15325 17238 16934 17239 17240 
2118 2119 2416 2415 2151 2152 2449 2448 15027 16939 16940 16929 15330 17242 17243 17235 15321 15328 17241 17234 17237 17244 15332 17245 16944 17246 17247 
2119 2120 2417 2416 2152 2153 2450 2449 15037 16949 16950 16939 15337 17249 17250 17242 15328 15335 17248 17241 17244 17251 15339 17252 16954 17253 17254 
2120 2121 2418 2417 2153 2154 2451 2450 15047 16959 16960 16949 15344 17256 17257 17249 15335 15342 17255 17248 17251 17258 15346 17259 16964 17260 17261 
2121 2122 2419 2418 2154 2155 2452 2451 15057 16969 16970 16959 15351 17263 17264 17256 15342 15349 17262 17255 17258 17265 15353 17266 16974 17267 17268 
2122 2123 2420 2419 2155 2156 2453 2452 15067 16979 16980 16969 15358 17270 17271 17263 15349 15356 17269 17262 17265 17272 15360 17273 16984 17274 17275 
2123 2124 2421 2420 2156 2157 2454 2453 15077 16989 16990 16979 15365 17277 17278 17270 15356 15363 17276 17269 17272 17279 15367 17280 16994 17281 17282 
2124 2125 2422 2421 2157 2158 2455 2454 15087 16999 17000 16989 15372 17284 17285 17277 15363 15370 17283 17276 17279 17286 15374 17287 17004 17288 17289 
2125 2126 2423 2422 2158 2159 2456 2455 15097 17009 17010 16999 15379 17291 17292 17284 15370 15377 17290 17283 17286 17293 15381 17294 17014 17295 17296 
2126 2127 2424 2423 2159 2160 2457 2456 15107 17019 17020 17009 15386 17298 17299 17291 15377 15384 17297 17290 17293 17300 15388 17301 17024 17302 17303 
2127 2128 2425 2424 2160 2161 2458 2457 15117 17029 17030 17019 15393 17305 17306 17298 15384 15391 17304 17297 17300 17307 15395 17308 17034 17309 17310 
2128 2129 2426 2425 2161 2162 2459 2458 15127 17039 17040 17029 15400 17312 17313 17305 15391 15398 17311 17304 17307 17314 15402 17315 17044 17316 17317 
2129 2130 2427 2426 2162 2163 2460 2459 15137 17049 17050 17039 15407 17319 17320 17312 15398 15405 17318 17311 17314 17321 15409 17322 17054 17323 17324 
2130 2131 2428 2427 2163 2164 2461 2460 15147 17059 17060 17049 15414 17326 17327 17319 15405 15412 17325 17318 17321 17328 15416 17329 17064 17330 17331 
2131 2132 2429 2428 2164 2165 2462 2461 15157 17069 17070 17059 15421 17333 17334 17326 15412 15419 17332 17325 17328 17335 15423 17336 17074 17337 17338 
2132 2133 2430 2429 2165 2166 2463 2462 15167 17079 17080 17069 15428 17340 17341 17333 15419 15426 17339 17332 17335 17342 15430 17343 17084 17344 17345 
2133 2134 2431 2430 2166 2167 2464 2463 15177 17089 17090 17079 15435 17347 17348 17340 15426 15433 17346 17339 17342 17349 15437 17350 17094 17351 17352 
2134 2135 2432 2431 2167 2168 2465 2464 15187 17099 17100 17089 15442 17354 17355 17347 15433 15440 17353 17346 17349 17356 15444 17357 17104 17358 17359 
2135 2136 2433 2432 2168 2169 2466 2465 15197 17109 17110 17099 15449 17361 17362 17354 15440 15447 17360 17353 17356 17363 15451 17364 17114 17365 17366 
2136 2137 2434 2433 2169 2170 2467 2466 15207 17119 17120 17109 15456 17368 17369 17361 15447 15454 17367 17360 17363 17370 15458 17371 17124 17372 17373 
2137 2138 2435 2434 2170 2171 2468 2467 15217 17129 17130 17119 15463 17375 17376 17368 15454 15461 17374 17367 17370 17377 15465 17378 17134 17379 17380 
2138 2139 2436 2435 2171 2172 2469 2468 15227 17139 17140 17129 15470 17382 17383 17375 15461 15468 17381 17374 17377 17384 15472 17385 17144 17386 17387 
2139 2140 2437 2436 2172 2173 2470 2469 15237 17149 17150 17139 15477 17389 17390 17382 15468 15475 17388 17381 17384 17391 15479 17392 17154 17393 17394 
2140 2141 2438 2437 2173 2174 2471 2470 15247 17159 17160 17149 15484 17396 17397 17389 15475 15482 17395 17388 17391 17398 15486 17399 17164 17400 17401 
2141 2142 2439 2438 2174 2175 2472 2471 15257 17169 17170 17159 15491 17403 17404 17396 15482 15489 17402 17395 17398 17405 15493 17406 17174 17407 17408 
2142 2143 2440 2439 2175 2176 2473 2472 15267 17179 17180 17169 15498 17410 17411 17403 15489 15496 17409 17402 17405 17412 15500 17413 17184 17414 17415 
2143 2144 2441 2440 2176 2177 2474 2473 15277 17189 17190 17179 15505 17417 17418 17410 15496 15503 17416 17409 17412 17419 15507 17420 17194 17421 17422 
2145 2146 2443 2442 2178 2179 2476 2475 15286 17198 17199 17200 15513 17425 17426 17427 15511 15510 17423 17424 17430 17428 15516 17429 17204 17431 17432 
2146 2147 2444 2443 2179 2180 2477 2476 15295 17207 17208 17198 15522 17434 17435 17425 15510 15520 17433 17423 17428 17436 15524 17437 17211 17438 17439 
2147 2148 2445 2444 2180 2181 2478 2477 15302 17214 17215 17207 15529 17441 17442 17434 15520 15527 17440 17433 17436 17443 15531 17444 17218 17445 17446 
2148 2149 2446 2445 2181 2182 2479 2478 15309 17221 17222 17214 15536 17448 17449 17441 15527 15534 17447 17440 17443 17450 15538 17451 17225 17452 17453 
2149 2150 2447 2446 2182 2183 2480 2479 15316 17228 17229 17221 15543 17455 17456 17448 15534 15541 17454 17447 17450 17457 15545 17458 17232 17459 17460 
2150 2151 2448 2447 2183 2184 2481 2480 15323 17235 17236 17228 15550 17462 17463 17455 15541 15548 17461 17454 17457 17464 15552 17465 17239 17466 17467 
2151 2152 2449 2448 2184 2185 2482 2481 15330 17242 17243 17235 15557 17469 17470 17462 15548 15555 17468 17461 17464 17471 15559 17472 17246 17473 17474 
2152 2153 2450 2449 2185 2186 2483 2482 15337 17249 17250 17242 15564 17476 17477 17469 15555 15562 17475 17468 17471 17478 15566 17479 17253 17480 17481 
2153 2154 2451 2450 2186 2187 2484 2483 15344 17256 17257 17249 15571 17483 17484 17476 15562 15569 17482 17475 17478 17485 15573 17486 17260 17487 17488 
2154 2155 2452 2451 2187 2188 2485 2484 15351 17263 17264 17256 15578 17490 17491 17483 15569 15576 17489 17482 17485 17492 15580 17493 17267 17494 17495 
2155 2156 2453 2452 2188 2189 2486 2485 15358 17270 17271 17263 15585 17497 17498 17490 15576 15583 17496 17489 17492 17499 15587 17500 17274 17501 17502 
2156 2157 2454 2453 2189 2190 2487 2486 15365 17277 17278 17270 15592 17504 17505 17497 15583 15590 17503 17496 17499 17506 15594 17507 17281 17508 17509 
2157 2158 2455 2454 2190 2191 2488 2487 15372 17284 17285 17277 15599 17511 17512 17504 15590 15597 17510 17503 17506 17513 15601 17514 17288 17515 17516 
2158 2159 2456 2455 2191 2192 2489 2488 15379 17291 17292 17284 15606 17518 17519 17511 15597 15604 17517 17510 17513 17520 15608 17521 17295 17522 17523 
2159 2160 2457 2456 2192 2193 2490 2489 15386 17298 17299 17291 15613 17525 17526 17518 15604 15611 17524 17517 17520 17527 15615 17528 17302 17529 17530 
2160 2161 2458 2457 2193 2194 2491 2490 15393 17305 17306 17298 15620 17532 17533 17525 15611 15618 17531 17524 17527 17534 15622 17535 17309 17536 17537 
2161 2162 2459 2458 2194 2195 2492 2491 15400 17312 17313 17305 15627 17539 17540 17532 15618 15625 17538 17531 17534 17541 15629 17542 17316 17543 17544 
2162 2163 2460 2459 2195 2196 2493 2492 15407 17319 17320 17312 15634 17546 17547 17539 15625 15632 17545 17538 17541 17548 15636 17549 17323 17550 17551 
2163 2164 2461 2460 2196 2197 2494 2493 15414 17326 17327 17319 15641 17553 17554 17546 15632 15639 17552 17545 17548 17555 15643 17556 17330 17557 17558 
2164 2165 2462 2461 2197 2198 2495 2494 15421 17333 17334 17326 15648 17560 17561 17553 15639 15646 17559 17552 17555 17562 15650 17563 17337 17564 17565 
2165 2166 2463 2462 2198 2199 2496 2495 15428 17340 17341 17333 15655 17567 17568 17560 15646 15653 17566 17559 17562 17569 15657 17570 17344 17571 17572 
2166 2167 2464 2463 2199 2200 2497 2496 15435 17347 17348 17340 15662 17574 17575 17567 15653 15660 17573 17566 17569 17576 15664 17577 17351 17578 17579 
2167 2168 2465 2464 2200 2201 2498 2497 15442 17354 17355 17347 15669 17581 17582 17574 15660 15667 17580 17573 17576 17583 15671 17584 17358 17585 17586 
2168 2169 2466 2465 2201 2202 2499 2498 15449 17361 17362 17354 15676 17588 17589 17581 15667 15674 17587 17580 17583 17590 15678 17591 17365 17592 17593 
2169 2170 2467 2466 2202 2203 2500 2499 15456 17368 17369 17361 15683 17595 17596 17588 15674 15681 17594 17587 17590 17597 15685 17598 17372 17599 17600 
2170 2171 2468 2467 2203 2204 2501 2500 15463 17375 17376 17368 15690 17602 17603 17595 15681 15688 17601 17594 17597 17604 15692 17605 17379 17606 17607 
2171 2172 2469 2468 2204 2205 2502 2501 15470 17382 17383 17375 15697 17609 17610 17602 15688 15695 17608 17601 17604 17611 15699 17612 17386 17613 17614 
2172 2173 2470 2469 2205 2206 2503 2502 15477 17389 17390 17382 15704 17616 17617 17609 15695 15702 17615 17608 17611 17618 15706 17619 17393 17620 17621 
2173 2174 2471 2470 2206 2207 2504 2503 15484 17396 17397 17389 15711 17623 17624 17616 15702 15709 17622 17615 17618 17625 15713 17626 17400 17627 17628 
2174 2175 2472 2471 2207 2208 2505 2504 15491 17403 17404 17396 15718 17630 17631 17623 15709 15716 17629 17622 17625 17632 15720 17633 17407 17634 17635 
2175 2176 2473 2472 2208 2209 2506 2505 15498 17410 17411 17403 15725 17637 17638 17630 15716 15723 17636 17629 17632 17639 15727 17640 17414 17641 17642 
2176 2177 2474 2473 2209 2210 2507 2506 15505 17417 17418 17410 15732 17644 17645 17637 15723 15730 17643 17636 17639 17646 15734 17647 17421 17648 17649 
2178 2179 2476 2475 2211 2212 2509 2508 15513 17425 17426 17427 15740 17652 17653 17654 15738 15737 17650 17651 17657 17655 15743 17656 17431 17658 17659 
2179 2180 2477 2476 2212 2213 2510 2509 15522 17434 17435 17425 15749 17661 17662 17652 15737 15747 17660 17650 17655 17663 15751 17664 17438 17665 17666 
2180 2181 2478 2477 2213 2214 2511 2510 15529 17441 17442 17434 15756 17668 17669 17661 15747 15754 17667 17660 17663 17670 15758 17671 17445 17672 17673 
2181 2182 2479 2478 2214 2215 2512 2511 15536 17448 17449 17441 15763 17675 17676 17668 15754 15761 17674 17667 17670 17677 15765 17678 17452 17679 17680 
2182 2183 2480 2479 2215 2216 2513 2512 15543 17455 17456 17448 15770 17682 17683 17675 15761 15768 17681 17674 17677 17684 15772 17685 17459 17686 17687 
2183 2184 2481 2480 2216 2217 2514 2513 15550 17462 17463 17455 15777 17689 17690 17682 15768 15775 17688 17681 17684 17691 15779 17692 17466 17693 17694 
2184 2185 2482 2481 2217 2218 2515 2514 15557 17469 17470 17462 15784 17696 17697 17689 15775 15782 17695 17688 17691 17698 15786 17699 17473 17700 17701 
2185 2186 2483 2482 2218 2219 2516 2515 15564 17476 17477 17469 15791 17703 17704 17696 15782 15789 17702 17695 17698 17705 15793 17706 17480 17707 17708 
2186 2187 2484 2483 2219 2220 2517 2516 15571 17483 17484 17476 15798 17710 17711 17703 15789 15796 17709 17702 17705 17712 15800 17713 17487 17714 17715 
2187 2188 2485 2484 2220 2221 2518 2517 15578 17490 17491 17483 15805 17717 17718 17710 15796 15803 17716 17709 17712 17719 15807 17720 17494 17721 17722 
2188 2189 2486 2485 2221 2222 2519 2518 15585 17497 17498 17490 15812 17724 17725 17717 15803 15810 17723 17716 17719 17726 15814 17727 17501 17728 17729 
2189 2190 2487 2486 2222 2223 2520 2519 15592 17504 17505 17497 15819 17731 17732 17724 15810 15817 17730 17723 17726 17733 15821 17734 17508 17735 17736 
2190 2191 2488 2487 2223 2224 2521 2520 15599 17511 17512 17504 15826 17738 17739 17731 15817 15824 17737 17730 17733 17740 15828 17741 17515 17742 17743 
2191 2192 2489 2488 2224 2225 2522 2521 15606 17518 17519 17511 15833 17745 17746 17738 15824 15831 17744 17737 17740 17747 15835 17748 17522 17749 17750 
2192 2193 2490 2489 2225 2226 2523 2522 15613 17525 17526 17518 15840 17752 17753 17745 15831 15838 17751 17744 17747 17754 15842 17755 17529 17756 17757 
2193 2194 2491 2490 2226 2227 2524 2523 15620 17532 17533 17525 15847 17759 17760 17752 15838 15845 17758 17751 17754 17761 15849 17762 17536 17763 17764 
2194 2195 2492 2491 2227 2228 2525 2524 15627 17539 17540 17532 15854 17766 17767 17759 15845 15852 17765 17758 17761 17768 15856 17769 17543 17770 17771 
2195 2196 2493 2492 2228 2229 2526 2525 15634 17546 17547 17539 15861 17773 17774 17766 15852 15859 17772 17765 17768 17775 15863 17776 17550 17777 17778 
2196 2197 2494 2493 2229 2230 2527 2526 15641 17553 17554 17546 15868 17780 17781 17773 15859 15866 17779 17772 17775 17782 15870 17783 17557 17784 17785 
2197 2198 2495 2494 2230 2231 2528 2527 15648 17560 17561 17553 15875 17787 17788 17780 15866 15873 17786 17779 17782 17789 15877 17790 17564 17791 17792 
2198 2199 2496 2495 2231 2232 2529 2528 15655 17567 17568 17560 15882 17794 17795 17787 15873 15880 17793 17786 17789 17796 15884 17797 17571 17798 17799 
2199 2200 2497 2496 2232 2233 2530 2529 15662 17574 17575 17567 15889 17801 17802 17794 15880 15887 17800 17793 17796 17803 15891 17804 17578 17805 17806 
2200 2201 2498 2497 2233 2234 2531 2530 15669 17581 17582 17574 15896 17808 17809 17801 15887 15894 17807 17800 17803 17810 15898 17811 17585 17812 17813 
2201 2202 2499 2498 2234 2235 2532 2531 15676 17588 17589 17581 15903 17815 17816 17808 15894 15901 17814 17807 17810 17817 15905 17818 17592 17819 17820 
2202 2203 2500 2499 2235 2236 2533 2532 15683 17595 17596 17588 15910 17822 17823 17815 15901 15908 17821 17814 17817 17824 15912 17825 17599 17826 17827 
2203 2204 2501 2500 2236 2237 2534 2533 15690 17602 17603 17595 15917 17829 17830 17822 15908 15915 17828 17821 17824 17831 15919 17832 17606 17833 17834 
2204 2205 2502 2501 2237 2238 2535 2534 15697 17609 17610 17602 15924 17836 17837 17829 15915 15922 17835 17828 17831 17838 15926 17839 17613 17840 17841 
2205 2206 2503 2502 2238 2239 2536 2535 15704 17616 17617 17609 15931 17843 17844 17836 15922 15929 17842 17835 17838 17845 15933 17846 17620 17847 17848 
2206 2207 2504 2503 2239 2240 2537 2536 15711 17623 17624 17616 15938 17850 17851 17843 15929 15936 17849 17842 17845 17852 15940 17853 17627 17854 17855 
2207 2208 2505 2504 2240 2241 2538 2537 15718 17630 17631 17623 15945 17857 17858 17850 15936 15943 17856 17849 17852 17859 15947 17860 17634 17861 17862 
2208 2209 2506 2505 2241 2242 2539 2538 15725 17637 17638 17630 15952 17864 17865 17857 15943 15950 17863 17856 17859 17866 15954 17867 17641 17868 17869 
2209 2210 2507 2506 2242 2243 2540 2539 15732 17644 17645 17637 15959 17871 17872 17864 15950 15957 17870 17863 17866 17873 15961 17874 17648 17875 17876 
2211 2212 2509 2508 2244 2245 2542 2541 15740 17652 17653 17654 15967 17879 17880 17881 15965 15964 17877 17878 17884 17882 15970 17883 17658 17885 17886 
2212 2213 2510 2509 2245 2246 2543 2542 15749 17661 17662 17652 15976 17888 17889 17879 15964 15974 17887 17877 17882 17890 15978 17891 17665 17892 17893 
2213 2214 2511 2510 2246 2247 2544 2543 15756 17668 17669 17661 15983 17895 17896 17888 15974 15981 17894 17887 17890 17897 15985 17898 17672 17899 17900 
2214 2215 2512 2511 2247 2248 2545 2544 15763 17675 17676 17668 15990 17902 17903 17895 15981 15988 17901 17894 17897 17904 15992 17905 17679 17906 17907 
2215 2216 2513 2512 2248 2249 2546 2545 15770 17682 17683 17675 15997 17909 17910 17902 15988 15995 17908 17901 17904 17911 15999 17912 17686 17913 17914 
2216 2217 2514 2513 2249 2250 2547 2546 15777 17689 17690 17682 16004 17916 17917 17909 15995 16002 17915 17908 17911 17918 16006 17919 17693 17920 17921 
2217 2218 2515 2514 2250 2251 2548 2547 15784 17696 17697 17689 16011 17923 17924 17916 16002 16009 17922 17915 17918 17925 16013 17926 17700 17927 17928 
2218 2219 2516 2515 2251 2252 2549 2548 15791 17703 17704 17696 16018 17930 17931 17923 16009 16016 17929 17922 17925 17932 16020 17933 17707 17934 17935 
2219 2220 2517 2516 2252 2253 2550 2549 15798 17710 17711 17703 16025 17937 17938 17930 16016 16023 17936 17929 17932 17939 16027 17940 17714 17941 17942 
2220 2221 2518 2517 2253 2254 2551 2550 15805 17717 17718 17710 16032 17944 17945 17937 16023 16030 17943 17936 17939 17946 16034 17947 17721 17948 17949 
2221 2222 2519 2518 2254 2255 2552 2551 15812 17724 17725 17717 16039 17951 17952 17944 16030 16037 17950 17943 17946 17953 16041 17954 17728 17955 17956 
2222 2223 2520 2519 2255 2256 2553 2552 15819 17731 17732 17724 16046 17958 17959 17951 16037 16044 17957 17950 17953 17960 16048 17961 17735 17962 17963 
2223 2224 2521 2520 2256 2257 2554 2553 15826 17738 17739 17731 16053 17965 17966 17958 16044 16051 17964 17957 17960 17967 16055 17968 17742 17969 17970 
2224 2225 2522 2521 2257 2258 2555 2554 15833 17745 17746 17738 16060 17972 17973 17965 16051 16058 17971 17964 17967 17974 16062 17975 17749 17976 17977 
2225 2226 2523 2522 2258 2259 2556 2555 15840 17752 17753 17745 16067 17979 17980 17972 16058 16065 17978 17971 17974 17981 16069 17982 17756 17983 17984 
2226 2227 2524 2523 2259 2260 2557 2556 15847 17759 17760 17752 16074 17986 17987 17979 16065 16072 17985 17978 17981 17988 16076 17989 17763 17990 17991 
2227 2228 2525 2524 2260 2261 2558 2557 15854 17766 17767 17759 16081 17993 17994 17986 16072 16079 17992 17985 17988 17995 16083 17996 17770 17997 17998 
2228 2229 2526 2525 2261 2262 2559 2558 15861 17773 17774 17766 16088 18000 18001 17993 16079 16086 17999 17992 17995 18002 16090 18003 17777 18004 18005 
2229 2230 2527 2526 2262 2263 2560 2559 15868 17780 17781 17773 16095 18007 18008 18000 16086 16093 18006 17999 18002 18009 16097 18010 17784 18011 18012 
2230 2231 2528 2527 2263 2264 2561 2560 15875 17787 17788 17780 16102 18014 18015 18007 16093 16100 18013 18006 18009 18016 16104 18017 17791 18018 18019 
2231 2232 2529 2528 2264 2265 2562 2561 15882 17794 17795 17787 16109 18021 18022 18014 16100 16107 18020 18013 18016 18023 16111 18024 17798 18025 18026 
2232 2233 2530 2529 2265 2266 2563 2562 15889 17801 17802 17794 16116 18028 18029 18021 16107 16114 18027 18020 18023 18030 16118 18031 17805 18032 18033 
2233 2234 2531 2530 2266 2267 2564 2563 15896 17808 17809 17801 16123 18035 18036 18028 16114 16121 18034 18027 18030 18037 16125 18038 17812 18039 18040 
2234 2235 2532 2531 2267 2268 2565 2564 15903 17815 17816 17808 16130 18042 18043 18035 16121 16128 18041 18034 18037 18044 16132 18045 17819 18046 18047 
2235 2236 2533 2532 2268 2269 2566 2565 15910 17822 17823 17815 16137 18049 18050 18042 16128 16135 18048 18041 18044 18051 16139 18052 17826 18053 18054 
2236 2237 2534 2533 2269 2270 2567 2566 15917 17829 17830 17822 16144 18056 18057 18049 16135 16142 18055 18048 18051 18058 16146 18059 17833 18060 18061 
2237 2238 2535 2534 2270 2271 2568 2567 15924 17836 17837 17829 16151 18063 18064 18056 16142 16149 18062 18055 18058 18065 16153 18066 17840 18067 18068 
2238 2239 2536 2535 2271 2272 2569 2568 15931 17843 17844 17836 16158 18070 18071 18063 16149 16156 18069 18062 18065 18072 16160 18073 17847 18074 18075 
2239 2240 2537 2536 2272 2273 2570 2569 15938 17850 17851 17843 16165 18077 18078 18070 16156 16163 18076 18069 18072 18079 16167 18080 17854 18081 18082 
2240 2241 2538 2537 2273 2274 2571 2570 15945 17857 17858 17850 16172 18084 18085 18077 16163 16170 18083 18076 18079 18086 16174 18087 17861 18088 18089 
2241 2242 2539 2538 2274 2275 2572 2571 15952 17864 17865 17857 16179 18091 18092 18084 16170 16177 18090 18083 18086 18093 16181 18094 17868 18095 18096 
2242 2243 2540 2539 2275 2276 2573 2572 15959 17871 17872 17864 16186 18098 18099 18091 16177 16184 18097 18090 18093 18100 16188 18101 17875 18102 18103 
2244 2245 2542 2541 2277 2278 2575 2574 15967 17879 17880 17881 16194 18106 18107 18108 16192 16191 18104 18105 18111 18109 16197 18110 17885 18112 18113 
2245 2246 2543 2542 2278 2279 2576 2575 15976 17888 17889 17879 16203 18115 18116 18106 16191 16201 18114 18104 18109 18117 16205 18118 17892 18119 18120 
2246 2247 2544 2543 2279 2280 2577 2576 15983 17895 17896 17888 16210 18122 18123 18115 16201 16208 18121 18114 18117 18124 16212 18125 17899 18126 18127 
2247 2248 2545 2544 2280 2281 2578 2577 15990 17902 17903 17895 16217 18129 18130 18122 16208 16215 18128 18121 18124 18131 16219 18132 17906 18133 18134 
2248 2249 2546 2545 2281 2282 2579 2578 15997 17909 17910 17902 16224 18136 18137 18129 16215 16222 18135 18128 18131 18138 16226 18139 17913 18140 18141 
2249 2250 2547 2546 2282 2283 2580 2579 16004 17916 17917 17909 16231 18143 18144 18136 16222 16229 18142 18135 18138 18145 16233 18146 17920 18147 18148 
2250 2251 2548 2547 2283 2284 2581 2580 16011 17923 17924 17916 16238 18150 18151 18143 16229 16236 18149 18142 18145 18152 16240 18153 17927 18154 18155 
2251 2252 2549 2548 2284 2285 2582 2581 16018 17930 17931 17923 16245 18157 18158 18150 16236 16243 18156 18149 18152 18159 16247 18160 17934 18161 18162 
2252 2253 2550 2549 2285 2286 2583 2582 16025 17937 17938 17930 16252 18164 18165 18157 16243 16250 18163 18156 18159 18166 16254 18167 17941 18168 18169 
2253 2254 2551 2550 2286 2287 2584 2583 16032 17944 17945 17937 16259 18171 18172 18164 16250 16257 18170 18163 18166 18173 16261 18174 17948 18175 18176 
2254 2255 2552 2551 2287 2288 2585 2584 16039 17951 17952 17944 16266 18178 18179 18171 16257 16264 18177 18170 18173 18180 16268 18181 17955 18182 18183 
2255 2256 2553 2552 2288 2289 2586 2585 16046 17958 17959 17951 16273 18185 18186 18178 16264 16271 18184 18177 18180 18187 16275 18188 17962 18189 18190 
2256 2257 2554 2553 2289 2290 2587 2586 16053 17965 17966 17958 16280 18192 18193 18185 16271 16278 18191 18184 18187 18194 16282 18195 17969 18196 18197 
2257 2258 2555 2554 2290 2291 2588 2587 16060 17972 17973 17965 16287 18199 18200 18192 16278 16285 18198 18191 18194 18201 16289 18202 17976 18203 18204 
2258 2259 2556 2555 2291 2292 2589 2588 16067 17979 17980 17972 16294 18206 18207 18199 16285 16292 18205 18198 18201 18208 16296 18209 17983 18210 18211 
2259 2260 2557 2556 2292 2293 2590 2589 16074 17986 17987 17979 16301 18213 18214 18206 16292 16299 18212 18205 18208 18215 16303 18216 17990 18217 18218 
2260 2261 2558 2557 2293 2294 2591 2590 16081 17993 17994 17986 16308 18220 18221 18213 16299 16306 18219 18212 18215 18222 16310 18223 17997 18224 18225 
2261 2262 2559 2558 2294 2295 2592 2591 16088 18000 18001 17993 16315 18227 18228 18220 16306 16313 18226 18219 18222 18229 16317 18230 18004 18231 18232 
2262 2263 2560 2559 2295 2296 2593 2592 16095 18007 18008 18000 16322 18234 18235 18227 16313 16320 18233 18226 18229 18236 16324 18237 18011 18238 18239 
2263 2264 2561 2560 2296 2297 2594 2593 16102 18014 18015 18007 16329 18241 18242 18234 16320 16327 18240 18233 18236 18243 16331 18244 18018 18245 18246 
2264 2265 2562 2561 2297 2298 2595 2594 16109 18021 18022 18014 16336 18248 18249 18241 16327 16334 18247 18240 18243 18250 16338 18251 18025 18252 18253 
2265 2266 2563 2562 2298 2299 2596 2595 16116 18028 18029 18021 16343 18255 18256 18248 16334 16341 18254 18247 18250 18257 16345 18258 18032 18259 18260 
2266 2267 2564 2563 2299 2300 2597 2596 16123 18035 18036 18028 16350 18262 18263 18255 16341 16348 18261 18254 18257 18264 16352 18265 18039 18266 18267 
2267 2268 2565 2564 2300 2301 2598 2597 16130 18042 18043 18035 16357 18269 18270 18262 16348 16355 18268 18261 18264 18271 16359 18272 18046 18273 18274 
2268 2269 2566 2565 2301 2302 2599 2598 16137 18049 18050 18042 16364 18276 18277 18269 16355 16362 18275 18268 18271 18278 16366 18279 18053 18280 18281 
2269 2270 2567 2566 2302 2303 2600 2599 16144 18056 18057 18049 16371 18283 18284 18276 16362 16369 18282 18275 18278 18285 16373 18286 18060 18287 18288 
2270 2271 2568 2567 2303 2304 2601 2600 16151 18063 18064 18056 16378 18290 18291 18283 16369 16376 18289 18282 18285 18292 16380 18293 18067 18294 18295 
2271 2272 2569 2568 2304 2305 2602 2601 16158 18070 18071 18063 16385 18297 18298 18290 16376 16383 18296 18289 18292 18299 16387 18300 18074 18301 18302 
2272 2273 2570 2569 2305 2306 2603 2602 16165 18077 18078 18070 16392 18304 18305 18297 16383 16390 18303 18296 18299 18306 16394 18307 18081 18308 18309 
2273 2274 2571 2570 2306 2307 2604 2603 16172 18084 18085 18077 16399 18311 18312 18304 16390 16397 18310 18303 18306 18313 16401 18314 18088 18315 18316 
2274 2275 2572 2571 2307 2308 2605 2604 16179 18091 18092 18084 16406 18318 18319 18311 16397 16404 18317 18310 18313 18320 16408 18321 18095 18322 18323 
2275 2276 2573 2572 2308 2309 2606 2605 16186 18098 18099 18091 16413 18325 18326 18318 16404 16411 18324 18317 18320 18327 16415 18328 18102 18329 18330 
2277 2278 2575 2574 2310 2311 2608 2607 16194 18106 18107 18108 16421 18333 18334 18335 16419 16418 18331 18332 18338 18336 16424 18337 18112 18339 18340 
2278 2279 2576 2575 2311 2312 2609 2608 16203 18115 18116 18106 16430 18342 18343 18333 16418 16428 18341 18331 18336 18344 16432 18345 18119 18346 18347 
2279 2280 2577 2576 2312 2313 2610 2609 16210 18122 18123 18115 16437 18349 18350 18342 16428 16435 18348 18341 18344 18351 16439 18352 18126 18353 18354 
2280 2281 2578 2577 2313 2314 2611 2610 16217 18129 18130 18122 16444 18356 18357 18349 16435 16442 18355 18348 18351 18358 16446 18359 18133 18360 18361 
2281 2282 2579 2578 2314 2315 2612 2611 16224 18136 18137 18129 16451 18363 18364 18356 16442 16449 18362 18355 18358 18365 16453 18366 18140 18367 18368 
2282 2283 2580 2579 2315 2316 2613 2612 16231 18143 18144 18136 16458 18370 18371 18363 16449 16456 18369 18362 18365 18372 16460 18373 18147 18374 18375 
2283 2284 2581 2580 2316 2317 2614 2613 16238 18150 18151 18143 16465 18377 18378 18370 16456 16463 18376 18369 18372 18379 16467 18380 18154 18381 18382 
2284 2285 2582 2581 2317 2318 2615 2614 16245 18157 18158 18150 16472 18384 18385 18377 16463 16470 18383 18376 18379 18386 16474 18387 18161 18388 18389 
2285 2286 2583 2582 2318 2319 2616 2615 16252 18164 18165 18157 16479 18391 18392 18384 16470 16477 18390 18383 18386 18393 16481 18394 18168 18395 18396 
2286 2287 2584 2583 2319 2320 2617 2616 16259 18171 18172 18164 16486 18398 18399 18391 16477 16484 18397 18390 18393 18400 16488 18401 18175 18402 18403 
2287 2288 2585 2584 2320 2321 2618 2617 16266 18178 18179 18171 16493 18405 18406 18398 16484 16491 18404 18397 18400 18407 16495 18408 18182 18409 18410 
2288 2289 2586 2585 2321 2322 2619 2618 16273 18185 18186 18178 16500 18412 18413 18405 16491 16498 18411 18404 18407 18414 16502 18415 18189 18416 18417 
2289 2290 2587 2586 2322 2323 2620 2619 16280 18192 18193 18185 16507 18419 18420 18412 16498 16505 18418 18411 18414 18421 16509 18422 18196 18423 18424 
2290 2291 2588 2587 2323 2324 2621 2620 16287 18199 18200 18192 16514 18426 18427 18419 16505 16512 18425 18418 18421 18428 16516 18429 18203 18430 18431 
2291 2292 2589 2588 2324 2325 2622 2621 16294 18206 18207 18199 16521 18433 18434 18426 16512 16519 18432 18425 18428 18435 16523 18436 18210 18437 18438 
2292 2293 2590 2589 2325 2326 2623 2622 16301 18213 18214 18206 16528 18440 18441 18433 16519 16526 18439 18432 18435 18442 16530 18443 18217 18444 18445 
2293 2294 2591 2590 2326 2327 2624 2623 16308 18220 18221 18213 16535 18447 18448 18440 16526 16533 18446 18439 18442 18449 16537 18450 18224 18451 18452 
2294 2295 2592 2591 2327 2328 2625 2624 16315 18227 18228 18220 16542 18454 18455 18447 16533 16540 18453 18446 18449 18456 16544 18457 18231 18458 18459 
2295 2296 2593 2592 2328 2329 2626 2625 16322 18234 18235 18227 16549 18461 18462 18454 16540 16547 18460 18453 18456 18463 16551 18464 18238 18465 18466 
2296 2297 2594 2593 2329 2330 2627 2626 16329 18241 18242 18234 16556 18468 18469 18461 16547 16554 18467 18460 18463 18470 16558 18471 18245 18472 18473 
2297 2298 2595 2594 2330 2331 2628 2627 16336 18248 18249 18241 16563 18475 18476 18468 16554 16561 18474 18467 18470 18477 16565 18478 18252 18479 18480 
2298 2299 2596 2595 2331 2332 2629 2628 16343 18255 18256 18248 16570 18482 18483 18475 16561 16568 18481 18474 18477 18484 16572 18485 18259 18486 18487 
2299 2300 2597 2596 2332 2333 2630 2629 16350 18262 18263 18255 16577 18489 18490 18482 16568 16575 18488 18481 18484 18491 16579 18492 18266 18493 18494 
2300 2301 2598 2597 2333 2334 2631 2630 16357 18269 18270 18262 16584 18496 18497 18489 16575 16582 18495 18488 18491 18498 16586 18499 18273 18500 18501 
2301 2302 2599 2598 2334 2335 2632 2631 16364 18276 18277 18269 16591 18503 18504 18496 16582 16589 18502 18495 18498 18505 16593 18506 18280 18507 18508 
2302 2303 2600 2599 2335 2336 2633 2632 16371 18283 18284 18276 16598 18510 18511 18503 16589 16596 18509 18502 18505 18512 16600 18513 18287 18514 18515 
2303 2304 2601 2600 2336 2337 2634 2633 16378 18290 18291 18283 16605 18517 18518 18510 16596 16603 18516 18509 18512 18519 16607 18520 18294 18521 18522 
2304 2305 2602 2601 2337 2338 2635 2634 16385 18297 18298 18290 16612 18524 18525 18517 16603 16610 18523 18516 18519 18526 16614 18527 18301 18528 18529 
2305 2306 2603 2602 2338 2339 2636 2635 16392 18304 18305 18297 16619 18531 18532 18524 16610 16617 18530 18523 18526 18533 16621 18534 18308 18535 18536 
2306 2307 2604 2603 2339 2340 2637 2636 16399 18311 18312 18304 16626 18538 18539 18531 16617 16624 18537 18530 18533 18540 16628 18541 18315 18542 18543 
2307 2308 2605 2604 2340 2341 2638 2637 16406 18318 18319 18311 16633 18545 18546 18538 16624 16631 18544 18537 18540 18547 16635 18548 18322 18549 18550 
2308 2309 2606 2605 2341 2342 2639 2638 16413 18325 18326 18318 16640 18552 18553 18545 16631 16638 18551 18544 18547 18554 16642 18555 18329 18556 18557 
2310 2311 2608 2607 2343 2344 2641 2640 16421 18333 18334 18335 16648 18560 18561 18562 16646 16645 18558 18559 18565 18563 16651 18564 18339 18566 18567 
2311 2312 2609 2608 2344 2345 2642 2641 16430 18342 18343 18333 16657 18569 18570 18560 16645 16655 18568 18558 18563 18571 16659 18572 18346 18573 18574 
2312 2313 2610 2609 2345 2346 2643 2642 16437 18349 18350 18342 16664 18576 18577 18569 16655 16662 18575 18568 18571 18578 16666 18579 18353 18580 18581 
2313 2314 2611 2610 2346 2347 2644 2643 16444 18356 18357 18349 16671 18583 18584 18576 16662 16669 18582 18575 18578 18585 16673 18586 18360 18587 18588 
2314 2315 2612 2611 2347 2348 2645 2644 16451 18363 18364 18356 16678 18590 18591 18583 16669 16676 18589 18582 18585 18592 16680 18593 18367 18594 18595 
2315 2316 2613 2612 2348 2349 2646 2645 16458 18370 18371 18363 16685 18597 18598 18590 16676 16683 18596 18589 18592 18599 16687 18600 18374 18601 18602 
2316 2317 2614 2613 2349 2350 2647 2646 16465 18377 18378 18370 16692 18604 18605 18597 16683 16690 18603 18596 18599 18606 16694 18607 18381 18608 18609 
2317 2318 2615 2614 2350 2351 2648 2647 16472 18384 18385 18377 16699 18611 18612 18604 16690 16697 18610 18603 18606 18613 16701 18614 18388 18615 18616 
2318 2319 2616 2615 2351 2352 2649 2648 16479 18391 18392 18384 16706 18618 18619 18611 16697 16704 18617 18610 18613 18620 16708 18621 18395 18622 18623 
2319 2320 2617 2616 2352 2353 2650 2649 16486 18398 18399 18391 16713 18625 18626 18618 16704 16711 18624 18617 18620 18627 16715 18628 18402 18629 18630 
2320 2321 2618 2617 2353 2354 2651 2650 16493 18405 18406 18398 16720 18632 18633 18625 16711 16718 18631 18624 18627 18634 16722 18635 18409 18636 18637 
2321 2322 2619 2618 2354 2355 2652 2651 16500 18412 18413 18405 16727 18639 18640 18632 16718 16725 18638 18631 18634 18641 16729 18642 18416 18643 18644 
2322 2323 2620 2619 2355 2356 2653 2652 16507 18419 18420 18412 16734 18646 18647 18639 16725 16732 18645 18638 18641 18648 16736 18649 18423 18650 18651 
2323 2324 2621 2620 2356 2357 2654 2653 16514 18426 18427 18419 16741 18653 18654 18646 16732 16739 18652 18645 18648 18655 16743 18656 18430 18657 18658 
2324 2325 2622 2621 2357 2358 2655 2654 16521 18433 18434 18426 16748 18660 18661 18653 16739 16746 18659 18652 18655 18662 16750 18663 18437 18664 18665 
2325 2326 2623 2622 2358 2359 2656 2655 16528 18440 18441 18433 16755 18667 18668 18660 16746 16753 18666 18659 18662 18669 16757 18670 18444 18671 18672 
2326 2327 2624 2623 2359 2360 2657 2656 16535 18447 18448 18440 16762 18674 18675 18667 16753 16760 18673 18666 18669 18676 16764 18677 18451 18678 18679 
2327 2328 2625 2624 2360 2361 2658 2657 16542 18454 18455 18447 16769 18681 18682 18674 16760 16767 18680 18673 18676 18683 16771 18684 18458 18685 18686 
2328 2329 2626 2625 2361 2362 2659 2658 16549 18461 18462 18454 16776 18688 18689 18681 16767 16774 18687 18680 18683 18690 16778 18691 18465 18692 18693 
2329 2330 2627 2626 2362 2363 2660 2659 16556 18468 18469 18461 16783 18695 18696 18688 16774 16781 18694 18687 18690 18697 16785 18698 18472 18699 18700 
2330 2331 2628 2627 2363 2364 2661 2660 16563 18475 18476 18468 16790 18702 18703 18695 16781 16788 18701 18694 18697 18704 16792 18705 18479 18706 18707 
2331 2332 2629 2628 2364 2365 2662 2661 16570 18482 18483 18475 16797 18709 18710 18702 16788 16795 18708 18701 18704 18711 16799 18712 18486 18713 18714 
2332 2333 2630 2629 2365 2366 2663 2662 16577 18489 18490 18482 16804 18716 18717 18709 16795 16802 18715 18708 18711 18718 16806 18719 18493 18720 18721 
2333 2334 2631 2630 2366 2367 2664 2663 16584 18496 18497 18489 16811 18723 18724 18716 16802 16809 18722 18715 18718 18725 16813 18726 18500 18727 18728 
2334 2335 2632 2631 2367 2368 2665 2664 16591 18503 18504 18496 16818 18730 18731 18723 16809 16816 18729 18722 18725 18732 16820 18733 18507 18734 18735 
2335 2336 2633 2632 2368 2369 2666 2665 16598 18510 18511 18503 16825 18737 18738 18730 16816 16823 18736 18729 18732 18739 16827 18740 18514 18741 18742 
2336 2337 2634 2633 2369 2370 2667 2666 16605 18517 18518 18510 16832 18744 18745 18737 16823 16830 18743 18736 18739 18746 16834 18747 18521 18748 18749 
2337 2338 2635 2634 2370 2371 2668 2667 16612 18524 18525 18517 16839 18751 18752 18744 16830 16837 18750 18743 18746 18753 16841 18754 18528 18755 18756 
2338 2339 2636 2635 2371 2372 2669 2668 16619 18531 18532 18524 16846 18758 18759 18751 16837 16844 18757 18750 18753 18760 16848 18761 18535 18762 18763 
2339 2340 2637 2636 2372 2373 2670 2669 16626 18538 18539 18531 16853 18765 18766 18758 16844 16851 18764 18757 18760 18767 16855 18768 18542 18769 18770 
2340 2341 2638 2637 2373 2374 2671 2670 16633 18545 18546 18538 16860 18772 18773 18765 16851 16858 18771 18764 18767 18774 16862 18775 18549 18776 18777 
2341 2342 2639 2638 2374 2375 2672 2671 16640 18552 18553 18545 16867 18779 18780 18772 16858 16865 18778 18771 18774 18781 16869 18782 18556 18783 18784 
CELL_TYPES 2048
29 29 29 29 29 29 29 29 29 29 29 29 29 29 29 29 29 29 29 29 29 29 29 29 29 29 29 29 29 29 29 29 29 29 29 29 29 29 29 29 29 29 29 29 29 29 29 29 29 29 29 29 29 29 29 29 29 29 29 29 29 29 29 29 29 29 29 29 29 29 29 29 29 29 29 29 29 29 29 29 29 29 29 29 29 29 29 29 29 29 29 29 29 29 29 29 29 29 29 29 29 29 29 29 29 29 29 29 29 29 29 29 29 29 29 29 29 29 29 29 29 29 29 29 29 29 29 29 29 29 29 29 29 29 29 29 29 29 29 29 29 29 29 29 29 29 29 29 29 29 29 29 29 29 29 29 29 29 29 29 29 29 29 29 29 29 29 29 29 29 29 29 29 29 29 29 29 29 29 29 29 29 29 29 29 29 29 29 29 29 29 29 29 29 29 29 29 29 29 29 29 29 29 29 29 29 29 29 29 29 29 29 29 29 29 29 29 29 29 29 29 29 29 29 29 29 29 29 29 29 29 29 29 29 29 29 29 29 29 29 29 29 29 29 29 29 29 29 29 29 29 29 29 29 29 29 29 29 29 29 29 29 29 29 29 29 29 29 29 29 29 29 29 29 29 29 29 29 29 29 29 29 29 29 29 29 29 29 29 29 29 29 29 29 29 29 29 29 29 29 29 29 29 29 29 29 29 29 29 29 29 29 29 29 29 29 29 29 29 29 29 29 29 29 29 29 29 29 29 29 29 29 29 29 29 29 29 29 29 29 29 29 29 29 29 29 29 29 29 29 29 29 29 29 29 29 29 29 29 29 29 29 29 29 29 29 29 29 29 29 29 29 29 29 29 29 29 29 29 29 29 29 29 29 29 29 29 29 29 29 29 29 29 29 29 29 29 29 29 29 29 29 29 29 29 29 29 29 29 29 29 29 29 29 29 29 29 29 29 29 29 29 29 29 29 29 29 29 29 29 29 29 29 29 29 29 29 29 29 29 29 29 29 29 29 29 29 29 29 29 29 29 29 29 29 29 29 29 29 29 29 29 29 29 29 29 29 29 29 29 29 29 29 29 29 29 29 29 29 29 29 29 29 29 29 29 29 29 29 29 29 29 29 29 29 29 29 29 29 29 29 29 29 29 29 29 29 29 29 29 29 29 29 29 29 29 29 29 29 29 29 29 29 29 29 29 29 29 29 29 29 29 29 29 29 29 29 29 29 29 29 29 29 29 29 29 29 29 29 29 29 29 29 29 29 29 29 29 29 29 29 29 29 29 29 29 29 29 29 29 29 29 29 29 29 29 29 29 29 29 29 29 29 29 29 29 29 29 29 29 29 29 29 29 29 29 29 29 29 29 29 29 29 29 29 29 29 29 29 29 29 29 29 29 29 29 29 29 29 29 29 29 29 29 29 29 29 29 29 29 29 29 29 29 29 29 29 29 29 29 29 29 29 29 29 29 29 29 29 29 29 29 29 29 29 29 29 29 29 29 29 29 29 29 29 29 29 29 29 29 29 29 29 29 29 29 29 29 29 29 29 29 29 29 29 29 29 29 29 29 29 29 29 29 29 29 29 29 29 29 29 29 29 29 29 29 29 29 29 29 29 29 29 29 29 29 29 29 29 29 29 29 29 29 29 29 29 29 29 29 29 29 29 29 29 29 29 29 29 29 29 29 29 29 29 29 29 29 29 29 29 29 29 29 29 29 29 29 29 29 29 29 29 29 29 29 29 29 29 29 29 29 29 29 29 29 29 29 29 29 29 29 29 29 29 29 29 29 29 29 29 29 29 29 29 29 29 29 29 29 29 29 29 29 29 29 29 29 29 29 29 29 29 29 29 29 29 29 29 29 29 29 29 29 29 29 29 29 29 29 29 29 29 29 29 29 29 29 29 29 29 29 29 29 29 29 29 29 29 29 29 29 29 29 29 29 29 29 29 29 29 29 29 29 29 29 29 29 29 29 29 29 29 29 29 29 29 29 29 29 29 29 29 29 29 29 29 29 29 29 29 29 29 29 29 29 29 29 29 29 29 29 29 29 29 29 29 29 29 29 29 29 29 29 29 29 29 29 29 29 29 29 29 29 29 29 29 29 29 29 29 29 29 29 29 29 29 29 29 29 29 29 29 29 29 29 29 29 29 29 29 29 29 29 29 29 29 29 29 29 29 29 29 29 29 29 29 29 29 29 29 29 29 29 29 29 29 29 29 29 29 29 29 29 29 29 29 29 29 29 29 29 29 29 29 29 29 29 29 29 29 29 29 29 29 29 29 29 29 29 29 29 29 29 29 29 29 29 29 29 29 29 29 29 29 29 29 29 29 29 29 29 29 29 29 29 29 29 29 29 29 29 29 29 29 29 29 29 29 29 29 29 29 29 29 29 29 29 29 29 29 29 29 29 29 29 29 29 29 29 29 29 29 29 29 29 29 29 29 29 29 29 29 29 29 29 29 29 29 29 29 29 29 29 29 29 29 29 29 29 29 29 29 29 29 29 29 29 29 29 29 29 29 29 29 29 29 29 29 29 29 29 29 29 29 29 29 29 29 29 29 29 29 29 29 29 29 29 29 29 29 29 29 29 29 29 29 29 29 29 29 29 29 29 29 29 29 29 29 29 29 29 29 29 29 29 29 29 29 29 29 29 29 29 29 29 29 29 29 29 29 29 29 29 29 29 29 29 29 29 29 29 29 29 29 29 29 29 29 29 29 29 29 29 29 29 29 29 29 29 29 29 29 29 29 29 29 29 29 29 29 29 29 29 29 29 29 29 29 29 29 29 29 29 29 29 29 29 29 29 29 29 29 29 29 29 29 29 29 29 29 29 29 29 29 29 29 29 29 29 29 29 29 29 29 29 29 29 29 29 29 29 29 29 29 29 29 29 29 29 29 29 29 29 29 29 29 29 29 29 29 29 29 29 29 29 29 29 29 29 29 29 29 29 29 29 29 29 29 29 29 29 29 29 29 29 29 29 29 29 29 29 29 29 29 29 29 29 29 29 29 29 29 29 29 29 29 29 29 29 29 29 29 29 29 29 29 29 29 29 29 29 29 29 29 29 29 29 29 29 29 29 29 29 29 29 29 29 29 29 29 29 29 29 29 29 29 29 29 29 29 29 29 29 29 29 29 29 29 29 29 29 29 29 29 29 29 29 29 29 29 29 29 29 29 29 29 29 29 29 29 29 29 29 29 29 29 29 29 29 29 29 29 29 29 29 29 29 29 29 29 29 29 29 29 29 29 29 29 29 29 29 29 29 29 29 29 29 29 29 29 29 29 29 29 29 29 29 29 29 29 29 29 29 29 29 29 29 29 29 29 29 29 29 29 29 29 29 29 29 29 29 29 29 29 29 29 29 29 29 29 29 29 29 29 29 29 29 29 29 29 29 29 29 29 29 29 29 29 29 29 29 29 29 29 29 29 29 29 29 29 29 29 29 29 29 29 29 29 29 29 29 29 29 29 29 29 29 29 29 29 29 29 29 29 29 29 29 29 29 29 29 29 29 29 29 29 29 29 29 29 29 29 29 29 29 29 29 29 29 29 29 29 29 29 29 29 29 29 29 29 29 29 29 29 29 29 29 29 29 29 29 29 29 29 29 29 29 29 29 29 29 29 29 29 29 29 29 29 29 29 29 29 29 29 29 29 29 29 29 29 29 29 29 29 29 29 29 29 29 29 29 29 29 29 29 29 29 29 29 29 29 29 29 29 29 29 29 29 29 29 29 29 29 29 29 29 29 29 29 29 29 29 29 29 29 29 29 29 29 29 29 29 29 29 29 29 29 29 29 29 29 29 29 29 29 29 29 29 29 29 29 29 29 29 29 29 29 29 29 29 29 29 29 29 29 29 29 29 29 29 29 29 29 29 29 29 29 29 29 29 29 29 29 29 29 29 29 29 29 29 29 29 29 29 29 29 29 29 29 29 29 29 29 29 29 29 29 29 29 29 29 29 29 29 29 29 29 29 29 29 29 29 29 29 29 29 29 29 29 29 29 29 29 29 29 29 29 29 29 29 29 29 29 29 29 29 29 29 29 29 29 29 29 29 29 29 29 29 29 29 29 29 29 29 29 29 29 29 29 29 29 29 29 29 29 29 29 29 29 29 29 29 29 29 29 29 29 29 29 29 29 29 29 29 29 29 29 29 29 29 29 29 29 29 29 29 29 29 29 29 29 29 29 29 29 29 29 29 29 29 29 29 29 29 29 29 29 29 29 29 29 29 29 29 29 29 29 29 29 29 29 29 29 29 29 29 29 29 29 29 29 29 29 29 29 29 29 29 29 29 29 29 29 29 29 29 29 29 29 29 29 29 29 29 29 29 29 29 29 29 29 29 29 29 29 29 29 29 29 29 29 29 29 29 29 29 29 29 29 29 29 29 29 29 29 29 29 29 29 29 29 29 29 29 29 29 29 29 29 29 29 29 29 29 29 29 29 29 29 29 29 29 29 29 29 29 29 29 29 29 29 29 29 29 29 29 29 29 29 29 29 29 29 29 29 29 29 29 29 29 29 29 29 29 29 29 29 29 29 29 29 29 29 29 29 29 29 29 29 29 29 29 29 29 29 29 29 29 29 29 29 29 29 29 29 29 29 29 29 29 29 29 29 29 29 29 29 

POINT_DATA 18785
SCALARS weights float 1
LOOKUP_TABLE default
0.072338 0.144676 0.144676 0.144676 0.144676 0.144676 0.144676 0.144676 0.144676 0.144676 0.144676 0.144676 0.144676 0.144676 0.144676 0.144676 0.144676 0.144676 0.144676 0.144676 0.144676 0.144676 0.144676 0.144676 0.144676 0.144676 0.144676 0.144676 0.144676 0.144676 0.144676 0.144676 0.072338 0.144676 0.289352 0.289352 0.289352 0.289352 0.289352 0.289352 0.289352 0.289352 0.289352 0.289352 0.289352 0.289352 0.289352 0.289352 0.289352 0.289352 0.289352 0.289352 0.289352 0.289352 0.289352 0.289352 0.289352 0.289352 0.289352 0.289352 0.289352 0.289352 0.289352 0.289352 0.289352 0.144676 0.144676 0.289352 0.289352 0.289352 0.289352 0.289352 0.289352 0.289352 0.289352 0.289352 0.289352 0.289352 0.289352 0.289352 0.289352 0.289352 0.289352 0.289352 0.289352 0.289352 0.289352 0.289352 0.289352 0.289352 0.289352 0.289352 0.289352 0.289352 0.289352 0.289352 0.289352 0.289352 0.144676 0.144676 0.289352 0.289352 0.289352 0.289352 0.289352 0.289352 0.289352 0.289352 0.289352 0.289352 0.289352 0.289352 0.289352 0.289352 0.289352 0.289352 0.289352 0.289352 0.289352 0.289352 0.289352 0.289352 0.289352 0.289352 0.289352 0.289352 0.289352 0.289352 0.289352 0.289352 0.289352 0.144676 0.144676 0.289352 0.289352 0.289352 0.289352 0.289352 0.289352 0.289352 0.289352 0.289352 0.289352 0.289352 0.289352 0.289352 0.289352 0.289352 0.289352 0.289352 0.289352 0.289352 0.289352 0.289352 0.289352 0.289352 0.289352 0.289352 0.289352 0.289352 0.289352 0.289352 0.289352 0.289352 0.144676 0.144676 0.289352 0.289352 0.289352 0.289352 0.289352 0.289352 0.289352 0.289352 0.289352 0.289352 0.289352 0.289352 0.289352 0.289352 0.289352 0.289352 0.289352 0.289352 0.289352 0.289352 0.289352 0.289352 0.289352 0.289352 0.289352 0.289352 0.289352 0.289352 0.289352 0.289352 0.289352 0.144676 0.144676 0.289352 0.289352 0.289352 0.289352 0.289352 0.289352 0.289352 0.289352 0.289352 0.289352 0.289352 0.289352 0.289352 0.289352 0.289352 0.289352 0.289352 0.289352 0.289352 0.289352 0.289352 0.289352 0.289352 0.289352 0.289352 0.289352 0.289352 0.289352 0.289352 0.289352 0.289352 0.144676 0.144676 0.289352 0.289352 0.289352 0.289352 0.289352 0.289352 0.289352 0.289352 0.289352 0.289352 0.289352 0.289352 0.289352 0.289352 0.289352 0.289352 0.289352 0.289352 0.289352 0.289352 0.289352 0.289352 0.289352 0.289352 0.289352 0.289352 0.289352 0.289352 0.289352 0.289352 0.289352 0.144676 0.072338 0.144676 0.144676 0.144676 0.144676 0.144676 0.144676 0.144676 0.144676 0.144676 0.144676 0.144676 0.144676 0.144676 0.144676 0.144676 0.144676 0.144676 0.144676 0.144676 0.144676 0.144676 0.144676 0.144676 0.144676 0.144676 0.144676 0.144676 0.144676 0.144676 0.144676 0.144676 0.072338 0.144676 0.289352 0.289352 0.289352 0.289352 0.289352 0.289352 0.289352 0.289352 0.289352 0.289352 0.289352 0.289352 0.289352 0.289352 0.289352 0.289352 0.289352 0.289352 0.289352 0.289352 0.289352 0.289352 0.289352 0.289352 0.289352 0.289352 0.289352 0.289352 0.289352 0.289352 0.289352 0.144676 0.289352 0.578704 0.578704 0.578704 0.578704 0.578704 0.578704 0.578704 0.578704 0.578704 0.578704 0.578704 0.578704 0.578704 0.578704 0.578704 0.578704 0.578704 0.578704 0.578703 0.578704 0.578704 0.578704 0.578704 0.578704 0.578704 0.578704 0.578704 0.578703 0.578703 0.578704 0.578704 0.289352 0.289352 0.578704 0.578704 0.578704 0.578704 0.578704 0.578704 0.578704 0.578704 0.578704 0.578704 0.578704 0.578704 0.578704 0.578704 0.578704 0.578704 0.578704 0.578704 0.578703 0.578704 0.578704 0.578704 0.578704 0.578704 0.578704 0.578704 0.578704 0.578703 0.578703 0.578704 0.578704 0.289352 0.289352 0.578704 0.578704 0.578704 0.578704 0.578704 0.578704 0.578704 0.578704 0.578704 0.578704 0.578704 0.578704 0.578704 0.578704 0.578704 0.578704 0.578704 0.578704 0.578703 0.578704 0.578704 0.578704 0.578704 0.578704 0.578704 0.578704 0.578704 0.578703 0.578703 0.578704 0.578704 0.289352 0.289352 0.578704 0.578704 0.578704 0.578704 0.578704 0.578704 0.578704 0.578704 0.578704 0.578704 0.578704 0.578704 0.578704 0.578704 0.578704 0.578704 0.578704 0.578704 0.578703 0.578704 0.578704 0.578704 0.578704 0.578704 0.578703 0.578704 0.578704 0.578703 0.578703 0.578704 0.578704 0.289352 0.289352 0.578704 0.578704 0.578704 0.578704 0.578704 0.578704 0.578704 0.578704 0.578704 0.578704 0.578704 0.578704 0.578704 0.578704 0.578704 0.578704 0.578704 0.578704 0.578703 0.578704 0.578704 0.578704 0.578704 0.578704 0.578704 0.578704 0.578704 0.578703 0.578703 0.578704 0.578704 0.289352 0.289352 0.578704 0.578704 0.578704 0.578704 0.578704 0.578704 0.578704 0.578704 0.578704 0.578704 0.578704 0.578704 0.578704 0.578704 0.578704 0.578704 0.578704 0.578704 0.578704 0.578704 0.578704 0.578704 0.578704 0.578704 0.578704 0.578704 0.578704 0.578703 0.578703 0.578704 0.578704 0.289352 0.289352 0.578704 0.578704 0.578704 0.578704 0.578704 0.578704 0.578704 0.578704 0.578704 0.578704 0.578704 0.578704 0.578704 0.578704 0.578704 0.578704 0.578704 0.578704 0.578703 0.578704 0.578704 0.578704 0.578704 0.578704 0.578704 0.578704 0.578704 0.578703 0.578703 0.578704 0.578704 0.289352 0.144676 0.289352 0.289352 0.289352 0.289352 0.289352 0.289352 0.289352 0.289352 0.289352 0.289352 0.289352 0.289352 0.289352 0.289352 0.289352 0.289352 0.289352 0.289352 0.289352 0.289352 0.289352 0.289352 0.289352 0.289352 0.289352 0.289352 0.289352 0.289351 0.289352 0.289352 0.289352 0.144676 0.144676 0.289352 0.289352 0.289352 0.289352 0.289352 0.289352 0.289352 0.289352 0.289352 0.289352 0.289352 0.289352 0.289352 0.289352 0.289352 0.289352 0.289352 0.289352 0.289352 0.289352 0.289352 0.289352 0.289352 0.289352 0.289352 0.289352 0.289352 0.289352 0.289352 0.289352 0.289352 0.144676 0.289352 0.578704 0.578704 0.578704 0.578704 0.578704 0.578704 0.578704 0.578704 0.578704 0.578704 0.578704 0.578704 0.578704 0.578704 0.578704 0.578704 0.578704 0.578704 0.578704 0.578704 0.578704 0.578704 0.578704 0.578704 0.578704 0.578704 0.578704 0.578703 0.578703 0.578704 0.578704 0.289352 0.289352 0.578704 0.578704 0.578704 0.578704 0.578704 0.578704 0.578704 0.578704 0.578704 0.578704 0.578704 0.578704 0.578704 0.578704 0.578704 0.578704 0.578704 0.578704 0.578704 0.578704 0.578704 0.578704 0.578704 0.578704 0.578704 0.578704 0.578704 0.578703 0.578703 0.578704 0.578704 0.289352 0.289352 0.578704 0.578704 0.578704 0.578704 0.578704 0.578704 0.578704 0.578704 0.578704 0.578704 0.578704 0.578704 0.578704 0.578704 0.578704 0.578704 0.578704 0.578704 0.578703 0.578704 0.578704 0.578704 0.578704 0.578704 0.578704 0.578704 0.578704 0.578703 0.578703 0.578704 0.578704 0.289352 0.289352 0.578704 0.578704 0.578704 0.578704 0.578704 0.578704 0.578704 0.578704 0.578704 0.578704 0.578704 0.578704 0.578704 0.578704 0.578704 0.578704 0.578704 0.578704 0.578703 0.578704 0.578704 0.578704 0.578704 0.578704 0.578704 0.578704 0.578704 0.578703 0.578703 0.578704 0.578704 0.289352 0.289352 0.578704 0.578704 0.578704 0.578704 0.578704 0.578704 0.578704 0.578704 0.578704 0.578704 0.578704 0.578704 0.578704 0.578704 0.578704 0.578704 0.578704 0.578704 0.578704 0.578704 0.578704 0.578704 0.578704 0.578704 0.578704 0.578704 0.578704 0.578703 0.578703 0.578704 0.578704 0.289352 0.289352 0.578704 0.578704 0.578704 0.578704 0.578704 0.578704 0.578704 0.578704 0.578704 0.578704 0.578704 0.578704 0.578704 0.578704 0.578704 0.578704 0.578704 0.578704 0.578704 0.578704 0.578704 0.578704 0.578704 0.578704 0.578704 0.578704 0.578704 0.578703 0.578703 0.578704 0.578704 0.289352 0.289352 0.578704 0.578704 0.578704 0.578704 0.578704 0.578704 0.578704 0.578704 0.578704 0.578704 0.578704 0.578704 0.578704 0.578704 0.578704 0.578704 0.578704 0.578704 0.578703 0.578704 0.578704 0.578704 0.578704 0.578704 0.578704 0.578704 0.578704 0.578703 0.578703 0.578704 0.578704 0.289352 0.144676 0.289352 0.289352 0.289352 0.289352 0.289352 0.289352 0.289352 0.289352 0.289352 0.289352 0.289352 0.289352 0.289352 0.289352 0.289352 0.289352 0.289352 0.289352 0.289352 0.289352 0.289352 0.289352 0.289352 0.289352 0.289352 0.289352 0.289352 0.289352 0.289352 0.289352 0.289352 0.144676 0.144676 0.289352 0.289352 0.289352 0.289352 0.289352 0.289352 0.289352 0.289352 0.289352 0.289352 0.289352 0.289352 0.289352 0.289352 0.289352 0.289352 0.289352 0.289352 0.289352 0.289352 0.289352 0.289352 0.289352 0.289352 0.289352 0.289352 0.289352 0.289351 0.289352 0.289352 0.289352 0.144676 0.289352 0.578704 0.578704 0.578704 0.578704 0.578704 0.578704 0.578704 0.578704 0.578704 0.578703 0.578704 0.578704 0.578704 0.578704 0.578704 0.578704 0.578704 0.578703 0.578703 0.578703 0.578704 0.578703 0.578704 0.578703 0.578703 0.578704 0.578704 0.578703 0.578703 0.578703 0.578704 0.289352 0.289352 0.578704 0.578704 0.578704 0.578704 0.578704 0.578704 0.578704 0.578704 0.578704 0.578703 0.578704 0.578704 0.578704 0.578704 0.578703 0.578704 0.578704 0.578703 0.578703 0.578703 0.578704 0.578703 0.578704 0.578703 0.578703 0.578704 0.578704 0.578703 0.578703 0.578703 0.578704 0.289352 0.289352 0.578704 0.578704 0.578704 0.578704 0.578704 0.578704 0.578704 0.578704 0.578704 0.578703 0.578703 0.578704 0.578704 0.578704 0.578704 0.578704 0.578703 0.578703 0.578703 0.578703 0.578704 0.578703 0.578704 0.578703 0.578703 0.578704 0.578704 0.578703 0.578703 0.578703 0.578704 0.289352 0.289352 0.578704 0.578704 0.578704 0.578703 0.578704 0.578704 0.578704 0.578704 0.578704 0.578703 0.578703 0.578703 0.578704 0.578703 0.578703 0.578704 0.578703 0.578703 0.578703 0.578703 0.578704 0.578703 0.578703 0.578703 0.578703 0.578704 0.578704 0.578703 0.578703 0.578703 0.578703 0.289352 0.289352 0.578704 0.578704 0.578704 0.578704 0.578704 0.578704 0.578704 0.578704 0.578704 0.578703 0.578704 0.578704 0.578704 0.578704 0.578703 0.578704 0.578703 0.578703 0.578703 0.578703 0.578704 0.578703 0.578703 0.578703 0.578703 0.578704 0.578704 0.578703 0.578703 0.578703 0.578704 0.289352 0.289352 0.578704 0.578704 0.578704 0.578704 0.578704 0.578704 0.578704 0.578704 0.578704 0.578703 0.578704 0.578704 0.578704 0.578704 0.578704 0.578704 0.578704 0.578703 0.578703 0.578703 0.578704 0.578703 0.578704 0.578704 0.578703 0.578704 0.578704 0.578703 0.578703 0.578703 0.578704 0.289352 0.289352 0.578704 0.578704 0.578704 0.578704 0.578704 0.578704 0.578704 0.578704 0.578704 0.578703 0.578703 0.578704 0.578704 0.578704 0.578703 0.578704 0.578703 0.578703 0.578703 0.578703 0.578704 0.578703 0.578703 0.578703 0.578703 0.578704 0.578704 0.578703 0.578703 0.578703 0.578704 0.289352 0.144676 0.289352 0.289352 0.289352 0.289352 0.289352 0.289352 0.289352 0.289352 0.289352 0.289352 0.289352 0.289352 0.289352 0.289352 0.289352 0.289352 0.289352 0.289352 0.289352 0.289352 0.289352 0.289352 0.289352 0.289352 0.289352 0.289352 0.289352 0.289351 0.289352 0.289352 0.289352 0.144676 0.144676 0.289352 0.289352 0.289352 0.289352 0.289352 0.289352 0.289352 0.289352 0.289352 0.289352 0.289352 0.289352 0.289352 0.289352 0.289352 0.289352 0.289352 0.289352 0.289352 0.289352 0.289352 0.289352 0.289352 0.289352 0.289352 0.289352 0.289352 0.289352 0.289352 0.289352 0.289352 0.144676 0.289352 0.578704 0.578704 0.578704 0.578704 0.578704 0.578704 0.578704 0.578704 0.578704 0.578704 0.578704 0.578704 0.578704 0.578704 0.578704 0.578704 0.578704 0.578704 0.578703 0.578704 0.578704 0.578704 0.578704 0.578704 0.578704 0.578704 0.578704 0.578703 0.578703 0.578704 0.578704 0.289352 0.289352 0.578704 0.578704 0.578704 0.578704 0.578704 0.578704 0.578704 0.578704 0.578704 0.578704 0.578704 0.578704 0.578704 0.578704 0.578704 0.578704 0.578704 0.578704 0.578703 0.578704 0.578704 0.578704 0.578704 0.578704 0.578704 0.578704 0.578704 0.578703 0.578703 0.578704 0.578704 0.289352 0.289352 0.578704 0.578704 0.578704 0.578704 0.578704 0.578704 0.578704 0.578704 0.578704 0.578704 0.578704 0.578704 0.578704 0.578704 0.578704 0.578704 0.578704 0.578704 0.578703 0.578704 0.578704 0.578704 0.578704 0.578704 0.578704 0.578704 0.578704 0.578703 0.578703 0.578704 0.578704 0.289352 0.289352 0.578704 0.578704 0.578704 0.578704 0.578704 0.578704 0.578704 0.578704 0.578704 0.578704 0.578704 0.578704 0.578704 0.578704 0.578704 0.578704 0.578704 0.578704 0.578703 0.578704 0.578704 0.578704 0.578704 0.578704 0.578704 0.578704 0.578704 0.578703 0.578703 0.578704 0.578704 0.289352 0.289352 0.578704 0.578704 0.578704 0.578704 0.578704 0.578704 0.578704 0.578704 0.578704 0.578704 0.578704 0.578704 0.578704 0.578704 0.578704 0.578704 0.578704 0.578704 0.578703 0.578704 0.578704 0.578704 0.578704 0.578704 0.578703 0.578704 0.578704 0.578703 0.578703 0.578704 0.578704 0.289352 0.289352 0.578704 0.578704 0.578704 0.578704 0.578704 0.578704 0.578704 0.578704 0.578704 0.578704 0.578704 0.578704 0.578704 0.578704 0.578704 0.578704 0.578704 0.578704 0.578703 0.578704 0.578704 0.578704 0.578704 0.578704 0.578704 0.578704 0.578704 0.578703 0.578703 0.578704 0.578704 0.289352 0.289352 0.578704 0.578704 0.578704 0.578704 0.578704 0.578704 0.578704 0.578704 0.578704 0.578704 0.578704 0.578704 0.578704 0.578704 0.578704 0.578704 0.578704 0.578704 0.578703 0.578704 0.578704 0.578704 0.578704 0.578704 0.578704 0.578704 0.578704 0.578703 0.578703 0.578704 0.578704 0.289352 0.144676 0.289352 0.289352 0.289352 0.289352 0.289352 0.289352 0.289352 0.289352 0.289352 0.289352 0.289352 0.289352 0.289352 0.289352 0.289352 0.289352 0.289352 0.289352 0.289352 0.289352 0.289352 0.289352 0.289352 0.289352 0.289352 0.289352 0.289352 0.289351 0.289352 0.289352 0.289352 0.144676 0.144676 0.289352 0.289352 0.289352 0.289352 0.289352 0.289352 0.289352 0.289352 0.289352 0.289352 0.289352 0.289352 0.289352 0.289352 0.289352 0.289352 0.289352 0.289352 0.289352 0.289352 0.289352 0.289352 0.289352 0.289352 0.289352 0.289352 0.289352 0.289352 0.289352 0.289352 0.289352 0.144676 0.289352 0.578704 0.578704 0.578704 0.578704 0.578704 0.578704 0.578704 0.578704 0.578704 0.578704 0.578704 0.578704 0.578704 0.578704 0.578704 0.578704 0.578704 0.578704 0.578704 0.578704 0.578704 0.578704 0.578704 0.578704 0.578704 0.578704 0.578704 0.578703 0.578704 0.578704 0.578704 0.289352 0.289352 0.578704 0.578704 0.578704 0.578704 0.578704 0.578704 0.578704 0.578704 0.578704 0.578704 0.578704 0.578704 0.578704 0.578704 0.578704 0.578704 0.578704 0.578704 0.578704 0.578704 0.578704 0.578704 0.578704 0.578704 0.578704 0.578704 0.578704 0.578703 0.578703 0.578704 0.578704 0.289352 0.289352 0.578704 0.578704 0.578704 0.578704 0.578704 0.578704 0.578704 0.578704 0.578704 0.578704 0.578704 0.578704 0.578704 0.578704 0.578704 0.578704 0.578704 0.578704 0.578704 0.578704 0.578704 0.578704 0.578704 0.578704 0.578704 0.578704 0.578704 0.578703 0.578703 0.578704 0.578704 0.289352 0.289352 0.578704 0.578704 0.578704 0.578704 0.578704 0.578704 0.578704 0.578704 0.578704 0.578704 0.578704 0.578704 0.578704 0.578704 0.578704 0.578704 0.578704 0.578704 0.578704 0.578704 0.578704 0.578704 0.578704 0.578704 0.578704 0.578704 0.578704 0.578703 0.578703 0.578704 0.578704 0.289352 0.289352 0.578704 0.578704 0.578704 0.578704 0.578704 0.578704 0.578704 0.578704 0.578704 0.578704 0.578704 0.578704 0.578704 0.578704 0.578704 0.578704 0.578704 0.578704 0.578704 0.578704 0.578704 0.578704 0.578704 0.578704 0.578704 0.578704 0.578704 0.578703 0.578703 0.578704 0.578704 0.289352 0.289352 0.578704 0.578704 0.578704 0.578704 0.578704 0.578704 0.578704 0.578704 0.578704 0.578704 0.578704 0.578704 0.578704 0.578704 0.578704 0.578704 0.578704 0.578704 0.578704 0.578704 0.578704 0.578704 0.578704 0.578704 0.578704 0.578704 0.578704 0.578703 0.578703 0.578704 0.578704 0.289352 0.289352 0.578704 0.578704 0.578704 0.578704 0.578704 0.578704 0.578704 0.578704 0.578704 0.578704 0.578704 0.578704 0.578704 0.578704 0.578704 0.578704 0.578704 0.578704 0.578704 0.578704 0.578704 0.578704 0.578704 0.578704 0.578704 0.578704 0.578704 0.578703 0.578703 0.578704 0.578704 0.289352 0.144676 0.289352 0.289352 0.289352 0.289352 0.289352 0.289352 0.289352 0.289352 0.289352 0.289352 0.289352 0.289352 0.289352 0.289352 0.289352 0.289352 0.289352 0.289352 0.289352 0.289352 0.289352 0.289352 0.289352 0.289352 0.289352 0.289352 0.289352 0.289352 0.289352 0.289352 0.289352 0.144676 0.144676 0.289352 0.289352 0.289352 0.289352 0.289352 0.289352 0.289352 0.289352 0.289352 0.289352 0.289352 0.289352 0.289352 0.289352 0.289352 0.289352 0.289352 0.289352 0.289352 0.289352 0.289352 0.289352 0.289352 0.289352 0.289352 0.289352 0.289352 0.289351 0.289352 0.289352 0.289352 0.144676 0.289352 0.578704 0.578704 0.578704 0.578704 0.578704 0.578704 0.578704 0.578704 0.578704 0.578703 0.578704 0.578704 0.578704 0.578704 0.578704 0.578704 0.578704 0.578703 0.578703 0.578703 0.578704 0.578703 0.578704 0.578704 0.578703 0.578704 0.578704 0.578703 0.578703 0.578703 0.578704 0.289352 0.289352 0.578704 0.578704 0.578704 0.578704 0.578704 0.578704 0.578704 0.578704 0.578704 0.578704 0.578704 0.578704 0.578704 0.578704 0.578704 0.578704 0.578703 0.578703 0.578703 0.578703 0.578704 0.578704 0.578704 0.578704 0.578703 0.578704 0.578704 0.578703 0.578703 0.578703 0.578704 0.289352 0.289352 0.578704 0.578704 0.578704 0.578704 0.578704 0.578704 0.578704 0.578704 0.578704 0.578703 0.578704 0.578704 0.578704 0.578704 0.578704 0.578704 0.578703 0.578703 0.578703 0.578703 0.578704 0.578703 0.578704 0.578703 0.578703 0.578704 0.578704 0.578703 0.578703 0.578703 0.578704 0.289352 0.289352 0.578704 0.578704 0.578704 0.578704 0.578704 0.578704 0.578704 0.578704 0.578703 0.578703 0.578703 0.578704 0.578704 0.578703 0.578703 0.578704 0.578703 0.578703 0.578703 0.578703 0.578704 0.578703 0.578703 0.578703 0.578703 0.578704 0.578704 0.578703 0.578703 0.578703 0.578704 0.289352 0.289352 0.578704 0.578704 0.578704 0.578704 0.578704 0.578704 0.578704 0.578704 0.578704 0.578703 0.578704 0.578704 0.578704 0.578704 0.578703 0.578704 0.578703 0.578703 0.578703 0.578703 0.578704 0.578704 0.578704 0.578703 0.578703 0.578704 0.578704 0.578703 0.578703 0.578703 0.578704 0.289352 0.289352 0.578704 0.578704 0.578704 0.578704 0.578704 0.578704 0.578704 0.578704 0.578704 0.578704 0.578704 0.578704 0.578704 0.578704 0.578704 0.578704 0.578704 0.578703 0.578703 0.578704 0.578704 0.578704 0.578704 0.578704 0.578703 0.578704 0.578704 0.578703 0.578703 0.578703 0.578704 0.289352 0.289352 0.578704 0.578704 0.578704 0.578704 0.578704 0.578704 0.578704 0.578704 0.578704 0.578703 0.578704 0.578704 0.578704 0.578704 0.578704 0.578704 0.578704 0.578703 0.578703 0.578703 0.578704 0.578703 0.578704 0.578703 0.578703 0.578704 0.578704 0.578703 0.578703 0.578703 0.578704 0.289352 0.144676 0.289352 0.289352 0.289352 0.289352 0.289352 0.289352 0.289352 0.289352 0.289352 0.289352 0.289352 0.289352 0.289352 0.289352 0.289352 0.289352 0.289352 0.289352 0.289352 0.289352 0.289352 0.289352 0.289352 0.289352 0.289352 0.289352 0.289352 0.289351 0.289352 0.289352 0.289352 0.144676 0.144676 0.289352 0.289352 0.289352 0.289352 0.289352 0.289352 0.289352 0.289352 0.289352 0.289352 0.289352 0.289352 0.289352 0.289352 0.289352 0.289352 0.289352 0.289352 0.289352 0.289352 0.289352 0.289352 0.289352 0.289352 0.289352 0.289352 0.289352 0.289352 0.289352 0.289352 0.289352 0.144676 0.289352 0.578704 0.578704 0.578704 0.578704 0.578704 0.578704 0.578704 0.578704 0.578704 0.578704 0.578704 0.578704 0.578704 0.578704 0.578704 0.578704 0.578704 0.578704 0.578703 0.578704 0.578704 0.578704 0.578704 0.578704 0.578704 0.578704 0.578704 0.578703 0.578703 0.578704 0.578704 0.289352 0.289352 0.578704 0.578704 0.578704 0.578704 0.578704 0.578704 0.578704 0.578704 0.578704 0.578704 0.578704 0.578704 0.578704 0.578704 0.578704 0.578704 0.578704 0.578704 0.578703 0.578704 0.578704 0.578704 0.578704 0.578704 0.578703 0.578704 0.578704 0.578703 0.578703 0.578704 0.578704 0.289352 0.289352 0.578704 0.578704 0.578704 0.578704 0.578704 0.578704 0.578704 0.578704 0.578704 0.578704 0.578704 0.578704 0.578704 0.578704 0.578704 0.578704 0.578704 0.578704 0.578703 0.578704 0.578704 0.578704 0.578704 0.578704 0.578703 0.578704 0.578704 0.578703 0.578703 0.578704 0.578704 0.289352 0.289352 0.578704 0.578704 0.578704 0.578704 0.578704 0.578704 0.578704 0.578704 0.578704 0.578704 0.578704 0.578704 0.578704 0.578704 0.578704 0.578704 0.578704 0.578703 0.578703 0.578704 0.578704 0.578704 0.578704 0.578704 0.578703 0.578704 0.578704 0.578703 0.578703 0.578704 0.578704 0.289352 0.289352 0.578704 0.578704 0.578704 0.578704 0.578704 0.578704 0.578704 0.578704 0.578704 0.578704 0.578704 0.578704 0.578704 0.578704 0.578704 0.578704 0.578704 0.578703 0.578703 0.578704 0.578704 0.578704 0.578704 0.578704 0.578704 0.578704 0.578704 0.578703 0.578703 0.578704 0.578704 0.289352 0.289352 0.578704 0.578704 0.578704 0.578704 0.578704 0.578704 0.578704 0.578704 0.578704 0.578704 0.578704 0.578704 0.578704 0.578704 0.578704 0.578704 0.578704 0.578704 0.578703 0.578704 0.578704 0.578704 0.578704 0.578704 0.578704 0.578704 0.578704 0.578703 0.578703 0.578704 0.578704 0.289352 0.289352 0.578704 0.578704 0.578704 0.578704 0.578704 0.578704 0.578704 0.578704 0.578704 0.578704 0.578704 0.578704 0.578704 0.578704 0.578704 0.578704 0.578704 0.578703 0.578703 0.578704 0.578704 0.578704 0.578704 0.578704 0.578703 0.578704 0.578704 0.578703 0.578703 0.578704 0.578704 0.289352 0.144676 0.289352 0.289352 0.289352 0.289352 0.289352 0.289352 0.289352 0.289352 0.289352 0.289352 0.289352 0.289352 0.289352 0.289352 0.289352 0.289352 0.289352 0.289352 0.289352 0.289352 0.289352 0.289352 0.289352 0.289352 0.289352 0.289352 0.289352 0.289351 0.289352 0.289352 0.289352 0.144676 0.072338 0.144676 0.144676 0.144676 0.144676 0.144676 0.144676 0.144676 0.144676 0.144676 0.144676 0.144676 0.144676 0.144676 0.144676 0.144676 0.144676 0.144676 0.144676 0.144676 0.144676 0.144676 0.144676 0.144676 0.144676 0.144676 0.144676 0.144676 0.144676 0.144676 0.144676 0.144676 0.072338 0.144676 0.289352 0.289352 0.289352 0.289352 0.289352 0.289352 0.289352 0.289352 0.289352 0.289352 0.289352 0.289352 0.289352 0.289352 0.289352 0.289352 0.289352 0.289352 0.289352 0.289352 0.289352 0.289352 0.289352 0.289352 0.289352 0.289352 0.289352 0.289351 0.289352 0.289352 0.289352 0.144676 0.144676 0.289352 0.289352 0.289352 0.289352 0.289352 0.289352 0.289352 0.289352 0.289352 0.289352 0.289352 0.289352 0.289352 0.289352 0.289352 0.289352 0.289352 0.289352 0.289352 0.289352 0.289352 0.289352 0.289352 0.289352 0.289352 0.289352 0.289352 0.289351 0.289352 0.289352 0.289352 0.144676 0.144676 0.289352 0.289352 0.289352 0.289352 0.289352 0.289352 0.289352 0.289352 0.289352 0.289352 0.289352 0.289352 0.289352 0.289352 0.289352 0.289352 0.289352 0.289352 0.289352 0.289352 0.289352 0.289352 0.289352 0.289352 0.289352 0.289352 0.289352 0.289351 0.289352 0.289352 0.289352 0.144676 0.144676 0.289352 0.289352 0.289352 0.289352 0.289352 0.289352 0.289352 0.289352 0.289352 0.289352 0.289352 0.289352 0.289352 0.289352 0.289352 0.289352 0.289352 0.289352 0.289352 0.289352 0.289352 0.289352 0.289352 0.289352 0.289352 0.289352 0.289352 0.289351 0.289352 0.289352 0.289352 0.144676 0.144676 0.289352 0.289352 0.289352 0.289352 0.289352 0.289352 0.289352 0.289352 0.289352 0.289352 0.289352 0.289352 0.289352 0.289352 0.289352 0.289352 0.289352 0.289352 0.289352 0.289352 0.289352 0.289352 0.289352 0.289352 0.289352 0.289352 0.289352 0.289351 0.289352 0.289352 0.289352 0.144676 0.144676 0.289352 0.289352 0.289352 0.289352 0.289352 0.289352 0.289352 0.289352 0.289352 0.289352 0.289352 0.289352 0.289352 0.289352 0.289352 0.289352 0.289352 0.289352 0.289352 0.289352 0.289352 0.289352 0.289352 0.289352 0.289352 0.289352 0.289352 0.289352 0.289352 0.289352 0.289352 0.144676 0.144676 0.289352 0.289352 0.289352 0.289352 0.289352 0.289352 0.289352 0.289352 0.289352 0.289352 0.289352 0.289352 0.289352 0.289352 0.289352 0.289352 0.289352 0.289352 0.289352 0.289352 0.289352 0.289352 0.289352 0.289352 0.289352 0.289352 0.289352 0.289351 0.289352 0.289352 0.289352 0.144676 0.0723379 0.144676 0.144676 0.144676 0.144676 0.144676 0.144676 0.144676 0.144676 0.144676 0.144676 0.144676 0.144676 0.144676 0.144676 0.144676 0.144676 0.144676 0.144676 0.144676 0.144676 0.144676 0.144676 0.144676 0.144676 0.144676 0.144676 0.144676 0.144676 0.144676 0.144676 0.144676 0.072338 0.072338 0.144676 0.144676 0.072338 0.072338 0.144676 0.289352 0.144676 0.144676 0.289352 0.289352 0.144676 0.072338 0.072338 0.144676 0.144676 0.072338 0.144676 0.072338 0.072338 0.144676 0.144676 0.144676 0.289352 0.144676 0.289352 0.289352 0.072338 0.072338 0.144676 0.144676 0.144676 0.072338 0.072338 0.144676 0.144676 0.144676 0.289352 0.144676 0.289352 0.289352 0.072338 0.072338 0.144676 0.144676 0.144676 0.072338 0.072338 0.144676 0.144676 0.144676 0.289352 0.144676 0.289352 0.289352 0.072338 0.072338 0.144676 0.144676 0.144676 0.072338 0.072338 0.144676 0.144676 0.144676 0.289352 0.144676 0.289352 0.289352 0.072338 0.072338 0.144676 0.144676 0.144676 0.072338 0.072338 0.144676 0.144676 0.144676 0.289352 0.144676 0.289352 0.289352 0.072338 0.072338 0.144676 0.144676 0.144676 0.072338 0.072338 0.144676 0.144676 0.144676 0.289352 0.144676 0.289352 0.289352 0.072338 0.072338 0.144676 0.144676 0.144676 0.072338 0.072338 0.144676 0.144676 0.144676 0.289352 0.144676 0.289352 0.289352 0.072338 0.072338 0.144676 0.144676 0.144676 0.072338 0.072338 0.144676 0.144676 0.144676 0.289352 0.144676 0.289352 0.289352 0.072338 0.072338 0.144676 0.144676 0.144676 0.072338 0.072338 0.144676 0.144676 0.144676 0.289352 0.144676 0.289352 0.289352 0.072338 0.072338 0.144676 0.144676 0.144676 0.072338 0.072338 0.144676 0.144676 0.144676 0.289352 0.144676 0.289352 0.289352 0.072338 0.072338 0.144676 0.144676 0.144676 0.072338 0.072338 0.144676 0.144676 0.144676 0.289352 0.144676 0.289352 0.289352 0.072338 0.072338 0.144676 0.144676 0.144676 0.072338 0.072338 0.144676 0.144676 0.144676 0.289352 0.144676 0.289352 0.289352 0.072338 0.072338 0.144676 0.144676 0.144676 0.072338 0.072338 0.144676 0.144676 0.144676 0.289352 0.144676 0.289352 0.289352 0.072338 0.072338 0.144676 0.144676 0.144676 0.072338 0.072338 0.144676 0.144676 0.144676 0.289352 0.144676 0.289352 0.289352 0.072338 0.072338 0.144676 0.144676 0.144676 0.072338 0.072338 0.144676 0.144676 0.144676 0.289352 0.144676 0.289352 0.289352 0.072338 0.072338 0.144676 0.144676 0.144676 0.072338 0.072338 0.144676 0.144676 0.144676 0.289352 0.144676 0.289352 0.289352 0.072338 0.072338 0.144676 0.144676 0.144676 0.072338 0.072338 0.144676 0.144676 0.144676 0.289352 0.144676 0.289352 0.289352 0.072338 0.072338 0.144676 0.144676 0.144676 0.072338 0.072338 0.144676 0.144676 0.144676 0.289352 0.144676 0.289352 0.289352 0.072338 0.072338 0.144676 0.144676 0.144676 0.072338 0.0723379 0.144676 0.144676 0.144676 0.289352 0.144676 0.289352 0.289352 0.0723379 0.0723379 0.144676 0.144676 0.144676 0.0723379 0.072338 0.144676 0.144676 0.144676 0.289352 0.144676 0.289352 0.289352 0.072338 0.072338 0.144676 0.144676 0.144676 0.072338 0.072338 0.144676 0.144676 0.144676 0.289352 0.144676 0.289352 0.289352 0.072338 0.072338 0.144676 0.144676 0.144676 0.072338 0.072338 0.144676 0.144676 0.144676 0.289352 0.144676 0.289352 0.289352 0.072338 0.072338 0.144676 0.144676 0.144676 0.072338 0.072338 0.144676 0.144676 0.144676 0.289352 0.144676 0.289352 0.289352 0.072338 0.072338 0.144676 0.144676 0.144676 0.072338 0.0723379 0.144676 0.144676 0.144676 0.289352 0.144676 0.289352 0.289352 0.0723379 0.0723379 0.144676 0.144676 0.144676 0.0723379 0.072338 0.144676 0.144676 0.144676 0.289352 0.144676 0.289352 0.289352 0.072338 0.072338 0.144676 0.144676 0.144676 0.072338 0.0723381 0.144676 0.144676 0.144676 0.289352 0.144676 0.289352 0.289352 0.0723381 0.0723381 0.144676 0.144676 0.144676 0.0723381 0.0723379 0.144676 0.144676 0.144676 0.289352 0.144676 0.289352 0.289352 0.0723379 0.0723379 0.144676 0.144676 0.144676 0.0723379 0.0723379 0.144676 0.144676 0.144676 0.289352 0.144676 0.289352 0.289351 0.0723379 0.0723379 0.144676 0.144676 0.144676 0.0723379 0.072338 0.144676 0.144676 0.144676 0.289352 0.144676 0.289352 0.289352 0.072338 0.072338 0.144676 0.144676 0.144676 0.072338 0.0723379 0.144676 0.144676 0.144676 0.289352 0.144676 0.289352 0.289352 0.0723379 0.0723379 0.144676 0.144676 0.144676 0.0723379 0.072338 0.072338 0.144676 0.072338 0.144676 0.144676 0.144676 0.289352 0.072338 0.072338 0.072338 0.144676 0.144676 0.072338 0.072338 0.144676 0.289352 0.144676 0.144676 0.289352 0.289352 0.144676 0.072338 0.144676 0.144676 0.072338 0.144676 0.072338 0.144676 0.289352 0.144676 0.289352 0.289352 0.072338 0.144676 0.144676 0.144676 0.072338 0.144676 0.289352 0.144676 0.289352 0.289352 0.072338 0.144676 0.144676 0.144676 0.072338 0.144676 0.289352 0.144676 0.289352 0.289352 0.072338 0.144676 0.144676 0.144676 0.072338 0.144676 0.289352 0.144676 0.289352 0.289352 0.072338 0.144676 0.144676 0.144676 0.072338 0.144676 0.289352 0.144676 0.289352 0.289352 0.072338 0.144676 0.144676 0.144676 0.072338 0.144676 0.289352 0.144676 0.289352 0.289352 0.072338 0.144676 0.144676 0.144676 0.072338 0.144676 0.289352 0.144676 0.289352 0.289352 0.072338 0.144676 0.144676 0.144676 0.072338 0.144676 0.289352 0.144676 0.289352 0.289352 0.072338 0.144676 0.144676 0.144676 0.072338 0.144676 0.289352 0.144676 0.289352 0.289352 0.072338 0.144676 0.144676 0.144676 0.072338 0.144676 0.289352 0.144676 0.289352 0.289352 0.072338 0.144676 0.144676 0.144676 0.072338 0.144676 0.289352 0.144676 0.289352 0.289352 0.072338 0.144676 0.144676 0.144676 0.072338 0.144676 0.289352 0.144676 0.289352 0.289352 0.072338 0.144676 0.144676 0.144676 0.072338 0.144676 0.289352 0.144676 0.289352 0.289352 0.072338 0.144676 0.144676 0.144676 0.072338 0.144676 0.289352 0.144676 0.289352 0.289352 0.072338 0.144676 0.144676 0.144676 0.072338 0.144676 0.289352 0.144676 0.289352 0.289352 0.072338 0.144676 0.144676 0.144676 0.072338 0.144676 0.289352 0.144676 0.289352 0.289352 0.072338 0.144676 0.144676 0.144676 0.072338 0.144676 0.289352 0.144676 0.289352 0.289352 0.072338 0.144676 0.144676 0.144676 0.072338 0.144676 0.289352 0.144676 0.289352 0.289352 0.072338 0.144676 0.144676 0.144676 0.072338 0.144676 0.289352 0.144676 0.289352 0.289352 0.0723379 0.144676 0.144676 0.144676 0.0723379 0.144676 0.289352 0.144676 0.289352 0.289352 0.072338 0.144676 0.144676 0.144676 0.072338 0.144676 0.289352 0.144676 0.289352 0.289352 0.072338 0.144676 0.144676 0.144676 0.072338 0.144676 0.289352 0.144676 0.289352 0.289352 0.072338 0.144676 0.144676 0.144676 0.072338 0.144676 0.289352 0.144676 0.289352 0.289352 0.072338 0.144676 0.144676 0.144676 0.072338 0.144676 0.289352 0.144676 0.289352 0.289352 0.0723379 0.144676 0.144676 0.144676 0.0723379 0.144676 0.289352 0.144676 0.289352 0.289352 0.072338 0.144676 0.144676 0.144676 0.072338 0.144676 0.289352 0.144676 0.289352 0.289352 0.0723381 0.144676 0.144676 0.144676 0.0723381 0.144676 0.289352 0.144676 0.289352 0.289352 0.0723379 0.144676 0.144676 0.144676 0.0723379 0.144676 0.289352 0.144676 0.289352 0.289351 0.0723379 0.144676 0.144676 0.144676 0.0723379 0.144676 0.289352 0.144676 0.289352 0.289352 0.072338 0.144676 0.144676 0.144676 0.072338 0.144676 0.289352 0.144676 0.289352 0.289352 0.0723379 0.144676 0.144676 0.144676 0.0723379 0.072338 0.144676 0.144676 0.144676 0.289352 0.072338 0.072338 0.144676 0.144676 0.072338 0.072338 0.144676 0.289352 0.144676 0.144676 0.289352 0.289352 0.144676 0.072338 0.144676 0.144676 0.072338 0.144676 0.072338 0.144676 0.289352 0.144676 0.289352 0.289352 0.072338 0.144676 0.144676 0.144676 0.072338 0.144676 0.289352 0.144676 0.289352 0.289352 0.072338 0.144676 0.144676 0.144676 0.072338 0.144676 0.289352 0.144676 0.289352 0.289352 0.072338 0.144676 0.144676 0.144676 0.072338 0.144676 0.289352 0.144676 0.289352 0.289352 0.072338 0.144676 0.144676 0.144676 0.072338 0.144676 0.289352 0.144676 0.289352 0.289352 0.072338 0.144676 0.144676 0.144676 0.072338 0.144676 0.289352 0.144676 0.289352 0.289352 0.072338 0.144676 0.144676 0.144676 0.072338 0.144676 0.289352 0.144676 0.289352 0.289352 0.072338 0.144676 0.144676 0.144676 0.072338 0.144676 0.289352 0.144676 0.289352 0.289352 0.072338 0.144676 0.144676 0.144676 0.072338 0.144676 0.289352 0.144676 0.289352 0.289352 0.072338 0.144676 0.144676 0.144676 0.072338 0.144676 0.289352 0.144676 0.289352 0.289352 0.072338 0.144676 0.144676 0.144676 0.072338 0.144676 0.289352 0.144676 0.289352 0.289352 0.072338 0.144676 0.144676 0.144676 0.072338 0.144676 0.289352 0.144676 0.289352 0.289352 0.072338 0.144676 0.144676 0.144676 0.072338 0.144676 0.289352 0.144676 0.289352 0.289352 0.072338 0.144676 0.144676 0.144676 0.072338 0.144676 0.289352 0.144676 0.289352 0.289352 0.072338 0.144676 0.144676 0.144676 0.072338 0.144676 0.289352 0.144676 0.289352 0.289352 0.072338 0.144676 0.144676 0.144676 0.072338 0.144676 0.289352 0.144676 0.289352 0.289352 0.072338 0.144676 0.144676 0.144676 0.072338 0.144676 0.289352 0.144676 0.289352 0.289352 0.072338 0.144676 0.144676 0.144676 0.072338 0.144676 0.289352 0.144676 0.289352 0.289352 0.072338 0.144676 0.144676 0.144676 0.072338 0.144676 0.289352 0.144676 0.289352 0.289352 0.0723379 0.144676 0.144676 0.144676 0.0723379 0.144676 0.289352 0.144676 0.289352 0.289352 0.072338 0.144676 0.144676 0.144676 0.072338 0.144676 0.289352 0.144676 0.289352 0.289352 0.072338 0.144676 0.144676 0.144676 0.072338 0.144676 0.289352 0.144676 0.289352 0.289352 0.072338 0.144676 0.144676 0.144676 0.072338 0.144676 0.289352 0.144676 0.289352 0.289352 0.072338 0.144676 0.144676 0.144676 0.072338 0.144676 0.289352 0.144676 0.289352 0.289352 0.0723379 0.144676 0.144676 0.144676 0.0723379 0.144676 0.289352 0.144676 0.289352 0.289352 0.072338 0.144676 0.144676 0.144676 0.072338 0.144676 0.289352 0.144676 0.289352 0.289352 0.0723381 0.144676 0.144676 0.144676 0.0723381 0.144676 0.289352 0.144676 0.289352 0.289352 0.0723379 0.144676 0.144676 0.144676 0.0723379 0.144676 0.289352 0.144676 0.289352 0.289351 0.0723379 0.144676 0.144676 0.144676 0.0723379 0.144676 0.289352 0.144676 0.289352 0.289352 0.072338 0.144676 0.144676 0.144676 0.072338 0.144676 0.289352 0.144676 0.289352 0.289352 0.0723379 0.144676 0.144676 0.144676 0.0723379 0.072338 0.144676 0.144676 0.144676 0.289352 0.072338 0.072338 0.144676 0.144676 0.072338 0.072338 0.144676 0.289352 0.144676 0.144676 0.289352 0.289352 0.144676 0.072338 0.144676 0.144676 0.072338 0.144676 0.072338 0.144676 0.289352 0.144676 0.289352 0.289352 0.072338 0.144676 0.144676 0.144676 0.072338 0.144676 0.289352 0.144676 0.289352 0.289352 0.072338 0.144676 0.144676 0.144676 0.072338 0.144676 0.289352 0.144676 0.289352 0.289352 0.072338 0.144676 0.144676 0.144676 0.072338 0.144676 0.289352 0.144676 0.289352 0.289352 0.072338 0.144676 0.144676 0.144676 0.072338 0.144676 0.289352 0.144676 0.289352 0.289352 0.072338 0.144676 0.144676 0.144676 0.072338 0.144676 0.289352 0.144676 0.289352 0.289352 0.072338 0.144676 0.144676 0.144676 0.072338 0.144676 0.289352 0.144676 0.289352 0.289352 0.072338 0.144676 0.144676 0.144676 0.072338 0.144676 0.289352 0.144676 0.289352 0.289352 0.072338 0.144676 0.144676 0.144676 0.072338 0.144676 0.289352 0.144676 0.289352 0.289352 0.072338 0.144676 0.144676 0.144676 0.072338 0.144676 0.289352 0.144676 0.289352 0.289352 0.072338 0.144676 0.144676 0.144676 0.072338 0.144676 0.289352 0.144676 0.289352 0.289352 0.072338 0.144676 0.144676 0.144676 0.072338 0.144676 0.289352 0.144676 0.289352 0.289352 0.072338 0.144676 0.144676 0.144676 0.072338 0.144676 0.289352 0.144676 0.289352 0.289352 0.072338 0.144676 0.144676 0.144676 0.072338 0.144676 0.289352 0.144676 0.289352 0.289352 0.0723379 0.144676 0.144676 0.144676 0.0723379 0.144676 0.289352 0.144676 0.289352 0.289352 0.072338 0.144676 0.144676 0.144676 0.072338 0.144676 0.289352 0.144676 0.289352 0.289352 0.072338 0.144676 0.144676 0.144676 0.072338 0.144676 0.289352 0.144676 0.289352 0.289352 0.072338 0.144676 0.144676 0.144676 0.072338 0.144676 0.289352 0.144676 0.289352 0.289352 0.0723379 0.144676 0.144676 0.144676 0.0723379 0.144676 0.289352 0.144676 0.289352 0.289352 0.0723379 0.144676 0.144676 0.144676 0.0723379 0.144676 0.289352 0.144676 0.289352 0.289352 0.072338 0.144676 0.144676 0.144676 0.072338 0.144676 0.289352 0.144676 0.289352 0.289352 0.072338 0.144676 0.144676 0.144676 0.072338 0.144676 0.289352 0.144676 0.289352 0.289352 0.0723379 0.144676 0.144676 0.144676 0.0723379 0.144676 0.289352 0.144676 0.289352 0.289352 0.072338 0.144676 0.144676 0.144676 0.072338 0.144676 0.289352 0.144676 0.289352 0.289352 0.0723379 0.144676 0.144676 0.144676 0.0723379 0.144676 0.289352 0.144676 0.289352 0.289352 0.072338 0.144676 0.144676 0.144676 0.072338 0.144676 0.289352 0.144676 0.289352 0.289352 0.0723381 0.144676 0.144676 0.144676 0.0723381 0.144676 0.289352 0.144676 0.289352 0.289352 0.0723379 0.144676 0.144676 0.144676 0.0723379 0.144676 0.289352 0.144676 0.289352 0.289351 0.0723379 0.144676 0.144676 0.144676 0.0723379 0.144676 0.289352 0.144676 0.289352 0.289352 0.072338 0.144676 0.144676 0.144676 0.072338 0.144676 0.289352 0.144676 0.289352 0.289352 0.0723379 0.144676 0.144676 0.144676 0.0723379 0.072338 0.144676 0.144676 0.144676 0.289352 0.072338 0.072338 0.144676 0.144676 0.072338 0.072338 0.144676 0.289352 0.144676 0.144676 0.289352 0.289352 0.144676 0.072338 0.144676 0.144676 0.072338 0.144676 0.072338 0.144676 0.289352 0.144676 0.289352 0.289352 0.072338 0.144676 0.144676 0.144676 0.072338 0.144676 0.289352 0.144676 0.289352 0.289352 0.072338 0.144676 0.144676 0.144676 0.072338 0.144676 0.289352 0.144676 0.289352 0.289352 0.072338 0.144676 0.144676 0.144676 0.072338 0.144676 0.289352 0.144676 0.289352 0.289352 0.072338 0.144676 0.144676 0.144676 0.072338 0.144676 0.289352 0.144676 0.289352 0.289352 0.072338 0.144676 0.144676 0.144676 0.072338 0.144676 0.289352 0.144676 0.289352 0.289352 0.072338 0.144676 0.144676 0.144676 0.072338 0.144676 0.289352 0.144676 0.289352 0.289352 0.072338 0.144676 0.144676 0.144676 0.072338 0.144676 0.289352 0.144676 0.289352 0.289352 0.072338 0.144676 0.144676 0.144676 0.072338 0.144676 0.289352 0.144676 0.289352 0.289352 0.072338 0.144676 0.144676 0.144676 0.072338 0.144676 0.289352 0.144676 0.289352 0.289352 0.072338 0.144676 0.144676 0.144676 0.072338 0.144676 0.289352 0.144676 0.289352 0.289352 0.072338 0.144676 0.144676 0.144676 0.072338 0.144676 0.289352 0.144676 0.289352 0.289352 0.072338 0.144676 0.144676 0.144676 0.072338 0.144676 0.289352 0.144676 0.289352 0.289352 0.072338 0.144676 0.144676 0.144676 0.072338 0.144676 0.289352 0.144676 0.289352 0.289352 0.0723379 0.144676 0.144676 0.144676 0.0723379 0.144676 0.289352 0.144676 0.289352 0.289352 0.072338 0.144676 0.144676 0.144676 0.072338 0.144676 0.289352 0.144676 0.289352 0.289352 0.072338 0.144676 0.144676 0.144676 0.072338 0.144676 0.289352 0.144676 0.289352 0.289352 0.072338 0.144676 0.144676 0.144676 0.072338 0.144676 0.289352 0.144676 0.289352 0.289352 0.072338 0.144676 0.144676 0.144676 0.072338 0.144676 0.289352 0.144676 0.289352 0.289352 0.0723379 0.144676 0.144676 0.144676 0.0723379 0.144676 0.289352 0.144676 0.289352 0.289352 0.072338 0.144676 0.144676 0.144676 0.072338 0.144676 0.289352 0.144676 0.289352 0.289352 0.072338 0.144676 0.144676 0.144676 0.072338 0.144676 0.289352 0.144676 0.289352 0.289352 0.0723379 0.144676 0.144676 0.144676 0.0723379 0.144676 0.289352 0.144676 0.289352 0.289352 0.072338 0.144676 0.144676 0.144676 0.072338 0.144676 0.289352 0.144676 0.289352 0.289352 0.0723379 0.144676 0.144676 0.144676 0.0723379 0.144676 0.289352 0.144676 0.289352 0.289352 0.072338 0.144676 0.144676 0.144676 0.072338 0.144676 0.289352 0.144676 0.289352 0.289352 0.0723381 0.144676 0.144676 0.144676 0.0723381 0.144676 0.289352 0.144676 0.289352 0.289352 0.0723379 0.144676 0.144676 0.144676 0.0723379 0.144676 0.289352 0.144676 0.289352 0.289351 0.0723379 0.144676 0.144676 0.144676 0.0723379 0.144676 0.289352 0.144676 0.289352 0.289352 0.072338 0.144676 0.144676 0.144676 0.072338 0.144676 0.289352 0.144676 0.289352 0.289352 0.0723379 0.144676 0.144676 0.144676 0.0723379 0.072338 0.144676 0.144676 0.144676 0.289352 0.072338 0.072338 0.144676 0.144676 0.072338 0.072338 0.144676 0.289352 0.144676 0.144676 0.289352 0.289352 0.144676 0.072338 0.144676 0.144676 0.072338 0.144676 0.072338 0.144676 0.289352 0.144676 0.289352 0.289352 0.072338 0.144676 0.144676 0.144676 0.072338 0.144676 0.289352 0.144676 0.289352 0.289352 0.072338 0.144676 0.144676 0.144676 0.072338 0.144676 0.289352 0.144676 0.289352 0.289352 0.072338 0.144676 0.144676 0.144676 0.072338 0.144676 0.289352 0.144676 0.289352 0.289352 0.072338 0.144676 0.144676 0.144676 0.072338 0.144676 0.289352 0.144676 0.289352 0.289352 0.072338 0.144676 0.144676 0.144676 0.072338 0.144676 0.289352 0.144676 0.289352 0.289352 0.072338 0.144676 0.144676 0.144676 0.072338 0.144676 0.289352 0.144676 0.289352 0.289352 0.072338 0.144676 0.144676 0.144676 0.072338 0.144676 0.289352 0.144676 0.289352 0.289352 0.072338 0.144676 0.144676 0.144676 0.072338 0.144676 0.289352 0.144676 0.289352 0.289352 0.072338 0.144676 0.144676 0.144676 0.072338 0.144676 0.289352 0.144676 0.289352 0.289352 0.072338 0.144676 0.144676 0.144676 0.072338 0.144676 0.289352 0.144676 0.289352 0.289352 0.072338 0.144676 0.144676 0.144676 0.072338 0.144676 0.289352 0.144676 0.289352 0.289352 0.072338 0.144676 0.144676 0.144676 0.072338 0.144676 0.289352 0.144676 0.289352 0.289352 0.072338 0.144676 0.144676 0.144676 0.072338 0.144676 0.289352 0.144676 0.289352 0.289352 0.072338 0.144676 0.144676 0.144676 0.072338 0.144676 0.289352 0.144676 0.289352 0.289352 0.072338 0.144676 0.144676 0.144676 0.072338 0.144676 0.289352 0.144676 0.289352 0.289352 0.072338 0.144676 0.144676 0.144676 0.072338 0.144676 0.289352 0.144676 0.289352 0.289352 0.072338 0.144676 0.144676 0.144676 0.072338 0.144676 0.289352 0.144676 0.289352 0.289352 0.072338 0.144676 0.144676 0.144676 0.072338 0.144676 0.289352 0.144676 0.289352 0.289352 0.0723379 0.144676 0.144676 0.144676 0.0723379 0.144676 0.289352 0.144676 0.289352 0.289352 0.072338 0.144676 0.144676 0.144676 0.072338 0.144676 0.289352 0.144676 0.289352 0.289352 0.072338 0.144676 0.144676 0.144676 0.072338 0.144676 0.289352 0.144676 0.289352 0.289352 0.072338 0.144676 0.144676 0.144676 0.072338 0.144676 0.289352 0.144676 0.289352 0.289352 0.072338 0.144676 0.144676 0.144676 0.072338 0.144676 0.289352 0.144676 0.289352 0.289352 0.0723379 0.144676 0.144676 0.144676 0.0723379 0.144676 0.289352 0.144676 0.289352 0.289352 0.072338 0.144676 0.144676 0.144676 0.072338 0.144676 0.289352 0.144676 0.289352 0.289352 0.0723381 0.144676 0.144676 0.144676 0.0723381 0.144676 0.289352 0.144676 0.289352 0.289352 0.0723379 0.144676 0.144676 0.144676 0.0723379 0.144676 0.289352 0.144676 0.289352 0.289351 0.0723379 0.144676 0.144676 0.144676 0.0723379 0.144676 0.289352 0.144676 0.289352 0.289352 0.072338 0.144676 0.144676 0.144676 0.072338 0.144676 0.289352 0.144676 0.289352 0.289352 0.072338 0.144676 0.144676 0.144676 0.072338 0.072338 0.144676 0.144676 0.144676 0.289352 0.072338 0.072338 0.144676 0.144676 0.072338 0.072338 0.144676 0.289352 0.144676 0.144676 0.289352 0.289352 0.144676 0.072338 0.144676 0.144676 0.072338 0.144676 0.072338 0.144676 0.289352 0.144676 0.289352 0.289352 0.072338 0.144676 0.144676 0.144676 0.072338 0.144676 0.289352 0.144676 0.289352 0.289352 0.072338 0.144676 0.144676 0.144676 0.072338 0.144676 0.289352 0.144676 0.289352 0.289352 0.072338 0.144676 0.144676 0.144676 0.072338 0.144676 0.289352 0.144676 0.289352 0.289352 0.072338 0.144676 0.144676 0.144676 0.072338 0.144676 0.289352 0.144676 0.289352 0.289352 0.072338 0.144676 0.144676 0.144676 0.072338 0.144676 0.289352 0.144676 0.289352 0.289352 0.072338 0.144676 0.144676 0.144676 0.072338 0.144676 0.289352 0.144676 0.289352 0.289352 0.072338 0.144676 0.144676 0.144676 0.072338 0.144676 0.289352 0.144676 0.289352 0.289352 0.072338 0.144676 0.144676 0.144676 0.072338 0.144676 0.289352 0.144676 0.289352 0.289352 0.072338 0.144676 0.144676 0.144676 0.072338 0.144676 0.289352 0.144676 0.289352 0.289352 0.072338 0.144676 0.144676 0.144676 0.072338 0.144676 0.289352 0.144676 0.289352 0.289352 0.072338 0.144676 0.144676 0.144676 0.072338 0.144676 0.289352 0.144676 0.289352 0.289352 0.072338 0.144676 0.144676 0.144676 0.072338 0.144676 0.289352 0.144676 0.289352 0.289352 0.072338 0.144676 0.144676 0.144676 0.072338 0.144676 0.289352 0.144676 0.289352 0.289352 0.072338 0.144676 0.144676 0.144676 0.072338 0.144676 0.289352 0.144676 0.289352 0.289352 0.072338 0.144676 0.144676 0.144676 0.072338 0.144676 0.289352 0.144676 0.289352 0.289352 0.072338 0.144676 0.144676 0.144676 0.072338 0.144676 0.289352 0.144676 0.289352 0.289352 0.072338 0.144676 0.144676 0.144676 0.072338 0.144676 0.289352 0.144676 0.289352 0.289352 0.072338 0.144676 0.144676 0.144676 0.072338 0.144676 0.289352 0.144676 0.289352 0.289352 0.0723379 0.144676 0.144676 0.144676 0.0723379 0.144676 0.289352 0.144676 0.289352 0.289352 0.072338 0.144676 0.144676 0.144676 0.072338 0.144676 0.289352 0.144676 0.289352 0.289352 0.072338 0.144676 0.144676 0.144676 0.072338 0.144676 0.289352 0.144676 0.289352 0.289352 0.072338 0.144676 0.144676 0.144676 0.072338 0.144676 0.289352 0.144676 0.289352 0.289352 0.072338 0.144676 0.144676 0.144676 0.072338 0.144676 0.289352 0.144676 0.289352 0.289352 0.072338 0.144676 0.144676 0.144676 0.072338 0.144676 0.289352 0.144676 0.289352 0.289352 0.072338 0.144676 0.144676 0.144676 0.072338 0.144676 0.289352 0.144676 0.289352 0.289352 0.0723381 0.144676 0.144676 0.144676 0.0723381 0.144676 0.289352 0.144676 0.289352 0.289352 0.0723379 0.144676 0.144676 0.144676 0.0723379 0.144676 0.289352 0.144676 0.289352 0.289351 0.0723379 0.144676 0.144676 0.144676 0.0723379 0.144676 0.289352 0.144676 0.289352 0.289352 0.072338 0.144676 0.144676 0.144676 0.072338 0.144676 0.289352 0.144676 0.289352 0.289352 0.072338 0.144676 0.144676 0.144676 0.072338 0.072338 0.144676 0.144676 0.144676 0.289352 0.072338 0.072338 0.144676 0.144676 0.072338 0.072338 0.144676 0.289352 0.144676 0.072338 0.144676 0.144676 0.072338 0.072338 0.144676 0.144676 0.072338 0.072338 0.072338 0.144676 0.289352 0.072338 0.144676 0.144676 0.072338 0.144676 0.144676 0.072338 0.072338 0.144676 0.289352 0.072338 0.144676 0.144676 0.072338 0.144676 0.144676 0.072338 0.072338 0.144676 0.289352 0.072338 0.144676 0.144676 0.072338 0.144676 0.144676 0.072338 0.072338 0.144676 0.289352 0.072338 0.144676 0.144676 0.072338 0.144676 0.144676 0.072338 0.072338 0.144676 0.289352 0.072338 0.144676 0.144676 0.072338 0.144676 0.144676 0.072338 0.072338 0.144676 0.289352 0.072338 0.144676 0.144676 0.072338 0.144676 0.144676 0.072338 0.072338 0.144676 0.289352 0.072338 0.144676 0.144676 0.072338 0.144676 0.144676 0.072338 0.072338 0.144676 0.289352 0.072338 0.144676 0.144676 0.072338 0.144676 0.144676 0.072338 0.072338 0.144676 0.289352 0.0723379 0.144676 0.144676 0.0723379 0.144676 0.144676 0.0723379 0.0723379 0.144676 0.289352 0.072338 0.144676 0.144676 0.072338 0.144676 0.144676 0.072338 0.072338 0.144676 0.289352 0.072338 0.144676 0.144676 0.072338 0.144676 0.144676 0.072338 0.072338 0.144676 0.289352 0.072338 0.144676 0.144676 0.072338 0.144676 0.144676 0.072338 0.072338 0.144676 0.289352 0.072338 0.144676 0.144676 0.072338 0.144676 0.144676 0.072338 0.072338 0.144676 0.289352 0.0723379 0.144676 0.144676 0.0723379 0.144676 0.144676 0.0723379 0.0723379 0.144676 0.289352 0.072338 0.144676 0.144676 0.072338 0.144676 0.144676 0.072338 0.072338 0.144676 0.289352 0.072338 0.144676 0.144676 0.072338 0.144676 0.144676 0.072338 0.072338 0.144676 0.289352 0.072338 0.144676 0.144676 0.072338 0.144676 0.144676 0.072338 0.072338 0.144676 0.289352 0.0723379 0.144676 0.144676 0.0723379 0.144676 0.144676 0.0723379 0.0723379 0.144676 0.289352 0.0723379 0.144676 0.144676 0.0723379 0.144676 0.144676 0.0723379 0.0723379 0.144676 0.289352 0.072338 0.144676 0.144676 0.072338 0.144676 0.144676 0.072338 0.072338 0.144676 0.289352 0.072338 0.144676 0.144676 0.072338 0.144676 0.144676 0.072338 0.072338 0.144676 0.289352 0.0723379 0.144676 0.144676 0.0723379 0.144676 0.144676 0.0723379 0.0723379 0.144676 0.289352 0.072338 0.144676 0.144676 0.072338 0.144676 0.144676 0.072338 0.072338 0.144676 0.289352 0.0723379 0.144676 0.144676 0.0723379 0.144676 0.144676 0.0723379 0.0723379 0.144676 0.289352 0.072338 0.144676 0.144676 0.072338 0.144676 0.144676 0.072338 0.072338 0.144676 0.289352 0.0723381 0.144676 0.144676 0.0723381 0.144676 0.144676 0.0723381 0.0723381 0.144676 0.289351 0.0723379 0.144676 0.144676 0.0723379 0.144676 0.144676 0.0723379 0.0723379 0.144676 0.289352 0.0723378 0.144676 0.144676 0.0723378 0.144676 0.144676 0.0723378 0.0723378 0.144676 0.289352 0.072338 0.144676 0.144676 0.072338 0.144676 0.144676 0.072338 0.072338 0.144676 0.289352 0.0723379 0.144676 0.144676 0.0723379 0.144676 0.144676 0.0723379 0.0723379 0.072338 0.144676 0.072338 0.072338 0.144676 0.072338 0.072338 0.144676 0.072338 0.072338 0.144676 0.144676 0.072338 0.289352 0.144676 0.289352 0.289352 0.144676 0.072338 0.144676 0.144676 0.072338 0.144676 0.072338 0.144676 0.144676 0.289352 0.289352 0.289352 0.072338 0.144676 0.144676 0.144676 0.072338 0.144676 0.144676 0.289352 0.289352 0.289352 0.072338 0.144676 0.144676 0.144676 0.072338 0.144676 0.144676 0.289352 0.289352 0.289352 0.072338 0.144676 0.144676 0.144676 0.072338 0.144676 0.144676 0.289352 0.289352 0.289352 0.072338 0.144676 0.144676 0.144676 0.072338 0.144676 0.144676 0.289352 0.289352 0.289352 0.072338 0.144676 0.144676 0.144676 0.072338 0.144676 0.144676 0.289352 0.289352 0.289352 0.072338 0.144676 0.144676 0.144676 0.072338 0.144676 0.144676 0.289352 0.289352 0.289352 0.072338 0.144676 0.144676 0.144676 0.072338 0.144676 0.144676 0.289352 0.289352 0.289352 0.072338 0.144676 0.144676 0.144676 0.072338 0.144676 0.144676 0.289352 0.289352 0.289352 0.0723379 0.144676 0.144676 0.144676 0.0723379 0.144676 0.144676 0.289352 0.289352 0.289352 0.0723379 0.144676 0.144676 0.144676 0.0723379 0.144676 0.144676 0.289352 0.289352 0.289352 0.072338 0.144676 0.144676 0.144676 0.072338 0.144676 0.144676 0.289352 0.289352 0.289352 0.072338 0.144676 0.144676 0.144676 0.072338 0.144676 0.144676 0.289352 0.289352 0.289352 0.072338 0.144676 0.144676 0.144676 0.072338 0.144676 0.144676 0.289352 0.289352 0.289352 0.0723379 0.144676 0.144676 0.144676 0.0723379 0.144676 0.144676 0.289352 0.289352 0.289352 0.072338 0.144676 0.144676 0.144676 0.072338 0.144676 0.144676 0.289352 0.289352 0.289352 0.072338 0.144676 0.144676 0.144676 0.072338 0.144676 0.144676 0.289352 0.289352 0.289352 0.0723379 0.144676 0.144676 0.144676 0.0723379 0.144676 0.144676 0.289352 0.289352 0.289352 0.0723379 0.144676 0.144676 0.144676 0.0723379 0.144676 0.144676 0.289352 0.289352 0.289352 0.0723379 0.144676 0.144676 0.144676 0.0723379 0.144676 0.144676 0.289352 0.289352 0.289352 0.072338 0.144676 0.144676 0.144676 0.072338 0.144676 0.144676 0.289352 0.289352 0.289352 0.072338 0.144676 0.144676 0.144676 0.072338 0.144676 0.144676 0.289352 0.289352 0.289352 0.0723379 0.144676 0.144676 0.144676 0.0723379 0.144676 0.144676 0.289352 0.289352 0.289352 0.072338 0.144676 0.144676 0.144676 0.072338 0.144676 0.144676 0.289352 0.289352 0.289352 0.0723379 0.144676 0.144676 0.144676 0.0723379 0.144676 0.144676 0.289352 0.289352 0.289352 0.0723379 0.144676 0.144676 0.144676 0.0723379 0.144676 0.144676 0.289352 0.289352 0.289352 0.0723381 0.144676 0.144676 0.144676 0.0723381 0.144676 0.144676 0.289352 0.289352 0.289352 0.0723379 0.144676 0.144676 0.144676 0.0723379 0.144676 0.144676 0.289352 0.289352 0.289351 0.0723378 0.144676 0.144676 0.144676 0.0723378 0.144676 0.144676 0.289352 0.289352 0.289352 0.072338 0.144676 0.144676 0.144676 0.072338 0.144676 0.144676 0.289352 0.289352 0.289352 0.0723379 0.144676 0.144676 0.144676 0.0723379 0.072338 0.144676 0.144676 0.144676 0.289352 0.072338 0.072338 0.144676 0.144676 0.072338 0.289352 0.144676 0.289352 0.289352 0.144676 0.144676 0.144676 0.072338 0.144676 0.072338 0.289352 0.289352 0.289352 0.144676 0.144676 0.144676 0.072338 0.289352 0.289352 0.289352 0.144676 0.144676 0.144676 0.072338 0.289352 0.289352 0.289352 0.144676 0.144676 0.144676 0.072338 0.289352 0.289352 0.289352 0.144676 0.144676 0.144676 0.072338 0.289352 0.289352 0.289352 0.144676 0.144676 0.144676 0.072338 0.289352 0.289352 0.289352 0.144676 0.144676 0.144676 0.072338 0.289352 0.289352 0.289352 0.144676 0.144676 0.144676 0.072338 0.289352 0.289352 0.289352 0.144676 0.144676 0.144676 0.072338 0.289352 0.289352 0.289352 0.144676 0.144676 0.144676 0.0723379 0.289352 0.289352 0.289352 0.144676 0.144676 0.144676 0.0723379 0.289352 0.289352 0.289352 0.144676 0.144676 0.144676 0.072338 0.289352 0.289352 0.289352 0.144676 0.144676 0.144676 0.072338 0.289352 0.289352 0.289352 0.144676 0.144676 0.144676 0.072338 0.289352 0.289352 0.289352 0.144676 0.144676 0.144676 0.0723379 0.289352 0.289352 0.289352 0.144676 0.144676 0.144676 0.072338 0.289352 0.289352 0.289352 0.144676 0.144676 0.144676 0.072338 0.289352 0.289352 0.289352 0.144676 0.144676 0.144676 0.0723379 0.289352 0.289352 0.289352 0.144676 0.144676 0.144676 0.0723379 0.289352 0.289352 0.289352 0.144676 0.144676 0.144676 0.0723379 0.289352 0.289352 0.289352 0.144676 0.144676 0.144676 0.072338 0.289352 0.289352 0.289352 0.144676 0.144676 0.144676 0.0723379 0.289352 0.289352 0.289352 0.144676 0.144676 0.144676 0.0723379 0.289352 0.289352 0.289352 0.144676 0.144676 0.144676 0.072338 0.289352 0.289352 0.289352 0.144676 0.144676 0.144676 0.0723379 0.289352 0.289352 0.289352 0.144676 0.144676 0.144676 0.0723379 0.289352 0.289352 0.289352 0.144676 0.144676 0.144676 0.0723381 0.289352 0.289351 0.289352 0.144676 0.144676 0.144676 0.0723379 0.289352 0.289352 0.289351 0.144676 0.144676 0.144676 0.0723378 0.289352 0.289352 0.289352 0.144676 0.144676 0.144676 0.072338 0.289352 0.289352 0.289352 0.144676 0.144676 0.144676 0.0723379 0.144676 0.144676 0.289352 0.072338 0.144676 0.144676 0.072338 0.289352 0.144676 0.289352 0.289352 0.144676 0.144676 0.144676 0.072338 0.144676 0.072338 0.289352 0.289352 0.289352 0.144676 0.144676 0.144676 0.072338 0.289352 0.289352 0.289352 0.144676 0.144676 0.144676 0.072338 0.289352 0.289352 0.289352 0.144676 0.144676 0.144676 0.072338 0.289352 0.289352 0.289352 0.144676 0.144676 0.144676 0.072338 0.289352 0.289352 0.289352 0.144676 0.144676 0.144676 0.072338 0.289352 0.289352 0.289352 0.144676 0.144676 0.144676 0.072338 0.289352 0.289352 0.289352 0.144676 0.144676 0.144676 0.072338 0.289352 0.289352 0.289352 0.144676 0.144676 0.144676 0.072338 0.289352 0.289352 0.289352 0.144676 0.144676 0.144676 0.0723379 0.289352 0.289352 0.289352 0.144676 0.144676 0.144676 0.0723379 0.289352 0.289352 0.289352 0.144676 0.144676 0.144676 0.072338 0.289352 0.289352 0.289352 0.144676 0.144676 0.144676 0.072338 0.289352 0.289352 0.289352 0.144676 0.144676 0.144676 0.072338 0.289352 0.289352 0.289352 0.144676 0.144676 0.144676 0.0723379 0.289352 0.289352 0.289352 0.144676 0.144676 0.144676 0.072338 0.289352 0.289352 0.289352 0.144676 0.144676 0.144676 0.072338 0.289352 0.289352 0.289352 0.144676 0.144676 0.144676 0.0723379 0.289352 0.289352 0.289352 0.144676 0.144676 0.144676 0.0723379 0.289352 0.289352 0.289352 0.144676 0.144676 0.144676 0.0723379 0.289352 0.289352 0.289352 0.144676 0.144676 0.144676 0.072338 0.289352 0.289352 0.289352 0.144676 0.144676 0.144676 0.072338 0.289352 0.289352 0.289352 0.144676 0.144676 0.144676 0.0723379 0.289352 0.289352 0.289352 0.144676 0.144676 0.144676 0.072338 0.289352 0.289352 0.289352 0.144676 0.144676 0.144676 0.0723379 0.289352 0.289352 0.289352 0.144676 0.144676 0.144676 0.0723379 0.289352 0.289352 0.289352 0.144676 0.144676 0.144676 0.0723381 0.289352 0.289351 0.289352 0.144676 0.144676 0.144676 0.0723379 0.289352 0.289352 0.289351 0.144676 0.144676 0.144676 0.0723378 0.289352 0.289352 0.289352 0.144676 0.144676 0.144676 0.072338 0.289352 0.289352 0.289352 0.144676 0.144676 0.144676 0.0723379 0.144676 0.144676 0.289352 0.072338 0.144676 0.144676 0.072338 0.289352 0.144676 0.289352 0.289352 0.144676 0.144676 0.144676 0.072338 0.144676 0.072338 0.289352 0.289352 0.289352 0.144676 0.144676 0.144676 0.072338 0.289352 0.289352 0.289352 0.144676 0.144676 0.144676 0.072338 0.289352 0.289352 0.289352 0.144676 0.144676 0.144676 0.0723379 0.289352 0.289352 0.289352 0.144676 0.144676 0.144676 0.072338 0.289352 0.289352 0.289352 0.144676 0.144676 0.144676 0.072338 0.289352 0.289352 0.289352 0.144676 0.144676 0.144676 0.0723379 0.289352 0.289352 0.289352 0.144676 0.144676 0.144676 0.0723379 0.289352 0.289352 0.289352 0.144676 0.144676 0.144676 0.072338 0.289352 0.289352 0.289352 0.144676 0.144676 0.144676 0.0723379 0.289352 0.289352 0.289352 0.144676 0.144676 0.144676 0.0723379 0.289352 0.289352 0.289352 0.144676 0.144676 0.144676 0.072338 0.289352 0.289352 0.289352 0.144676 0.144676 0.144676 0.0723379 0.289352 0.289352 0.289352 0.144676 0.144676 0.144676 0.072338 0.289352 0.289352 0.289352 0.144676 0.144676 0.144676 0.0723379 0.289352 0.289352 0.289352 0.144676 0.144676 0.144676 0.072338 0.289352 0.289352 0.289352 0.144676 0.144676 0.144676 0.072338 0.289352 0.289352 0.289352 0.144676 0.144676 0.144676 0.0723379 0.289352 0.289352 0.289352 0.144676 0.144676 0.144676 0.0723379 0.289352 0.289352 0.289352 0.144676 0.144676 0.144676 0.0723379 0.289352 0.289352 0.289352 0.144676 0.144676 0.144676 0.072338 0.289352 0.289352 0.289352 0.144676 0.144676 0.144676 0.0723379 0.289352 0.289352 0.289352 0.144676 0.144676 0.144676 0.0723379 0.289352 0.289352 0.289352 0.144676 0.144676 0.144676 0.072338 0.289352 0.289352 0.289352 0.144676 0.144676 0.144676 0.0723379 0.289352 0.289352 0.289352 0.144676 0.144676 0.144676 0.0723379 0.289352 0.289352 0.289352 0.144676 0.144676 0.144676 0.072338 0.289352 0.289351 0.289352 0.144676 0.144676 0.144676 0.0723379 0.289352 0.289352 0.289351 0.144676 0.144676 0.144676 0.0723378 0.289352 0.289352 0.289352 0.144676 0.144676 0.144676 0.072338 0.289352 0.289352 0.289352 0.144676 0.144676 0.144676 0.0723379 0.144676 0.144676 0.289352 0.072338 0.144676 0.144676 0.072338 0.289352 0.144676 0.289352 0.289352 0.144676 0.144676 0.144676 0.072338 0.144676 0.072338 0.289352 0.289352 0.289352 0.144676 0.144676 0.144676 0.072338 0.289352 0.289352 0.289352 0.144676 0.144676 0.144676 0.072338 0.289352 0.289352 0.289352 0.144676 0.144676 0.144676 0.0723379 0.289352 0.289352 0.289352 0.144676 0.144676 0.144676 0.072338 0.289352 0.289352 0.289352 0.144676 0.144676 0.144676 0.072338 0.289352 0.289352 0.289352 0.144676 0.144676 0.144676 0.0723379 0.289352 0.289352 0.289352 0.144676 0.144676 0.144676 0.072338 0.289352 0.289352 0.289352 0.144676 0.144676 0.144676 0.072338 0.289352 0.289352 0.289352 0.144676 0.144676 0.144676 0.0723379 0.289352 0.289352 0.289352 0.144676 0.144676 0.144676 0.0723379 0.289352 0.289352 0.289352 0.144676 0.144676 0.144676 0.072338 0.289352 0.289352 0.289352 0.144676 0.144676 0.144676 0.0723379 0.289352 0.289352 0.289352 0.144676 0.144676 0.144676 0.072338 0.289352 0.289352 0.289352 0.144676 0.144676 0.144676 0.0723379 0.289352 0.289352 0.289352 0.144676 0.144676 0.144676 0.072338 0.289352 0.289352 0.289352 0.144676 0.144676 0.144676 0.072338 0.289352 0.289352 0.289352 0.144676 0.144676 0.144676 0.0723379 0.289352 0.289352 0.289352 0.144676 0.144676 0.144676 0.0723379 0.289352 0.289352 0.289352 0.144676 0.144676 0.144676 0.0723379 0.289352 0.289352 0.289352 0.144676 0.144676 0.144676 0.072338 0.289352 0.289352 0.289352 0.144676 0.144676 0.144676 0.0723379 0.289352 0.289352 0.289352 0.144676 0.144676 0.144676 0.0723379 0.289352 0.289352 0.289352 0.144676 0.144676 0.144676 0.072338 0.289352 0.289352 0.289352 0.144676 0.144676 0.144676 0.0723379 0.289352 0.289352 0.289352 0.144676 0.144676 0.144676 0.0723379 0.289352 0.289352 0.289352 0.144676 0.144676 0.144676 0.072338 0.289352 0.289351 0.289352 0.144676 0.144676 0.144676 0.0723379 0.289352 0.289352 0.289351 0.144676 0.144676 0.144676 0.0723378 0.289352 0.289352 0.289352 0.144676 0.144676 0.144676 0.072338 0.289352 0.289352 0.289352 0.144676 0.144676 0.144676 0.0723379 0.144676 0.144676 0.289352 0.072338 0.144676 0.144676 0.072338 0.289352 0.144676 0.289352 0.289352 0.144676 0.144676 0.144676 0.072338 0.144676 0.072338 0.289352 0.289352 0.289352 0.144676 0.144676 0.144676 0.072338 0.289352 0.289352 0.289352 0.144676 0.144676 0.144676 0.072338 0.289352 0.289352 0.289352 0.144676 0.144676 0.144676 0.072338 0.289352 0.289352 0.289352 0.144676 0.144676 0.144676 0.072338 0.289352 0.289352 0.289352 0.144676 0.144676 0.144676 0.072338 0.289352 0.289352 0.289352 0.144676 0.144676 0.144676 0.072338 0.289352 0.289352 0.289352 0.144676 0.144676 0.144676 0.072338 0.289352 0.289352 0.289352 0.144676 0.144676 0.144676 0.072338 0.289352 0.289352 0.289352 0.144676 0.144676 0.144676 0.0723379 0.289352 0.289352 0.289352 0.144676 0.144676 0.144676 0.0723379 0.289352 0.289352 0.289352 0.144676 0.144676 0.144676 0.072338 0.289352 0.289352 0.289352 0.144676 0.144676 0.144676 0.072338 0.289352 0.289352 0.289352 0.144676 0.144676 0.144676 0.072338 0.289352 0.289352 0.289352 0.144676 0.144676 0.144676 0.0723379 0.289352 0.289352 0.289352 0.144676 0.144676 0.144676 0.072338 0.289352 0.289352 0.289352 0.144676 0.144676 0.144676 0.072338 0.289352 0.289352 0.289352 0.144676 0.144676 0.144676 0.0723379 0.289352 0.289352 0.289352 0.144676 0.144676 0.144676 0.0723379 0.289352 0.289352 0.289352 0.144676 0.144676 0.144676 0.0723379 0.289352 0.289352 0.289352 0.144676 0.144676 0.144676 0.072338 0.289352 0.289352 0.289352 0.144676 0.144676 0.144676 0.0723379 0.289352 0.289352 0.289352 0.144676 0.144676 0.144676 0.0723379 0.289352 0.289352 0.289352 0.144676 0.144676 0.144676 0.072338 0.289352 0.289352 0.289352 0.144676 0.144676 0.144676 0.0723379 0.289352 0.289352 0.289352 0.144676 0.144676 0.144676 0.072338 0.289352 0.289352 0.289352 0.144676 0.144676 0.144676 0.0723381 0.289352 0.289351 0.289352 0.144676 0.144676 0.144676 0.0723379 0.289352 0.289352 0.289351 0.144676 0.144676 0.144676 0.0723378 0.289352 0.289352 0.289352 0.144676 0.144676 0.144676 0.072338 0.289352 0.289352 0.289352 0.144676 0.144676 0.144676 0.0723379 0.144676 0.144676 0.289352 0.072338 0.144676 0.144676 0.072338 0.289352 0.144676 0.289352 0.289352 0.144676 0.144676 0.144676 0.072338 0.144676 0.072338 0.289352 0.289352 0.289352 0.144676 0.144676 0.144676 0.072338 0.289352 0.289352 0.289352 0.144676 0.144676 0.144676 0.072338 0.289352 0.289352 0.289352 0.144676 0.144676 0.144676 0.072338 0.289352 0.289352 0.289352 0.144676 0.144676 0.144676 0.072338 0.289352 0.289352 0.289352 0.144676 0.144676 0.144676 0.072338 0.289352 0.289352 0.289352 0.144676 0.144676 0.144676 0.072338 0.289352 0.289352 0.289352 0.144676 0.144676 0.144676 0.072338 0.289352 0.289352 0.289352 0.144676 0.144676 0.144676 0.072338 0.289352 0.289352 0.289352 0.144676 0.144676 0.144676 0.072338 0.289352 0.289352 0.289352 0.144676 0.144676 0.144676 0.0723379 0.289352 0.289352 0.289352 0.144676 0.144676 0.144676 0.072338 0.289352 0.289352 0.289352 0.144676 0.144676 0.144676 0.072338 0.289352 0.289352 0.289352 0.144676 0.144676 0.144676 0.072338 0.289352 0.289352 0.289352 0.144676 0.144676 0.144676 0.0723379 0.289352 0.289352 0.289352 0.144676 0.144676 0.144676 0.072338 0.289352 0.289352 0.289352 0.144676 0.144676 0.144676 0.072338 0.289352 0.289352 0.289352 0.144676 0.144676 0.144676 0.0723379 0.289352 0.289352 0.289352 0.144676 0.144676 0.144676 0.0723379 0.289352 0.289352 0.289352 0.144676 0.144676 0.144676 0.0723379 0.289352 0.289352 0.289352 0.144676 0.144676 0.144676 0.072338 0.289352 0.289352 0.289352 0.144676 0.144676 0.144676 0.072338 0.289352 0.289352 0.289352 0.144676 0.144676 0.144676 0.0723379 0.289352 0.289352 0.289352 0.144676 0.144676 0.144676 0.072338 0.289352 0.289352 0.289352 0.144676 0.144676 0.144676 0.0723379 0.289352 0.289352 0.289352 0.144676 0.144676 0.144676 0.072338 0.289352 0.289352 0.289352 0.144676 0.144676 0.144676 0.0723381 0.289352 0.289351 0.289352 0.144676 0.144676 0.144676 0.0723379 0.289352 0.289352 0.289351 0.144676 0.144676 0.144676 0.0723378 0.289352 0.289352 0.289352 0.144676 0.144676 0.144676 0.072338 0.289352 0.289352 0.289352 0.144676 0.144676 0.144676 0.0723379 0.144676 0.144676 0.289352 0.072338 0.144676 0.144676 0.072338 0.289352 0.144676 0.144676 0.144676 0.072338 0.144676 0.144676 0.072338 0.072338 0.072338 0.289352 0.144676 0.144676 0.144676 0.144676 0.072338 0.072338 0.289352 0.144676 0.144676 0.144676 0.144676 0.072338 0.072338 0.289352 0.144676 0.144676 0.144676 0.144676 0.0723379 0.0723379 0.289352 0.144676 0.144676 0.144676 0.144676 0.0723379 0.0723379 0.289352 0.144676 0.144676 0.144676 0.144676 0.072338 0.072338 0.289352 0.144676 0.144676 0.144676 0.144676 0.072338 0.072338 0.289352 0.144676 0.144676 0.144676 0.144676 0.0723379 0.0723379 0.289352 0.144676 0.144676 0.144676 0.144676 0.072338 0.072338 0.289352 0.144676 0.144676 0.144676 0.144676 0.0723379 0.0723379 0.289352 0.144676 0.144676 0.144676 0.144676 0.0723379 0.0723379 0.289352 0.144676 0.144676 0.144676 0.144676 0.0723379 0.0723379 0.289352 0.144676 0.144676 0.144676 0.144676 0.0723379 0.0723379 0.289352 0.144676 0.144676 0.144676 0.144676 0.072338 0.072338 0.289352 0.144676 0.144676 0.144676 0.144676 0.0723379 0.0723379 0.289352 0.144676 0.144676 0.144676 0.144676 0.072338 0.072338 0.289352 0.144676 0.144676 0.144676 0.144676 0.0723379 0.0723379 0.289352 0.144676 0.144676 0.144676 0.144676 0.0723379 0.0723379 0.289352 0.144676 0.144676 0.144676 0.144676 0.0723379 0.0723379 0.289352 0.144676 0.144676 0.144676 0.144676 0.0723379 0.0723379 0.289352 0.144676 0.144676 0.144676 0.144676 0.072338 0.072338 0.289352 0.144676 0.144676 0.144676 0.144676 0.0723379 0.0723379 0.289352 0.144676 0.144676 0.144676 0.144676 0.0723379 0.0723379 0.289352 0.144676 0.144676 0.144676 0.144676 0.072338 0.072338 0.289352 0.144676 0.144676 0.144676 0.144676 0.0723379 0.0723379 0.289352 0.144676 0.144676 0.144676 0.144676 0.0723379 0.0723379 0.289352 0.144676 0.144676 0.144676 0.144676 0.072338 0.072338 0.289352 0.144676 0.144676 0.144676 0.144676 0.0723379 0.0723379 0.289352 0.144676 0.144676 0.144676 0.144676 0.0723378 0.0723378 0.289352 0.144676 0.144676 0.144676 0.144676 0.072338 0.072338 0.289352 0.144676 0.144676 0.144676 0.144676 0.0723379 0.0723379 0.144676 0.072338 0.144676 0.072338 0.144676 0.072338 0.072338 0.144676 0.144676 0.072338 0.289352 0.144676 0.289352 0.289352 0.144676 0.072338 0.144676 0.144676 0.072338 0.144676 0.072338 0.144676 0.144676 0.289352 0.289352 0.289352 0.072338 0.144676 0.144676 0.144676 0.072338 0.144676 0.144676 0.289352 0.289352 0.289352 0.072338 0.144676 0.144676 0.144676 0.072338 0.144676 0.144676 0.289352 0.289352 0.289352 0.072338 0.144676 0.144676 0.144676 0.072338 0.144676 0.144676 0.289352 0.289352 0.289352 0.072338 0.144676 0.144676 0.144676 0.072338 0.144676 0.144676 0.289352 0.289352 0.289352 0.072338 0.144676 0.144676 0.144676 0.072338 0.144676 0.144676 0.289352 0.289352 0.289352 0.072338 0.144676 0.144676 0.144676 0.072338 0.144676 0.144676 0.289352 0.289352 0.289352 0.072338 0.144676 0.144676 0.144676 0.072338 0.144676 0.144676 0.289352 0.289352 0.289352 0.072338 0.144676 0.144676 0.144676 0.072338 0.144676 0.144676 0.289352 0.289352 0.289352 0.072338 0.144676 0.144676 0.144676 0.072338 0.144676 0.144676 0.289352 0.289352 0.289352 0.072338 0.144676 0.144676 0.144676 0.072338 0.144676 0.144676 0.289352 0.289352 0.289352 0.072338 0.144676 0.144676 0.144676 0.072338 0.144676 0.144676 0.289352 0.289352 0.289352 0.072338 0.144676 0.144676 0.144676 0.072338 0.144676 0.144676 0.289352 0.289352 0.289352 0.072338 0.144676 0.144676 0.144676 0.072338 0.144676 0.144676 0.289352 0.289352 0.289352 0.072338 0.144676 0.144676 0.144676 0.072338 0.144676 0.144676 0.289352 0.289352 0.289352 0.072338 0.144676 0.144676 0.144676 0.072338 0.144676 0.144676 0.289352 0.289352 0.289352 0.072338 0.144676 0.144676 0.144676 0.072338 0.144676 0.144676 0.289352 0.289352 0.289352 0.072338 0.144676 0.144676 0.144676 0.072338 0.144676 0.144676 0.289352 0.289352 0.289352 0.072338 0.144676 0.144676 0.144676 0.072338 0.144676 0.144676 0.289352 0.289352 0.289352 0.072338 0.144676 0.144676 0.144676 0.072338 0.144676 0.144676 0.289352 0.289352 0.289352 0.072338 0.144676 0.144676 0.144676 0.072338 0.144676 0.144676 0.289352 0.289352 0.289352 0.072338 0.144676 0.144676 0.144676 0.072338 0.144676 0.144676 0.289352 0.289352 0.289352 0.072338 0.144676 0.144676 0.144676 0.072338 0.144676 0.144676 0.289352 0.289352 0.289352 0.072338 0.144676 0.144676 0.144676 0.072338 0.144676 0.144676 0.289352 0.289352 0.289352 0.072338 0.144676 0.144676 0.144676 0.072338 0.144676 0.144676 0.289352 0.289352 0.289352 0.072338 0.144676 0.144676 0.144676 0.072338 0.144676 0.144676 0.289352 0.289352 0.289352 0.0723381 0.144676 0.144676 0.144676 0.0723381 0.144676 0.144676 0.289351 0.289352 0.289352 0.072338 0.144676 0.144676 0.144676 0.072338 0.144676 0.144676 0.289352 0.289352 0.289351 0.0723379 0.144676 0.144676 0.144676 0.0723379 0.144676 0.144676 0.289352 0.289352 0.289352 0.072338 0.144676 0.144676 0.144676 0.072338 0.144676 0.144676 0.289352 0.289352 0.289352 0.072338 0.144676 0.144676 0.144676 0.072338 0.072338 0.144676 0.144676 0.144676 0.289352 0.072338 0.072338 0.144676 0.144676 0.072338 0.289352 0.144676 0.289352 0.289352 0.144676 0.144676 0.144676 0.072338 0.144676 0.072338 0.289352 0.289352 0.289352 0.144676 0.144676 0.144676 0.072338 0.289352 0.289352 0.289352 0.144676 0.144676 0.144676 0.072338 0.289352 0.289352 0.289352 0.144676 0.144676 0.144676 0.072338 0.289352 0.289352 0.289352 0.144676 0.144676 0.144676 0.072338 0.289352 0.289352 0.289352 0.144676 0.144676 0.144676 0.072338 0.289352 0.289352 0.289352 0.144676 0.144676 0.144676 0.072338 0.289352 0.289352 0.289352 0.144676 0.144676 0.144676 0.072338 0.289352 0.289352 0.289352 0.144676 0.144676 0.144676 0.072338 0.289352 0.289352 0.289352 0.144676 0.144676 0.144676 0.072338 0.289352 0.289352 0.289352 0.144676 0.144676 0.144676 0.072338 0.289352 0.289352 0.289352 0.144676 0.144676 0.144676 0.072338 0.289352 0.289352 0.289352 0.144676 0.144676 0.144676 0.072338 0.289352 0.289352 0.289352 0.144676 0.144676 0.144676 0.072338 0.289352 0.289352 0.289352 0.144676 0.144676 0.144676 0.072338 0.289352 0.289352 0.289352 0.144676 0.144676 0.144676 0.072338 0.289352 0.289352 0.289352 0.144676 0.144676 0.144676 0.072338 0.289352 0.289352 0.289352 0.144676 0.144676 0.144676 0.072338 0.289352 0.289352 0.289352 0.144676 0.144676 0.144676 0.072338 0.289352 0.289352 0.289352 0.144676 0.144676 0.144676 0.072338 0.289352 0.289352 0.289352 0.144676 0.144676 0.144676 0.072338 0.289352 0.289352 0.289352 0.144676 0.144676 0.144676 0.072338 0.289352 0.289352 0.289352 0.144676 0.144676 0.144676 0.072338 0.289352 0.289352 0.289352 0.144676 0.144676 0.144676 0.072338 0.289352 0.289352 0.289352 0.144676 0.144676 0.144676 0.072338 0.289352 0.289352 0.289352 0.144676 0.144676 0.144676 0.072338 0.289352 0.289352 0.289352 0.144676 0.144676 0.144676 0.0723381 0.289351 0.289352 0.289352 0.144676 0.144676 0.144676 0.072338 0.289352 0.289352 0.289351 0.144676 0.144676 0.144676 0.0723379 0.289352 0.289352 0.289352 0.144676 0.144676 0.144676 0.072338 0.289352 0.289352 0.289352 0.144676 0.144676 0.144676 0.072338 0.144676 0.144676 0.289352 0.072338 0.144676 0.144676 0.072338 0.289352 0.144676 0.289352 0.289352 0.144676 0.144676 0.144676 0.072338 0.144676 0.072338 0.289352 0.289352 0.289352 0.144676 0.144676 0.144676 0.072338 0.289352 0.289352 0.289352 0.144676 0.144676 0.144676 0.072338 0.289352 0.289352 0.289352 0.144676 0.144676 0.144676 0.072338 0.289352 0.289352 0.289352 0.144676 0.144676 0.144676 0.072338 0.289352 0.289352 0.289352 0.144676 0.144676 0.144676 0.072338 0.289352 0.289352 0.289352 0.144676 0.144676 0.144676 0.072338 0.289352 0.289352 0.289352 0.144676 0.144676 0.144676 0.072338 0.289352 0.289352 0.289352 0.144676 0.144676 0.144676 0.072338 0.289352 0.289352 0.289352 0.144676 0.144676 0.144676 0.072338 0.289352 0.289352 0.289352 0.144676 0.144676 0.144676 0.072338 0.289352 0.289352 0.289352 0.144676 0.144676 0.144676 0.072338 0.289352 0.289352 0.289352 0.144676 0.144676 0.144676 0.072338 0.289352 0.289352 0.289352 0.144676 0.144676 0.144676 0.072338 0.289352 0.289352 0.289352 0.144676 0.144676 0.144676 0.072338 0.289352 0.289352 0.289352 0.144676 0.144676 0.144676 0.072338 0.289352 0.289352 0.289352 0.144676 0.144676 0.144676 0.072338 0.289352 0.289352 0.289352 0.144676 0.144676 0.144676 0.072338 0.289352 0.289352 0.289352 0.144676 0.144676 0.144676 0.072338 0.289352 0.289352 0.289352 0.144676 0.144676 0.144676 0.072338 0.289352 0.289352 0.289352 0.144676 0.144676 0.144676 0.072338 0.289352 0.289352 0.289352 0.144676 0.144676 0.144676 0.072338 0.289352 0.289352 0.289352 0.144676 0.144676 0.144676 0.072338 0.289352 0.289352 0.289352 0.144676 0.144676 0.144676 0.072338 0.289352 0.289352 0.289352 0.144676 0.144676 0.144676 0.072338 0.289352 0.289352 0.289352 0.144676 0.144676 0.144676 0.072338 0.289352 0.289352 0.289352 0.144676 0.144676 0.144676 0.0723381 0.289351 0.289352 0.289352 0.144676 0.144676 0.144676 0.072338 0.289352 0.289352 0.289351 0.144676 0.144676 0.144676 0.0723379 0.289352 0.289352 0.289352 0.144676 0.144676 0.144676 0.072338 0.289352 0.289352 0.289352 0.144676 0.144676 0.144676 0.072338 0.144676 0.144676 0.289352 0.072338 0.144676 0.144676 0.072338 0.289352 0.144676 0.289352 0.289352 0.144676 0.144676 0.144676 0.072338 0.144676 0.072338 0.289352 0.289352 0.289352 0.144676 0.144676 0.144676 0.072338 0.289352 0.289352 0.289352 0.144676 0.144676 0.144676 0.072338 0.289352 0.289352 0.289352 0.144676 0.144676 0.144676 0.072338 0.289352 0.289352 0.289352 0.144676 0.144676 0.144676 0.072338 0.289352 0.289352 0.289352 0.144676 0.144676 0.144676 0.072338 0.289352 0.289352 0.289352 0.144676 0.144676 0.144676 0.072338 0.289352 0.289352 0.289352 0.144676 0.144676 0.144676 0.072338 0.289352 0.289352 0.289352 0.144676 0.144676 0.144676 0.072338 0.289352 0.289352 0.289352 0.144676 0.144676 0.144676 0.072338 0.289352 0.289352 0.289352 0.144676 0.144676 0.144676 0.072338 0.289352 0.289352 0.289352 0.144676 0.144676 0.144676 0.072338 0.289352 0.289352 0.289352 0.144676 0.144676 0.144676 0.072338 0.289352 0.289352 0.289352 0.144676 0.144676 0.144676 0.072338 0.289352 0.289352 0.289352 0.144676 0.144676 0.144676 0.072338 0.289352 0.289352 0.289352 0.144676 0.144676 0.144676 0.072338 0.289352 0.289352 0.289352 0.144676 0.144676 0.144676 0.072338 0.289352 0.289352 0.289352 0.144676 0.144676 0.144676 0.072338 0.289352 0.289352 0.289352 0.144676 0.144676 0.144676 0.072338 0.289352 0.289352 0.289352 0.144676 0.144676 0.144676 0.0723379 0.289352 0.289352 0.289352 0.144676 0.144676 0.144676 0.072338 0.289352 0.289352 0.289352 0.144676 0.144676 0.144676 0.072338 0.289352 0.289352 0.289352 0.144676 0.144676 0.144676 0.072338 0.289352 0.289352 0.289352 0.144676 0.144676 0.144676 0.072338 0.289352 0.289352 0.289352 0.144676 0.144676 0.144676 0.072338 0.289352 0.289352 0.289352 0.144676 0.144676 0.144676 0.072338 0.289352 0.289352 0.289352 0.144676 0.144676 0.144676 0.0723381 0.289351 0.289352 0.289352 0.144676 0.144676 0.144676 0.072338 0.289352 0.289352 0.289351 0.144676 0.144676 0.144676 0.0723379 0.289352 0.289352 0.289352 0.144676 0.144676 0.144676 0.072338 0.289352 0.289352 0.289352 0.144676 0.144676 0.144676 0.072338 0.144676 0.144676 0.289352 0.072338 0.144676 0.144676 0.072338 0.289352 0.144676 0.289352 0.289352 0.144676 0.144676 0.144676 0.072338 0.144676 0.072338 0.289352 0.289352 0.289352 0.144676 0.144676 0.144676 0.072338 0.289352 0.289352 0.289352 0.144676 0.144676 0.144676 0.072338 0.289352 0.289352 0.289352 0.144676 0.144676 0.144676 0.072338 0.289352 0.289352 0.289352 0.144676 0.144676 0.144676 0.072338 0.289352 0.289352 0.289352 0.144676 0.144676 0.144676 0.072338 0.289352 0.289352 0.289352 0.144676 0.144676 0.144676 0.072338 0.289352 0.289352 0.289352 0.144676 0.144676 0.144676 0.072338 0.289352 0.289352 0.289352 0.144676 0.144676 0.144676 0.072338 0.289352 0.289352 0.289352 0.144676 0.144676 0.144676 0.072338 0.289352 0.289352 0.289352 0.144676 0.144676 0.144676 0.072338 0.289352 0.289352 0.289352 0.144676 0.144676 0.144676 0.072338 0.289352 0.289352 0.289352 0.144676 0.144676 0.144676 0.072338 0.289352 0.289352 0.289352 0.144676 0.144676 0.144676 0.072338 0.289352 0.289352 0.289352 0.144676 0.144676 0.144676 0.072338 0.289352 0.289352 0.289352 0.144676 0.144676 0.144676 0.072338 0.289352 0.289352 0.289352 0.144676 0.144676 0.144676 0.072338 0.289352 0.289352 0.289352 0.144676 0.144676 0.144676 0.072338 0.289352 0.289352 0.289352 0.144676 0.144676 0.144676 0.072338 0.289352 0.289352 0.289352 0.144676 0.144676 0.144676 0.0723379 0.289352 0.289352 0.289352 0.144676 0.144676 0.144676 0.072338 0.289352 0.289352 0.289352 0.144676 0.144676 0.144676 0.072338 0.289352 0.289352 0.289352 0.144676 0.144676 0.144676 0.072338 0.289352 0.289352 0.289352 0.144676 0.144676 0.144676 0.072338 0.289352 0.289352 0.289352 0.144676 0.144676 0.144676 0.0723379 0.289352 0.289352 0.289352 0.144676 0.144676 0.144676 0.072338 0.289352 0.289352 0.289352 0.144676 0.144676 0.144676 0.0723381 0.289351 0.289352 0.289352 0.144676 0.144676 0.144676 0.072338 0.289352 0.289352 0.289351 0.144676 0.144676 0.144676 0.0723379 0.289352 0.289352 0.289352 0.144676 0.144676 0.144676 0.072338 0.289352 0.289352 0.289352 0.144676 0.144676 0.144676 0.072338 0.144676 0.144676 0.289352 0.072338 0.144676 0.144676 0.072338 0.289352 0.144676 0.289352 0.289352 0.144676 0.144676 0.144676 0.072338 0.144676 0.072338 0.289352 0.289352 0.289352 0.144676 0.144676 0.144676 0.072338 0.289352 0.289352 0.289352 0.144676 0.144676 0.144676 0.072338 0.289352 0.289352 0.289352 0.144676 0.144676 0.144676 0.072338 0.289352 0.289352 0.289352 0.144676 0.144676 0.144676 0.072338 0.289352 0.289352 0.289352 0.144676 0.144676 0.144676 0.072338 0.289352 0.289352 0.289352 0.144676 0.144676 0.144676 0.072338 0.289352 0.289352 0.289352 0.144676 0.144676 0.144676 0.072338 0.289352 0.289352 0.289352 0.144676 0.144676 0.144676 0.072338 0.289352 0.289352 0.289352 0.144676 0.144676 0.144676 0.072338 0.289352 0.289352 0.289352 0.144676 0.144676 0.144676 0.072338 0.289352 0.289352 0.289352 0.144676 0.144676 0.144676 0.072338 0.289352 0.289352 0.289352 0.144676 0.144676 0.144676 0.072338 0.289352 0.289352 0.289352 0.144676 0.144676 0.144676 0.072338 0.289352 0.289352 0.289352 0.144676 0.144676 0.144676 0.072338 0.289352 0.289352 0.289352 0.144676 0.144676 0.144676 0.072338 0.289352 0.289352 0.289352 0.144676 0.144676 0.144676 0.072338 0.289352 0.289352 0.289352 0.144676 0.144676 0.144676 0.072338 0.289352 0.289352 0.289352 0.144676 0.144676 0.144676 0.072338 0.289352 0.289352 0.289352 0.144676 0.144676 0.144676 0.072338 0.289352 0.289352 0.289352 0.144676 0.144676 0.144676 0.072338 0.289352 0.289352 0.289352 0.144676 0.144676 0.144676 0.072338 0.289352 0.289352 0.289352 0.144676 0.144676 0.144676 0.072338 0.289352 0.289352 0.289352 0.144676 0.144676 0.144676 0.072338 0.289352 0.289352 0.289352 0.144676 0.144676 0.144676 0.072338 0.289352 0.289352 0.289352 0.144676 0.144676 0.144676 0.072338 0.289352 0.289352 0.289352 0.144676 0.144676 0.144676 0.0723381 0.289351 0.289352 0.289352 0.144676 0.144676 0.144676 0.072338 0.289352 0.289352 0.289351 0.144676 0.144676 0.144676 0.0723379 0.289352 0.289352 0.289352 0.144676 0.144676 0.144676 0.072338 0.289352 0.289352 0.289352 0.144676 0.144676 0.144676 0.072338 0.144676 0.144676 0.289352 0.072338 0.144676 0.144676 0.072338 0.289352 0.144676 0.289352 0.289352 0.144676 0.144676 0.144676 0.072338 0.144676 0.072338 0.289352 0.289352 0.289352 0.144676 0.144676 0.144676 0.072338 0.289352 0.289352 0.289352 0.144676 0.144676 0.144676 0.072338 0.289352 0.289352 0.289352 0.144676 0.144676 0.144676 0.072338 0.289352 0.289352 0.289352 0.144676 0.144676 0.144676 0.072338 0.289352 0.289352 0.289352 0.144676 0.144676 0.144676 0.072338 0.289352 0.289352 0.289352 0.144676 0.144676 0.144676 0.072338 0.289352 0.289352 0.289352 0.144676 0.144676 0.144676 0.072338 0.289352 0.289352 0.289352 0.144676 0.144676 0.144676 0.072338 0.289352 0.289352 0.289352 0.144676 0.144676 0.144676 0.072338 0.289352 0.289352 0.289352 0.144676 0.144676 0.144676 0.072338 0.289352 0.289352 0.289352 0.144676 0.144676 0.144676 0.072338 0.289352 0.289352 0.289352 0.144676 0.144676 0.144676 0.072338 0.289352 0.289352 0.289352 0.144676 0.144676 0.144676 0.072338 0.289352 0.289352 0.289352 0.144676 0.144676 0.144676 0.072338 0.289352 0.289352 0.289352 0.144676 0.144676 0.144676 0.072338 0.289352 0.289352 0.289352 0.144676 0.144676 0.144676 0.072338 0.289352 0.289352 0.289352 0.144676 0.144676 0.144676 0.072338 0.289352 0.289352 0.289352 0.144676 0.144676 0.144676 0.072338 0.289352 0.289352 0.289352 0.144676 0.144676 0.144676 0.072338 0.289352 0.289352 0.289352 0.144676 0.144676 0.144676 0.072338 0.289352 0.289352 0.289352 0.144676 0.144676 0.144676 0.072338 0.289352 0.289352 0.289352 0.144676 0.144676 0.144676 0.072338 0.289352 0.289352 0.289352 0.144676 0.144676 0.144676 0.072338 0.289352 0.289352 0.289352 0.144676 0.144676 0.144676 0.072338 0.289352 0.289352 0.289352 0.144676 0.144676 0.144676 0.072338 0.289352 0.289352 0.289352 0.144676 0.144676 0.144676 0.0723381 0.289351 0.289352 0.289352 0.144676 0.144676 0.144676 0.072338 0.289352 0.289352 0.289351 0.144676 0.144676 0.144676 0.0723379 0.289352 0.289352 0.289352 0.144676 0.144676 0.144676 0.072338 0.289352 0.289352 0.289352 0.144676 0.144676 0.144676 0.072338 0.144676 0.144676 0.289352 0.072338 0.144676 0.144676 0.072338 0.289352 0.144676 0.144676 0.144676 0.072338 0.144676 0.144676 0.072338 0.072338 0.072338 0.289352 0.144676 0.144676 0.144676 0.144676 0.072338 0.072338 0.289352 0.144676 0.144676 0.144676 0.144676 0.072338 0.072338 0.289352 0.144676 0.144676 0.144676 0.144676 0.072338 0.072338 0.289352 0.144676 0.144676 0.144676 0.144676 0.072338 0.072338 0.289352 0.144676 0.144676 0.144676 0.144676 0.072338 0.072338 0.289352 0.144676 0.144676 0.144676 0.144676 0.072338 0.072338 0.289352 0.144676 0.144676 0.144676 0.144676 0.072338 0.072338 0.289352 0.144676 0.144676 0.144676 0.144676 0.072338 0.072338 0.289352 0.144676 0.144676 0.144676 0.144676 0.072338 0.072338 0.289352 0.144676 0.144676 0.144676 0.144676 0.072338 0.072338 0.289352 0.144676 0.144676 0.144676 0.144676 0.072338 0.072338 0.289352 0.144676 0.144676 0.144676 0.144676 0.072338 0.072338 0.289352 0.144676 0.144676 0.144676 0.144676 0.072338 0.072338 0.289352 0.144676 0.144676 0.144676 0.144676 0.0723379 0.0723379 0.289352 0.144676 0.144676 0.144676 0.144676 0.072338 0.072338 0.289352 0.144676 0.144676 0.144676 0.144676 0.072338 0.072338 0.289352 0.144676 0.144676 0.144676 0.144676 0.072338 0.072338 0.289352 0.144676 0.144676 0.144676 0.144676 0.0723379 0.0723379 0.289352 0.144676 0.144676 0.144676 0.144676 0.0723379 0.0723379 0.289352 0.144676 0.144676 0.144676 0.144676 0.072338 0.072338 0.289352 0.144676 0.144676 0.144676 0.144676 0.072338 0.072338 0.289352 0.144676 0.144676 0.144676 0.144676 0.072338 0.072338 0.289352 0.144676 0.144676 0.144676 0.144676 0.072338 0.072338 0.289352 0.144676 0.144676 0.144676 0.144676 0.0723379 0.0723379 0.289352 0.144676 0.144676 0.144676 0.144676 0.072338 0.072338 0.289352 0.144676 0.144676 0.144676 0.144676 0.0723381 0.0723381 0.289351 0.144676 0.144676 0.144676 0.144676 0.0723379 0.0723379 0.289352 0.144676 0.144676 0.144676 0.144676 0.0723379 0.0723379 0.289352 0.144676 0.144676 0.144676 0.144676 0.072338 0.072338 0.289352 0.144676 0.144676 0.144676 0.144676 0.0723379 0.0723379 0.144676 0.072338 0.144676 0.072338 0.144676 0.072338 0.072338 0.144676 0.144676 0.0723379 0.289352 0.144676 0.289352 0.289352 0.144676 0.0723379 0.144676 0.144676 0.0723379 0.144676 0.0723379 0.144676 0.144676 0.289352 0.289352 0.289352 0.0723379 0.144676 0.144676 0.144676 0.0723379 0.144676 0.144676 0.289352 0.289352 0.289352 0.0723379 0.144676 0.144676 0.144676 0.0723379 0.144676 0.144676 0.289352 0.289352 0.289352 0.0723379 0.144676 0.144676 0.144676 0.0723379 0.144676 0.144676 0.289352 0.289352 0.289352 0.0723379 0.144676 0.144676 0.144676 0.0723379 0.144676 0.144676 0.289352 0.289352 0.289352 0.0723379 0.144676 0.144676 0.144676 0.0723379 0.144676 0.144676 0.289352 0.289352 0.289352 0.0723379 0.144676 0.144676 0.144676 0.0723379 0.144676 0.144676 0.289352 0.289352 0.289352 0.0723379 0.144676 0.144676 0.144676 0.0723379 0.144676 0.144676 0.289352 0.289352 0.289352 0.0723379 0.144676 0.144676 0.144676 0.0723379 0.144676 0.144676 0.289352 0.289351 0.289352 0.0723379 0.144676 0.144676 0.144676 0.0723379 0.144676 0.144676 0.289352 0.289352 0.289352 0.0723379 0.144676 0.144676 0.144676 0.0723379 0.144676 0.144676 0.289352 0.289352 0.289352 0.0723379 0.144676 0.144676 0.144676 0.0723379 0.144676 0.144676 0.289352 0.289352 0.289352 0.0723379 0.144676 0.144676 0.144676 0.0723379 0.144676 0.144676 0.289352 0.289352 0.289352 0.0723379 0.144676 0.144676 0.144676 0.0723379 0.144676 0.144676 0.289352 0.289352 0.289352 0.0723379 0.144676 0.144676 0.144676 0.0723379 0.144676 0.144676 0.289352 0.289352 0.289352 0.0723379 0.144676 0.144676 0.144676 0.0723379 0.144676 0.144676 0.289352 0.289352 0.289352 0.0723379 0.144676 0.144676 0.144676 0.0723379 0.144676 0.144676 0.289352 0.289351 0.289352 0.0723379 0.144676 0.144676 0.144676 0.0723379 0.144676 0.144676 0.289352 0.289351 0.289352 0.0723379 0.144676 0.144676 0.144676 0.0723379 0.144676 0.144676 0.289352 0.289351 0.289352 0.0723378 0.144676 0.144676 0.144676 0.0723378 0.144676 0.144676 0.289352 0.289352 0.289352 0.0723379 0.144676 0.144676 0.144676 0.0723379 0.144676 0.144676 0.289352 0.289351 0.289352 0.0723379 0.144676 0.144676 0.144676 0.0723379 0.144676 0.144676 0.289352 0.289352 0.289352 0.0723379 0.144676 0.144676 0.144676 0.0723379 0.144676 0.144676 0.289352 0.289351 0.289352 0.0723379 0.144676 0.144676 0.144676 0.0723379 0.144676 0.144676 0.289352 0.289351 0.289352 0.0723378 0.144676 0.144676 0.144676 0.0723378 0.144676 0.144676 0.289352 0.289352 0.289352 0.0723379 0.144676 0.144676 0.144676 0.0723379 0.144676 0.144676 0.289352 0.289352 0.289352 0.072338 0.144676 0.144676 0.144676 0.072338 0.144676 0.144676 0.289352 0.289351 0.289352 0.0723378 0.144676 0.144676 0.144676 0.0723378 0.144676 0.144676 0.289352 0.289351 0.289351 0.0723378 0.144676 0.144676 0.144676 0.0723378 0.144676 0.144676 0.289352 0.289351 0.289352 0.0723379 0.144676 0.144676 0.144676 0.0723379 0.144676 0.144676 0.289352 0.289352 0.289352 0.0723379 0.144676 0.144676 0.144676 0.0723379 0.0723379 0.144676 0.144676 0.144676 0.289352 0.0723379 0.0723379 0.144676 0.144676 0.0723379 0.289352 0.144676 0.289352 0.289352 0.144676 0.144676 0.144676 0.0723379 0.144676 0.0723379 0.289352 0.289352 0.289352 0.144676 0.144676 0.144676 0.0723379 0.289352 0.289352 0.289352 0.144676 0.144676 0.144676 0.0723379 0.289352 0.289352 0.289352 0.144676 0.144676 0.144676 0.0723379 0.289352 0.289352 0.289352 0.144676 0.144676 0.144676 0.0723379 0.289352 0.289352 0.289352 0.144676 0.144676 0.144676 0.0723379 0.289352 0.289352 0.289352 0.144676 0.144676 0.144676 0.0723379 0.289352 0.289352 0.289352 0.144676 0.144676 0.144676 0.0723379 0.289352 0.289352 0.289352 0.144676 0.144676 0.144676 0.0723379 0.289352 0.289351 0.289352 0.144676 0.144676 0.144676 0.0723379 0.289352 0.289352 0.289352 0.144676 0.144676 0.144676 0.0723379 0.289352 0.289352 0.289352 0.144676 0.144676 0.144676 0.0723379 0.289352 0.289352 0.289352 0.144676 0.144676 0.144676 0.0723379 0.289352 0.289352 0.289352 0.144676 0.144676 0.144676 0.0723379 0.289352 0.289352 0.289352 0.144676 0.144676 0.144676 0.0723379 0.289352 0.289352 0.289352 0.144676 0.144676 0.144676 0.0723379 0.289352 0.289352 0.289352 0.144676 0.144676 0.144676 0.0723379 0.289352 0.289351 0.289352 0.144676 0.144676 0.144676 0.0723379 0.289352 0.289351 0.289352 0.144676 0.144676 0.144676 0.0723379 0.289352 0.289351 0.289352 0.144676 0.144676 0.144676 0.0723378 0.289352 0.289352 0.289352 0.144676 0.144676 0.144676 0.0723379 0.289352 0.289351 0.289352 0.144676 0.144676 0.144676 0.0723379 0.289352 0.289352 0.289352 0.144676 0.144676 0.144676 0.0723379 0.289352 0.289351 0.289352 0.144676 0.144676 0.144676 0.0723379 0.289352 0.289351 0.289352 0.144676 0.144676 0.144676 0.0723378 0.289352 0.289352 0.289352 0.144676 0.144676 0.144676 0.0723379 0.289352 0.289352 0.289352 0.144676 0.144676 0.144676 0.072338 0.289352 0.289351 0.289352 0.144676 0.144676 0.144676 0.0723378 0.289352 0.289351 0.289351 0.144676 0.144676 0.144676 0.0723378 0.289352 0.289351 0.289352 0.144676 0.144676 0.144676 0.0723379 0.289352 0.289352 0.289352 0.144676 0.144676 0.144676 0.0723378 0.144676 0.144676 0.289352 0.0723379 0.144676 0.144676 0.0723379 0.289352 0.144676 0.289352 0.289352 0.144676 0.144676 0.144676 0.0723379 0.144676 0.0723379 0.289352 0.289352 0.289352 0.144676 0.144676 0.144676 0.0723379 0.289352 0.289352 0.289352 0.144676 0.144676 0.144676 0.0723379 0.289352 0.289352 0.289352 0.144676 0.144676 0.144676 0.0723379 0.289352 0.289352 0.289352 0.144676 0.144676 0.144676 0.0723379 0.289352 0.289352 0.289352 0.144676 0.144676 0.144676 0.0723379 0.289352 0.289352 0.289352 0.144676 0.144676 0.144676 0.0723379 0.289352 0.289352 0.289352 0.144676 0.144676 0.144676 0.0723379 0.289352 0.289352 0.289352 0.144676 0.144676 0.144676 0.0723379 0.289352 0.289351 0.289352 0.144676 0.144676 0.144676 0.0723379 0.289352 0.289352 0.289352 0.144676 0.144676 0.144676 0.0723379 0.289352 0.289352 0.289352 0.144676 0.144676 0.144676 0.0723379 0.289352 0.289352 0.289352 0.144676 0.144676 0.144676 0.0723379 0.289352 0.289351 0.289352 0.144676 0.144676 0.144676 0.0723379 0.289352 0.289351 0.289352 0.144676 0.144676 0.144676 0.0723378 0.289352 0.289352 0.289352 0.144676 0.144676 0.144676 0.0723379 0.289352 0.289352 0.289352 0.144676 0.144676 0.144676 0.0723379 0.289352 0.289351 0.289352 0.144676 0.144676 0.144676 0.0723379 0.289352 0.289351 0.289352 0.144676 0.144676 0.144676 0.0723379 0.289352 0.289351 0.289352 0.144676 0.144676 0.144676 0.0723378 0.289352 0.289352 0.289352 0.144676 0.144676 0.144676 0.0723379 0.289352 0.289351 0.289352 0.144676 0.144676 0.144676 0.0723379 0.289352 0.289351 0.289352 0.144676 0.144676 0.144676 0.0723379 0.289352 0.289351 0.289352 0.144676 0.144676 0.144676 0.0723379 0.289352 0.289351 0.289352 0.144676 0.144676 0.144676 0.0723378 0.289352 0.289352 0.289352 0.144676 0.144676 0.144676 0.0723379 0.289352 0.289352 0.289352 0.144676 0.144676 0.144676 0.072338 0.289352 0.289351 0.289352 0.144676 0.144676 0.144676 0.0723378 0.289352 0.289351 0.289351 0.144676 0.144676 0.144676 0.0723378 0.289352 0.289351 0.289352 0.144676 0.144676 0.144676 0.0723379 0.289352 0.289352 0.289352 0.144676 0.144676 0.144676 0.0723378 0.144676 0.144676 0.289352 0.0723379 0.144676 0.144676 0.0723379 0.289352 0.144676 0.289352 0.289352 0.144676 0.144676 0.144676 0.0723379 0.144676 0.0723379 0.289352 0.289352 0.289352 0.144676 0.144676 0.144676 0.0723379 0.289352 0.289352 0.289352 0.144676 0.144676 0.144676 0.0723379 0.289352 0.289352 0.289352 0.144676 0.144676 0.144676 0.0723379 0.289352 0.289352 0.289352 0.144676 0.144676 0.144676 0.0723379 0.289352 0.289352 0.289352 0.144676 0.144676 0.144676 0.0723379 0.289352 0.289352 0.289352 0.144676 0.144676 0.144676 0.0723379 0.289352 0.289352 0.289352 0.144676 0.144676 0.144676 0.0723379 0.289352 0.289352 0.289352 0.144676 0.144676 0.144676 0.0723379 0.289352 0.289351 0.289352 0.144676 0.144676 0.144676 0.0723379 0.289352 0.289351 0.289352 0.144676 0.144676 0.144676 0.0723379 0.289352 0.289352 0.289352 0.144676 0.144676 0.144676 0.0723379 0.289352 0.289352 0.289352 0.144676 0.144676 0.144676 0.0723379 0.289352 0.289351 0.289352 0.144676 0.144676 0.144676 0.0723379 0.289352 0.289351 0.289352 0.144676 0.144676 0.144676 0.0723378 0.289352 0.289352 0.289352 0.144676 0.144676 0.144676 0.0723379 0.289352 0.289351 0.289352 0.144676 0.144676 0.144676 0.0723379 0.289352 0.289351 0.289352 0.144676 0.144676 0.144676 0.0723379 0.289352 0.289351 0.289352 0.144676 0.144676 0.144676 0.0723379 0.289352 0.289351 0.289352 0.144676 0.144676 0.144676 0.0723378 0.289352 0.289352 0.289352 0.144676 0.144676 0.144676 0.0723379 0.289352 0.289351 0.289352 0.144676 0.144676 0.144676 0.0723379 0.289352 0.289351 0.289352 0.144676 0.144676 0.144676 0.0723378 0.289352 0.289351 0.289352 0.144676 0.144676 0.144676 0.0723379 0.289352 0.289351 0.289352 0.144676 0.144676 0.144676 0.0723378 0.289352 0.289352 0.289352 0.144676 0.144676 0.144676 0.0723379 0.289352 0.289352 0.289352 0.144676 0.144676 0.144676 0.072338 0.289352 0.289351 0.289352 0.144676 0.144676 0.144676 0.0723378 0.289352 0.289351 0.289351 0.144676 0.144676 0.144676 0.0723378 0.289352 0.289351 0.289352 0.144676 0.144676 0.144676 0.0723379 0.289352 0.289352 0.289352 0.144676 0.144676 0.144676 0.0723378 0.144676 0.144676 0.289352 0.0723379 0.144676 0.144676 0.0723379 0.289352 0.144676 0.289352 0.289352 0.144676 0.144676 0.144676 0.0723379 0.144676 0.0723379 0.289352 0.289352 0.289352 0.144676 0.144676 0.144676 0.0723379 0.289352 0.289352 0.289352 0.144676 0.144676 0.144676 0.0723379 0.289352 0.289352 0.289352 0.144676 0.144676 0.144676 0.0723379 0.289352 0.289352 0.289352 0.144676 0.144676 0.144676 0.0723379 0.289352 0.289352 0.289352 0.144676 0.144676 0.144676 0.0723379 0.289352 0.289352 0.289352 0.144676 0.144676 0.144676 0.0723379 0.289352 0.289352 0.289352 0.144676 0.144676 0.144676 0.0723379 0.289352 0.289352 0.289352 0.144676 0.144676 0.144676 0.0723379 0.289352 0.289351 0.289352 0.144676 0.144676 0.144676 0.0723379 0.289352 0.289352 0.289352 0.144676 0.144676 0.144676 0.0723379 0.289352 0.289352 0.289352 0.144676 0.144676 0.144676 0.0723379 0.289352 0.289352 0.289352 0.144676 0.144676 0.144676 0.0723379 0.289352 0.289352 0.289352 0.144676 0.144676 0.144676 0.0723379 0.289352 0.289351 0.289352 0.144676 0.144676 0.144676 0.0723378 0.289352 0.289352 0.289352 0.144676 0.144676 0.144676 0.0723379 0.289352 0.289351 0.289352 0.144676 0.144676 0.144676 0.0723379 0.289352 0.289351 0.289352 0.144676 0.144676 0.144676 0.0723379 0.289352 0.289351 0.289352 0.144676 0.144676 0.144676 0.0723379 0.289352 0.289351 0.289352 0.144676 0.144676 0.144676 0.0723378 0.289352 0.289352 0.289352 0.144676 0.144676 0.144676 0.0723379 0.289352 0.289351 0.289352 0.144676 0.144676 0.144676 0.0723379 0.289352 0.289352 0.289352 0.144676 0.144676 0.144676 0.0723378 0.289352 0.289351 0.289352 0.144676 0.144676 0.144676 0.0723379 0.289352 0.289351 0.289352 0.144676 0.144676 0.144676 0.0723378 0.289352 0.289352 0.289352 0.144676 0.144676 0.144676 0.0723379 0.289352 0.289352 0.289352 0.144676 0.144676 0.144676 0.072338 0.289352 0.289351 0.289352 0.144676 0.144676 0.144676 0.0723378 0.289352 0.289351 0.289351 0.144676 0.144676 0.144676 0.0723378 0.289352 0.289351 0.289352 0.144676 0.144676 0.144676 0.0723379 0.289352 0.289352 0.289352 0.144676 0.144676 0.144676 0.0723378 0.144676 0.144676 0.289352 0.0723379 0.144676 0.144676 0.0723379 0.289352 0.144676 0.289352 0.289352 0.144676 0.144676 0.144676 0.0723379 0.144676 0.0723379 0.289352 0.289352 0.289352 0.144676 0.144676 0.144676 0.0723379 0.289352 0.289352 0.289352 0.144676 0.144676 0.144676 0.0723379 0.289352 0.289352 0.289352 0.144676 0.144676 0.144676 0.0723379 0.289352 0.289352 0.289352 0.144676 0.144676 0.144676 0.0723379 0.289352 0.289352 0.289352 0.144676 0.144676 0.144676 0.0723379 0.289352 0.289352 0.289352 0.144676 0.144676 0.144676 0.0723379 0.289352 0.289352 0.289352 0.144676 0.144676 0.144676 0.0723379 0.289352 0.289352 0.289352 0.144676 0.144676 0.144676 0.0723379 0.289352 0.289351 0.289352 0.144676 0.144676 0.144676 0.0723379 0.289352 0.289352 0.289352 0.144676 0.144676 0.144676 0.0723379 0.289352 0.289352 0.289352 0.144676 0.144676 0.144676 0.0723379 0.289352 0.289352 0.289352 0.144676 0.144676 0.144676 0.0723379 0.289352 0.289352 0.289352 0.144676 0.144676 0.144676 0.0723379 0.289352 0.289352 0.289352 0.144676 0.144676 0.144676 0.0723379 0.289352 0.289352 0.289352 0.144676 0.144676 0.144676 0.0723379 0.289352 0.289352 0.289352 0.144676 0.144676 0.144676 0.0723379 0.289352 0.289351 0.289352 0.144676 0.144676 0.144676 0.0723379 0.289352 0.289351 0.289352 0.144676 0.144676 0.144676 0.0723379 0.289352 0.289352 0.289352 0.144676 0.144676 0.144676 0.0723378 0.289352 0.289352 0.289352 0.144676 0.144676 0.144676 0.0723379 0.289352 0.289351 0.289352 0.144676 0.144676 0.144676 0.0723379 0.289352 0.289352 0.289352 0.144676 0.144676 0.144676 0.0723379 0.289352 0.289352 0.289352 0.144676 0.144676 0.144676 0.0723379 0.289352 0.289351 0.289352 0.144676 0.144676 0.144676 0.0723378 0.289352 0.289352 0.289352 0.144676 0.144676 0.144676 0.0723379 0.289352 0.289352 0.289352 0.144676 0.144676 0.144676 0.072338 0.289352 0.289351 0.289352 0.144676 0.144676 0.144676 0.0723378 0.289352 0.289351 0.289351 0.144676 0.144676 0.144676 0.0723378 0.289352 0.289351 0.289352 0.144676 0.144676 0.144676 0.0723379 0.289352 0.289352 0.289352 0.144676 0.144676 0.144676 0.0723379 0.144676 0.144676 0.289352 0.0723379 0.144676 0.144676 0.0723379 0.289352 0.144676 0.289352 0.289352 0.144676 0.144676 0.144676 0.0723379 0.144676 0.0723379 0.289352 0.289352 0.289352 0.144676 0.144676 0.144676 0.0723379 0.289352 0.289352 0.289352 0.144676 0.144676 0.144676 0.0723379 0.289352 0.289352 0.289352 0.144676 0.144676 0.144676 0.0723379 0.289352 0.289352 0.289352 0.144676 0.144676 0.144676 0.0723379 0.289352 0.289352 0.289352 0.144676 0.144676 0.144676 0.0723379 0.289352 0.289352 0.289352 0.144676 0.144676 0.144676 0.0723379 0.289352 0.289352 0.289352 0.144676 0.144676 0.144676 0.0723379 0.289352 0.289352 0.289352 0.144676 0.144676 0.144676 0.0723379 0.289352 0.289351 0.289352 0.144676 0.144676 0.144676 0.0723379 0.289352 0.289352 0.289352 0.144676 0.144676 0.144676 0.0723379 0.289352 0.289352 0.289352 0.144676 0.144676 0.144676 0.0723379 0.289352 0.289352 0.289352 0.144676 0.144676 0.144676 0.0723379 0.289352 0.289352 0.289352 0.144676 0.144676 0.144676 0.0723379 0.289352 0.289351 0.289352 0.144676 0.144676 0.144676 0.0723379 0.289352 0.289352 0.289352 0.144676 0.144676 0.144676 0.0723379 0.289352 0.289351 0.289352 0.144676 0.144676 0.144676 0.0723379 0.289352 0.289351 0.289352 0.144676 0.144676 0.144676 0.0723379 0.289352 0.289351 0.289352 0.144676 0.144676 0.144676 0.0723379 0.289352 0.289351 0.289352 0.144676 0.144676 0.144676 0.0723378 0.289352 0.289352 0.289352 0.144676 0.144676 0.144676 0.0723379 0.289352 0.289351 0.289352 0.144676 0.144676 0.144676 0.0723379 0.289352 0.289352 0.289352 0.144676 0.144676 0.144676 0.0723379 0.289352 0.289351 0.289352 0.144676 0.144676 0.144676 0.0723379 0.289352 0.289351 0.289352 0.144676 0.144676 0.144676 0.0723378 0.289352 0.289352 0.289352 0.144676 0.144676 0.144676 0.0723379 0.289352 0.289352 0.289352 0.144676 0.144676 0.144676 0.072338 0.289352 0.289351 0.289352 0.144676 0.144676 0.144676 0.0723378 0.289352 0.289351 0.289351 0.144676 0.144676 0.144676 0.0723378 0.289352 0.289351 0.289352 0.144676 0.144676 0.144676 0.0723379 0.289352 0.289352 0.289352 0.144676 0.144676 0.144676 0.0723379 0.144676 0.144676 0.289352 0.0723379 0.144676 0.144676 0.0723379 0.289352 0.144676 0.144676 0.144676 0.0723379 0.144676 0.144676 0.0723379 0.0723379 0.0723379 0.289352 0.144676 0.144676 0.144676 0.144676 0.0723379 0.0723379 0.289352 0.144676 0.144676 0.144676 0.144676 0.0723379 0.0723379 0.289352 0.144676 0.144676 0.144676 0.144676 0.0723379 0.0723379 0.289352 0.144676 0.144676 0.144676 0.144676 0.0723379 0.0723379 0.289352 0.144676 0.144676 0.144676 0.144676 0.0723379 0.0723379 0.289352 0.144676 0.144676 0.144676 0.144676 0.0723379 0.0723379 0.289352 0.144676 0.144676 0.144676 0.144676 0.0723379 0.0723379 0.289352 0.144676 0.144676 0.144676 0.144676 0.0723379 0.0723379 0.289352 0.144676 0.144676 0.144676 0.144676 0.0723379 0.0723379 0.289352 0.144676 0.144676 0.144676 0.144676 0.0723379 0.0723379 0.289352 0.144676 0.144676 0.144676 0.144676 0.0723379 0.0723379 0.289352 0.144676 0.144676 0.144676 0.144676 0.0723379 0.0723379 0.289352 0.144676 0.144676 0.144676 0.144676 0.0723379 0.0723379 0.289352 0.144676 0.144676 0.144676 0.144676 0.0723378 0.0723378 0.289352 0.144676 0.144676 0.144676 0.144676 0.0723379 0.0723379 0.289352 0.144676 0.144676 0.144676 0.144676 0.0723379 0.0723379 0.289352 0.144676 0.144676 0.144676 0.144676 0.0723379 0.0723379 0.289352 0.144676 0.144676 0.144676 0.144676 0.0723378 0.0723378 0.289352 0.144676 0.144676 0.144676 0.144676 0.0723378 0.0723378 0.289352 0.144676 0.144676 0.144676 0.144676 0.0723379 0.0723379 0.289352 0.144676 0.144676 0.144676 0.144676 0.0723379 0.0723379 0.289352 0.144676 0.144676 0.144676 0.144676 0.0723378 0.0723378 0.289352 0.144676 0.144676 0.144676 0.144676 0.0723379 0.0723379 0.289352 0.144676 0.144676 0.144676 0.144676 0.0723378 0.0723378 0.289352 0.144676 0.144676 0.144676 0.144676 0.0723379 0.0723379 0.289352 0.144676 0.144676 0.144676 0.144676 0.072338 0.072338 0.289351 0.144676 0.144676 0.144676 0.144676 0.0723378 0.0723378 0.289352 0.144676 0.144676 0.144676 0.144676 0.0723378 0.0723378 0.289352 0.144676 0.144676 0.144676 0.144676 0.0723379 0.0723379 0.289352 0.144676 0.144676 0.144676 0.144676 0.0723378 0.0723378 0.144676 0.0723379 0.144676 0.0723379 0.144676 0.0723379 0.0723379 0.144676 0.144676 0.0723381 0.289352 0.144676 0.289352 0.289352 0.144676 0.0723381 0.144676 0.144676 0.0723381 0.144676 0.0723381 0.144676 0.144676 0.289352 0.289352 0.289352 0.0723381 0.144676 0.144676 0.144676 0.0723381 0.144676 0.144676 0.289352 0.289352 0.289352 0.0723381 0.144676 0.144676 0.144676 0.0723381 0.144676 0.144676 0.289352 0.289352 0.289352 0.0723381 0.144676 0.144676 0.144676 0.0723381 0.144676 0.144676 0.289352 0.289352 0.289352 0.0723381 0.144676 0.144676 0.144676 0.0723381 0.144676 0.144676 0.289352 0.289352 0.289352 0.0723381 0.144676 0.144676 0.144676 0.0723381 0.144676 0.144676 0.289352 0.289352 0.289352 0.0723381 0.144676 0.144676 0.144676 0.0723381 0.144676 0.144676 0.289352 0.289352 0.289352 0.0723381 0.144676 0.144676 0.144676 0.0723381 0.144676 0.144676 0.289352 0.289352 0.289352 0.0723381 0.144676 0.144676 0.144676 0.0723381 0.144676 0.144676 0.289352 0.289352 0.289352 0.072338 0.144676 0.144676 0.144676 0.072338 0.144676 0.144676 0.289352 0.289352 0.289352 0.072338 0.144676 0.144676 0.144676 0.072338 0.144676 0.144676 0.289352 0.289352 0.289352 0.0723381 0.144676 0.144676 0.144676 0.0723381 0.144676 0.144676 0.289352 0.289352 0.289352 0.0723381 0.144676 0.144676 0.144676 0.0723381 0.144676 0.144676 0.289352 0.289352 0.289352 0.0723381 0.144676 0.144676 0.144676 0.0723381 0.144676 0.144676 0.289352 0.289352 0.289352 0.072338 0.144676 0.144676 0.144676 0.072338 0.144676 0.144676 0.289352 0.289352 0.289352 0.0723381 0.144676 0.144676 0.144676 0.0723381 0.144676 0.144676 0.289352 0.289352 0.289352 0.0723381 0.144676 0.144676 0.144676 0.0723381 0.144676 0.144676 0.289352 0.289352 0.289352 0.072338 0.144676 0.144676 0.144676 0.072338 0.144676 0.144676 0.289352 0.289352 0.289352 0.072338 0.144676 0.144676 0.144676 0.072338 0.144676 0.144676 0.289352 0.289352 0.289352 0.072338 0.144676 0.144676 0.144676 0.072338 0.144676 0.144676 0.289352 0.289352 0.289352 0.0723381 0.144676 0.144676 0.144676 0.0723381 0.144676 0.144676 0.289352 0.289352 0.289352 0.0723381 0.144676 0.144676 0.144676 0.0723381 0.144676 0.144676 0.289352 0.289352 0.289352 0.072338 0.144676 0.144676 0.144676 0.072338 0.144676 0.144676 0.289352 0.289352 0.289352 0.0723381 0.144676 0.144676 0.144676 0.0723381 0.144676 0.144676 0.289352 0.289352 0.289352 0.072338 0.144676 0.144676 0.144676 0.072338 0.144676 0.144676 0.289352 0.289352 0.289352 0.0723381 0.144676 0.144676 0.144676 0.0723381 0.144676 0.144676 0.289352 0.289352 0.289352 0.0723382 0.144676 0.144676 0.144676 0.0723382 0.144676 0.144676 0.289352 0.289352 0.289352 0.072338 0.144676 0.144676 0.144676 0.072338 0.144676 0.144676 0.289352 0.289352 0.289351 0.0723379 0.144676 0.144676 0.144676 0.0723379 0.144676 0.144676 0.289352 0.289352 0.289352 0.0723381 0.144676 0.144676 0.144676 0.0723381 0.144676 0.144676 0.289352 0.289352 0.289352 0.072338 0.144676 0.144676 0.144676 0.072338 0.0723381 0.144676 0.144676 0.144676 0.289352 0.0723381 0.0723381 0.144676 0.144676 0.0723381 0.289352 0.144676 0.289352 0.289352 0.144676 0.144676 0.144676 0.0723381 0.144676 0.0723381 0.289352 0.289352 0.289352 0.144676 0.144676 0.144676 0.0723381 0.289352 0.289352 0.289352 0.144676 0.144676 0.144676 0.0723381 0.289352 0.289352 0.289352 0.144676 0.144676 0.144676 0.0723381 0.289352 0.289352 0.289352 0.144676 0.144676 0.144676 0.0723381 0.289352 0.289352 0.289352 0.144676 0.144676 0.144676 0.0723381 0.289352 0.289352 0.289352 0.144676 0.144676 0.144676 0.0723381 0.289352 0.289352 0.289352 0.144676 0.144676 0.144676 0.0723381 0.289352 0.289352 0.289352 0.144676 0.144676 0.144676 0.0723381 0.289352 0.289352 0.289352 0.144676 0.144676 0.144676 0.0723381 0.289352 0.289352 0.289352 0.144676 0.144676 0.144676 0.072338 0.289352 0.289352 0.289352 0.144676 0.144676 0.144676 0.0723381 0.289352 0.289352 0.289352 0.144676 0.144676 0.144676 0.0723381 0.289352 0.289352 0.289352 0.144676 0.144676 0.144676 0.0723381 0.289352 0.289352 0.289352 0.144676 0.144676 0.144676 0.072338 0.289352 0.289352 0.289352 0.144676 0.144676 0.144676 0.0723381 0.289352 0.289352 0.289352 0.144676 0.144676 0.144676 0.0723381 0.289352 0.289352 0.289352 0.144676 0.144676 0.144676 0.072338 0.289352 0.289352 0.289352 0.144676 0.144676 0.144676 0.072338 0.289352 0.289352 0.289352 0.144676 0.144676 0.144676 0.072338 0.289352 0.289352 0.289352 0.144676 0.144676 0.144676 0.0723381 0.289352 0.289352 0.289352 0.144676 0.144676 0.144676 0.072338 0.289352 0.289352 0.289352 0.144676 0.144676 0.144676 0.072338 0.289352 0.289352 0.289352 0.144676 0.144676 0.144676 0.0723381 0.289352 0.289352 0.289352 0.144676 0.144676 0.144676 0.072338 0.289352 0.289352 0.289352 0.144676 0.144676 0.144676 0.0723381 0.289352 0.289352 0.289352 0.144676 0.144676 0.144676 0.0723381 0.289352 0.289352 0.289352 0.144676 0.144676 0.144676 0.072338 0.289352 0.289352 0.289351 0.144676 0.144676 0.144676 0.0723379 0.289352 0.289352 0.289352 0.144676 0.144676 0.144676 0.0723381 0.289352 0.289352 0.289352 0.144676 0.144676 0.144676 0.072338 0.144676 0.144676 0.289352 0.0723381 0.144676 0.144676 0.0723381 0.289352 0.144676 0.289352 0.289352 0.144676 0.144676 0.144676 0.0723381 0.144676 0.0723381 0.289352 0.289352 0.289352 0.144676 0.144676 0.144676 0.0723381 0.289352 0.289352 0.289352 0.144676 0.144676 0.144676 0.0723381 0.289352 0.289352 0.289352 0.144676 0.144676 0.144676 0.0723381 0.289352 0.289352 0.289352 0.144676 0.144676 0.144676 0.0723381 0.289352 0.289352 0.289352 0.144676 0.144676 0.144676 0.0723381 0.289352 0.289352 0.289352 0.144676 0.144676 0.144676 0.0723381 0.289352 0.289352 0.289352 0.144676 0.144676 0.144676 0.0723381 0.289352 0.289352 0.289352 0.144676 0.144676 0.144676 0.0723381 0.289352 0.289352 0.289352 0.144676 0.144676 0.144676 0.072338 0.289352 0.289352 0.289352 0.144676 0.144676 0.144676 0.072338 0.289352 0.289352 0.289352 0.144676 0.144676 0.144676 0.0723381 0.289352 0.289352 0.289352 0.144676 0.144676 0.144676 0.0723381 0.289352 0.289352 0.289352 0.144676 0.144676 0.144676 0.0723381 0.289352 0.289352 0.289352 0.144676 0.144676 0.144676 0.072338 0.289352 0.289352 0.289352 0.144676 0.144676 0.144676 0.0723381 0.289352 0.289352 0.289352 0.144676 0.144676 0.144676 0.0723381 0.289352 0.289352 0.289352 0.144676 0.144676 0.144676 0.072338 0.289352 0.289352 0.289352 0.144676 0.144676 0.144676 0.072338 0.289352 0.289352 0.289352 0.144676 0.144676 0.144676 0.072338 0.289352 0.289352 0.289352 0.144676 0.144676 0.144676 0.0723381 0.289352 0.289352 0.289352 0.144676 0.144676 0.144676 0.0723381 0.289352 0.289352 0.289352 0.144676 0.144676 0.144676 0.072338 0.289352 0.289352 0.289352 0.144676 0.144676 0.144676 0.0723381 0.289352 0.289352 0.289352 0.144676 0.144676 0.144676 0.072338 0.289352 0.289352 0.289352 0.144676 0.144676 0.144676 0.0723381 0.289352 0.289352 0.289352 0.144676 0.144676 0.144676 0.0723382 0.289352 0.289352 0.289352 0.144676 0.144676 0.144676 0.072338 0.289352 0.289352 0.289351 0.144676 0.144676 0.144676 0.0723379 0.289352 0.289352 0.289352 0.144676 0.144676 0.144676 0.0723381 0.289352 0.289352 0.289352 0.144676 0.144676 0.144676 0.072338 0.144676 0.144676 0.289352 0.0723381 0.144676 0.144676 0.0723381 0.289352 0.144676 0.289352 0.289352 0.144676 0.144676 0.144676 0.0723381 0.144676 0.0723381 0.289352 0.289352 0.289352 0.144676 0.144676 0.144676 0.0723381 0.289352 0.289352 0.289352 0.144676 0.144676 0.144676 0.0723381 0.289352 0.289352 0.289352 0.144676 0.144676 0.144676 0.072338 0.289352 0.289352 0.289352 0.144676 0.144676 0.144676 0.072338 0.289352 0.289352 0.289352 0.144676 0.144676 0.144676 0.0723381 0.289352 0.289352 0.289352 0.144676 0.144676 0.144676 0.0723381 0.289352 0.289352 0.289352 0.144676 0.144676 0.144676 0.072338 0.289352 0.289352 0.289352 0.144676 0.144676 0.144676 0.0723381 0.289352 0.289352 0.289352 0.144676 0.144676 0.144676 0.072338 0.289352 0.289352 0.289352 0.144676 0.144676 0.144676 0.072338 0.289352 0.289352 0.289352 0.144676 0.144676 0.144676 0.0723381 0.289352 0.289352 0.289352 0.144676 0.144676 0.144676 0.0723381 0.289352 0.289352 0.289352 0.144676 0.144676 0.144676 0.0723381 0.289352 0.289352 0.289352 0.144676 0.144676 0.144676 0.072338 0.289352 0.289352 0.289352 0.144676 0.144676 0.144676 0.0723381 0.289352 0.289352 0.289352 0.144676 0.144676 0.144676 0.0723381 0.289352 0.289352 0.289352 0.144676 0.144676 0.144676 0.072338 0.289352 0.289352 0.289352 0.144676 0.144676 0.144676 0.072338 0.289352 0.289352 0.289352 0.144676 0.144676 0.144676 0.072338 0.289352 0.289352 0.289352 0.144676 0.144676 0.144676 0.0723381 0.289352 0.289352 0.289352 0.144676 0.144676 0.144676 0.072338 0.289352 0.289352 0.289352 0.144676 0.144676 0.144676 0.072338 0.289352 0.289352 0.289352 0.144676 0.144676 0.144676 0.0723381 0.289352 0.289352 0.289352 0.144676 0.144676 0.144676 0.072338 0.289352 0.289352 0.289352 0.144676 0.144676 0.144676 0.072338 0.289352 0.289352 0.289352 0.144676 0.144676 0.144676 0.0723381 0.289352 0.289352 0.289352 0.144676 0.144676 0.144676 0.072338 0.289352 0.289352 0.289351 0.144676 0.144676 0.144676 0.0723379 0.289352 0.289352 0.289352 0.144676 0.144676 0.144676 0.0723381 0.289352 0.289352 0.289352 0.144676 0.144676 0.144676 0.072338 0.144676 0.144676 0.289352 0.0723381 0.144676 0.144676 0.0723381 0.289352 0.144676 0.289352 0.289352 0.144676 0.144676 0.144676 0.0723381 0.144676 0.0723381 0.289352 0.289352 0.289352 0.144676 0.144676 0.144676 0.0723381 0.289352 0.289352 0.289352 0.144676 0.144676 0.144676 0.0723381 0.289352 0.289352 0.289352 0.144676 0.144676 0.144676 0.072338 0.289352 0.289352 0.289352 0.144676 0.144676 0.144676 0.0723381 0.289352 0.289352 0.289352 0.144676 0.144676 0.144676 0.0723381 0.289352 0.289352 0.289352 0.144676 0.144676 0.144676 0.0723381 0.289352 0.289352 0.289352 0.144676 0.144676 0.144676 0.0723381 0.289352 0.289352 0.289352 0.144676 0.144676 0.144676 0.0723381 0.289352 0.289352 0.289352 0.144676 0.144676 0.144676 0.072338 0.289352 0.289352 0.289352 0.144676 0.144676 0.144676 0.072338 0.289352 0.289352 0.289352 0.144676 0.144676 0.144676 0.0723381 0.289352 0.289352 0.289352 0.144676 0.144676 0.144676 0.0723381 0.289352 0.289352 0.289352 0.144676 0.144676 0.144676 0.0723381 0.289352 0.289352 0.289352 0.144676 0.144676 0.144676 0.072338 0.289352 0.289352 0.289352 0.144676 0.144676 0.144676 0.0723381 0.289352 0.289352 0.289352 0.144676 0.144676 0.144676 0.0723381 0.289352 0.289352 0.289352 0.144676 0.144676 0.144676 0.072338 0.289352 0.289352 0.289352 0.144676 0.144676 0.144676 0.072338 0.289352 0.289352 0.289352 0.144676 0.144676 0.144676 0.072338 0.289352 0.289352 0.289352 0.144676 0.144676 0.144676 0.0723381 0.289352 0.289352 0.289352 0.144676 0.144676 0.144676 0.072338 0.289352 0.289352 0.289352 0.144676 0.144676 0.144676 0.072338 0.289352 0.289352 0.289352 0.144676 0.144676 0.144676 0.0723381 0.289352 0.289352 0.289352 0.144676 0.144676 0.144676 0.072338 0.289352 0.289352 0.289352 0.144676 0.144676 0.144676 0.0723381 0.289352 0.289352 0.289352 0.144676 0.144676 0.144676 0.0723381 0.289352 0.289352 0.289352 0.144676 0.144676 0.144676 0.072338 0.289352 0.289352 0.289351 0.144676 0.144676 0.144676 0.0723379 0.289352 0.289352 0.289352 0.144676 0.144676 0.144676 0.0723381 0.289352 0.289352 0.289352 0.144676 0.144676 0.144676 0.072338 0.144676 0.144676 0.289352 0.0723381 0.144676 0.144676 0.0723381 0.289352 0.144676 0.289352 0.289352 0.144676 0.144676 0.144676 0.0723381 0.144676 0.0723381 0.289352 0.289352 0.289352 0.144676 0.144676 0.144676 0.0723381 0.289352 0.289352 0.289352 0.144676 0.144676 0.144676 0.0723381 0.289352 0.289352 0.289352 0.144676 0.144676 0.144676 0.0723381 0.289352 0.289352 0.289352 0.144676 0.144676 0.144676 0.0723381 0.289352 0.289352 0.289352 0.144676 0.144676 0.144676 0.0723381 0.289352 0.289352 0.289352 0.144676 0.144676 0.144676 0.0723381 0.289352 0.289352 0.289352 0.144676 0.144676 0.144676 0.0723381 0.289352 0.289352 0.289352 0.144676 0.144676 0.144676 0.0723381 0.289352 0.289352 0.289352 0.144676 0.144676 0.144676 0.072338 0.289352 0.289352 0.289352 0.144676 0.144676 0.144676 0.072338 0.289352 0.289352 0.289352 0.144676 0.144676 0.144676 0.0723381 0.289352 0.289352 0.289352 0.144676 0.144676 0.144676 0.0723381 0.289352 0.289352 0.289352 0.144676 0.144676 0.144676 0.0723381 0.289352 0.289352 0.289352 0.144676 0.144676 0.144676 0.072338 0.289352 0.289352 0.289352 0.144676 0.144676 0.144676 0.0723381 0.289352 0.289352 0.289352 0.144676 0.144676 0.144676 0.0723381 0.289352 0.289352 0.289352 0.144676 0.144676 0.144676 0.072338 0.289352 0.289352 0.289352 0.144676 0.144676 0.144676 0.072338 0.289352 0.289352 0.289352 0.144676 0.144676 0.144676 0.072338 0.289352 0.289352 0.289352 0.144676 0.144676 0.144676 0.0723381 0.289352 0.289352 0.289352 0.144676 0.144676 0.144676 0.0723381 0.289352 0.289352 0.289352 0.144676 0.144676 0.144676 0.072338 0.289352 0.289352 0.289352 0.144676 0.144676 0.144676 0.0723381 0.289352 0.289352 0.289352 0.144676 0.144676 0.144676 0.072338 0.289352 0.289352 0.289352 0.144676 0.144676 0.144676 0.0723381 0.289352 0.289352 0.289352 0.144676 0.144676 0.144676 0.0723382 0.289352 0.289352 0.289352 0.144676 0.144676 0.144676 0.072338 0.289352 0.289352 0.289351 0.144676 0.144676 0.144676 0.0723379 0.289352 0.289352 0.289352 0.144676 0.144676 0.144676 0.0723381 0.289352 0.289352 0.289352 0.144676 0.144676 0.144676 0.072338 0.144676 0.144676 0.289352 0.0723381 0.144676 0.144676 0.0723381 0.289352 0.144676 0.289352 0.289352 0.144676 0.144676 0.144676 0.0723381 0.144676 0.0723381 0.289352 0.289352 0.289352 0.144676 0.144676 0.144676 0.0723381 0.289352 0.289352 0.289352 0.144676 0.144676 0.144676 0.0723381 0.289352 0.289352 0.289352 0.144676 0.144676 0.144676 0.0723381 0.289352 0.289352 0.289352 0.144676 0.144676 0.144676 0.0723381 0.289352 0.289352 0.289352 0.144676 0.144676 0.144676 0.0723381 0.289352 0.289352 0.289352 0.144676 0.144676 0.144676 0.0723381 0.289352 0.289352 0.289352 0.144676 0.144676 0.144676 0.0723381 0.289352 0.289352 0.289352 0.144676 0.144676 0.144676 0.0723381 0.289352 0.289352 0.289352 0.144676 0.144676 0.144676 0.072338 0.289352 0.289352 0.289352 0.144676 0.144676 0.144676 0.0723381 0.289352 0.289352 0.289352 0.144676 0.144676 0.144676 0.0723381 0.289352 0.289352 0.289352 0.144676 0.144676 0.144676 0.0723381 0.289352 0.289352 0.289352 0.144676 0.144676 0.144676 0.0723381 0.289352 0.289352 0.289352 0.144676 0.144676 0.144676 0.072338 0.289352 0.289352 0.289352 0.144676 0.144676 0.144676 0.0723381 0.289352 0.289352 0.289352 0.144676 0.144676 0.144676 0.0723381 0.289352 0.289352 0.289352 0.144676 0.144676 0.144676 0.0723381 0.289352 0.289352 0.289352 0.144676 0.144676 0.144676 0.072338 0.289352 0.289352 0.289352 0.144676 0.144676 0.144676 0.072338 0.289352 0.289352 0.289352 0.144676 0.144676 0.144676 0.0723381 0.289352 0.289352 0.289352 0.144676 0.144676 0.144676 0.0723381 0.289352 0.289352 0.289352 0.144676 0.144676 0.144676 0.072338 0.289352 0.289352 0.289352 0.144676 0.144676 0.144676 0.0723381 0.289352 0.289352 0.289352 0.144676 0.144676 0.144676 0.072338 0.289352 0.289352 0.289352 0.144676 0.144676 0.144676 0.072338 0.289352 0.289352 0.289352 0.144676 0.144676 0.144676 0.0723382 0.289352 0.289352 0.289352 0.144676 0.144676 0.144676 0.072338 0.289352 0.289352 0.289351 0.144676 0.144676 0.144676 0.0723379 0.289352 0.289352 0.289352 0.144676 0.144676 0.144676 0.0723381 0.289352 0.289352 0.289352 0.144676 0.144676 0.144676 0.072338 0.144676 0.144676 0.289352 0.0723381 0.144676 0.144676 0.0723381 0.289352 0.144676 0.144676 0.144676 0.0723381 0.144676 0.144676 0.0723381 0.0723381 0.0723381 0.289352 0.144676 0.144676 0.144676 0.144676 0.0723381 0.0723381 0.289352 0.144676 0.144676 0.144676 0.144676 0.0723381 0.0723381 0.289352 0.144676 0.144676 0.144676 0.144676 0.072338 0.072338 0.289352 0.144676 0.144676 0.144676 0.144676 0.072338 0.072338 0.289352 0.144676 0.144676 0.144676 0.144676 0.0723381 0.0723381 0.289352 0.144676 0.144676 0.144676 0.144676 0.0723381 0.0723381 0.289352 0.144676 0.144676 0.144676 0.144676 0.072338 0.072338 0.289352 0.144676 0.144676 0.144676 0.144676 0.0723381 0.0723381 0.289352 0.144676 0.144676 0.144676 0.144676 0.072338 0.072338 0.289352 0.144676 0.144676 0.144676 0.144676 0.072338 0.072338 0.289352 0.144676 0.144676 0.144676 0.144676 0.0723381 0.0723381 0.289352 0.144676 0.144676 0.144676 0.144676 0.0723381 0.0723381 0.289352 0.144676 0.144676 0.144676 0.144676 0.0723381 0.0723381 0.289352 0.144676 0.144676 0.144676 0.144676 0.072338 0.072338 0.289352 0.144676 0.144676 0.144676 0.144676 0.0723381 0.0723381 0.289352 0.144676 0.144676 0.144676 0.144676 0.0723381 0.0723381 0.289352 0.144676 0.144676 0.144676 0.144676 0.072338 0.072338 0.289352 0.144676 0.144676 0.144676 0.144676 0.072338 0.072338 0.289352 0.144676 0.144676 0.144676 0.144676 0.072338 0.072338 0.289352 0.144676 0.144676 0.144676 0.144676 0.0723381 0.0723381 0.289352 0.144676 0.144676 0.144676 0.144676 0.072338 0.072338 0.289352 0.144676 0.144676 0.144676 0.144676 0.072338 0.072338 0.289352 0.144676 0.144676 0.144676 0.144676 0.0723381 0.0723381 0.289352 0.144676 0.144676 0.144676 0.144676 0.072338 0.072338 0.289352 0.144676 0.144676 0.144676 0.144676 0.072338 0.072338 0.289352 0.144676 0.144676 0.144676 0.144676 0.0723381 0.0723381 0.289352 0.144676 0.144676 0.144676 0.144676 0.072338 0.072338 0.289352 0.144676 0.144676 0.144676 0.144676 0.0723379 0.0723379 0.289352 0.144676 0.144676 0.144676 0.144676 0.0723381 0.0723381 0.289352 0.144676 0.144676 0.144676 0.144676 0.072338 0.072338 0.144676 0.0723381 0.144676 0.0723381 0.144676 0.0723381 0.0723381 0.144676 0.144676 0.0723379 0.289352 0.144676 0.289352 0.289352 0.144676 0.0723379 0.144676 0.144676 0.0723379 0.144676 0.0723379 0.144676 0.144676 0.289352 0.289352 0.289352 0.0723379 0.144676 0.144676 0.144676 0.0723379 0.144676 0.144676 0.289352 0.289352 0.289352 0.0723379 0.144676 0.144676 0.144676 0.0723379 0.144676 0.144676 0.289352 0.289352 0.289352 0.0723379 0.144676 0.144676 0.144676 0.0723379 0.144676 0.144676 0.289352 0.289352 0.289352 0.0723379 0.144676 0.144676 0.144676 0.0723379 0.144676 0.144676 0.289352 0.289352 0.289352 0.0723379 0.144676 0.144676 0.144676 0.0723379 0.144676 0.144676 0.289352 0.289352 0.289352 0.0723379 0.144676 0.144676 0.144676 0.0723379 0.144676 0.144676 0.289352 0.289352 0.289352 0.0723379 0.144676 0.144676 0.144676 0.0723379 0.144676 0.144676 0.289352 0.289352 0.289352 0.0723379 0.144676 0.144676 0.144676 0.0723379 0.144676 0.144676 0.289352 0.289352 0.289352 0.0723379 0.144676 0.144676 0.144676 0.0723379 0.144676 0.144676 0.289352 0.289352 0.289352 0.0723379 0.144676 0.144676 0.144676 0.0723379 0.144676 0.144676 0.289352 0.289352 0.289352 0.0723379 0.144676 0.144676 0.144676 0.0723379 0.144676 0.144676 0.289352 0.289352 0.289352 0.0723379 0.144676 0.144676 0.144676 0.0723379 0.144676 0.144676 0.289352 0.289352 0.289352 0.072338 0.144676 0.144676 0.144676 0.072338 0.144676 0.144676 0.289352 0.289352 0.289352 0.0723379 0.144676 0.144676 0.144676 0.0723379 0.144676 0.144676 0.289352 0.289352 0.289352 0.0723379 0.144676 0.144676 0.144676 0.0723379 0.144676 0.144676 0.289352 0.289352 0.289352 0.0723379 0.144676 0.144676 0.144676 0.0723379 0.144676 0.144676 0.289352 0.289352 0.289352 0.0723379 0.144676 0.144676 0.144676 0.0723379 0.144676 0.144676 0.289352 0.289352 0.289352 0.0723379 0.144676 0.144676 0.144676 0.0723379 0.144676 0.144676 0.289352 0.289352 0.289352 0.0723379 0.144676 0.144676 0.144676 0.0723379 0.144676 0.144676 0.289352 0.289352 0.289352 0.0723379 0.144676 0.144676 0.144676 0.0723379 0.144676 0.144676 0.289352 0.289352 0.289352 0.0723379 0.144676 0.144676 0.144676 0.0723379 0.144676 0.144676 0.289352 0.289352 0.289352 0.0723379 0.144676 0.144676 0.144676 0.0723379 0.144676 0.144676 0.289352 0.289352 0.289352 0.072338 0.144676 0.144676 0.144676 0.072338 0.144676 0.144676 0.289352 0.289352 0.289352 0.0723379 0.144676 0.144676 0.144676 0.0723379 0.144676 0.144676 0.289352 0.289352 0.289352 0.0723379 0.144676 0.144676 0.144676 0.0723379 0.144676 0.144676 0.289352 0.289352 0.289352 0.072338 0.144676 0.144676 0.144676 0.072338 0.144676 0.144676 0.289351 0.289351 0.289352 0.0723379 0.144676 0.144676 0.144676 0.0723379 0.144676 0.144676 0.289352 0.289352 0.289351 0.0723378 0.144676 0.144676 0.144676 0.0723378 0.144676 0.144676 0.289352 0.289352 0.289352 0.0723379 0.144676 0.144676 0.144676 0.0723379 0.144676 0.144676 0.289352 0.289352 0.289352 0.0723379 0.144676 0.144676 0.144676 0.0723379 0.072338 0.144676 0.144676 0.144676 0.289352 0.072338 0.072338 0.144676 0.144676 0.072338 0.289352 0.144676 0.289352 0.289352 0.144676 0.144676 0.144676 0.0723379 0.144676 0.0723379 0.289352 0.289352 0.289352 0.144676 0.144676 0.144676 0.0723379 0.289352 0.289352 0.289352 0.144676 0.144676 0.144676 0.0723379 0.289352 0.289352 0.289352 0.144676 0.144676 0.144676 0.0723379 0.289352 0.289352 0.289352 0.144676 0.144676 0.144676 0.0723379 0.289352 0.289352 0.289352 0.144676 0.144676 0.144676 0.0723379 0.289352 0.289352 0.289352 0.144676 0.144676 0.144676 0.0723379 0.289352 0.289352 0.289352 0.144676 0.144676 0.144676 0.0723379 0.289352 0.289352 0.289352 0.144676 0.144676 0.144676 0.0723379 0.289352 0.289352 0.289352 0.144676 0.144676 0.144676 0.0723379 0.289352 0.289352 0.289352 0.144676 0.144676 0.144676 0.0723379 0.289352 0.289352 0.289352 0.144676 0.144676 0.144676 0.0723379 0.289352 0.289352 0.289352 0.144676 0.144676 0.144676 0.0723379 0.289352 0.289352 0.289352 0.144676 0.144676 0.144676 0.072338 0.289352 0.289352 0.289352 0.144676 0.144676 0.144676 0.0723379 0.289352 0.289352 0.289352 0.144676 0.144676 0.144676 0.0723379 0.289352 0.289352 0.289352 0.144676 0.144676 0.144676 0.0723379 0.289352 0.289352 0.289352 0.144676 0.144676 0.144676 0.0723379 0.289352 0.289352 0.289352 0.144676 0.144676 0.144676 0.0723379 0.289352 0.289352 0.289352 0.144676 0.144676 0.144676 0.0723379 0.289352 0.289352 0.289352 0.144676 0.144676 0.144676 0.0723379 0.289352 0.289352 0.289352 0.144676 0.144676 0.144676 0.0723379 0.289352 0.289352 0.289352 0.144676 0.144676 0.144676 0.0723379 0.289352 0.289352 0.289352 0.144676 0.144676 0.144676 0.072338 0.289352 0.289352 0.289352 0.144676 0.144676 0.144676 0.0723379 0.289352 0.289352 0.289352 0.144676 0.144676 0.144676 0.0723379 0.289352 0.289352 0.289352 0.144676 0.144676 0.144676 0.072338 0.289351 0.289351 0.289352 0.144676 0.144676 0.144676 0.0723379 0.289352 0.289351 0.289351 0.144676 0.144676 0.144676 0.0723378 0.289352 0.289352 0.289352 0.144676 0.144676 0.144676 0.0723379 0.289352 0.289352 0.289352 0.144676 0.144676 0.144676 0.0723379 0.144676 0.144676 0.289352 0.072338 0.144676 0.144676 0.072338 0.289352 0.144676 0.289352 0.289352 0.144676 0.144676 0.144676 0.0723379 0.144676 0.0723379 0.289352 0.289352 0.289352 0.144676 0.144676 0.144676 0.0723379 0.289352 0.289352 0.289352 0.144676 0.144676 0.144676 0.072338 0.289352 0.289352 0.289352 0.144676 0.144676 0.144676 0.0723379 0.289352 0.289352 0.289352 0.144676 0.144676 0.144676 0.0723379 0.289352 0.289352 0.289352 0.144676 0.144676 0.144676 0.0723379 0.289352 0.289352 0.289352 0.144676 0.144676 0.144676 0.0723379 0.289352 0.289352 0.289352 0.144676 0.144676 0.144676 0.0723379 0.289352 0.289352 0.289352 0.144676 0.144676 0.144676 0.0723379 0.289352 0.289352 0.289352 0.144676 0.144676 0.144676 0.0723379 0.289352 0.289352 0.289352 0.144676 0.144676 0.144676 0.0723379 0.289352 0.289352 0.289352 0.144676 0.144676 0.144676 0.0723379 0.289352 0.289352 0.289352 0.144676 0.144676 0.144676 0.0723379 0.289352 0.289352 0.289352 0.144676 0.144676 0.144676 0.072338 0.289352 0.289352 0.289352 0.144676 0.144676 0.144676 0.0723379 0.289352 0.289352 0.289352 0.144676 0.144676 0.144676 0.072338 0.289352 0.289352 0.289352 0.144676 0.144676 0.144676 0.0723379 0.289352 0.289352 0.289352 0.144676 0.144676 0.144676 0.0723379 0.289352 0.289352 0.289352 0.144676 0.144676 0.144676 0.0723379 0.289352 0.289352 0.289352 0.144676 0.144676 0.144676 0.0723379 0.289352 0.289352 0.289352 0.144676 0.144676 0.144676 0.072338 0.289352 0.289352 0.289352 0.144676 0.144676 0.144676 0.0723379 0.289352 0.289352 0.289352 0.144676 0.144676 0.144676 0.0723379 0.289352 0.289352 0.289352 0.144676 0.144676 0.144676 0.072338 0.289352 0.289352 0.289352 0.144676 0.144676 0.144676 0.0723379 0.289352 0.289352 0.289352 0.144676 0.144676 0.144676 0.0723379 0.289352 0.289352 0.289352 0.144676 0.144676 0.144676 0.072338 0.289351 0.289351 0.289352 0.144676 0.144676 0.144676 0.0723379 0.289352 0.289351 0.289351 0.144676 0.144676 0.144676 0.0723378 0.289352 0.289352 0.289352 0.144676 0.144676 0.144676 0.0723379 0.289352 0.289352 0.289352 0.144676 0.144676 0.144676 0.0723379 0.144676 0.144676 0.289352 0.072338 0.144676 0.144676 0.072338 0.289352 0.144676 0.289352 0.289352 0.144676 0.144676 0.144676 0.0723379 0.144676 0.0723379 0.289352 0.289352 0.289352 0.144676 0.144676 0.144676 0.0723379 0.289352 0.289352 0.289352 0.144676 0.144676 0.144676 0.0723379 0.289352 0.289352 0.289352 0.144676 0.144676 0.144676 0.0723379 0.289352 0.289352 0.289352 0.144676 0.144676 0.144676 0.0723379 0.289352 0.289352 0.289352 0.144676 0.144676 0.144676 0.0723379 0.289352 0.289352 0.289352 0.144676 0.144676 0.144676 0.0723379 0.289352 0.289352 0.289352 0.144676 0.144676 0.144676 0.0723379 0.289352 0.289352 0.289352 0.144676 0.144676 0.144676 0.0723379 0.289352 0.289352 0.289352 0.144676 0.144676 0.144676 0.0723379 0.289352 0.289352 0.289352 0.144676 0.144676 0.144676 0.0723379 0.289352 0.289352 0.289352 0.144676 0.144676 0.144676 0.0723379 0.289352 0.289352 0.289352 0.144676 0.144676 0.144676 0.0723379 0.289352 0.289352 0.289352 0.144676 0.144676 0.144676 0.0723379 0.289352 0.289352 0.289352 0.144676 0.144676 0.144676 0.0723379 0.289352 0.289352 0.289352 0.144676 0.144676 0.144676 0.0723379 0.289352 0.289352 0.289352 0.144676 0.144676 0.144676 0.0723379 0.289352 0.289352 0.289352 0.144676 0.144676 0.144676 0.0723379 0.289352 0.289352 0.289352 0.144676 0.144676 0.144676 0.0723379 0.289352 0.289352 0.289352 0.144676 0.144676 0.144676 0.0723379 0.289352 0.289352 0.289352 0.144676 0.144676 0.144676 0.0723379 0.289352 0.289352 0.289352 0.144676 0.144676 0.144676 0.0723379 0.289352 0.289352 0.289352 0.144676 0.144676 0.144676 0.0723379 0.289352 0.289352 0.289352 0.144676 0.144676 0.144676 0.0723379 0.289352 0.289352 0.289352 0.144676 0.144676 0.144676 0.0723379 0.289352 0.289352 0.289352 0.144676 0.144676 0.144676 0.0723379 0.289352 0.289352 0.289352 0.144676 0.144676 0.144676 0.072338 0.289351 0.289351 0.289352 0.144676 0.144676 0.144676 0.0723379 0.289352 0.289351 0.289351 0.144676 0.144676 0.144676 0.0723378 0.289352 0.289352 0.289352 0.144676 0.144676 0.144676 0.0723379 0.289352 0.289352 0.289352 0.144676 0.144676 0.144676 0.0723379 0.144676 0.144676 0.289352 0.072338 0.144676 0.144676 0.072338 0.289352 0.144676 0.289352 0.289352 0.144676 0.144676 0.144676 0.0723379 0.144676 0.0723379 0.289352 0.289352 0.289352 0.144676 0.144676 0.144676 0.0723379 0.289352 0.289352 0.289352 0.144676 0.144676 0.144676 0.0723379 0.289352 0.289352 0.289352 0.144676 0.144676 0.144676 0.0723379 0.289352 0.289352 0.289352 0.144676 0.144676 0.144676 0.0723379 0.289352 0.289352 0.289352 0.144676 0.144676 0.144676 0.0723379 0.289352 0.289352 0.289352 0.144676 0.144676 0.144676 0.0723379 0.289352 0.289352 0.289352 0.144676 0.144676 0.144676 0.0723379 0.289352 0.289352 0.289352 0.144676 0.144676 0.144676 0.0723379 0.289352 0.289352 0.289352 0.144676 0.144676 0.144676 0.0723379 0.289352 0.289352 0.289352 0.144676 0.144676 0.144676 0.0723379 0.289352 0.289352 0.289352 0.144676 0.144676 0.144676 0.0723379 0.289352 0.289352 0.289352 0.144676 0.144676 0.144676 0.0723379 0.289352 0.289352 0.289352 0.144676 0.144676 0.144676 0.0723379 0.289352 0.289352 0.289352 0.144676 0.144676 0.144676 0.0723379 0.289352 0.289352 0.289352 0.144676 0.144676 0.144676 0.0723379 0.289352 0.289352 0.289352 0.144676 0.144676 0.144676 0.0723379 0.289352 0.289352 0.289352 0.144676 0.144676 0.144676 0.0723379 0.289352 0.289352 0.289352 0.144676 0.144676 0.144676 0.0723379 0.289352 0.289352 0.289352 0.144676 0.144676 0.144676 0.0723379 0.289352 0.289352 0.289352 0.144676 0.144676 0.144676 0.0723379 0.289352 0.289352 0.289352 0.144676 0.144676 0.144676 0.0723379 0.289352 0.289352 0.289352 0.144676 0.144676 0.144676 0.0723379 0.289352 0.289352 0.289352 0.144676 0.144676 0.144676 0.0723379 0.289352 0.289352 0.289352 0.144676 0.144676 0.144676 0.0723379 0.289352 0.289352 0.289352 0.144676 0.144676 0.144676 0.0723379 0.289352 0.289352 0.289352 0.144676 0.144676 0.144676 0.072338 0.289351 0.289351 0.289352 0.144676 0.144676 0.144676 0.0723379 0.289352 0.289351 0.289351 0.144676 0.144676 0.144676 0.0723378 0.289352 0.289352 0.289352 0.144676 0.144676 0.144676 0.0723379 0.289352 0.289352 0.289352 0.144676 0.144676 0.144676 0.0723379 0.144676 0.144676 0.289352 0.072338 0.144676 0.144676 0.072338 0.289352 0.144676 0.289352 0.289352 0.144676 0.144676 0.144676 0.0723379 0.144676 0.0723379 0.289352 0.289352 0.289352 0.144676 0.144676 0.144676 0.0723379 0.289352 0.289352 0.289352 0.144676 0.144676 0.144676 0.0723379 0.289352 0.289352 0.289352 0.144676 0.144676 0.144676 0.0723379 0.289352 0.289352 0.289352 0.144676 0.144676 0.144676 0.0723379 0.289352 0.289352 0.289352 0.144676 0.144676 0.144676 0.0723379 0.289352 0.289352 0.289352 0.144676 0.144676 0.144676 0.0723379 0.289352 0.289352 0.289352 0.144676 0.144676 0.144676 0.0723379 0.289352 0.289352 0.289352 0.144676 0.144676 0.144676 0.0723379 0.289352 0.289352 0.289352 0.144676 0.144676 0.144676 0.0723379 0.289352 0.289352 0.289352 0.144676 0.144676 0.144676 0.0723379 0.289352 0.289352 0.289352 0.144676 0.144676 0.144676 0.0723379 0.289352 0.289352 0.289352 0.144676 0.144676 0.144676 0.0723379 0.289352 0.289352 0.289352 0.144676 0.144676 0.144676 0.072338 0.289352 0.289352 0.289352 0.144676 0.144676 0.144676 0.0723379 0.289352 0.289352 0.289352 0.144676 0.144676 0.144676 0.0723379 0.289352 0.289352 0.289352 0.144676 0.144676 0.144676 0.0723379 0.289352 0.289352 0.289352 0.144676 0.144676 0.144676 0.0723379 0.289352 0.289352 0.289352 0.144676 0.144676 0.144676 0.0723379 0.289352 0.289352 0.289352 0.144676 0.144676 0.144676 0.0723379 0.289352 0.289352 0.289352 0.144676 0.144676 0.144676 0.0723379 0.289352 0.289352 0.289352 0.144676 0.144676 0.144676 0.0723379 0.289352 0.289352 0.289352 0.144676 0.144676 0.144676 0.0723379 0.289352 0.289352 0.289352 0.144676 0.144676 0.144676 0.0723379 0.289352 0.289352 0.289352 0.144676 0.144676 0.144676 0.0723379 0.289352 0.289352 0.289352 0.144676 0.144676 0.144676 0.0723379 0.289352 0.289352 0.289352 0.144676 0.144676 0.144676 0.072338 0.289351 0.289351 0.289352 0.144676 0.144676 0.144676 0.0723379 0.289352 0.289351 0.289351 0.144676 0.144676 0.144676 0.0723378 0.289352 0.289352 0.289352 0.144676 0.144676 0.144676 0.0723379 0.289352 0.289352 0.289352 0.144676 0.144676 0.144676 0.0723379 0.144676 0.144676 0.289352 0.072338 0.144676 0.144676 0.072338 0.289352 0.144676 0.289352 0.289352 0.144676 0.144676 0.144676 0.0723379 0.144676 0.0723379 0.289352 0.289352 0.289352 0.144676 0.144676 0.144676 0.0723379 0.289352 0.289352 0.289352 0.144676 0.144676 0.144676 0.0723379 0.289352 0.289352 0.289352 0.144676 0.144676 0.144676 0.0723379 0.289352 0.289352 0.289352 0.144676 0.144676 0.144676 0.0723379 0.289352 0.289352 0.289352 0.144676 0.144676 0.144676 0.0723379 0.289352 0.289352 0.289352 0.144676 0.144676 0.144676 0.0723379 0.289352 0.289352 0.289352 0.144676 0.144676 0.144676 0.0723379 0.289352 0.289352 0.289352 0.144676 0.144676 0.144676 0.0723379 0.289352 0.289352 0.289352 0.144676 0.144676 0.144676 0.0723379 0.289352 0.289352 0.289352 0.144676 0.144676 0.144676 0.0723379 0.289352 0.289352 0.289352 0.144676 0.144676 0.144676 0.0723379 0.289352 0.289352 0.289352 0.144676 0.144676 0.144676 0.0723379 0.289352 0.289352 0.289352 0.144676 0.144676 0.144676 0.072338 0.289352 0.289352 0.289352 0.144676 0.144676 0.144676 0.0723379 0.289352 0.289352 0.289352 0.144676 0.144676 0.144676 0.0723379 0.289352 0.289352 0.289352 0.144676 0.144676 0.144676 0.0723379 0.289352 0.289352 0.289352 0.144676 0.144676 0.144676 0.0723379 0.289352 0.289352 0.289352 0.144676 0.144676 0.144676 0.0723379 0.289352 0.289352 0.289352 0.144676 0.144676 0.144676 0.0723379 0.289352 0.289352 0.289352 0.144676 0.144676 0.144676 0.072338 0.289352 0.289352 0.289352 0.144676 0.144676 0.144676 0.0723379 0.289352 0.289352 0.289352 0.144676 0.144676 0.144676 0.0723379 0.289352 0.289352 0.289352 0.144676 0.144676 0.144676 0.072338 0.289352 0.289352 0.289352 0.144676 0.144676 0.144676 0.0723379 0.289352 0.289352 0.289352 0.144676 0.144676 0.144676 0.0723379 0.289352 0.289352 0.289352 0.144676 0.144676 0.144676 0.072338 0.289351 0.289351 0.289352 0.144676 0.144676 0.144676 0.0723379 0.289352 0.289351 0.289351 0.144676 0.144676 0.144676 0.0723378 0.289352 0.289352 0.289352 0.144676 0.144676 0.144676 0.0723379 0.289352 0.289352 0.289352 0.144676 0.144676 0.144676 0.0723379 0.144676 0.144676 0.289352 0.072338 0.144676 0.144676 0.072338 0.289352 0.144676 0.144676 0.144676 0.0723379 0.144676 0.144676 0.0723379 0.0723379 0.0723379 0.289352 0.144676 0.144676 0.144676 0.144676 0.0723379 0.0723379 0.289352 0.144676 0.144676 0.144676 0.144676 0.0723379 0.0723379 0.289352 0.144676 0.144676 0.144676 0.144676 0.0723379 0.0723379 0.289352 0.144676 0.144676 0.144676 0.144676 0.0723379 0.0723379 0.289352 0.144676 0.144676 0.144676 0.144676 0.0723379 0.0723379 0.289352 0.144676 0.144676 0.144676 0.144676 0.0723379 0.0723379 0.289352 0.144676 0.144676 0.144676 0.144676 0.0723379 0.0723379 0.289352 0.144676 0.144676 0.144676 0.144676 0.0723379 0.0723379 0.289352 0.144676 0.144676 0.144676 0.144676 0.0723379 0.0723379 0.289352 0.144676 0.144676 0.144676 0.144676 0.0723379 0.0723379 0.289352 0.144676 0.144676 0.144676 0.144676 0.0723379 0.0723379 0.289352 0.144676 0.144676 0.144676 0.144676 0.0723379 0.0723379 0.289352 0.144676 0.144676 0.144676 0.144676 0.0723379 0.0723379 0.289352 0.144676 0.144676 0.144676 0.144676 0.0723379 0.0723379 0.289352 0.144676 0.144676 0.144676 0.144676 0.0723379 0.0723379 0.289352 0.144676 0.144676 0.144676 0.144676 0.0723379 0.0723379 0.289352 0.144676 0.144676 0.144676 0.144676 0.0723379 0.0723379 0.289352 0.144676 0.144676 0.144676 0.144676 0.0723379 0.0723379 0.289352 0.144676 0.144676 0.144676 0.144676 0.0723379 0.0723379 0.289352 0.144676 0.144676 0.144676 0.144676 0.0723379 0.0723379 0.289352 0.144676 0.144676 0.144676 0.144676 0.0723379 0.0723379 0.289352 0.144676 0.144676 0.144676 0.144676 0.0723379 0.0723379 0.289352 0.144676 0.144676 0.144676 0.144676 0.0723379 0.0723379 0.289352 0.144676 0.144676 0.144676 0.144676 0.0723379 0.0723379 0.289352 0.144676 0.144676 0.144676 0.144676 0.0723379 0.0723379 0.289352 0.144676 0.144676 0.144676 0.144676 0.072338 0.072338 0.289351 0.144676 0.144676 0.144676 0.144676 0.0723379 0.0723379 0.289352 0.144676 0.144676 0.144676 0.144676 0.0723378 0.0723378 0.289352 0.144676 0.144676 0.144676 0.144676 0.0723379 0.0723379 0.289352 0.144676 0.144676 0.144676 0.144676 0.0723379 0.0723379 0.144676 0.0723379 0.144676 0.0723379 0.144676 0.0723379 0.0723379 0.144676 0.144676 0.072338 0.289352 0.144676 0.289352 0.289352 0.144676 0.072338 0.144676 0.144676 0.072338 0.144676 0.072338 0.144676 0.144676 0.289352 0.289352 0.289352 0.072338 0.144676 0.144676 0.144676 0.072338 0.144676 0.144676 0.289352 0.289352 0.289352 0.072338 0.144676 0.144676 0.144676 0.072338 0.144676 0.144676 0.289352 0.289352 0.289352 0.072338 0.144676 0.144676 0.144676 0.072338 0.144676 0.144676 0.289352 0.289352 0.289352 0.072338 0.144676 0.144676 0.144676 0.072338 0.144676 0.144676 0.289352 0.289352 0.289352 0.072338 0.144676 0.144676 0.144676 0.072338 0.144676 0.144676 0.289352 0.289352 0.289352 0.072338 0.144676 0.144676 0.144676 0.072338 0.144676 0.144676 0.289352 0.289352 0.289352 0.072338 0.144676 0.144676 0.144676 0.072338 0.144676 0.144676 0.289352 0.289352 0.289352 0.072338 0.144676 0.144676 0.144676 0.072338 0.144676 0.144676 0.289352 0.289352 0.289352 0.072338 0.144676 0.144676 0.144676 0.072338 0.144676 0.144676 0.289352 0.289352 0.289352 0.072338 0.144676 0.144676 0.144676 0.072338 0.144676 0.144676 0.289352 0.289352 0.289352 0.072338 0.144676 0.144676 0.144676 0.072338 0.144676 0.144676 0.289352 0.289352 0.289352 0.072338 0.144676 0.144676 0.144676 0.072338 0.144676 0.144676 0.289352 0.289352 0.289352 0.072338 0.144676 0.144676 0.144676 0.072338 0.144676 0.144676 0.289352 0.289352 0.289352 0.0723379 0.144676 0.144676 0.144676 0.0723379 0.144676 0.144676 0.289352 0.289352 0.289352 0.072338 0.144676 0.144676 0.144676 0.072338 0.144676 0.144676 0.289352 0.289352 0.289352 0.072338 0.144676 0.144676 0.144676 0.072338 0.144676 0.144676 0.289352 0.289352 0.289352 0.072338 0.144676 0.144676 0.144676 0.072338 0.144676 0.144676 0.289352 0.289352 0.289352 0.0723379 0.144676 0.144676 0.144676 0.0723379 0.144676 0.144676 0.289352 0.289352 0.289352 0.0723379 0.144676 0.144676 0.144676 0.0723379 0.144676 0.144676 0.289352 0.289352 0.289352 0.072338 0.144676 0.144676 0.144676 0.072338 0.144676 0.144676 0.289352 0.289352 0.289352 0.072338 0.144676 0.144676 0.144676 0.072338 0.144676 0.144676 0.289352 0.289352 0.289352 0.0723379 0.144676 0.144676 0.144676 0.0723379 0.144676 0.144676 0.289352 0.289352 0.289352 0.072338 0.144676 0.144676 0.144676 0.072338 0.144676 0.144676 0.289352 0.289352 0.289352 0.0723379 0.144676 0.144676 0.144676 0.0723379 0.144676 0.144676 0.289352 0.289352 0.289352 0.072338 0.144676 0.144676 0.144676 0.072338 0.144676 0.144676 0.289352 0.289352 0.289352 0.0723381 0.144676 0.144676 0.144676 0.0723381 0.144676 0.144676 0.289352 0.289352 0.289352 0.0723379 0.144676 0.144676 0.144676 0.0723379 0.144676 0.144676 0.289352 0.289352 0.289351 0.0723379 0.144676 0.144676 0.144676 0.0723379 0.144676 0.144676 0.289352 0.289352 0.289352 0.072338 0.144676 0.144676 0.144676 0.072338 0.144676 0.144676 0.289352 0.289352 0.289352 0.0723379 0.144676 0.144676 0.144676 0.0723379 0.072338 0.144676 0.144676 0.144676 0.289352 0.072338 0.072338 0.144676 0.144676 0.072338 0.289352 0.144676 0.289352 0.289352 0.144676 0.144676 0.144676 0.072338 0.144676 0.072338 0.289352 0.289352 0.289352 0.144676 0.144676 0.144676 0.072338 0.289352 0.289352 0.289352 0.144676 0.144676 0.144676 0.072338 0.289352 0.289352 0.289352 0.144676 0.144676 0.144676 0.072338 0.289352 0.289352 0.289352 0.144676 0.144676 0.144676 0.072338 0.289352 0.289352 0.289352 0.144676 0.144676 0.144676 0.072338 0.289352 0.289352 0.289352 0.144676 0.144676 0.144676 0.072338 0.289352 0.289352 0.289352 0.144676 0.144676 0.144676 0.072338 0.289352 0.289352 0.289352 0.144676 0.144676 0.144676 0.072338 0.289352 0.289352 0.289352 0.144676 0.144676 0.144676 0.072338 0.289352 0.289352 0.289352 0.144676 0.144676 0.144676 0.0723379 0.289352 0.289352 0.289352 0.144676 0.144676 0.144676 0.072338 0.289352 0.289352 0.289352 0.144676 0.144676 0.144676 0.072338 0.289352 0.289352 0.289352 0.144676 0.144676 0.144676 0.072338 0.289352 0.289352 0.289352 0.144676 0.144676 0.144676 0.0723379 0.289352 0.289352 0.289352 0.144676 0.144676 0.144676 0.072338 0.289352 0.289352 0.289352 0.144676 0.144676 0.144676 0.072338 0.289352 0.289352 0.289352 0.144676 0.144676 0.144676 0.0723379 0.289352 0.289352 0.289352 0.144676 0.144676 0.144676 0.0723379 0.289352 0.289352 0.289352 0.144676 0.144676 0.144676 0.0723379 0.289352 0.289352 0.289352 0.144676 0.144676 0.144676 0.072338 0.289352 0.289352 0.289352 0.144676 0.144676 0.144676 0.072338 0.289352 0.289352 0.289352 0.144676 0.144676 0.144676 0.0723379 0.289352 0.289352 0.289352 0.144676 0.144676 0.144676 0.072338 0.289352 0.289352 0.289352 0.144676 0.144676 0.144676 0.0723379 0.289352 0.289352 0.289352 0.144676 0.144676 0.144676 0.072338 0.289352 0.289352 0.289352 0.144676 0.144676 0.144676 0.0723381 0.289351 0.289352 0.289352 0.144676 0.144676 0.144676 0.0723379 0.289352 0.289352 0.289351 0.144676 0.144676 0.144676 0.0723378 0.289352 0.289352 0.289352 0.144676 0.144676 0.144676 0.072338 0.289352 0.289352 0.289352 0.144676 0.144676 0.144676 0.0723379 0.144676 0.144676 0.289352 0.072338 0.144676 0.144676 0.072338 0.289352 0.144676 0.289352 0.289352 0.144676 0.144676 0.144676 0.072338 0.144676 0.072338 0.289352 0.289352 0.289352 0.144676 0.144676 0.144676 0.072338 0.289352 0.289352 0.289352 0.144676 0.144676 0.144676 0.072338 0.289352 0.289352 0.289352 0.144676 0.144676 0.144676 0.072338 0.289352 0.289352 0.289352 0.144676 0.144676 0.144676 0.072338 0.289352 0.289352 0.289352 0.144676 0.144676 0.144676 0.072338 0.289352 0.289352 0.289352 0.144676 0.144676 0.144676 0.072338 0.289352 0.289352 0.289352 0.144676 0.144676 0.144676 0.072338 0.289352 0.289352 0.289352 0.144676 0.144676 0.144676 0.072338 0.289352 0.289352 0.289352 0.144676 0.144676 0.144676 0.072338 0.289352 0.289352 0.289352 0.144676 0.144676 0.144676 0.072338 0.289352 0.289352 0.289352 0.144676 0.144676 0.144676 0.072338 0.289352 0.289352 0.289352 0.144676 0.144676 0.144676 0.072338 0.289352 0.289352 0.289352 0.144676 0.144676 0.144676 0.072338 0.289352 0.289352 0.289352 0.144676 0.144676 0.144676 0.0723379 0.289352 0.289352 0.289352 0.144676 0.144676 0.144676 0.072338 0.289352 0.289352 0.289352 0.144676 0.144676 0.144676 0.072338 0.289352 0.289352 0.289352 0.144676 0.144676 0.144676 0.0723379 0.289352 0.289352 0.289352 0.144676 0.144676 0.144676 0.0723379 0.289352 0.289352 0.289352 0.144676 0.144676 0.144676 0.0723379 0.289352 0.289352 0.289352 0.144676 0.144676 0.144676 0.072338 0.289352 0.289352 0.289352 0.144676 0.144676 0.144676 0.072338 0.289352 0.289352 0.289352 0.144676 0.144676 0.144676 0.072338 0.289352 0.289352 0.289352 0.144676 0.144676 0.144676 0.072338 0.289352 0.289352 0.289352 0.144676 0.144676 0.144676 0.0723379 0.289352 0.289352 0.289352 0.144676 0.144676 0.144676 0.072338 0.289352 0.289352 0.289352 0.144676 0.144676 0.144676 0.0723381 0.289352 0.289352 0.289352 0.144676 0.144676 0.144676 0.0723379 0.289352 0.289352 0.289351 0.144676 0.144676 0.144676 0.0723378 0.289352 0.289352 0.289352 0.144676 0.144676 0.144676 0.072338 0.289352 0.289352 0.289352 0.144676 0.144676 0.144676 0.0723379 0.144676 0.144676 0.289352 0.072338 0.144676 0.144676 0.072338 0.289352 0.144676 0.289352 0.289352 0.144676 0.144676 0.144676 0.072338 0.144676 0.072338 0.289352 0.289352 0.289352 0.144676 0.144676 0.144676 0.072338 0.289352 0.289352 0.289352 0.144676 0.144676 0.144676 0.072338 0.289352 0.289352 0.289352 0.144676 0.144676 0.144676 0.072338 0.289352 0.289352 0.289352 0.144676 0.144676 0.144676 0.072338 0.289352 0.289352 0.289352 0.144676 0.144676 0.144676 0.072338 0.289352 0.289352 0.289352 0.144676 0.144676 0.144676 0.072338 0.289352 0.289352 0.289352 0.144676 0.144676 0.144676 0.072338 0.289352 0.289352 0.289352 0.144676 0.144676 0.144676 0.072338 0.289352 0.289352 0.289352 0.144676 0.144676 0.144676 0.0723379 0.289352 0.289352 0.289352 0.144676 0.144676 0.144676 0.0723379 0.289352 0.289352 0.289352 0.144676 0.144676 0.144676 0.072338 0.289352 0.289352 0.289352 0.144676 0.144676 0.144676 0.072338 0.289352 0.289352 0.289352 0.144676 0.144676 0.144676 0.072338 0.289352 0.289352 0.289352 0.144676 0.144676 0.144676 0.0723379 0.289352 0.289352 0.289352 0.144676 0.144676 0.144676 0.072338 0.289352 0.289352 0.289352 0.144676 0.144676 0.144676 0.072338 0.289352 0.289352 0.289352 0.144676 0.144676 0.144676 0.0723379 0.289352 0.289352 0.289352 0.144676 0.144676 0.144676 0.0723379 0.289352 0.289352 0.289352 0.144676 0.144676 0.144676 0.0723379 0.289352 0.289352 0.289352 0.144676 0.144676 0.144676 0.072338 0.289352 0.289352 0.289352 0.144676 0.144676 0.144676 0.072338 0.289352 0.289352 0.289352 0.144676 0.144676 0.144676 0.0723379 0.289352 0.289352 0.289352 0.144676 0.144676 0.144676 0.072338 0.289352 0.289352 0.289352 0.144676 0.144676 0.144676 0.0723379 0.289352 0.289352 0.289352 0.144676 0.144676 0.144676 0.072338 0.289352 0.289352 0.289352 0.144676 0.144676 0.144676 0.0723381 0.289351 0.289352 0.289352 0.144676 0.144676 0.144676 0.0723379 0.289352 0.289352 0.289351 0.144676 0.144676 0.144676 0.0723378 0.289352 0.289352 0.289352 0.144676 0.144676 0.144676 0.072338 0.289352 0.289352 0.289352 0.144676 0.144676 0.144676 0.0723379 0.144676 0.144676 0.289352 0.072338 0.144676 0.144676 0.072338 0.289352 0.144676 0.289352 0.289352 0.144676 0.144676 0.144676 0.072338 0.144676 0.072338 0.289352 0.289352 0.289352 0.144676 0.144676 0.144676 0.072338 0.289352 0.289352 0.289352 0.144676 0.144676 0.144676 0.072338 0.289352 0.289352 0.289352 0.144676 0.144676 0.144676 0.072338 0.289352 0.289352 0.289352 0.144676 0.144676 0.144676 0.072338 0.289352 0.289352 0.289352 0.144676 0.144676 0.144676 0.072338 0.289352 0.289352 0.289352 0.144676 0.144676 0.144676 0.072338 0.289352 0.289352 0.289352 0.144676 0.144676 0.144676 0.072338 0.289352 0.289352 0.289352 0.144676 0.144676 0.144676 0.072338 0.289352 0.289352 0.289352 0.144676 0.144676 0.144676 0.0723379 0.289352 0.289352 0.289352 0.144676 0.144676 0.144676 0.0723379 0.289352 0.289352 0.289352 0.144676 0.144676 0.144676 0.072338 0.289352 0.289352 0.289352 0.144676 0.144676 0.144676 0.072338 0.289352 0.289352 0.289352 0.144676 0.144676 0.144676 0.072338 0.289352 0.289352 0.289352 0.144676 0.144676 0.144676 0.0723379 0.289352 0.289352 0.289352 0.144676 0.144676 0.144676 0.072338 0.289352 0.289352 0.289352 0.144676 0.144676 0.144676 0.072338 0.289352 0.289352 0.289352 0.144676 0.144676 0.144676 0.0723379 0.289352 0.289352 0.289352 0.144676 0.144676 0.144676 0.0723379 0.289352 0.289352 0.289352 0.144676 0.144676 0.144676 0.0723379 0.289352 0.289352 0.289352 0.144676 0.144676 0.144676 0.072338 0.289352 0.289352 0.289352 0.144676 0.144676 0.144676 0.0723379 0.289352 0.289352 0.289352 0.144676 0.144676 0.144676 0.0723379 0.289352 0.289352 0.289352 0.144676 0.144676 0.144676 0.072338 0.289352 0.289352 0.289352 0.144676 0.144676 0.144676 0.0723379 0.289352 0.289352 0.289352 0.144676 0.144676 0.144676 0.072338 0.289352 0.289352 0.289352 0.144676 0.144676 0.144676 0.0723381 0.289351 0.289352 0.289352 0.144676 0.144676 0.144676 0.0723379 0.289352 0.289352 0.289351 0.144676 0.144676 0.144676 0.0723378 0.289352 0.289352 0.289352 0.144676 0.144676 0.144676 0.072338 0.289352 0.289352 0.289352 0.144676 0.144676 0.144676 0.0723379 0.144676 0.144676 0.289352 0.072338 0.144676 0.144676 0.072338 0.289352 0.144676 0.289352 0.289352 0.144676 0.144676 0.144676 0.072338 0.144676 0.072338 0.289352 0.289352 0.289352 0.144676 0.144676 0.144676 0.072338 0.289352 0.289352 0.289352 0.144676 0.144676 0.144676 0.072338 0.289352 0.289352 0.289352 0.144676 0.144676 0.144676 0.072338 0.289352 0.289352 0.289352 0.144676 0.144676 0.144676 0.072338 0.289352 0.289352 0.289352 0.144676 0.144676 0.144676 0.072338 0.289352 0.289352 0.289352 0.144676 0.144676 0.144676 0.072338 0.289352 0.289352 0.289352 0.144676 0.144676 0.144676 0.072338 0.289352 0.289352 0.289352 0.144676 0.144676 0.144676 0.072338 0.289352 0.289352 0.289352 0.144676 0.144676 0.144676 0.072338 0.289352 0.289352 0.289352 0.144676 0.144676 0.144676 0.072338 0.289352 0.289352 0.289352 0.144676 0.144676 0.144676 0.072338 0.289352 0.289352 0.289352 0.144676 0.144676 0.144676 0.072338 0.289352 0.289352 0.289352 0.144676 0.144676 0.144676 0.072338 0.289352 0.289352 0.289352 0.144676 0.144676 0.144676 0.0723379 0.289352 0.289352 0.289352 0.144676 0.144676 0.144676 0.072338 0.289352 0.289352 0.289352 0.144676 0.144676 0.144676 0.072338 0.289352 0.289352 0.289352 0.144676 0.144676 0.144676 0.0723379 0.289352 0.289352 0.289352 0.144676 0.144676 0.144676 0.0723379 0.289352 0.289352 0.289352 0.144676 0.144676 0.144676 0.0723379 0.289352 0.289352 0.289352 0.144676 0.144676 0.144676 0.072338 0.289352 0.289352 0.289352 0.144676 0.144676 0.144676 0.072338 0.289352 0.289352 0.289352 0.144676 0.144676 0.144676 0.072338 0.289352 0.289352 0.289352 0.144676 0.144676 0.144676 0.072338 0.289352 0.289352 0.289352 0.144676 0.144676 0.144676 0.0723379 0.289352 0.289352 0.289352 0.144676 0.144676 0.144676 0.072338 0.289352 0.289352 0.289352 0.144676 0.144676 0.144676 0.0723381 0.289352 0.289352 0.289352 0.144676 0.144676 0.144676 0.0723379 0.289352 0.289352 0.289351 0.144676 0.144676 0.144676 0.0723378 0.289352 0.289352 0.289352 0.144676 0.144676 0.144676 0.072338 0.289352 0.289352 0.289352 0.144676 0.144676 0.144676 0.0723379 0.144676 0.144676 0.289352 0.072338 0.144676 0.144676 0.072338 0.289352 0.144676 0.289352 0.289352 0.144676 0.144676 0.144676 0.072338 0.144676 0.072338 0.289352 0.289352 0.289352 0.144676 0.144676 0.144676 0.072338 0.289352 0.289352 0.289352 0.144676 0.144676 0.144676 0.072338 0.289352 0.289352 0.289352 0.144676 0.144676 0.144676 0.072338 0.289352 0.289352 0.289352 0.144676 0.144676 0.144676 0.072338 0.289352 0.289352 0.289352 0.144676 0.144676 0.144676 0.072338 0.289352 0.289352 0.289352 0.144676 0.144676 0.144676 0.072338 0.289352 0.289352 0.289352 0.144676 0.144676 0.144676 0.072338 0.289352 0.289352 0.289352 0.144676 0.144676 0.144676 0.072338 0.289352 0.289352 0.289352 0.144676 0.144676 0.144676 0.072338 0.289352 0.289352 0.289352 0.144676 0.144676 0.144676 0.072338 0.289352 0.289352 0.289352 0.144676 0.144676 0.144676 0.072338 0.289352 0.289352 0.289352 0.144676 0.144676 0.144676 0.072338 0.289352 0.289352 0.289352 0.144676 0.144676 0.144676 0.072338 0.289352 0.289352 0.289352 0.144676 0.144676 0.144676 0.0723379 0.289352 0.289352 0.289352 0.144676 0.144676 0.144676 0.072338 0.289352 0.289352 0.289352 0.144676 0.144676 0.144676 0.072338 0.289352 0.289352 0.289352 0.144676 0.144676 0.144676 0.072338 0.289352 0.289352 0.289352 0.144676 0.144676 0.144676 0.0723379 0.289352 0.289352 0.289352 0.144676 0.144676 0.144676 0.0723379 0.289352 0.289352 0.289352 0.144676 0.144676 0.144676 0.072338 0.289352 0.289352 0.289352 0.144676 0.144676 0.144676 0.072338 0.289352 0.289352 0.289352 0.144676 0.144676 0.144676 0.072338 0.289352 0.289352 0.289352 0.144676 0.144676 0.144676 0.072338 0.289352 0.289352 0.289352 0.144676 0.144676 0.144676 0.0723379 0.289352 0.289352 0.289352 0.144676 0.144676 0.144676 0.072338 0.289352 0.289352 0.289352 0.144676 0.144676 0.144676 0.0723381 0.289352 0.289352 0.289352 0.144676 0.144676 0.144676 0.0723379 0.289352 0.289352 0.289351 0.144676 0.144676 0.144676 0.0723379 0.289352 0.289352 0.289352 0.144676 0.144676 0.144676 0.072338 0.289352 0.289352 0.289352 0.144676 0.144676 0.144676 0.0723379 0.144676 0.144676 0.289352 0.072338 0.144676 0.144676 0.072338 0.289352 0.144676 0.144676 0.144676 0.072338 0.144676 0.144676 0.072338 0.072338 0.072338 0.289352 0.144676 0.144676 0.144676 0.144676 0.072338 0.072338 0.289352 0.144676 0.144676 0.144676 0.144676 0.072338 0.072338 0.289352 0.144676 0.144676 0.144676 0.144676 0.072338 0.072338 0.289352 0.144676 0.144676 0.144676 0.144676 0.072338 0.072338 0.289352 0.144676 0.144676 0.144676 0.144676 0.072338 0.072338 0.289352 0.144676 0.144676 0.144676 0.144676 0.072338 0.072338 0.289352 0.144676 0.144676 0.144676 0.144676 0.072338 0.072338 0.289352 0.144676 0.144676 0.144676 0.144676 0.072338 0.072338 0.289352 0.144676 0.144676 0.144676 0.144676 0.0723379 0.0723379 0.289352 0.144676 0.144676 0.144676 0.144676 0.0723379 0.0723379 0.289352 0.144676 0.144676 0.144676 0.144676 0.072338 0.072338 0.289352 0.144676 0.144676 0.144676 0.144676 0.072338 0.072338 0.289352 0.144676 0.144676 0.144676 0.144676 0.072338 0.072338 0.289352 0.144676 0.144676 0.144676 0.144676 0.0723379 0.0723379 0.289352 0.144676 0.144676 0.144676 0.144676 0.072338 0.072338 0.289352 0.144676 0.144676 0.144676 0.144676 0.072338 0.072338 0.289352 0.144676 0.144676 0.144676 0.144676 0.0723379 0.0723379 0.289352 0.144676 0.144676 0.144676 0.144676 0.0723379 0.0723379 0.289352 0.144676 0.144676 0.144676 0.144676 0.0723379 0.0723379 0.289352 0.144676 0.144676 0.144676 0.144676 0.072338 0.072338 0.289352 0.144676 0.144676 0.144676 0.144676 0.0723379 0.0723379 0.289352 0.144676 0.144676 0.144676 0.144676 0.0723379 0.0723379 0.289352 0.144676 0.144676 0.144676 0.144676 0.072338 0.072338 0.289352 0.144676 0.144676 0.144676 0.144676 0.0723379 0.0723379 0.289352 0.144676 0.144676 0.144676 0.144676 0.072338 0.072338 0.289352 0.144676 0.144676 0.144676 0.144676 0.0723381 0.0723381 0.289351 0.144676 0.144676 0.144676 0.144676 0.0723379 0.0723379 0.289352 0.144676 0.144676 0.144676 0.144676 0.0723378 0.0723378 0.289352 0.144676 0.144676 0.144676 0.144676 0.072338 0.072338 0.289352 0.144676 0.144676 0.144676 0.144676 0.0723379 0.0723379 0.144676 0.072338 0.144676 0.072338 0.144676 0.072338 0.072338 0.144676 0.072338 0.072338 0.144676 0.072338 0.289352 0.144676 0.144676 0.072338 0.144676 0.072338 0.072338 0.144676 0.072338 0.144676 0.072338 0.144676 0.289352 0.144676 0.072338 0.144676 0.072338 0.144676 0.072338 0.144676 0.072338 0.144676 0.289352 0.144676 0.072338 0.144676 0.072338 0.144676 0.072338 0.144676 0.0723379 0.144676 0.289352 0.144676 0.0723379 0.144676 0.0723379 0.144676 0.0723379 0.144676 0.072338 0.144676 0.289352 0.144676 0.072338 0.144676 0.072338 0.144676 0.072338 0.144676 0.072338 0.144676 0.289352 0.144676 0.072338 0.144676 0.072338 0.144676 0.072338 0.144676 0.072338 0.144676 0.289352 0.144676 0.072338 0.144676 0.072338 0.144676 0.072338 0.144676 0.072338 0.144676 0.289352 0.144676 0.072338 0.144676 0.072338 0.144676 0.072338 0.144676 0.072338 0.144676 0.289352 0.144676 0.072338 0.144676 0.072338 0.144676 0.072338 0.144676 0.0723379 0.144676 0.289352 0.144676 0.0723379 0.144676 0.0723379 0.144676 0.0723379 0.144676 0.0723379 0.144676 0.289352 0.144676 0.0723379 0.144676 0.0723379 0.144676 0.0723379 0.144676 0.072338 0.144676 0.289352 0.144676 0.072338 0.144676 0.072338 0.144676 0.072338 0.144676 0.072338 0.144676 0.289352 0.144676 0.072338 0.144676 0.072338 0.144676 0.072338 0.144676 0.072338 0.144676 0.289352 0.144676 0.072338 0.144676 0.072338 0.144676 0.072338 0.144676 0.0723379 0.144676 0.289352 0.144676 0.0723379 0.144676 0.0723379 0.144676 0.0723379 0.144676 0.072338 0.144676 0.289352 0.144676 0.072338 0.144676 0.072338 0.144676 0.072338 0.144676 0.072338 0.144676 0.289352 0.144676 0.072338 0.144676 0.072338 0.144676 0.072338 0.144676 0.0723379 0.144676 0.289352 0.144676 0.0723379 0.144676 0.0723379 0.144676 0.0723379 0.144676 0.0723379 0.144676 0.289352 0.144676 0.0723379 0.144676 0.0723379 0.144676 0.0723379 0.144676 0.0723379 0.144676 0.289352 0.144676 0.0723379 0.144676 0.0723379 0.144676 0.0723379 0.144676 0.072338 0.144676 0.289352 0.144676 0.072338 0.144676 0.072338 0.144676 0.072338 0.144676 0.072338 0.144676 0.289352 0.144676 0.072338 0.144676 0.072338 0.144676 0.072338 0.144676 0.0723379 0.144676 0.289352 0.144676 0.0723379 0.144676 0.0723379 0.144676 0.0723379 0.144676 0.072338 0.144676 0.289352 0.144676 0.072338 0.144676 0.072338 0.144676 0.072338 0.144676 0.0723379 0.144676 0.289352 0.144676 0.0723379 0.144676 0.0723379 0.144676 0.0723379 0.144676 0.0723379 0.144676 0.289352 0.144676 0.0723379 0.144676 0.0723379 0.144676 0.0723379 0.144676 0.0723381 0.144676 0.289352 0.144676 0.0723381 0.144676 0.0723381 0.144676 0.0723381 0.144676 0.0723379 0.144676 0.289351 0.144676 0.0723379 0.144676 0.0723379 0.144676 0.0723379 0.144676 0.0723378 0.144676 0.289352 0.144676 0.0723378 0.144676 0.0723378 0.144676 0.0723378 0.144676 0.072338 0.144676 0.289352 0.144676 0.072338 0.144676 0.072338 0.144676 0.072338 0.144676 0.0723379 0.144676 0.289352 0.144676 0.0723379 0.144676 0.0723379 0.144676 0.0723379 0.072338 0.072338 0.072338 0.144676 0.144676 0.072338 0.072338 0.072338 0.144676 0.072338 0.144676 0.072338 0.289352 0.144676 0.144676 0.144676 0.072338 0.072338 0.144676 0.072338 0.144676 0.289352 0.144676 0.144676 0.072338 0.144676 0.072338 0.144676 0.289352 0.144676 0.144676 0.072338 0.144676 0.072338 0.144676 0.289352 0.144676 0.144676 0.0723379 0.144676 0.0723379 0.144676 0.289352 0.144676 0.144676 0.072338 0.144676 0.072338 0.144676 0.289352 0.144676 0.144676 0.072338 0.144676 0.072338 0.144676 0.289352 0.144676 0.144676 0.072338 0.144676 0.072338 0.144676 0.289352 0.144676 0.144676 0.072338 0.144676 0.072338 0.144676 0.289352 0.144676 0.144676 0.072338 0.144676 0.072338 0.144676 0.289352 0.144676 0.144676 0.0723379 0.144676 0.0723379 0.144676 0.289352 0.144676 0.144676 0.0723379 0.144676 0.0723379 0.144676 0.289352 0.144676 0.144676 0.072338 0.144676 0.072338 0.144676 0.289352 0.144676 0.144676 0.072338 0.144676 0.072338 0.144676 0.289352 0.144676 0.144676 0.072338 0.144676 0.072338 0.144676 0.289352 0.144676 0.144676 0.0723379 0.144676 0.0723379 0.144676 0.289352 0.144676 0.144676 0.072338 0.144676 0.072338 0.144676 0.289352 0.144676 0.144676 0.072338 0.144676 0.072338 0.144676 0.289352 0.144676 0.144676 0.0723379 0.144676 0.0723379 0.144676 0.289352 0.144676 0.144676 0.0723379 0.144676 0.0723379 0.144676 0.289352 0.144676 0.144676 0.0723379 0.144676 0.0723379 0.144676 0.289352 0.144676 0.144676 0.072338 0.144676 0.072338 0.144676 0.289352 0.144676 0.144676 0.0723379 0.144676 0.0723379 0.144676 0.289352 0.144676 0.144676 0.0723379 0.144676 0.0723379 0.144676 0.289352 0.144676 0.144676 0.072338 0.144676 0.072338 0.144676 0.289352 0.144676 0.144676 0.0723379 0.144676 0.0723379 0.144676 0.289352 0.144676 0.144676 0.0723379 0.144676 0.0723379 0.144676 0.289352 0.144676 0.144676 0.0723381 0.144676 0.0723381 0.144676 0.289351 0.144676 0.144676 0.0723379 0.144676 0.0723379 0.144676 0.289352 0.144676 0.144676 0.0723378 0.144676 0.0723378 0.144676 0.289352 0.144676 0.144676 0.072338 0.144676 0.072338 0.144676 0.289352 0.144676 0.144676 0.0723379 0.144676 0.0723379 0.072338 0.144676 0.144676 0.072338 0.072338 0.144676 0.072338 0.144676 0.072338 0.289352 0.144676 0.144676 0.144676 0.072338 0.072338 0.144676 0.072338 0.144676 0.289352 0.144676 0.144676 0.072338 0.144676 0.072338 0.144676 0.289352 0.144676 0.144676 0.072338 0.144676 0.072338 0.144676 0.289352 0.144676 0.144676 0.072338 0.144676 0.072338 0.144676 0.289352 0.144676 0.144676 0.072338 0.144676 0.072338 0.144676 0.289352 0.144676 0.144676 0.072338 0.144676 0.072338 0.144676 0.289352 0.144676 0.144676 0.072338 0.144676 0.072338 0.144676 0.289352 0.144676 0.144676 0.072338 0.144676 0.072338 0.144676 0.289352 0.144676 0.144676 0.072338 0.144676 0.072338 0.144676 0.289352 0.144676 0.144676 0.0723379 0.144676 0.0723379 0.144676 0.289352 0.144676 0.144676 0.0723379 0.144676 0.0723379 0.144676 0.289352 0.144676 0.144676 0.072338 0.144676 0.072338 0.144676 0.289352 0.144676 0.144676 0.072338 0.144676 0.072338 0.144676 0.289352 0.144676 0.144676 0.072338 0.144676 0.072338 0.144676 0.289352 0.144676 0.144676 0.0723379 0.144676 0.0723379 0.144676 0.289352 0.144676 0.144676 0.072338 0.144676 0.072338 0.144676 0.289352 0.144676 0.144676 0.072338 0.144676 0.072338 0.144676 0.289352 0.144676 0.144676 0.0723379 0.144676 0.0723379 0.144676 0.289352 0.144676 0.144676 0.0723379 0.144676 0.0723379 0.144676 0.289352 0.144676 0.144676 0.0723379 0.144676 0.0723379 0.144676 0.289352 0.144676 0.144676 0.072338 0.144676 0.072338 0.144676 0.289352 0.144676 0.144676 0.0723379 0.144676 0.0723379 0.144676 0.289352 0.144676 0.144676 0.0723379 0.144676 0.0723379 0.144676 0.289352 0.144676 0.144676 0.072338 0.144676 0.072338 0.144676 0.289352 0.144676 0.144676 0.0723379 0.144676 0.0723379 0.144676 0.289352 0.144676 0.144676 0.0723379 0.144676 0.0723379 0.144676 0.289352 0.144676 0.144676 0.0723381 0.144676 0.0723381 0.144676 0.289351 0.144676 0.144676 0.0723379 0.144676 0.0723379 0.144676 0.289352 0.144676 0.144676 0.0723378 0.144676 0.0723378 0.144676 0.289352 0.144676 0.144676 0.072338 0.144676 0.072338 0.144676 0.289352 0.144676 0.144676 0.0723379 0.144676 0.0723379 0.072338 0.144676 0.144676 0.072338 0.072338 0.144676 0.072338 0.144676 0.072338 0.289352 0.144676 0.144676 0.144676 0.072338 0.072338 0.144676 0.072338 0.144676 0.289352 0.144676 0.144676 0.072338 0.144676 0.072338 0.144676 0.289352 0.144676 0.144676 0.072338 0.144676 0.072338 0.144676 0.289352 0.144676 0.144676 0.0723379 0.144676 0.0723379 0.144676 0.289352 0.144676 0.144676 0.0723379 0.144676 0.0723379 0.144676 0.289352 0.144676 0.144676 0.072338 0.144676 0.072338 0.144676 0.289352 0.144676 0.144676 0.072338 0.144676 0.072338 0.144676 0.289352 0.144676 0.144676 0.0723379 0.144676 0.0723379 0.144676 0.289352 0.144676 0.144676 0.0723379 0.144676 0.0723379 0.144676 0.289352 0.144676 0.144676 0.0723379 0.144676 0.0723379 0.144676 0.289352 0.144676 0.144676 0.0723379 0.144676 0.0723379 0.144676 0.289352 0.144676 0.144676 0.072338 0.144676 0.072338 0.144676 0.289352 0.144676 0.144676 0.072338 0.144676 0.072338 0.144676 0.289352 0.144676 0.144676 0.072338 0.144676 0.072338 0.144676 0.289352 0.144676 0.144676 0.0723379 0.144676 0.0723379 0.144676 0.289352 0.144676 0.144676 0.072338 0.144676 0.072338 0.144676 0.289352 0.144676 0.144676 0.072338 0.144676 0.072338 0.144676 0.289352 0.144676 0.144676 0.0723379 0.144676 0.0723379 0.144676 0.289352 0.144676 0.144676 0.0723379 0.144676 0.0723379 0.144676 0.289352 0.144676 0.144676 0.0723379 0.144676 0.0723379 0.144676 0.289352 0.144676 0.144676 0.072338 0.144676 0.072338 0.144676 0.289352 0.144676 0.144676 0.0723379 0.144676 0.0723379 0.144676 0.289352 0.144676 0.144676 0.0723379 0.144676 0.0723379 0.144676 0.289352 0.144676 0.144676 0.072338 0.144676 0.072338 0.144676 0.289352 0.144676 0.144676 0.0723379 0.144676 0.0723379 0.144676 0.289352 0.144676 0.144676 0.0723379 0.144676 0.0723379 0.144676 0.289352 0.144676 0.144676 0.072338 0.144676 0.072338 0.144676 0.289351 0.144676 0.144676 0.0723379 0.144676 0.0723379 0.144676 0.289352 0.144676 0.144676 0.0723378 0.144676 0.0723378 0.144676 0.289352 0.144676 0.144676 0.072338 0.144676 0.072338 0.144676 0.289352 0.144676 0.144676 0.0723379 0.144676 0.0723379 0.072338 0.144676 0.144676 0.072338 0.072338 0.144676 0.072338 0.144676 0.072338 0.289352 0.144676 0.144676 0.144676 0.072338 0.072338 0.144676 0.072338 0.144676 0.289352 0.144676 0.144676 0.072338 0.144676 0.072338 0.144676 0.289352 0.144676 0.144676 0.072338 0.144676 0.072338 0.144676 0.289352 0.144676 0.144676 0.0723379 0.144676 0.0723379 0.144676 0.289352 0.144676 0.144676 0.0723379 0.144676 0.0723379 0.144676 0.289352 0.144676 0.144676 0.072338 0.144676 0.072338 0.144676 0.289352 0.144676 0.144676 0.072338 0.144676 0.072338 0.144676 0.289352 0.144676 0.144676 0.0723379 0.144676 0.0723379 0.144676 0.289352 0.144676 0.144676 0.072338 0.144676 0.072338 0.144676 0.289352 0.144676 0.144676 0.0723379 0.144676 0.0723379 0.144676 0.289352 0.144676 0.144676 0.0723379 0.144676 0.0723379 0.144676 0.289352 0.144676 0.144676 0.072338 0.144676 0.072338 0.144676 0.289352 0.144676 0.144676 0.072338 0.144676 0.072338 0.144676 0.289352 0.144676 0.144676 0.072338 0.144676 0.072338 0.144676 0.289352 0.144676 0.144676 0.0723379 0.144676 0.0723379 0.144676 0.289352 0.144676 0.144676 0.072338 0.144676 0.072338 0.144676 0.289352 0.144676 0.144676 0.072338 0.144676 0.072338 0.144676 0.289352 0.144676 0.144676 0.0723379 0.144676 0.0723379 0.144676 0.289352 0.144676 0.144676 0.0723379 0.144676 0.0723379 0.144676 0.289352 0.144676 0.144676 0.0723379 0.144676 0.0723379 0.144676 0.289352 0.144676 0.144676 0.072338 0.144676 0.072338 0.144676 0.289352 0.144676 0.144676 0.0723379 0.144676 0.0723379 0.144676 0.289352 0.144676 0.144676 0.0723379 0.144676 0.0723379 0.144676 0.289352 0.144676 0.144676 0.072338 0.144676 0.072338 0.144676 0.289352 0.144676 0.144676 0.0723379 0.144676 0.0723379 0.144676 0.289352 0.144676 0.144676 0.0723379 0.144676 0.0723379 0.144676 0.289352 0.144676 0.144676 0.072338 0.144676 0.072338 0.144676 0.289351 0.144676 0.144676 0.0723379 0.144676 0.0723379 0.144676 0.289352 0.144676 0.144676 0.0723378 0.144676 0.0723378 0.144676 0.289352 0.144676 0.144676 0.072338 0.144676 0.072338 0.144676 0.289352 0.144676 0.144676 0.0723379 0.144676 0.0723379 0.072338 0.144676 0.144676 0.072338 0.072338 0.144676 0.072338 0.144676 0.072338 0.289352 0.144676 0.144676 0.144676 0.072338 0.072338 0.144676 0.072338 0.144676 0.289352 0.144676 0.144676 0.072338 0.144676 0.072338 0.144676 0.289352 0.144676 0.144676 0.072338 0.144676 0.072338 0.144676 0.289352 0.144676 0.144676 0.072338 0.144676 0.072338 0.144676 0.289352 0.144676 0.144676 0.072338 0.144676 0.072338 0.144676 0.289352 0.144676 0.144676 0.072338 0.144676 0.072338 0.144676 0.289352 0.144676 0.144676 0.072338 0.144676 0.072338 0.144676 0.289352 0.144676 0.144676 0.072338 0.144676 0.072338 0.144676 0.289352 0.144676 0.144676 0.072338 0.144676 0.072338 0.144676 0.289352 0.144676 0.144676 0.0723379 0.144676 0.0723379 0.144676 0.289352 0.144676 0.144676 0.072338 0.144676 0.072338 0.144676 0.289352 0.144676 0.144676 0.072338 0.144676 0.072338 0.144676 0.289352 0.144676 0.144676 0.072338 0.144676 0.072338 0.144676 0.289352 0.144676 0.144676 0.072338 0.144676 0.072338 0.144676 0.289352 0.144676 0.144676 0.0723379 0.144676 0.0723379 0.144676 0.289352 0.144676 0.144676 0.072338 0.144676 0.072338 0.144676 0.289352 0.144676 0.144676 0.072338 0.144676 0.072338 0.144676 0.289352 0.144676 0.144676 0.0723379 0.144676 0.0723379 0.144676 0.289352 0.144676 0.144676 0.0723379 0.144676 0.0723379 0.144676 0.289352 0.144676 0.144676 0.0723379 0.144676 0.0723379 0.144676 0.289352 0.144676 0.144676 0.072338 0.144676 0.072338 0.144676 0.289352 0.144676 0.144676 0.072338 0.144676 0.072338 0.144676 0.289352 0.144676 0.144676 0.0723379 0.144676 0.0723379 0.144676 0.289352 0.144676 0.144676 0.072338 0.144676 0.072338 0.144676 0.289352 0.144676 0.144676 0.0723379 0.144676 0.0723379 0.144676 0.289352 0.144676 0.144676 0.072338 0.144676 0.072338 0.144676 0.289352 0.144676 0.144676 0.0723381 0.144676 0.0723381 0.144676 0.289352 0.144676 0.144676 0.0723379 0.144676 0.0723379 0.144676 0.289352 0.144676 0.144676 0.0723378 0.144676 0.0723378 0.144676 0.289352 0.144676 0.144676 0.072338 0.144676 0.072338 0.144676 0.289352 0.144676 0.144676 0.0723379 0.144676 0.0723379 0.072338 0.144676 0.144676 0.072338 0.072338 0.144676 0.072338 0.144676 0.072338 0.289352 0.144676 0.144676 0.144676 0.072338 0.072338 0.144676 0.072338 0.144676 0.289352 0.144676 0.144676 0.072338 0.144676 0.072338 0.144676 0.289352 0.144676 0.144676 0.072338 0.144676 0.072338 0.144676 0.289352 0.144676 0.144676 0.072338 0.144676 0.072338 0.144676 0.289352 0.144676 0.144676 0.072338 0.144676 0.072338 0.144676 0.289352 0.144676 0.144676 0.072338 0.144676 0.072338 0.144676 0.289352 0.144676 0.144676 0.072338 0.144676 0.072338 0.144676 0.289352 0.144676 0.144676 0.072338 0.144676 0.072338 0.144676 0.289352 0.144676 0.144676 0.072338 0.144676 0.072338 0.144676 0.289352 0.144676 0.144676 0.0723379 0.144676 0.0723379 0.144676 0.289352 0.144676 0.144676 0.0723379 0.144676 0.0723379 0.144676 0.289352 0.144676 0.144676 0.072338 0.144676 0.072338 0.144676 0.289352 0.144676 0.144676 0.072338 0.144676 0.072338 0.144676 0.289352 0.144676 0.144676 0.072338 0.144676 0.072338 0.144676 0.289352 0.144676 0.144676 0.0723379 0.144676 0.0723379 0.144676 0.289352 0.144676 0.144676 0.072338 0.144676 0.072338 0.144676 0.289352 0.144676 0.144676 0.072338 0.144676 0.072338 0.144676 0.289352 0.144676 0.144676 0.072338 0.144676 0.072338 0.144676 0.289352 0.144676 0.144676 0.0723379 0.144676 0.0723379 0.144676 0.289352 0.144676 0.144676 0.0723379 0.144676 0.0723379 0.144676 0.289352 0.144676 0.144676 0.072338 0.144676 0.072338 0.144676 0.289352 0.144676 0.144676 0.072338 0.144676 0.072338 0.144676 0.289352 0.144676 0.144676 0.0723379 0.144676 0.0723379 0.144676 0.289352 0.144676 0.144676 0.072338 0.144676 0.072338 0.144676 0.289352 0.144676 0.144676 0.0723379 0.144676 0.0723379 0.144676 0.289352 0.144676 0.144676 0.072338 0.144676 0.072338 0.144676 0.289352 0.144676 0.144676 0.0723381 0.144676 0.0723381 0.144676 0.289351 0.144676 0.144676 0.0723379 0.144676 0.0723379 0.144676 0.289352 0.144676 0.144676 0.0723378 0.144676 0.0723378 0.144676 0.289352 0.144676 0.144676 0.072338 0.144676 0.072338 0.144676 0.289352 0.144676 0.144676 0.0723379 0.144676 0.0723379 0.072338 0.144676 0.144676 0.072338 0.072338 0.144676 0.072338 0.144676 0.0723379 0.144676 0.0723379 0.0723379 0.144676 0.0723379 0.0723379 0.0723379 0.0723379 0.144676 0.144676 0.0723379 0.144676 0.0723379 0.0723379 0.0723379 0.144676 0.144676 0.072338 0.144676 0.072338 0.072338 0.072338 0.144676 0.144676 0.0723379 0.144676 0.0723379 0.0723379 0.0723379 0.144676 0.144676 0.0723379 0.144676 0.0723379 0.0723379 0.0723379 0.144676 0.144676 0.072338 0.144676 0.072338 0.072338 0.072338 0.144676 0.144676 0.0723379 0.144676 0.0723379 0.0723379 0.0723379 0.144676 0.144676 0.0723379 0.144676 0.0723379 0.0723379 0.0723379 0.144676 0.144676 0.072338 0.144676 0.072338 0.072338 0.072338 0.144676 0.144676 0.0723379 0.144676 0.0723379 0.0723379 0.0723379 0.144676 0.144676 0.0723379 0.144676 0.0723379 0.0723379 0.0723379 0.144676 0.144676 0.0723379 0.144676 0.0723379 0.0723379 0.0723379 0.144676 0.144676 0.0723379 0.144676 0.0723379 0.0723379 0.0723379 0.144676 0.144676 0.072338 0.144676 0.072338 0.072338 0.072338 0.144676 0.144676 0.0723379 0.144676 0.0723379 0.0723379 0.0723379 0.144676 0.144676 0.072338 0.144676 0.072338 0.072338 0.072338 0.144676 0.144676 0.0723379 0.144676 0.0723379 0.0723379 0.0723379 0.144676 0.144676 0.0723379 0.144676 0.0723379 0.0723379 0.0723379 0.144676 0.144676 0.0723379 0.144676 0.0723379 0.0723379 0.0723379 0.144676 0.144676 0.0723379 0.144676 0.0723379 0.0723379 0.0723379 0.144676 0.144676 0.072338 0.144676 0.072338 0.072338 0.072338 0.144676 0.144676 0.0723379 0.144676 0.0723379 0.0723379 0.0723379 0.144676 0.144676 0.0723379 0.144676 0.0723379 0.0723379 0.0723379 0.144676 0.144676 0.072338 0.144676 0.072338 0.072338 0.072338 0.144676 0.144676 0.0723379 0.144676 0.0723379 0.0723379 0.0723379 0.144676 0.144676 0.0723379 0.144676 0.0723379 0.0723379 0.0723379 0.144676 0.144676 0.072338 0.144676 0.072338 0.072338 0.072338 0.144676 0.144676 0.0723379 0.144676 0.0723379 0.0723379 0.0723379 0.144676 0.144676 0.0723378 0.144676 0.0723378 0.0723378 0.0723378 0.144676 0.144676 0.072338 0.144676 0.072338 0.072338 0.072338 0.144676 0.144676 0.0723379 0.144676 0.0723379 0.0723379 0.0723379 0.072338 0.072338 0.072338 0.072338 0.072338 0.072338 0.072338 
VECTORS u float
0 0 0  -0.0059904 -0.00309277 -0.00555587  -0.0103426 -0.00554213 -0.00732112  -0.0146379 -0.00932263 -0.00782847  -0.0189155 -0.0144047 -0.00773048  -0.0230932 -0.0206637 -0.0073669  -0.0271209 -0.0279444 -0.00689363  -0.0309927 -0.0361571 -0.00638962  -0.0346591 -0.0452079 -0.00587344  -0.0381331 -0.0550531 -0.00538301  -0.041409 -0.065602 -0.00490952  -0.0445155 -0.0767832 -0.0044558  -0.0474256 -0.0885521 -0.00401998  -0.0501696 -0.10085 -0.00362349  -0.0527344 -0.11362 -0.00324559  -0.0551512 -0.126811 -0.00288272  -0.0574272 -0.14038 -0.00255871  -0.0595386 -0.154288 -0.00222421  -0.0615237 -0.168463 -0.00193572  -0.0633729 -0.182898 -0.00165725  -0.0651135 -0.197543 -0.00140667  -0.066714 -0.212344 -0.00116849  -0.0682261 -0.227275 -0.000961304  -0.0696328 -0.24232 -0.000777721  -0.0709326 -0.257439 -0.000619173  -0.0721571 -0.272614 -0.000458956  -0.0733039 -0.287836 -0.000333548  -0.0744019 -0.303033 -0.000216484  -0.0754199 -0.318242 -0.000129938  -0.0764177 -0.333434 -6.74725e-05  -0.0773466 -0.348578 -2.00272e-05  -0.0782783 -0.36369 8.58307e-06  -0.0791724 -0.378778 3.91006e-05  0 0 0  -0.00374943 -0.0012679 -0.00428557  -0.00707871 -0.00389694 -0.00546551  -0.010254 -0.0077634 -0.00580549  -0.0133915 -0.0129385 -0.00575638  -0.0165054 -0.0193122 -0.00549984  -0.0195466 -0.0267222 -0.00515556  -0.0224929 -0.0350898 -0.00477839  -0.0253333 -0.044305 -0.00440764  -0.0280433 -0.0542986 -0.0040288  -0.0306346 -0.0649891 -0.00368023  -0.0331216 -0.0763214 -0.0033443  -0.0354714 -0.0882331 -0.00302219  -0.0377084 -0.100664 -0.00271678  -0.0398315 -0.113566 -0.00243711  -0.0418496 -0.126877 -0.00216699  -0.0437659 -0.140564 -0.00190663  -0.0455801 -0.154566 -0.00167513  -0.0472989 -0.168841 -0.00145578  -0.0489256 -0.183352 -0.00124621  -0.0504761 -0.198066 -0.00106049  -0.0519435 -0.212944 -0.000892401  -0.0533223 -0.227945 -0.000723362  -0.0546319 -0.243034 -0.000593901  -0.0558712 -0.258203 -0.000457287  -0.0570574 -0.273419 -0.000351667  -0.0581806 -0.288661 -0.00026083  -0.0592606 -0.303896 -0.000170231  -0.0602911 -0.319116 -0.000103951  -0.0612841 -0.334317 -5.91278e-05  -0.0622416 -0.349484 -2.24113e-05  -0.0631843 -0.364599 -2.38419e-07  -0.0641103 -0.379677 3.26633e-05  0 0 0  -0.00226746 -0.000190824 -0.0029273  -0.00428839 -0.00264047 -0.00370502  -0.0063819 -0.00661972 -0.00389695  -0.00848982 -0.0119132 -0.00383735  -0.0105834 -0.0183803 -0.00366831  -0.0126464 -0.0259097 -0.00343013  -0.0146704 -0.0343947 -0.00318074  -0.0166642 -0.0437224 -0.00293136  -0.0186014 -0.0538314 -0.0026772  -0.0204823 -0.0646464 -0.00243473  -0.0223058 -0.0760959 -0.00222373  -0.024063 -0.0881209 -0.00200486  -0.0257609 -0.100661 -0.00180721  -0.0274096 -0.113664 -0.00160933  -0.029004 -0.127074 -0.00142813  -0.0305356 -0.140845 -0.00125766  -0.0320241 -0.15494 -0.00111055  -0.0334487 -0.169291 -0.000964642  -0.0348365 -0.183874 -0.000822783  -0.0361614 -0.198645 -0.000698328  -0.037447 -0.213576 -0.000584364  -0.0386784 -0.228631 -0.000478268  -0.0398769 -0.243771 -0.000388384  -0.0410237 -0.25898 -0.000302076  -0.0421314 -0.274224 -0.000226736  -0.0432 -0.289483 -0.000164509  -0.0442438 -0.304746 -0.000113249  -0.0452521 -0.319989 -7.29561e-05  -0.0462317 -0.335188 -3.83854e-05  -0.0471902 -0.350372 -1.83582e-05  -0.0481255 -0.365492 7.62939e-06  -0.0490353 -0.380563 3.93391e-05  0 0 0  -0.00105415 0.00027892 -0.00145626  -0.00195579 -0.00197265 -0.0018599  -0.00296012 -0.00596705 -0.00195026  -0.0040029 -0.0113353 -0.00191522  -0.00507671 -0.0178935 -0.00182509  -0.0061698 -0.0255152 -0.0017128  -0.00728083 -0.0340729 -0.00158072  -0.00841093 -0.0434946 -0.00145221  -0.00954902 -0.0536921 -0.00133181  -0.010692 -0.0645956 -0.00119853  -0.0118439 -0.0761287 -0.00108838  -0.0129917 -0.0882427 -0.000986338  -0.0141463 -0.100862 -0.000885963  -0.0152899 -0.113945 -0.000780821  -0.0164443 -0.127437 -0.000696182  -0.0175896 -0.141269 -0.000609159  -0.0187187 -0.155425 -0.000534773  -0.0198421 -0.169845 -0.000460625  -0.0209486 -0.184475 -0.000392199  -0.0220528 -0.199304 -0.000336647  -0.0231323 -0.214275 -0.00027442  -0.0242074 -0.22936 -0.000228882  -0.0252488 -0.24453 -0.000181198  -0.0262961 -0.259768 -0.000132561  -0.0273149 -0.275041 -0.000106335  -0.0283267 -0.290319 -7.03335e-05  -0.0293193 -0.3056 -4.8399e-05  -0.030282 -0.320851 -2.86102e-05  -0.0312388 -0.336082 -2.09808e-05  -0.0321722 -0.351254 -3.09944e-06  -0.0331018 -0.366388 7.15256e-06  -0.0340159 -0.381447 1.07288e-05  0 0 0  6.83814e-05 0.000363111 3.79086e-05  0.000159502 -0.00183931 2.93255e-05  0.000229686 -0.00585088 2.19345e-05  0.000252247 -0.0112633 1.04904e-05  0.000207603 -0.0178755 1.93119e-05  9.38773e-05 -0.025546 1.57356e-05  -9.70364e-05 -0.034166 2.5034e-05  -0.000364244 -0.0436323 3.02792e-05  -0.00069809 -0.0538861 3.33786e-05  -0.00110686 -0.064854 4.26769e-05  -0.00158262 -0.0764488 3.62396e-05  -0.00210714 -0.0886179 4.52995e-05  -0.00270307 -0.101302 4.14848e-05  -0.00333691 -0.114438 4.8399e-05  -0.00403118 -0.12797 4.8399e-05  -0.00476635 -0.141862 4.07696e-05  -0.00554848 -0.156063 4.00543e-05  -0.00634623 -0.170516 4.07696e-05  -0.00718522 -0.185186 3.3617e-05  -0.00804377 -0.200039 3.69549e-05  -0.00892138 -0.215046 3.38554e-05  -0.00982356 -0.230163 3.31402e-05  -0.0107164 -0.245361 2.57492e-05  -0.0116432 -0.26061 2.52724e-05  -0.0125651 -0.275898 2.43187e-05  -0.0134895 -0.291187 2.57492e-05  -0.0144205 -0.306477 2.09808e-05  -0.0153458 -0.321746 2.31266e-05  -0.0162683 -0.336971 1.45435e-05  -0.0171857 -0.352155 6.4373e-06  -0.0181062 -0.36729 0  -0.0190072 -0.382342 2.38419e-06  0 0 0  0.0011753 0.000126421 0.00152445  0.0022628 -0.00222373 0.00190425  0.00339553 -0.00628465 0.0019722  0.00449151 -0.0117157 0.00192738  0.00547069 -0.0183356 0.00184202  0.00633299 -0.026015 0.00173998  0.00706458 -0.0346525 0.00161576  0.00766313 -0.0441575 0.00150347  0.00811934 -0.054442 0.00138879  0.00845587 -0.0654292 0.00127935  0.00866079 -0.0770608 0.00116491  0.00875485 -0.0892694 0.00106835  0.00872076 -0.101974 0.000969648  0.00859141 -0.115148 0.000878096  0.00834668 -0.128717 0.000778913  0.00803065 -0.142629 0.000699759  0.0076046 -0.156851 0.000622511  0.00712633 -0.171332 0.000540733  0.00657248 -0.186027 0.000475645  0.00595117 -0.200898 0.000412941  0.00528312 -0.215913 0.000347137  0.00456524 -0.231045 0.000290155  0.00379944 -0.246253 0.000234604  0.00300145 -0.261511 0.000188589  0.00217915 -0.276796 0.000150919  0.00133681 -0.2921 0.000119925  0.000462055 -0.307389 8.60691e-05  -0.000414848 -0.322656 5.31673e-05  -0.00130749 -0.337885 3.50475e-05  -0.00220919 -0.353067 1.54972e-05  -0.00310993 -0.368201 2.6226e-06  -0.00400782 -0.383256 -1.07288e-05  0 0 0  0.00236085 -0.000496984 0.00296783  0.00455683 -0.00313997 0.00369763  0.00678575 -0.00724638 0.00386786  0.00891954 -0.0126506 0.0038178  0.0109168 -0.0192493 0.00365949  0.0127338 -0.026915 0.00344563  0.0143796 -0.0355474 0.00321317  0.0158252 -0.0450481 0.00297499  0.0170835 -0.0553339 0.00273824  0.0181553 -0.0663379 0.00251365  0.0190287 -0.0779694 0.00229669  0.0197315 -0.0901818 0.00208282  0.0202553 -0.102908 0.00189137  0.0206274 -0.116081 0.00169373  0.0208441 -0.129656 0.00152254  0.0209222 -0.143577 0.00134969  0.0208631 -0.157805 0.00118685  0.0206935 -0.172291 0.00104427  0.020407 -0.186998 0.000902653  0.020025 -0.201867 0.000781775  0.0195591 -0.216887 0.000659227  0.0190065 -0.232003 0.000543356  0.0183806 -0.247202 0.000447273  0.0177052 -0.262468 0.000354052  0.0169804 -0.277746 0.000280142  0.0161889 -0.293043 0.000213623  0.0153902 -0.30833 0.000148058  0.0145497 -0.323586 0.000108004  0.0136831 -0.338811 5.96046e-05  0.0127935 -0.353991 2.71797e-05  0.0118966 -0.369114 5.00679e-06  0.0109954 -0.38418 -3.12328e-05  0 0 0  0.00377531 -0.00170404 0.00425792  0.00727275 -0.00459373 0.0053761  0.0105668 -0.00866693 0.00571489  0.0137246 -0.0140352 0.00567937  0.0167109 -0.0205917 0.00545716  0.0194939 -0.0282294 0.00513792  0.0220367 -0.0368454 0.00479078  0.024332 -0.0463294 0.00443125  0.026374 -0.0565909 0.00408387  0.0281558 -0.0675678 0.00374222  0.0296948 -0.079193 0.00341058  0.030997 -0.0913879 0.00309777  0.032069 -0.104088 0.00280118  0.0329257 -0.117254 0.00252724  0.033574 -0.130816 0.00224996  0.0340395 -0.144729 0.00200272  0.0343292 -0.15894 0.00175929  0.0344586 -0.173405 0.00153637  0.0344315 -0.188081 0.00132942  0.0342731 -0.202946 0.00113988  0.0339847 -0.217933 0.000965595  0.0335915 -0.23305 0.000792027  0.0330963 -0.248237 0.000644922  0.0325119 -0.263477 0.000503063  0.0318725 -0.278738 0.000395775  0.0311592 -0.294015 0.000293732  0.0303822 -0.309303 0.00020647  0.029567 -0.324543 0.000133991  0.0287182 -0.33975 7.39098e-05  0.0278485 -0.354921 3.50475e-05  0.0269482 -0.370026 5.72205e-06  0.0260458 -0.385115 -2.55108e-05  0 0 0  0.00597753 -0.0036214 0.00542974  0.0104545 -0.00640464 0.00712156  0.01481 -0.0104864 0.00760198  0.0190408 -0.0158246 0.00755191  0.0230771 -0.0223725 0.00724506  0.0268248 -0.0299676 0.00682139  0.0302681 -0.0385388 0.0063417  0.0333916 -0.0479704 0.0058713  0.0361941 -0.0582004 0.0053966  0.0386846 -0.0691305 0.00495076  0.0408547 -0.0807188 0.00451565  0.0427407 -0.0928677 0.004107  0.0443301 -0.105536 0.00369787  0.0456431 -0.118665 0.00331616  0.0467155 -0.132184 0.00296664  0.0475438 -0.146059 0.00263309  0.0481472 -0.160225 0.00232267  0.0485632 -0.174659 0.00202155  0.0487711 -0.189307 0.00174356  0.0488076 -0.204142 0.00148201  0.0486894 -0.219099 0.00124693  0.0484302 -0.234175 0.00102782  0.0480423 -0.249335 0.00083828  0.0475338 -0.264542 0.000662565  0.0469468 -0.279792 0.000494719  0.0462501 -0.295034 0.000382185  0.0454924 -0.310298 0.00024724  0.044683 -0.325512 0.000151634  0.043829 -0.340697 8.4877e-05  0.0429325 -0.355842 4.55379e-05  0.0420225 -0.370954 6.19888e-06  0.0411353 -0.386037 -2.12193e-05  0 0 0  -0.00477614 -0.00452396 -0.00348115  -0.00969027 -0.00732665 -0.0052433  -0.0144594 -0.0111614 -0.00581574  -0.0190179 -0.0161732 -0.00581408  -0.0233548 -0.0223034 -0.0055685  -0.0274765 -0.0294452 -0.00521994  -0.0313716 -0.0375426 -0.00483298  -0.0350451 -0.0464882 -0.0044384  -0.0385127 -0.0562065 -0.00406241  -0.041786 -0.0666478 -0.00369835  -0.0448694 -0.0777281 -0.00335336  -0.0477662 -0.0894109 -0.00303555  -0.0504813 -0.101613 -0.00273395  -0.0530467 -0.114304 -0.00244498  -0.0554352 -0.127414 -0.00217748  -0.0576824 -0.140916 -0.00192213  -0.0597816 -0.154753 -0.00167513  -0.0617397 -0.168878 -0.00145841  -0.0635712 -0.183243 -0.00125408  -0.0652909 -0.197828 -0.0010643  -0.0668719 -0.212582 -0.000892162  -0.0683711 -0.227474 -0.000731707  -0.0697458 -0.242477 -0.000589609  -0.0710475 -0.257557 -0.000462294  -0.0722589 -0.272707 -0.000350714  -0.0733995 -0.287882 -0.000254393  -0.0744665 -0.303067 -0.000173807  -0.0754783 -0.318264 -0.000101089  -0.0764499 -0.333434 -6.07967e-05  -0.0773873 -0.348576 -2.64645e-05  -0.07829 -0.363693 -7.39098e-06  -0.079222 -0.378782 1.28746e-05  0 0 0  -0.00257402 -0.00226077 -0.00262594  -0.00644164 -0.00537529 -0.00395751  -0.0100833 -0.00941055 -0.00436592  -0.013502 -0.0146012 -0.00436091  -0.0167635 -0.0208879 -0.00417614  -0.019887 -0.0282139 -0.00391078  -0.0228593 -0.0364713 -0.00362515  -0.025708 -0.0455749 -0.00332308  -0.0284218 -0.0554588 -0.0030396  -0.0310055 -0.0660487 -0.00277305  -0.03346 -0.0772747 -0.00251484  -0.0357965 -0.0890995 -0.00226831  -0.0380164 -0.101444 -0.00203967  -0.0401188 -0.11426 -0.00182366  -0.042119 -0.127499 -0.00162625  -0.0440183 -0.141109 -0.00143695  -0.0458155 -0.155039 -0.00125098  -0.0475085 -0.16925 -0.00109124  -0.0491204 -0.18371 -0.000933409  -0.0506525 -0.198369 -0.000794172  -0.0520952 -0.213194 -0.000666857  -0.0534606 -0.228143 -0.00054574  -0.0547533 -0.243203 -0.000441313  -0.0559824 -0.258337 -0.000352621  -0.0571449 -0.273519 -0.000258923  -0.0582566 -0.288725 -0.000192165  -0.0593193 -0.303942 -0.000133753  -0.0603404 -0.319144 -7.96318e-05  -0.0613201 -0.33433 -4.95911e-05  -0.0622737 -0.349476 -2.07424e-05  -0.0632102 -0.364593 1.66893e-06  -0.0641327 -0.379676 1.88351e-05  0 0 0  -0.00148607 -0.00111768 -0.0018034  -0.00385873 -0.00401607 -0.0026989  -0.00627932 -0.00818117 -0.00295186  -0.00858018 -0.0135091 -0.00292921  -0.0107815 -0.0199356 -0.0028019  -0.0129103 -0.027387 -0.00261045  -0.0149747 -0.0357683 -0.00241137  -0.0169656 -0.0449955 -0.00221276  -0.0188934 -0.0550034 -0.00202084  -0.0207591 -0.0657108 -0.00183678  -0.0225672 -0.0770642 -0.00166702  -0.0243121 -0.0889985 -0.00150418  -0.0260065 -0.10145 -0.00135303  -0.0276409 -0.114373 -0.00121212  -0.0292116 -0.127707 -0.00106955  -0.0307373 -0.141405 -0.000948906  -0.0322042 -0.155422 -0.000828505  -0.0336194 -0.169714 -0.000720978  -0.0349774 -0.184237 -0.00061202  -0.0362995 -0.19896 -0.000525236  -0.0375636 -0.213834 -0.000445366  -0.0387869 -0.228843 -0.000361919  -0.039964 -0.243942 -0.00028944  -0.0411029 -0.259111 -0.000227451  -0.0421987 -0.274326 -0.000169516  -0.0432584 -0.289561 -0.000124931  -0.0442886 -0.304794 -8.4877e-05  -0.0452929 -0.320015 -5.19753e-05  -0.0462654 -0.335218 -3.02792e-05  -0.0472167 -0.35037 -1.19209e-05  -0.0481465 -0.365495 4.05312e-06  -0.0490663 -0.380557 1.90735e-05  0 0 0  -0.00066562 -0.000641197 -0.000911474  -0.00176527 -0.00332186 -0.00136614  -0.00293559 -0.00750083 -0.0014956  -0.00408515 -0.0129171 -0.00147772  -0.00522137 -0.0194441 -0.00140524  -0.0063529 -0.0269838 -0.0013082  -0.00748056 -0.0354545 -0.00120401  -0.00861245 -0.0447723 -0.00110245  -0.00974846 -0.0548688 -0.00100851  -0.0108901 -0.0656701 -0.000911713  -0.0120255 -0.0771105 -0.000825882  -0.0131655 -0.0891306 -0.000741005  -0.0143126 -0.101668 -0.000659704  -0.0154498 -0.114662 -0.000585318  -0.0165857 -0.128072 -0.000515461  -0.0177219 -0.141841 -0.000459671  -0.0188367 -0.155921 -0.000397682  -0.0199492 -0.170276 -0.000345945  -0.0210495 -0.184854 -0.00029707  -0.022135 -0.199614 -0.000247717  -0.0232139 -0.214542 -0.000205517  -0.0242708 -0.229585 -0.000170231  -0.0253174 -0.244721 -0.000137806  -0.0263555 -0.259912 -0.000103951  -0.0273633 -0.275151 -7.65324e-05  -0.0283558 -0.290405 -5.34058e-05  -0.0293338 -0.305655 -3.52859e-05  -0.0302997 -0.320895 -2.31266e-05  -0.031256 -0.336101 -1.52588e-05  -0.0321934 -0.351269 -2.86102e-06  -0.0331171 -0.366387 5.00679e-06  -0.0340347 -0.381451 8.58307e-06  0 0 0  4.75347e-05 -0.000541627 1.43051e-05  0.000118911 -0.00318077 8.82149e-06  0.000176072 -0.00737548 -1.19209e-06  0.000174999 -0.0128421 -2.38419e-06  0.000122666 -0.0194246 -7.39098e-06  -6.3777e-06 -0.0270154 6.4373e-06  -0.000197887 -0.0355412 2.14577e-06  -0.000466943 -0.044921 1.62125e-05  -0.000801325 -0.0550714 2.16961e-05  -0.00120127 -0.0659356 2.43187e-05  -0.00167358 -0.0774369 2.59876e-05  -0.0022018 -0.0895123 3.09944e-05  -0.00278533 -0.102106 2.88486e-05  -0.00341797 -0.115158 2.83718e-05  -0.00410438 -0.128621 3.24249e-05  -0.00482798 -0.142445 3.6478e-05  -0.00559545 -0.156567 2.98023e-05  -0.00640059 -0.170956 3.57628e-05  -0.00722456 -0.185571 2.98023e-05  -0.00807738 -0.20037 2.57492e-05  -0.00895548 -0.215322 2.16961e-05  -0.00984049 -0.230391 2.83718e-05  -0.0107446 -0.245542 1.90735e-05  -0.0116549 -0.260758 2.43187e-05  -0.0125782 -0.27601 1.64509e-05  -0.0135007 -0.291274 1.52588e-05  -0.0144238 -0.306538 1.0252e-05  -0.0153489 -0.321784 1.09673e-05  -0.0162699 -0.336999 2.86102e-06  -0.0171926 -0.352169 1.23978e-05  -0.0181088 -0.367293 -2.6226e-06  -0.0190141 -0.382348 -5.48363e-06  0 0 0  0.000768334 -0.000766098 0.000934362  0.00200665 -0.00354475 0.00137258  0.00326729 -0.00779587 0.00147367  0.00441891 -0.0132738 0.00145292  0.00543922 -0.019869 0.0013938  0.00631434 -0.0274848 0.00131083  0.00705135 -0.0360308 0.00121665  0.00765252 -0.04544 0.00112176  0.00811279 -0.0556247 0.00103545  0.00844693 -0.0665196 0.00095582  0.00865412 -0.0780528 0.00087142  0.0087446 -0.0901644 0.000797033  0.0087204 -0.102791 0.000724554  0.00858879 -0.115881 0.000649691  0.00835335 -0.129368 0.000585079  0.00802636 -0.143207 0.000523329  0.00761628 -0.157357 0.000465631  0.00713062 -0.171777 0.00041008  0.00658059 -0.186415 0.000352621  0.00596428 -0.201229 0.000308275  0.00529552 -0.216193 0.000260592  0.00458026 -0.231268 0.000216246  0.00381708 -0.246439 0.000176191  0.00301957 -0.261657 0.000148773  0.0021956 -0.27691 0.000115395  0.0013504 -0.292183 8.44002e-05  0.00048089 -0.307453 6.53267e-05  -0.000403166 -0.3227 4.43459e-05  -0.00129271 -0.337911 2.86102e-05  -0.00219798 -0.353084 1.3113e-05  -0.00310373 -0.368202 -2.38419e-07  -0.00400925 -0.383255 -1.43051e-05  0 0 0  0.00158392 -0.00137055 0.00180984  0.0040873 -0.00444895 0.00266576  0.00657859 -0.0087561 0.00290275  0.00885797 -0.0142176 0.00288486  0.0109307 -0.0207883 0.00276017  0.0127965 -0.0283837 0.00259256  0.0144517 -0.0369275 0.00241733  0.0159084 -0.0463375 0.00223136  0.0171639 -0.0565217 0.00204849  0.0182264 -0.0674298 0.00188041  0.019106 -0.0789694 0.00171852  0.0198027 -0.0910913 0.00156355  0.0203357 -0.103727 0.00141549  0.0206946 -0.116817 0.00127172  0.0209088 -0.130315 0.00114155  0.0209856 -0.144164 0.00101066  0.0209286 -0.158317 0.000892878  0.0207541 -0.172736 0.000783205  0.0204682 -0.187374 0.000685215  0.020088 -0.202189 0.000581503  0.0196173 -0.217161 0.000492811  0.0190611 -0.232235 0.000408888  0.0184398 -0.247393 0.00033617  0.0177534 -0.262614 0.000261784  0.0170162 -0.277871 0.000205517  0.0162358 -0.293125 0.000154972  0.0154257 -0.308392 0.000107288  0.0145786 -0.323624 7.9155e-05  0.0137095 -0.338831 4.43459e-05  0.0128224 -0.353997 1.71661e-05  0.0119159 -0.369118 -2.38419e-06  0.0110259 -0.384186 -1.83582e-05  0 0 0  0.00266694 -0.0026173 0.00259471  0.00662324 -0.00597525 0.00386  0.010301 -0.0102359 0.00425863  0.013669 -0.0156289 0.00426698  0.0167722 -0.0221473 0.00410724  0.019611 -0.0297115 0.00386739  0.022182 -0.0382224 0.00359988  0.0244808 -0.0476075 0.0033257  0.0265213 -0.057774 0.00305796  0.0283072 -0.0686545 0.00280643  0.0298431 -0.0801831 0.00256014  0.0311348 -0.0922863 0.00232148  0.0321999 -0.104909 0.00210285  0.0330523 -0.117986 0.00188637  0.0336993 -0.131472 0.00168347  0.0341566 -0.145304 0.00150132  0.034447 -0.159449 0.0013237  0.0345631 -0.173847 0.00114632  0.0345345 -0.188472 0.000999451  0.0343692 -0.203272 0.000852108  0.0340862 -0.218219 0.000717163  0.0336831 -0.233279 0.000592947  0.0331831 -0.248422 0.000484705  0.0326009 -0.263623 0.000387907  0.031935 -0.278855 0.000298977  0.0312121 -0.294109 0.00022006  0.0304348 -0.30935 0.000153065  0.0296118 -0.324575 0.000106573  0.0287504 -0.339773 6.1512e-05  0.0278699 -0.354932 2.64645e-05  0.026973 -0.370047 7.15256e-07  0.0260792 -0.385126 -1.21593e-05  0 0 0  0.00482711 -0.00493163 0.00339842  0.00978646 -0.00805026 0.00507402  0.0145179 -0.0121704 0.00562811  0.0189841 -0.0174892 0.00564456  0.0231313 -0.0239424 0.00544357  0.0269462 -0.0314474 0.00512719  0.0304239 -0.0399043 0.00477457  0.0335584 -0.0492405 0.00441337  0.0363604 -0.0593631 0.00405455  0.0388407 -0.0702091 0.00372148  0.0410147 -0.081695 0.00338602  0.0428884 -0.0937553 0.00307417  0.0444694 -0.106337 0.00277567  0.0457823 -0.119384 0.00250435  0.0468483 -0.132839 0.00222898  0.0476809 -0.146634 0.00197196  0.0482748 -0.160734 0.00174165  0.0486779 -0.175099 0.00152111  0.0488832 -0.189684 0.00131249  0.0489156 -0.20445 0.00111151  0.0487945 -0.219368 0.000940323  0.0485327 -0.234401 0.000777483  0.0481308 -0.249511 0.000636339  0.0476213 -0.264683 0.000502825  0.0470159 -0.279893 0.000385523  0.0463142 -0.295117 0.000282526  0.0455573 -0.310335 0.000197172  0.0447338 -0.325541 0.000130892  0.0438638 -0.340717 8.53539e-05  0.0429699 -0.355862 3.57628e-05  0.0420654 -0.370959 1.0252e-05  0.0411415 -0.386043 -1.81198e-05  0 0 0  -0.00481636 -0.00529234 -0.00203013  -0.00949858 -0.00847483 -0.00325894  -0.0142952 -0.0123989 -0.00377107  -0.0189557 -0.0173992 -0.00385094  -0.0233864 -0.0234659 -0.00372815  -0.0275682 -0.0305399 -0.00350046  -0.0315043 -0.0385555 -0.00324059  -0.0351962 -0.0474153 -0.00296879  -0.038684 -0.057051 -0.00272059  -0.0419481 -0.0674137 -0.00247407  -0.0450267 -0.0784322 -0.0022397  -0.047917 -0.0900343 -0.00202799  -0.050624 -0.102176 -0.00182247  -0.0531768 -0.114807 -0.00163507  -0.0555577 -0.127869 -0.0014565  -0.0577999 -0.141315 -0.0012877  -0.0598898 -0.155103 -0.00112152  -0.0618451 -0.169176 -0.00097084  -0.063664 -0.183501 -0.000849485  -0.0653706 -0.19805 -0.000718355  -0.0669491 -0.212765 -0.000594616  -0.0684311 -0.227623 -0.000498533  -0.0698102 -0.24259 -0.000395298  -0.0710907 -0.257656 -0.000311375  -0.0722919 -0.272775 -0.000233889  -0.0734248 -0.287933 -0.000166416  -0.0744922 -0.303111 -0.000121832  -0.075506 -0.318285 -7.39098e-05  -0.0764637 -0.333445 -4.3869e-05  -0.07741 -0.348583 -1.69277e-05  -0.0783279 -0.36369 -8.10623e-06  -0.0792363 -0.378793 1.19209e-05  0 0 0  -0.00239842 -0.00281271 -0.00152063  -0.00614254 -0.00630787 -0.00245857  -0.00989133 -0.0105098 -0.00285316  -0.013453 -0.0157309 -0.00290847  -0.0168218 -0.0219995 -0.00279975  -0.0200115 -0.029271 -0.00263095  -0.0230326 -0.037461 -0.00242901  -0.0259008 -0.0464915 -0.00222754  -0.028618 -0.0562972 -0.00203061  -0.031203 -0.0668141 -0.00184917  -0.0336531 -0.0779748 -0.00167608  -0.0359781 -0.0897293 -0.00152063  -0.0381886 -0.102014 -0.00135636  -0.0402786 -0.114767 -0.00122261  -0.0422761 -0.12795 -0.0010848  -0.0441527 -0.141503 -0.00095582  -0.0459406 -0.155393 -0.00083518  -0.047632 -0.169558 -0.000731468  -0.049232 -0.183974 -0.00063014  -0.0507474 -0.198591 -0.000530958  -0.0521772 -0.213382 -0.000440121  -0.0535357 -0.2283 -0.000368357  -0.0548217 -0.243323 -0.000289917  -0.0560353 -0.258435 -0.000234604  -0.0572016 -0.273591 -0.00017643  -0.0582979 -0.288779 -0.000122547  -0.0593596 -0.303979 -8.4877e-05  -0.0603628 -0.319169 -5.76973e-05  -0.0613465 -0.334346 -2.95639e-05  -0.0622962 -0.349498 -1.38283e-05  -0.0632308 -0.364603 -1.90735e-06  -0.0641468 -0.379692 1.14441e-05  0 0 0  -0.00134833 -0.00155272 -0.00103688  -0.00361635 -0.00478542 -0.00167847  -0.00612131 -0.00915568 -0.00193095  -0.00854596 -0.0145623 -0.00195289  -0.0108422 -0.021001 -0.00188422  -0.0130287 -0.0284151 -0.00175714  -0.015121 -0.0367405 -0.00162339  -0.0171309 -0.045905 -0.00148582  -0.0190731 -0.0558359 -0.0013535  -0.0209336 -0.0664845 -0.00122929  -0.0227363 -0.0777675 -0.00111508  -0.024479 -0.0896351 -0.00100303  -0.0261559 -0.102023 -0.000900269  -0.0277792 -0.114883 -0.000808477  -0.0293484 -0.128163 -0.000712156  -0.0308573 -0.14181 -0.000638008  -0.0323169 -0.155781 -0.000554323  -0.0337224 -0.170024 -0.000480413  -0.0350792 -0.184507 -0.000408411  -0.0363846 -0.199187 -0.000346661  -0.0376394 -0.21403 -0.000291109  -0.038857 -0.229001 -0.000243187  -0.0400255 -0.24407 -0.00019002  -0.0411544 -0.259212 -0.000152826  -0.0422423 -0.274405 -0.000110626  -0.0432949 -0.289616 -8.08239e-05  -0.0443203 -0.304838 -5.96046e-05  -0.045311 -0.320049 -3.79086e-05  -0.0462821 -0.335232 -2.47955e-05  -0.0472291 -0.350387 -9.53674e-06  -0.0481594 -0.365504 0  -0.0490832 -0.380573 7.62939e-06  0 0 0  -0.000598274 -0.00101733 -0.000525713  -0.00164828 -0.00401381 -0.00084734  -0.00286081 -0.00840226 -0.000980377  -0.00408676 -0.0139216 -0.000988722  -0.00527996 -0.0204751 -0.000949383  -0.00644362 -0.0279905 -0.000878572  -0.00759208 -0.0364212 -0.0008111  -0.00873715 -0.0456807 -0.000737667  -0.00987434 -0.0557083 -0.000672579  -0.011012 -0.0664468 -0.000612497  -0.0121491 -0.0778189 -0.000552654  -0.01329 -0.0897712 -0.000497341  -0.0144197 -0.102241 -0.000448465  -0.0155534 -0.115181 -0.000394344  -0.0166811 -0.128535 -0.000352621  -0.0178059 -0.142254 -0.000308275  -0.0189116 -0.156283 -0.000267982  -0.0200238 -0.17059 -0.000232935  -0.0211146 -0.185126 -0.000189543  -0.022202 -0.199853 -0.000166655  -0.0232635 -0.214734 -0.000136852  -0.0243232 -0.22975 -0.000107765  -0.0253553 -0.244855 -8.32081e-05  -0.0263827 -0.260022 -7.24792e-05  -0.0273848 -0.275232 -4.673e-05  -0.0283771 -0.290466 -3.29018e-05  -0.0293553 -0.305704 -2.43187e-05  -0.0303173 -0.320924 -1.62125e-05  -0.031266 -0.336123 -5.24521e-06  -0.0321953 -0.351288 -2.14577e-06  -0.0331221 -0.366402 3.8147e-06  -0.0340402 -0.381466 -2.38419e-07  0 0 0  4.23938e-05 -0.000906646 4.05312e-06  0.000101417 -0.00384617 1.19209e-06  0.000142574 -0.00824997 -5.00679e-06  0.000127733 -0.0138265 -1.00136e-05  6.24061e-05 -0.0204374 -6.67572e-06  -6.96182e-05 -0.0280213 -6.19888e-06  -0.000266194 -0.0365013 9.53674e-07  -0.000536382 -0.0458215 4.76837e-07  -0.000874996 -0.0559105 6.67572e-06  -0.00127876 -0.0667122 1.45435e-05  -0.00174046 -0.0781468 1.35899e-05  -0.00226295 -0.0901613 1.52588e-05  -0.00284088 -0.102686 1.54972e-05  -0.00347292 -0.115682 1.81198e-05  -0.00415158 -0.129091 2.40803e-05  -0.00487566 -0.142855 2.57492e-05  -0.00564003 -0.156927 1.40667e-05  -0.00643253 -0.171278 2.16961e-05  -0.00725484 -0.185845 1.5974e-05  -0.00810456 -0.20061 1.78814e-05  -0.00897288 -0.215523 1.90735e-05  -0.00985765 -0.230556 1.45435e-05  -0.0107589 -0.245681 2.16961e-05  -0.0116704 -0.260871 1.19209e-05  -0.0125899 -0.276101 1.00136e-05  -0.0135083 -0.291343 8.58307e-06  -0.0144267 -0.306589 1.0252e-05  -0.0153506 -0.321819 7.62939e-06  -0.0162749 -0.337025 7.62939e-06  -0.0171928 -0.352183 9.77516e-06  -0.0181084 -0.367299 -1.19209e-06  -0.0190179 -0.382367 2.38419e-07  0 0 0  0.000686511 -0.00113976 0.000528097  0.00185311 -0.00421906 0.000837803  0.00313607 -0.00867808 0.000959635  0.00432968 -0.0142689 0.000966787  0.00538009 -0.020893 0.000926018  0.0062753 -0.0284966 0.000869036  0.00702566 -0.0369988 0.000810623  0.00763023 -0.0463445 0.000750065  0.0080961 -0.0564676 0.00069046  0.00843537 -0.0672975 0.000631332  0.008641 -0.078762 0.000581026  0.00873101 -0.0908032 0.000528336  0.00870788 -0.103373 0.00047946  0.00858152 -0.116402 0.00043869  0.00834846 -0.129836 0.000385284  0.0080235 -0.143624 0.000349045  0.00761962 -0.15773 0.000309229  0.00713372 -0.1721 0.000268698  0.00657964 -0.186692 0.000232697  0.00597048 -0.201466 0.000198603  0.00530553 -0.216398 0.000175476  0.00458932 -0.231443 0.000142813  0.00382876 -0.246579 0.000114679  0.00303435 -0.261768 9.10759e-05  0.00221324 -0.277 7.58171e-05  0.00135589 -0.292255 5.76973e-05  0.000487804 -0.307498 4.17233e-05  -0.000393391 -0.322732 2.31266e-05  -0.00128245 -0.33793 2.24113e-05  -0.00218821 -0.35309 7.15256e-06  -0.00309157 -0.368205 -3.57628e-06  -0.00400352 -0.383266 -2.38419e-06  0 0 0  0.00143448 -0.00178832 0.00102592  0.00380921 -0.00518548 0.0016427  0.00635788 -0.00968909 0.00188994  0.00873393 -0.015238 0.00191879  0.0108714 -0.0218225 0.00183868  0.0127764 -0.0293963 0.00172734  0.0144593 -0.0378974 0.001616  0.015929 -0.047245 0.00148702  0.0171906 -0.0573686 0.00137424  0.018268 -0.068203 0.0012536  0.0191383 -0.0796822 0.00114298  0.0198344 -0.0917278 0.00104046  0.0203594 -0.104307 0.000940323  0.0207307 -0.11734 0.000851154  0.0209442 -0.130783 0.000761032  0.0210116 -0.144581 0.000673056  0.0209572 -0.158686 0.000596046  0.0207894 -0.173061 0.000521898  0.0205019 -0.187656 0.000448465  0.0201218 -0.202435 0.000387669  0.0196466 -0.217357 0.000325203  0.0190959 -0.232402 0.00027585  0.0184646 -0.247537 0.000221729  0.0177839 -0.262728 0.00017333  0.0170412 -0.277956 0.000138998  0.0162616 -0.293196 0.000100613  0.0154459 -0.308445 7.36713e-05  0.0145955 -0.323667 4.41074e-05  0.0137246 -0.338854 2.81334e-05  0.012836 -0.354013 1.16825e-05  0.0119338 -0.36913 7.15256e-07  0.011044 -0.384202 -6.4373e-06  0 0 0  0.00247656 -0.00314349 0.00149441  0.00627923 -0.00684816 0.00239754  0.0100406 -0.0112606 0.0027771  0.0135193 -0.0167051 0.00283194  0.0167099 -0.023219 0.00274301  0.0196006 -0.0307384 0.00258589  0.0222066 -0.0392008 0.00240374  0.0245298 -0.0485103 0.00221753  0.0265764 -0.0586131 0.00204229  0.0283613 -0.0694304 0.00187254  0.0298945 -0.0808891 0.00170255  0.031185 -0.0929319 0.001544  0.0322495 -0.105492 0.00139928  0.033103 -0.118512 0.00126028  0.0337496 -0.131937 0.00111938  0.0342083 -0.145722 0.000999212  0.0344925 -0.159815 0.000880241  0.0346124 -0.17417 0.000763416  0.0345821 -0.188746 0.00066638  0.0344176 -0.203506 0.000561953  0.0341301 -0.218417 0.000475883  0.0337229 -0.233445 0.000398397  0.0332222 -0.248564 0.000323296  0.0326374 -0.263739 0.000254154  0.0319715 -0.278951 0.000202894  0.0312424 -0.29417 0.000147343  0.0304654 -0.309398 0.000103712  0.029634 -0.324612 7.39098e-05  0.0287764 -0.339799 4.05312e-05  0.0278938 -0.354944 2.40803e-05  0.0269957 -0.370055 2.38419e-07  0.0260949 -0.385132 -9.05991e-06  0 0 0  0.00481117 -0.0056746 0.00196862  0.00952297 -0.00911641 0.00314593  0.0142814 -0.0133181 0.00364614  0.0188197 -0.0186316 0.00373197  0.0230382 -0.0250347 0.00362229  0.0268984 -0.0324899 0.00342417  0.0304067 -0.0408835 0.00318456  0.0335709 -0.0501456 0.00294495  0.0363768 -0.0602041 0.00271344  0.0388671 -0.070972 0.0024817  0.0410354 -0.0823919 0.00225496  0.0429101 -0.0943938 0.00204515  0.0445001 -0.106921 0.00184774  0.0458134 -0.119899 0.00167012  0.0468804 -0.133287 0.00148368  0.0477066 -0.147038 0.00131774  0.0483103 -0.161091 0.00116348  0.0487003 -0.175417 0.00101137  0.0489118 -0.189958 0.00087142  0.0489492 -0.204681 0.000751734  0.0488207 -0.219565 0.000634193  0.0485539 -0.234562 0.000522137  0.0481627 -0.24964 0.000421286  0.0476482 -0.26479 0.000336647  0.0470486 -0.27997 0.00026083  0.0463405 -0.295171 0.000192165  0.0455761 -0.310379 0.000139952  0.0447509 -0.325568 8.9407e-05  0.0438859 -0.340729 5.29289e-05  0.0429943 -0.355876 3.05176e-05  0.0420783 -0.37097 1.43051e-05  0.041163 -0.386052 -1.40667e-05  0 0 0  -0.00490915 -0.00565359 -0.000946283  -0.00949822 -0.00907561 -0.001544  -0.0142267 -0.0131 -0.0018394  -0.018894 -0.0181116 -0.00191498  -0.0233627 -0.0241555 -0.00185609  -0.0275765 -0.0311959 -0.00175071  -0.0315328 -0.039162 -0.00162363  -0.0352529 -0.0479714 -0.00149202  -0.0387515 -0.0575672 -0.00136232  -0.0420244 -0.0678788 -0.00124955  -0.045091 -0.0788441 -0.00112081  -0.0479857 -0.0904185 -0.00101709  -0.0506932 -0.102518 -0.000914574  -0.0532365 -0.115114 -0.000818729  -0.055622 -0.128147 -0.000729561  -0.0578533 -0.141563 -0.000648737  -0.059932 -0.155317 -0.000561476  -0.0618837 -0.169363 -0.000489235  -0.0637009 -0.183658 -0.000424385  -0.0654006 -0.198178 -0.000359297  -0.0669785 -0.212879 -0.00029707  -0.0684485 -0.227715 -0.000249147  -0.0698318 -0.242672 -0.000196695  -0.071111 -0.257715 -0.000159979  -0.0723107 -0.272824 -0.000120163  -0.0734291 -0.287969 -9.15527e-05  -0.0744994 -0.303131 -6.62804e-05  -0.0755043 -0.318295 -3.43323e-05  -0.0764771 -0.333454 -3.05176e-05  -0.0774162 -0.348591 -1.14441e-05  -0.0783339 -0.363705 -1.3113e-05  -0.0792494 -0.378795 1.43051e-06  0 0 0  -0.0023625 -0.00307678 -0.000709057  -0.00604618 -0.00679512 -0.0011723  -0.00979206 -0.0111122 -0.00139308  -0.0133992 -0.0163779 -0.00144506  -0.0168178 -0.0226531 -0.00140595  -0.0200433 -0.0298988 -0.00131392  -0.0230983 -0.038048 -0.00121188  -0.0259843 -0.0470392 -0.00112009  -0.0287118 -0.0568062 -0.00101972  -0.0312994 -0.0672785 -0.000929832  -0.0337461 -0.0783993 -0.000839472  -0.0360643 -0.0901134 -0.000763655  -0.0382764 -0.102356 -0.000684977  -0.0403664 -0.115078 -0.000609636  -0.0423498 -0.128222 -0.000543594  -0.0442259 -0.14175 -0.000478506  -0.0460036 -0.155608 -0.000420332  -0.0476923 -0.169749 -0.000363827  -0.0492883 -0.184135 -0.000312805  -0.050797 -0.198733 -0.00026536  -0.0522246 -0.213493 -0.000220537  -0.053576 -0.228394 -0.000176668  -0.054852 -0.243408 -0.000150919  -0.0560651 -0.258501 -0.00011611  -0.0572217 -0.273637 -8.82149e-05  -0.0583162 -0.288816 -6.41346e-05  -0.0593712 -0.304005 -4.55379e-05  -0.0603852 -0.319189 -3.29018e-05  -0.0613542 -0.33436 -1.97887e-05  -0.0622993 -0.349498 -6.4373e-06  -0.0632403 -0.364612 0  -0.0641601 -0.379689 6.67572e-06  0 0 0  -0.00130818 -0.00176212 -0.000477076  -0.00352558 -0.00519112 -0.000798225  -0.00603724 -0.00968307 -0.000943184  -0.00849748 -0.0151578 -0.000974894  -0.0108412 -0.0216208 -0.000943899  -0.0130677 -0.0290266 -0.000884533  -0.0151845 -0.0373209 -0.000818014  -0.0172123 -0.0464514 -0.00074625  -0.0191579 -0.0563473 -0.000676632  -0.0210323 -0.0669466 -0.00061655  -0.0228264 -0.078192 -0.000559568  -0.0245606 -0.0900148 -0.000500917  -0.02624 -0.102366 -0.000457048  -0.0278583 -0.115196 -0.000399113  -0.0294211 -0.12844 -0.000361919  -0.0309259 -0.142054 -0.000314951  -0.0323715 -0.155995 -0.000274658  -0.033777 -0.170213 -0.000239372  -0.0351255 -0.184673 -0.000206709  -0.0364261 -0.199326 -0.000169277  -0.0376749 -0.214143 -0.000143051  -0.0388913 -0.229098 -0.000119686  -0.0400536 -0.244149 -9.56059e-05  -0.0411751 -0.259282 -7.31945e-05  -0.0422673 -0.274454 -5.98431e-05  -0.0433161 -0.289655 -4.14848e-05  -0.0443337 -0.304864 -3.17097e-05  -0.0453262 -0.320067 -1.54972e-05  -0.0462935 -0.33525 -9.05991e-06  -0.0472395 -0.350398 -3.33786e-06  -0.0481746 -0.365511 4.52995e-06  -0.0490949 -0.380587 9.77516e-06  0 0 0  -0.000583962 -0.00119886 -0.000236988  -0.00160259 -0.00436008 -0.000403643  -0.00282142 -0.00887412 -0.000484228  -0.00407124 -0.0144784 -0.000490665  -0.00528949 -0.0210692 -0.00047636  -0.00648296 -0.0285866 -0.000445843  -0.00764847 -0.0369897 -0.000409842  -0.00880134 -0.0462217 -0.000373602  -0.00993967 -0.0562152 -0.000342846  -0.0110784 -0.0669086 -0.000308752  -0.0122155 -0.0782399 -0.00027442  -0.013346 -0.0901514 -0.000242949  -0.0144793 -0.102592 -0.000222921  -0.0156133 -0.115497 -0.000202417  -0.0167319 -0.128816 -0.000173569  -0.0178528 -0.1425 -0.000154257  -0.0189579 -0.156509 -0.000131845  -0.0200605 -0.170776 -0.000115633  -0.0211525 -0.185285 -9.84669e-05  -0.0222263 -0.199993 -8.03471e-05  -0.023293 -0.214863 -6.55651e-05  -0.0243437 -0.22985 -5.79357e-05  -0.0253754 -0.244935 -4.45843e-05  -0.0263987 -0.260088 -3.45707e-05  -0.0274019 -0.275286 -2.31266e-05  -0.028393 -0.290511 -1.52588e-05  -0.0293629 -0.305737 -7.86781e-06  -0.0303249 -0.320952 -7.39098e-06  -0.0312662 -0.336139 1.19209e-06  -0.0322065 -0.351295 -2.38419e-07  -0.0331318 -0.366409 3.33786e-06  -0.0340526 -0.38147 5.00679e-06  0 0 0  3.78788e-05 -0.00107101 5.72205e-06  9.50098e-05 -0.00417015 -2.6226e-06  0.000120252 -0.00870362 -4.05312e-06  9.97186e-05 -0.014361 -3.33786e-06  3.23057e-05 -0.0210172 -2.6226e-06  -0.00010705 -0.0286067 -7.15256e-07  -0.000308514 -0.0370757 -1.90735e-06  -0.000574708 -0.0463663 1.19209e-06  -0.000917435 -0.0564201 1.90735e-06  -0.00131786 -0.0671732 6.4373e-06  -0.00177956 -0.0785669 5.96046e-06  -0.00230026 -0.090546 1.09673e-05  -0.00287378 -0.103044 1.07288e-05  -0.00350666 -0.116001 1.00136e-05  -0.0041858 -0.129369 1.33514e-05  -0.00490117 -0.143106 1.14441e-05  -0.00566363 -0.15715 1.00136e-05  -0.00645566 -0.171471 9.29832e-06  -0.00727582 -0.18602 1.07288e-05  -0.00812101 -0.200753 1.40667e-05  -0.00898719 -0.215643 1.16825e-05  -0.00986767 -0.230655 4.52995e-06  -0.0107696 -0.245762 7.62939e-06  -0.0116768 -0.260942 9.29832e-06  -0.0125942 -0.27616 3.57628e-06  -0.0135114 -0.291379 3.8147e-06  -0.0144315 -0.30662 -7.15256e-07  -0.0153551 -0.321837 2.6226e-06  -0.016279 -0.337036 1.90735e-06  -0.0171952 -0.352192 4.05312e-06  -0.01811 -0.367311 2.6226e-06  -0.0190246 -0.382372 8.82149e-06  0 0 0  0.000656992 -0.00130218 0.000243425  0.00178221 -0.00454867 0.000397682  0.00305822 -0.00913566 0.000472784  0.00426584 -0.0148134 0.000481367  0.00532794 -0.0214747 0.000462532  0.00624019 -0.0290751 0.000432968  0.00699896 -0.0375692 0.000408411  0.00761127 -0.0468884 0.000372887  0.00807953 -0.0569676 0.000341415  0.00841606 -0.0677607 0.000315189  0.00862396 -0.0791892 0.000292301  0.00872588 -0.0912005 0.000265121  0.00869453 -0.103729 0.000240088  0.00857139 -0.116716 0.00021553  0.00833988 -0.130116 0.000192642  0.00802374 -0.143885 0.000174046  0.00761771 -0.157957 0.000152588  0.00713539 -0.172291 0.00013876  0.00658512 -0.186858 0.000118971  0.00596857 -0.20161 0.000102282  0.00530124 -0.216519 8.58307e-05  0.00458622 -0.231543 6.86646e-05  0.00383067 -0.246658 5.84126e-05  0.00303411 -0.261838 4.86374e-05  0.00221229 -0.277056 3.60012e-05  0.00136113 -0.292295 2.59876e-05  0.000494242 -0.307535 2.38419e-05  -0.000384569 -0.322747 1.23978e-05  -0.00128031 -0.337944 5.72205e-06  -0.00217867 -0.353108 4.05312e-06  -0.00309229 -0.36822 6.4373e-06  -0.00399923 -0.383284 3.33786e-06  0 0 0  0.00137699 -0.00198376 0.00047183  0.00369316 -0.00556648 0.000787735  0.00623226 -0.0101875 0.000921965  0.00863451 -0.0158086 0.000951529  0.0108123 -0.0224248 0.000926495  0.0127459 -0.0299971 0.000863791  0.0144468 -0.0384659 0.000808239  0.0159223 -0.0477822 0.000743151  0.0171955 -0.0578696 0.000687122  0.0182669 -0.0686631 0.000624418  0.0191424 -0.0801023 0.000567913  0.0198454 -0.0921222 0.000516891  0.0203699 -0.104663 0.000466824  0.0207402 -0.117658 0.000428677  0.0209508 -0.13107 0.000385523  0.0210271 -0.144836 0.000336885  0.0209732 -0.158914 0.00029254  0.0208042 -0.173255 0.000261307  0.0205142 -0.187829 0.000225544  0.0201335 -0.202577 0.000195026  0.019654 -0.217483 0.000164509  0.019104 -0.232509 0.000133514  0.018486 -0.247623 0.000113487  0.0177963 -0.262795 8.91685e-05  0.0170588 -0.278006 6.93798e-05  0.0162737 -0.293232 6.19888e-05  0.0154543 -0.308469 3.83854e-05  0.0146036 -0.323685 2.76566e-05  0.0137329 -0.338874 1.78814e-05  0.012846 -0.354028 7.62939e-06  0.0119469 -0.369142 6.91414e-06  0.011055 -0.38421 -3.09944e-06  0 0 0  0.00242217 -0.00339377 0.000691891  0.00615677 -0.00730973 0.00114655  0.00989515 -0.0118365 0.00135779  0.0134088 -0.0173259 0.00141096  0.0166399 -0.0238379 0.00136924  0.019567 -0.0313385 0.00129223  0.0221922 -0.0397695 0.00120568  0.024526 -0.0490456 0.00111365  0.0265785 -0.0591231 0.00102139  0.0283687 -0.0698953 0.00093627  0.0299048 -0.0813153 0.00085783  0.0311999 -0.0933132 0.000772715  0.0322661 -0.105837 0.00069952  0.0331143 -0.118818 0.00063467  0.0337683 -0.132219 0.000562191  0.0342286 -0.145973 0.000498295  0.0345073 -0.160037 0.000440121  0.0346258 -0.174362 0.000388861  0.0346031 -0.188922 0.000328541  0.0344291 -0.20365 0.000282764  0.034143 -0.218542 0.000241041  0.0337465 -0.233548 0.000197172  0.0332389 -0.248645 0.000159502  0.032649 -0.263798 0.000134945  0.0319891 -0.278998 0.000104904  0.0312607 -0.294216 7.41482e-05  0.0304711 -0.309432 5.03063e-05  0.0296464 -0.324633 3.26633e-05  0.0287893 -0.339815 1.78814e-05  0.0279112 -0.354956 9.29832e-06  0.0270107 -0.370062 1.00136e-05  0.0261159 -0.385146 -7.62939e-06  0 0 0  0.00486685 -0.00602674 0.000907898  0.00947973 -0.00967288 0.00149775  0.014156 -0.0139682 0.00177407  0.0186973 -0.0192922 0.00184965  0.0229499 -0.0256944 0.00180888  0.026838 -0.0330998 0.00171041  0.0303761 -0.0414598 0.00159788  0.0335407 -0.0506895 0.00147724  0.0363686 -0.0606894 0.00135541  0.0388627 -0.0714306 0.00124383  0.0410358 -0.0828108 0.0011332  0.0428948 -0.0947675 0.00102425  0.0444893 -0.107259 0.000927448  0.0458108 -0.120207 0.000831842  0.0468793 -0.13357 0.000747919  0.0477059 -0.14728 0.000661373  0.0483041 -0.161307 0.000586271  0.0487089 -0.175605 0.00050211  0.0489135 -0.190121 0.000437737  0.048959 -0.20483 0.000373363  0.0488322 -0.219678 0.000320673  0.0485547 -0.234661 0.000254154  0.0481687 -0.249719 0.000209808  0.047648 -0.264854 0.000166178  0.0470483 -0.280023 0.000130653  0.0463548 -0.295205 9.60827e-05  0.0455823 -0.310403 7.79629e-05  0.0447619 -0.325588 4.33922e-05  0.0438981 -0.340746 3.26633e-05  0.0430064 -0.355879 1.85966e-05  0.0420923 -0.370988 3.09944e-06  0.0411935 -0.38607 -8.82149e-06  0 0 0  -0.00494375 -0.00576835 -9.53674e-07  -0.00951447 -0.0092581 3.09944e-06  -0.014213 -0.0133168 2.86102e-06  -0.0188752 -0.0183393 6.19888e-06  -0.0233493 -0.0243815 1.19209e-06  -0.0275725 -0.0314127 -1.19209e-06  -0.0315443 -0.0393533 -3.8147e-06  -0.0352666 -0.0481519 -7.86781e-06  -0.0387628 -0.0577374 -1.66893e-06  -0.0420306 -0.0680334 -1.90735e-06  -0.0451152 -0.0789952 -3.8147e-06  -0.0480067 -0.0905482 4.76837e-06  -0.0507115 -0.102636 1.66893e-06  -0.0532495 -0.115221 -1.43051e-06  -0.0556396 -0.128234 2.38419e-06  -0.0578563 -0.141639 -8.10623e-06  -0.0599542 -0.155384 -4.76837e-07  -0.0619032 -0.169426 2.6226e-06  -0.0637143 -0.183714 1.19209e-06  -0.0654008 -0.198216 -3.8147e-06  -0.0669866 -0.21291 -2.86102e-06  -0.0684574 -0.227751 -2.86102e-06  -0.0698376 -0.242698 -4.76837e-07  -0.0711174 -0.257735 4.52995e-06  -0.0723145 -0.272843 7.15256e-07  -0.0734479 -0.287988 4.76837e-07  -0.0745063 -0.30314 7.15256e-07  -0.0755126 -0.318309 -2.38419e-07  -0.0764771 -0.333467 -1.66893e-06  -0.0774162 -0.348587 -1.66893e-06  -0.0783329 -0.3637 9.53674e-07  -0.0792506 -0.378794 -9.05991e-06  0 0 0  -0.00234754 -0.0031611 0  -0.00601862 -0.00695287 2.38419e-07  -0.00976026 -0.0113093 4.76837e-07  -0.013375 -0.0165904 2.14577e-06  -0.0168064 -0.0228707 -4.76837e-07  -0.020054 -0.0301027 9.53674e-07  -0.0231146 -0.0382441 2.38419e-06  -0.0260069 -0.0472216 2.38419e-07  -0.0287368 -0.0569715 -2.38419e-06  -0.0313222 -0.0674336 7.15256e-07  -0.0337698 -0.0785412 -4.76837e-07  -0.0360962 -0.0902376 4.76837e-07  -0.0382973 -0.102471 2.38419e-07  -0.0403906 -0.11518 6.19888e-06  -0.0423666 -0.128321 -1.19209e-06  -0.0442433 -0.141826 2.6226e-06  -0.0460279 -0.155674 -6.4373e-06  -0.0477095 -0.169811 -4.29153e-06  -0.0493016 -0.184189 2.6226e-06  -0.0508094 -0.198782 -3.33786e-06  -0.052233 -0.213539 4.29153e-06  -0.0535843 -0.228428 1.19209e-06  -0.054862 -0.243435 2.38419e-07  -0.056073 -0.258514 1.43051e-06  -0.0572288 -0.273656 4.05312e-06  -0.0583255 -0.288828 -1.66893e-06  -0.0593727 -0.304015 8.34465e-06  -0.0603828 -0.3192 -3.09944e-06  -0.0613675 -0.334366 2.38419e-07  -0.0623097 -0.349502 -1.43051e-06  -0.0632436 -0.364612 -4.76837e-07  -0.0641587 -0.379698 7.15256e-07  0 0 0  -0.00129542 -0.0018291 2.14577e-06  -0.00350071 -0.00531778 -2.38419e-07  -0.00600696 -0.00984567 6.4373e-06  -0.0084846 -0.0153516 1.43051e-06  -0.0108404 -0.0218176 -2.6226e-06  -0.0130783 -0.0292272 7.15256e-07  -0.0152067 -0.0375174 1.90735e-06  -0.0172348 -0.0466294 -2.38419e-06  -0.0191873 -0.0565104 3.09944e-06  -0.0210556 -0.0671017 -2.14577e-06  -0.0228539 -0.078336 2.38419e-07  -0.0245944 -0.0901468 -4.52995e-06  -0.0262694 -0.102485 2.14577e-06  -0.0278797 -0.1153 -3.57628e-06  -0.0294373 -0.128534 -3.09944e-06  -0.0309432 -0.142141 -2.14577e-06  -0.0323932 -0.156066 1.66893e-06  -0.0337937 -0.170274 -3.09944e-06  -0.0351386 -0.184723 4.76837e-06  -0.0364411 -0.199371 -2.38419e-06  -0.0376911 -0.214185 9.53674e-07  -0.0388997 -0.229129 -2.14577e-06  -0.0400627 -0.244178 -9.53674e-07  -0.0411854 -0.259305 -1.43051e-06  -0.042268 -0.274469 -3.09944e-06  -0.0433207 -0.289666 6.67572e-06  -0.044338 -0.304874 2.38419e-07  -0.0453274 -0.320075 4.76837e-07  -0.0462952 -0.335255 4.76837e-07  -0.0472405 -0.350401 1.90735e-06  -0.0481675 -0.365516 -2.38419e-07  -0.0490992 -0.380587 1.66893e-06  0 0 0  -0.000582382 -0.00124833 9.53674e-07  -0.00159189 -0.00446022 0  -0.00281116 -0.00902846 -1.19209e-06  -0.00406584 -0.0146544 -2.86102e-06  -0.00529909 -0.0212553 -2.86102e-06  -0.00648856 -0.0287832 4.76837e-06  -0.00766593 -0.0371769 3.57628e-06  -0.00881982 -0.0463982 2.86102e-06  -0.00996387 -0.0563796 -4.05312e-06  -0.0111096 -0.0670588 5.96046e-06  -0.0122353 -0.0783785 -6.91414e-06  -0.0133699 -0.0902787 -5.48363e-06  -0.0145071 -0.10271 -9.53674e-07  -0.0156305 -0.115602 3.33786e-06  -0.0167471 -0.128911 -1.43051e-06  -0.0178666 -0.142585 -3.09944e-06  -0.0189781 -0.156582 2.38419e-06  -0.0200787 -0.170842 3.8147e-06  -0.0211618 -0.185343 3.09944e-06  -0.0222418 -0.200044 -3.33786e-06  -0.023298 -0.214902 -4.76837e-07  -0.0243473 -0.229879 -4.76837e-06  -0.025382 -0.244961 9.53674e-07  -0.0264065 -0.260112 -3.09944e-06  -0.0274079 -0.275307 -3.09944e-06  -0.0283968 -0.29052 3.8147e-06  -0.0293682 -0.305744 0  -0.0303199 -0.320959 -4.05312e-06  -0.0312705 -0.336143 1.90735e-06  -0.0322003 -0.351295 3.57628e-06  -0.033134 -0.36641 -4.05312e-06  -0.0340464 -0.381473 -5.96046e-06  0 0 0  3.63737e-05 -0.00111741 0  8.76486e-05 -0.00426066 2.38419e-07  0.000115842 -0.00884569 -2.6226e-06  9.77516e-05 -0.0145334 -5.00679e-06  2.43783e-05 -0.021201 2.38419e-07  -0.000120163 -0.0287909 -2.6226e-06  -0.000323951 -0.0372559 -7.15256e-07  -0.000587821 -0.0465407 -7.15256e-07  -0.000930667 -0.056589 3.09944e-06  -0.00132871 -0.0673333 -2.38419e-07  -0.00178909 -0.0787135 -5.24521e-06  -0.00231981 -0.0906778 3.33786e-06  -0.00289536 -0.103155 -1.66893e-06  -0.00352383 -0.116108 -3.8147e-06  -0.00419176 -0.129466 -3.57628e-06  -0.00491142 -0.143187 -1.43051e-06  -0.00567102 -0.157223 4.52995e-06  -0.00646114 -0.171535 -1.66893e-06  -0.00727749 -0.186074 -1.90735e-06  -0.0081315 -0.200801 7.15256e-07  -0.00899291 -0.215687 -2.14577e-06  -0.00987911 -0.230695 -2.14577e-06  -0.0107691 -0.245788 -1.66893e-06  -0.0116787 -0.260958 4.52995e-06  -0.0125973 -0.27617 0  -0.0135133 -0.291404 -4.29153e-06  -0.0144346 -0.306627 -1.19209e-06  -0.015357 -0.321849 4.76837e-06  -0.0162733 -0.337042 5.48363e-06  -0.0171947 -0.352201 1.66893e-06  -0.0181048 -0.367316 -4.29153e-06  -0.019017 -0.382369 3.57628e-06  0 0 0  0.000651792 -0.00135654 7.15256e-07  0.00176334 -0.00465751 -4.76837e-07  0.00303242 -0.00928444 -2.6226e-06  0.00424367 -0.0149819 7.15256e-07  0.0053162 -0.0216607 1.66893e-06  0.00622827 -0.0292656 0  0.0069868 -0.0377476 3.09944e-06  0.00760496 -0.0470604 -3.8147e-06  0.00807595 -0.0571379 -6.4373e-06  0.0084101 -0.0679185 2.14577e-06  0.00862277 -0.0793349 -1.90735e-06  0.00871551 -0.0913329 -2.38419e-07  0.00869668 -0.103843 7.15256e-07  0.00855839 -0.116825 9.53674e-07  0.00832927 -0.130214 7.15256e-07  0.00801563 -0.143961 3.09944e-06  0.00761604 -0.158027 -4.76837e-06  0.00713348 -0.172358 9.53674e-07  0.00658369 -0.186918 -3.09944e-06  0.00597119 -0.201665 2.38419e-06  0.00530005 -0.216561 7.15256e-07  0.00458622 -0.231579 -2.6226e-06  0.00382948 -0.246691 -9.53674e-07  0.00303721 -0.261862 -7.62939e-06  0.0022099 -0.277074 -1.90735e-06  0.0013597 -0.292311 -2.14577e-06  0.000498295 -0.307541 3.8147e-06  -0.000386715 -0.322764 -1.90735e-06  -0.0012815 -0.337952 4.76837e-07  -0.00218439 -0.353112 3.33786e-06  -0.00308681 -0.368226 2.14577e-06  -0.00398612 -0.383288 -2.38419e-06  0 0 0  0.00136709 -0.00203902 2.14577e-06  0.00366285 -0.00568187 1.90735e-06  0.00619319 -0.0103472 -7.15256e-07  0.0086056 -0.0159899 -3.57628e-06  0.010789 -0.0226097 -7.15256e-07  0.0127302 -0.0301849 2.38419e-06  0.0144398 -0.038656 -1.43051e-06  0.0159254 -0.0479622 -7.15256e-07  0.0171911 -0.0580329 1.43051e-06  0.0182655 -0.0688224 0  0.019146 -0.0802469 3.57628e-06  0.019839 -0.0922548 -2.38419e-06  0.0203665 -0.10478 1.90735e-06  0.0207458 -0.11777 0  0.0209572 -0.131164 3.09944e-06  0.0210278 -0.144924 0  0.0209746 -0.158989 -2.38419e-07  0.0207999 -0.17332 1.66893e-06  0.0205221 -0.187884 7.15256e-07  0.0201313 -0.202629 -3.09944e-06  0.0196617 -0.217525 -3.8147e-06  0.0191028 -0.232546 -4.76837e-06  0.0184827 -0.247652 -1.90735e-06  0.0177996 -0.262823 -3.09944e-06  0.0170541 -0.278025 -2.38419e-06  0.0162716 -0.293252 7.39098e-06  0.0154603 -0.308475 0  0.014607 -0.323696 1.43051e-06  0.0137331 -0.338878 -3.33786e-06  0.012845 -0.354035 -3.33786e-06  0.0119522 -0.369149 3.33786e-06  0.0110517 -0.384216 -2.86102e-06  0 0 0  0.00241524 -0.00346637 -1.90735e-06  0.00612512 -0.00745469 -1.19209e-06  0.00985497 -0.0120162 -1.66893e-06  0.0133711 -0.017516 6.19888e-06  0.0166088 -0.0240318 -1.43051e-06  0.0195445 -0.0315431 4.76837e-06  0.0221812 -0.0399608 -2.14577e-06  0.0245217 -0.0492316 -2.86102e-06  0.026581 -0.0592815 -4.05312e-06  0.0283662 -0.070047 2.38419e-07  0.0299073 -0.0814578 3.8147e-06  0.0311992 -0.0934476 7.15256e-07  0.0322647 -0.105959 -3.33786e-06  0.0331217 -0.118929 -2.38419e-07  0.033765 -0.132314 -2.38419e-07  0.0342264 -0.146058 4.76837e-07  0.0345113 -0.160107 1.66893e-06  0.0346303 -0.174431 -1.66893e-06  0.0345998 -0.188972 3.09944e-06  0.0344324 -0.203701 9.53674e-07  0.0341449 -0.218581 -5.24521e-06  0.0337481 -0.233585 1.43051e-06  0.0332444 -0.248668 3.33786e-06  0.0326593 -0.263823 2.38419e-06  0.0319905 -0.279016 -4.05312e-06  0.031255 -0.294229 7.15256e-07  0.0304799 -0.309442 0  0.02965 -0.324638 2.14577e-06  0.0287888 -0.339819 -1.66893e-06  0.0279074 -0.354962 -9.53674e-07  0.027009 -0.370067 9.53674e-07  0.0261102 -0.385154 8.58307e-06  0 0 0  0.00488304 -0.00613189 5.72205e-06  0.00946939 -0.00984722 -1.43051e-06  0.0141208 -0.0141827 -3.09944e-06  0.0186645 -0.0195146 3.09944e-06  0.0229065 -0.0259019 2.14577e-06  0.0268117 -0.0333014 -9.53674e-07  0.0303565 -0.0416601 -3.8147e-06  0.0335299 -0.0508655 -7.39098e-06  0.0363573 -0.0608673 9.53674e-07  0.038851 -0.0715829 -2.14577e-06  0.0410326 -0.0829426 4.05312e-06  0.0428972 -0.0948989 -4.05312e-06  0.0444872 -0.10737 -2.38419e-07  0.04581 -0.12031 -4.52995e-06  0.0468742 -0.133658 5.24521e-06  0.0476992 -0.147371 2.38419e-06  0.0483053 -0.161386 -2.38419e-07  0.0487032 -0.175659 -1.19209e-06  0.0489125 -0.19018 -4.76837e-06  0.0489604 -0.204877 -2.38419e-07  0.0488257 -0.219726 -5.48363e-06  0.0485611 -0.234693 -7.62939e-06  0.0481672 -0.249747 -2.38419e-07  0.0476487 -0.264868 2.38419e-07  0.0470476 -0.28004 1.21593e-05  0.0463533 -0.295223 -5.00679e-06  0.0455916 -0.310415 2.38419e-07  0.0447705 -0.325589 -5.72205e-06  0.043906 -0.340751 2.38419e-07  0.0429986 -0.355888 1.19209e-06  0.0420949 -0.370992 -1.90735e-06  0.0411901 -0.386074 -9.05991e-06  0 0 0  -0.0049042 -0.00565908 0.000949383  -0.00949989 -0.00907707 0.00155067  -0.0142277 -0.0130969 0.00184107  -0.0188953 -0.0181077 0.00190496  -0.0233585 -0.0241546 0.00185585  -0.0275868 -0.0311937 0.00174618  -0.0315409 -0.0391538 0.00162172  -0.0352539 -0.0479641 0.00149488  -0.0387477 -0.057567 0.0013628  -0.0420128 -0.0678787 0.00124168  -0.0450903 -0.0788458 0.00112963  -0.0479825 -0.0904177 0.00101471  -0.0506947 -0.102527 0.000923634  -0.0532422 -0.11512 0.000822544  -0.0556185 -0.128146 0.000726223  -0.0578575 -0.141564 0.000645161  -0.0599349 -0.155309 0.000561237  -0.0618818 -0.169364 0.00049305  -0.0637059 -0.183663 0.000426292  -0.0653963 -0.198178 0.000363827  -0.0669832 -0.21287 0.00029707  -0.068455 -0.227719 0.000236034  -0.069818 -0.242671 0.000188351  -0.0711112 -0.257713 0.000152111  -0.0723128 -0.272823 0.000113964  -0.0734327 -0.28797 8.63075e-05  -0.0745029 -0.303124 6.34193e-05  -0.0755143 -0.318305 5.10216e-05  -0.0764754 -0.333449 2.57492e-05  -0.0774081 -0.348592 1.66893e-05  -0.0783319 -0.363702 1.09673e-05  -0.0792367 -0.37878 -3.33786e-06  0 0 0  -0.00236066 -0.00308218 0.000705719  -0.00604375 -0.00679816 0.00117731  -0.00978813 -0.0111117 0.00139427  -0.0133891 -0.0163768 0.00145054  -0.0168156 -0.022654 0.00140285  -0.0200511 -0.029898 0.00132036  -0.0231005 -0.0380455 0.00122452  -0.0259832 -0.0470402 0.00111771  -0.0287116 -0.0568053 0.00102282  -0.0312923 -0.067278 0.000923157  -0.0337431 -0.0784005 0.000839233  -0.0360676 -0.0901116 0.000760555  -0.0382756 -0.102355 0.00067997  -0.0403613 -0.115077 0.000607967  -0.0423441 -0.128222 0.00053978  -0.0442275 -0.14175 0.000479221  -0.0460079 -0.155601 0.000419617  -0.0476842 -0.169743 0.000367641  -0.0492823 -0.184129 0.000310421  -0.0507951 -0.198728 0.000267029  -0.0522254 -0.213492 0.000222683  -0.053571 -0.228395 0.000181675  -0.0548565 -0.243404 0.000145435  -0.0560701 -0.258495 0.000114441  -0.0572197 -0.273644 8.58307e-05  -0.0583155 -0.288816 6.05583e-05  -0.0593693 -0.304004 4.62532e-05  -0.0603812 -0.319194 2.86102e-05  -0.0613558 -0.334363 1.43051e-05  -0.0623078 -0.349503 6.67572e-06  -0.0632343 -0.364608 4.76837e-07  -0.0641577 -0.379695 -9.53674e-06  0 0 0  -0.00131226 -0.00176403 0.000481129  -0.00352356 -0.00518745 0.000795364  -0.00603604 -0.0096783 0.000945091  -0.00850376 -0.0151566 0.000976086  -0.010843 -0.0216137 0.000946522  -0.0130712 -0.0290221 0.000890255  -0.0151837 -0.037323 0.000814438  -0.0172101 -0.0464539 0.000742435  -0.0191504 -0.0563496 0.000680447  -0.0210209 -0.0669492 0.000620365  -0.0228323 -0.0781898 0.000559807  -0.0245631 -0.0900144 0.00050354  -0.0262445 -0.102373 0.000451088  -0.0278515 -0.115196 0.000401974  -0.0294223 -0.128439 0.000351906  -0.030921 -0.142055 0.00031805  -0.0323756 -0.155995 0.000276089  -0.0337758 -0.170213 0.000243664  -0.0351272 -0.184667 0.000207424  -0.036432 -0.199327 0.000173569  -0.0376699 -0.214151 0.000147343  -0.0388906 -0.229099 0.000115871  -0.0400505 -0.24415 9.91821e-05  -0.0411756 -0.25928 7.67708e-05  -0.0422626 -0.274456 5.91278e-05  -0.0433156 -0.28965 3.8147e-05  -0.0443282 -0.304868 2.90871e-05  -0.0453188 -0.32007 1.71661e-05  -0.0462921 -0.33525 9.05991e-06  -0.047236 -0.3504 9.53674e-07  -0.0481696 -0.36551 -9.53674e-07  -0.0490928 -0.380585 -9.53674e-06  0 0 0  -0.000585914 -0.00119591 0.000237465  -0.00160068 -0.00436231 0.000404835  -0.00282025 -0.00886789 0.000476837  -0.00407219 -0.0144745 0.000492096  -0.00529349 -0.0210663 0.000473976  -0.00647575 -0.0285888 0.000450611  -0.00764358 -0.036994 0.00041008  -0.00880164 -0.0462227 0.000372887  -0.00994885 -0.0562158 0.000339508  -0.011078 -0.0669077 0.000304222  -0.0122199 -0.0782402 0.000275135  -0.0133538 -0.0901526 0.000246048  -0.0144838 -0.102592 0.000220299  -0.0156139 -0.115497 0.000193596  -0.0167356 -0.128814 0.000167847  -0.0178492 -0.142499 0.000146389  -0.0189531 -0.156502 0.000135422  -0.0200613 -0.170778 0.000120163  -0.0211518 -0.185293 9.87053e-05  -0.0222285 -0.199993 8.01086e-05  -0.0232935 -0.214858 6.96182e-05  -0.0243378 -0.229849 5.00679e-05  -0.0253763 -0.244939 4.19617e-05  -0.0263948 -0.260088 3.48091e-05  -0.0274017 -0.275291 2.43187e-05  -0.0283866 -0.29051 2.00272e-05  -0.0293663 -0.305729 1.00136e-05  -0.0303206 -0.320947 2.86102e-06  -0.0312707 -0.336141 1.90735e-06  -0.0322044 -0.351291 4.76837e-06  -0.0331287 -0.366405 -7.15256e-06  -0.0340481 -0.381465 -1.04904e-05  0 0 0  3.59118e-05 -0.00107193 1.90735e-06  8.98242e-05 -0.00416499 -2.38419e-06  0.000121713 -0.00869945 1.19209e-05  0.000105798 -0.0143641 5.72205e-06  3.12328e-05 -0.0210135 7.62939e-06  -0.000104725 -0.0286074 1.90735e-06  -0.000310719 -0.0370706 4.76837e-07  -0.000577271 -0.0463647 -4.76837e-06  -0.000914574 -0.0564184 -4.76837e-06  -0.00132143 -0.0671745 -1.4782e-05  -0.0017786 -0.0785728 -9.05991e-06  -0.00230384 -0.0905399 -1.00136e-05  -0.0028832 -0.103035 -1.04904e-05  -0.00351191 -0.115997 -1.19209e-05  -0.00418818 -0.129369 -1.23978e-05  -0.00490475 -0.143105 -9.05991e-06  -0.00565624 -0.157154 -1.09673e-05  -0.00645423 -0.171469 -8.58307e-06  -0.00727844 -0.186015 -9.05991e-06  -0.00812292 -0.200752 -1.09673e-05  -0.008991 -0.215643 -9.05991e-06  -0.0098722 -0.230661 -5.72205e-06  -0.0107679 -0.245765 -1.04904e-05  -0.0116787 -0.260939 -9.53674e-06  -0.0125928 -0.276149 -7.62939e-06  -0.0135119 -0.291384 -2.38419e-06  -0.0144298 -0.306624 -3.33786e-06  -0.0153522 -0.321844 0  -0.0162742 -0.337033 -4.76837e-06  -0.0171938 -0.352197 3.8147e-06  -0.018105 -0.36731 2.86102e-06  -0.019016 -0.382372 2.86102e-06  0 0 0  0.000653356 -0.00130707 -0.000239372  0.00178483 -0.0045526 -0.000400066  0.00305209 -0.00914139 -0.000470638  0.00426602 -0.0148084 -0.000481129  0.00532973 -0.0214721 -0.000469208  0.0062446 -0.0290769 -0.000431538  0.00699931 -0.0375656 -0.000409603  0.00760972 -0.0468826 -0.000375271  0.00807822 -0.0569699 -0.000344753  0.00841713 -0.06776 -0.000314713  0.00863063 -0.0791903 -0.00028944  0.0087167 -0.0911989 -0.00026989  0.00869298 -0.103728 -0.000236988  0.00856268 -0.116722 -0.000223637  0.00833964 -0.130122 -0.000195503  0.00801563 -0.143881 -0.000174999  0.00761437 -0.157955 -0.000154018  0.00713944 -0.172296 -0.000131607  0.00657892 -0.186861 -0.00012064  0.00597191 -0.201609 -0.000100613  0.0053041 -0.216519 -8.39233e-05  0.00459003 -0.231548 -6.77109e-05  0.00383043 -0.24666 -6.19888e-05  0.00303459 -0.261838 -5.00679e-05  0.00221348 -0.27706 -3.14713e-05  0.00136185 -0.2923 -3.09944e-05  0.000501156 -0.307538 -2.43187e-05  -0.000388861 -0.322758 -1.28746e-05  -0.00128317 -0.337944 -8.10623e-06  -0.00218201 -0.353109 -9.53674e-07  -0.00308537 -0.368222 2.38419e-06  -0.00398517 -0.383283 9.53674e-07  0 0 0  0.00138532 -0.0019806 -0.000477314  0.00368959 -0.00556666 -0.000777721  0.00623411 -0.0101976 -0.000922203  0.00863254 -0.0158105 -0.000955105  0.0108084 -0.0224242 -0.000923157  0.0127471 -0.0299881 -0.00086689  0.0144406 -0.0384645 -0.00080204  0.0159311 -0.0477806 -0.000750065  0.0171967 -0.0578699 -0.00068903  0.0182676 -0.0686695 -0.000632763  0.0191466 -0.0801032 -0.000569344  0.0198368 -0.092124 -0.000515938  0.0203669 -0.104664 -0.000471115  0.0207368 -0.117663 -0.000425816  0.0209547 -0.131064 -0.000379562  0.0210261 -0.144839 -0.00033617  0.0209744 -0.158915 -0.0002985  0.0207999 -0.173256 -0.000259399  0.0205116 -0.187825 -0.000222206  0.0201313 -0.202582 -0.000189781  0.0196571 -0.217484 -0.000164032  0.0191052 -0.232507 -0.000134468  0.0184786 -0.24762 -0.00011158  0.0177894 -0.262796 -9.05991e-05  0.0170472 -0.278007 -6.86646e-05  0.0162773 -0.293239 -5.05447e-05  0.0154545 -0.30847 -3.48091e-05  0.0146048 -0.323684 -2.86102e-05  0.0137308 -0.338875 -1.14441e-05  0.0128398 -0.354026 -3.8147e-06  0.0119455 -0.369144 2.38419e-06  0.0110474 -0.38421 2.38419e-06  0 0 0  0.00242384 -0.00339472 -0.000696659  0.00616458 -0.00731194 -0.00114012  0.00989288 -0.0118328 -0.00135803  0.0134093 -0.0173249 -0.00140762  0.0166411 -0.0238366 -0.00136995  0.019567 -0.0313394 -0.00129461  0.0221895 -0.0397714 -0.00120211  0.0245233 -0.0490484 -0.00111389  0.0265824 -0.0591133 -0.00102139  0.0283701 -0.069892 -0.000932693  0.0299121 -0.0813159 -0.000852108  0.0312002 -0.0933191 -0.000772476  0.0322669 -0.105841 -0.000701904  0.0331172 -0.118825 -0.000631332  0.0337609 -0.132217 -0.000562191  0.034224 -0.145974 -0.000498772  0.0345132 -0.160036 -0.00043869  0.0346305 -0.17436 -0.00038147  0.034601 -0.188914 -0.000330448  0.0344365 -0.203654 -0.000281811  0.0341456 -0.218541 -0.000240326  0.0337341 -0.233552 -0.00020504  0.0332427 -0.248643 -0.000162125  0.0326486 -0.263801 -0.000127316  0.0319791 -0.279002 -9.77516e-05  0.0312541 -0.294212 -7.20024e-05  0.0304739 -0.309433 -4.86374e-05  0.0296485 -0.324636 -3.43323e-05  0.0287862 -0.339813 -2.09808e-05  0.0279028 -0.354954 -1.09673e-05  0.0270133 -0.370063 -6.19888e-06  0.0261021 -0.385148 1.23978e-05  0 0 0  0.00486502 -0.00602233 -0.000921726  0.0094755 -0.00967002 -0.00149822  0.0141557 -0.0139745 -0.00177908  0.0186978 -0.0192938 -0.0018487  0.0229496 -0.0256891 -0.00180101  0.026844 -0.0331029 -0.00171232  0.0303794 -0.0414644 -0.00159025  0.033548 -0.0506846 -0.00147629  0.0363616 -0.0606941 -0.00135136  0.0388544 -0.0714312 -0.00123978  0.0410373 -0.0828125 -0.00113773  0.0429113 -0.094772 -0.00102758  0.0444899 -0.107254 -0.000930786  0.0458149 -0.120209 -0.000835419  0.046868 -0.133561 -0.000742435  0.0477064 -0.147282 -0.000659943  0.0483074 -0.161322 -0.000587463  0.0487101 -0.175604 -0.000505447  0.0489154 -0.190121 -0.000442982  0.048955 -0.204823 -0.000375748  0.0488265 -0.219681 -0.000308514  0.0485625 -0.234656 -0.000261307  0.0481606 -0.249719 -0.000206947  0.0476503 -0.264854 -0.000164032  0.0470417 -0.280021 -0.000130177  0.0463591 -0.295211 -0.000105858  0.0455844 -0.310407 -7.15256e-05  0.0447726 -0.325583 -4.72069e-05  0.0438957 -0.340745 -2.6226e-05  0.0429952 -0.35588 -2.00272e-05  0.0420902 -0.37099 -5.24521e-06  0.0411839 -0.386072 2.38419e-06  0 0 0  -0.00481242 -0.00530157 0.00203657  -0.00950456 -0.00847929 0.00325537  -0.01429 -0.0124043 0.00377941  -0.0189596 -0.0173952 0.00386381  -0.0233877 -0.0234624 0.00371933  -0.0275753 -0.030547 0.00349951  -0.0315064 -0.0385547 0.00322962  -0.0352046 -0.0474115 0.00296783  -0.0386727 -0.0570548 0.00271797  -0.0419499 -0.0674112 0.00247383  -0.0450293 -0.0784233 0.00224972  -0.047914 -0.0900366 0.00202799  -0.0506257 -0.102183 0.0018239  -0.0531789 -0.114814 0.00163078  -0.0555639 -0.127871 0.00145197  -0.0577995 -0.141318 0.00128603  -0.059895 -0.155103 0.00112629  -0.0618451 -0.169181 0.000977993  -0.0636656 -0.1835 0.00083971  -0.0653703 -0.198041 0.000705719  -0.0669465 -0.212766 0.000592232  -0.0684264 -0.227626 0.000490189  -0.069803 -0.242597 0.000396729  -0.0710876 -0.25766 0.00030899  -0.0722976 -0.272776 0.000229359  -0.073422 -0.287931 0.000179768  -0.0744867 -0.303104 0.000117302  -0.0755022 -0.318287 7.43866e-05  -0.076468 -0.333451 4.76837e-05  -0.0773995 -0.348577 1.90735e-05  -0.07831 -0.363689 5.24521e-06  -0.0792372 -0.378784 -5.72205e-06  0 0 0  -0.00239778 -0.00280996 0.00152159  -0.00613894 -0.00630806 0.00245428  -0.00988841 -0.0105055 0.00285435  -0.0134521 -0.0157263 0.00291014  -0.0168173 -0.022003 0.00279808  -0.0200109 -0.0292715 0.00262308  -0.0230349 -0.0374593 0.00242949  -0.0258995 -0.0464904 0.00223207  -0.0286208 -0.0562972 0.00203466  -0.031197 -0.0668139 0.00185251  -0.0336545 -0.0779795 0.00167561  -0.0359814 -0.0897309 0.00151062  -0.0381893 -0.102013 0.00135946  -0.0402857 -0.114765 0.00122023  -0.0422695 -0.127951 0.0010848  -0.0441561 -0.141507 0.000953197  -0.0459349 -0.155396 0.000836372  -0.0476315 -0.169561 0.0007267  -0.0492306 -0.183973 0.000622749  -0.0507424 -0.198595 0.000530243  -0.052186 -0.213376 0.000443935  -0.053539 -0.228301 0.000365257  -0.0548151 -0.243326 0.000296116  -0.05604 -0.258435 0.000234127  -0.0571942 -0.273593 0.000173569  -0.0582991 -0.288779 0.000130177  -0.0593522 -0.303982 9.10759e-05  -0.0603683 -0.319173 5.8651e-05  -0.0613425 -0.334348 3.62396e-05  -0.0622959 -0.349492 1.62125e-05  -0.0632248 -0.364601 -2.38419e-06  -0.064158 -0.379679 -1.4782e-05  0 0 0  -0.0013527 -0.00155881 0.0010376  -0.00361834 -0.00479072 0.00167179  -0.00612292 -0.00915401 0.00193167  -0.0085443 -0.0145603 0.00196218  -0.0108358 -0.0209978 0.00188398  -0.0130269 -0.0284177 0.00176096  -0.0151182 -0.0367476 0.00162363  -0.017135 -0.0459064 0.00149059  -0.0190663 -0.0558413 0.00136089  -0.0209334 -0.0664791 0.00123024  -0.0227416 -0.0777693 0.00111246  -0.0244739 -0.0896293 0.000997543  -0.0261611 -0.102025 0.000899792  -0.0277756 -0.114887 0.000802517  -0.029343 -0.128156 0.000713348  -0.0308561 -0.141809 0.000632763  -0.0323195 -0.155778 0.00055027  -0.033721 -0.170025 0.000484467  -0.0350773 -0.184502 0.000415325  -0.0363822 -0.199191 0.000349045  -0.037642 -0.214031 0.000286579  -0.0388525 -0.229003 0.000243187  -0.0400236 -0.24407 0.000190258  -0.0411496 -0.259218 0.000151634  -0.0422449 -0.274406 0.00012064  -0.0432971 -0.289621 8.05855e-05  -0.0443208 -0.304845 5.53131e-05  -0.0453084 -0.320053 3.43323e-05  -0.0462861 -0.335235 2.19345e-05  -0.0472331 -0.350387 5.24521e-06  -0.0481634 -0.365502 -1.90735e-06  -0.049089 -0.38057 -7.15256e-06  0 0 0  -0.000604652 -0.00102109 0.000524998  -0.00164349 -0.00401536 0.000859737  -0.00286302 -0.0084036 0.000977039  -0.00408483 -0.0139228 0.000990391  -0.00527424 -0.0204813 0.000949383  -0.00643432 -0.027995 0.000881672  -0.00759238 -0.0364209 0.000813484  -0.00873548 -0.0456787 0.000739574  -0.00987363 -0.0557101 0.000673294  -0.0110129 -0.0664447 0.00060463  -0.0121536 -0.0778151 0.000551224  -0.0132885 -0.0897706 0.000490665  -0.0144223 -0.102246 0.000437737  -0.0155561 -0.115185 0.000386715  -0.0166786 -0.128534 0.000346184  -0.0178005 -0.14225 0.000307083  -0.0189178 -0.156285 0.000264168  -0.0200174 -0.170593 0.000229359  -0.0211143 -0.185124 0.000194073  -0.022198 -0.199856 0.000160217  -0.0232625 -0.21474 0.000134468  -0.0243156 -0.22975 0.000114918  -0.0253594 -0.244851 8.86917e-05  -0.0263798 -0.260021 6.81877e-05  -0.0273893 -0.27524 5.43594e-05  -0.028373 -0.290473 4.19617e-05  -0.0293565 -0.305703 2.14577e-05  -0.0303183 -0.320926 1.62125e-05  -0.0312631 -0.336125 1.04904e-05  -0.0322058 -0.351283 1.43051e-06  -0.0331275 -0.366399 -8.10623e-06  -0.0340371 -0.381451 -1.62125e-05  0 0 0  4.37796e-05 -0.000910908 1.43051e-06  0.000102699 -0.00384164 -3.33786e-06  0.000141561 -0.0082452 8.10623e-06  0.000129163 -0.0138256 1.33514e-05  5.66244e-05 -0.0204353 5.24521e-06  -6.83069e-05 -0.0280238 9.53674e-07  -0.000269294 -0.0365026 -1.43051e-06  -0.00053364 -0.0458244 -3.8147e-06  -0.000871062 -0.0559167 -7.15256e-06  -0.00127876 -0.0667141 -1.14441e-05  -0.00173724 -0.0781477 -1.71661e-05  -0.00226283 -0.0901576 -2.14577e-05  -0.00283992 -0.102687 -1.95503e-05  -0.00347388 -0.115682 -2.0504e-05  -0.00415313 -0.129091 -2.6226e-05  -0.00487757 -0.142853 -2.76566e-05  -0.00563598 -0.156929 -2.38419e-05  -0.00643516 -0.171276 -1.62125e-05  -0.0072577 -0.18585 -1.43051e-05  -0.00810409 -0.200606 -1.85966e-05  -0.00897789 -0.215529 -1.00136e-05  -0.00986075 -0.230558 -1.38283e-05  -0.0107586 -0.245686 -1.4782e-05  -0.011663 -0.260874 -1.28746e-05  -0.0125871 -0.276094 -1.38283e-05  -0.0135119 -0.291344 -7.62939e-06  -0.0144269 -0.306586 -9.53674e-06  -0.0153482 -0.321821 -4.76837e-06  -0.0162776 -0.337018 -6.67572e-06  -0.0171969 -0.352184 -3.33786e-06  -0.0181091 -0.367304 -5.24521e-06  -0.0190141 -0.382362 1.43051e-06  0 0 0  0.000688866 -0.00113773 -0.00052309  0.00184795 -0.00422049 -0.000844955  0.00313923 -0.00867349 -0.00096035  0.00433153 -0.0142684 -0.000967503  0.00537884 -0.020892 -0.000925541  0.0062753 -0.0284904 -0.000870228  0.00702405 -0.0369998 -0.000809193  0.00762987 -0.0463434 -0.00074625  0.00809431 -0.0564643 -0.000692844  0.00843263 -0.0672964 -0.000636578  0.00864172 -0.0787622 -0.00057745  0.00873256 -0.0908148 -0.000527382  0.00870621 -0.103374 -0.000482082  0.00857377 -0.116406 -0.000434875  0.00834584 -0.129836 -0.000390053  0.00802588 -0.143627 -0.000344753  0.00761843 -0.157729 -0.000308514  0.00713825 -0.172093 -0.000272751  0.00658202 -0.186691 -0.000235558  0.00597548 -0.201471 -0.000198364  0.00530386 -0.216397 -0.000173569  0.0045917 -0.231446 -0.000143528  0.00382805 -0.246578 -0.000116348  0.00303411 -0.261771 -9.25064e-05  0.0022018 -0.277007 -7.05719e-05  0.00135541 -0.292254 -6.05583e-05  0.000483036 -0.307501 -4.05312e-05  -0.000394344 -0.32273 -2.6226e-05  -0.00128627 -0.337935 -1.28746e-05  -0.00218344 -0.353098 -1.38283e-05  -0.00308776 -0.368213 9.53674e-07  -0.00399375 -0.383274 9.53674e-06  0 0 0  0.00142837 -0.0017789 -0.00103235  0.00380829 -0.00518411 -0.00164318  0.00636002 -0.00968617 -0.00188875  0.00873154 -0.0152421 -0.00191545  0.0108698 -0.021826 -0.00184441  0.0127765 -0.0293997 -0.00172472  0.0144577 -0.0378987 -0.00161409  0.0159326 -0.0472456 -0.0014925  0.0171949 -0.0573689 -0.00137281  0.0182593 -0.0682001 -0.00125122  0.019142 -0.0796795 -0.00114584  0.0198371 -0.091739 -0.00104094  0.0203595 -0.104307 -0.000938416  0.0207278 -0.117343 -0.000849247  0.0209368 -0.130788 -0.000757217  0.0210149 -0.144584 -0.000671864  0.0209572 -0.158694 -0.000590801  0.0207853 -0.173062 -0.000517368  0.0205028 -0.187654 -0.000452995  0.0201173 -0.202437 -0.000385284  0.0196464 -0.217364 -0.000326157  0.0190859 -0.232409 -0.000273228  0.018472 -0.247536 -0.000222683  0.0177846 -0.262724 -0.000179291  0.017041 -0.277955 -0.000141621  0.0162585 -0.293199 -0.000105381  0.015444 -0.308439 -7.15256e-05  0.0145986 -0.323663 -5.05447e-05  0.0137203 -0.338864 -2.28882e-05  0.0128381 -0.354017 -4.29153e-06  0.0119293 -0.369128 -6.67572e-06  0.0110364 -0.384201 4.29153e-06  0 0 0  0.00247242 -0.00313395 -0.00149155  0.00628296 -0.00685614 -0.00239372  0.0100374 -0.0112638 -0.00276756  0.0135195 -0.0167083 -0.00283384  0.0167083 -0.0232161 -0.00273943  0.0196081 -0.0307347 -0.00258207  0.0222048 -0.0391949 -0.00241089  0.0245246 -0.0485107 -0.00221825  0.026575 -0.0586153 -0.00204277  0.0283614 -0.069425 -0.00186253  0.0298935 -0.0808892 -0.00170469  0.0311865 -0.0929255 -0.00154924  0.0322516 -0.105491 -0.00139952  0.0330971 -0.118511 -0.00125837  0.0337471 -0.131945 -0.00112867  0.0342062 -0.145724 -0.0010004  0.0344889 -0.159813 -0.000875473  0.0346189 -0.17417 -0.000767231  0.0345814 -0.188743 -0.000666618  0.0344174 -0.203511 -0.000567436  0.0341268 -0.218421 -0.000481606  0.0337307 -0.233449 -0.000401497  0.0332274 -0.248557 -0.000319004  0.0326397 -0.263735 -0.000249863  0.0319643 -0.278947 -0.000201225  0.0312386 -0.294174 -0.000147343  0.0304594 -0.309401 -0.000108719  0.0296402 -0.324611 -7.00951e-05  0.0287797 -0.339799 -4.48227e-05  0.0278957 -0.354947 -2.00272e-05  0.0269976 -0.370057 -1.09673e-05  0.0260973 -0.385134 7.15256e-06  0 0 0  0.00481057 -0.00567269 -0.00196934  0.00952682 -0.00910902 -0.00314713  0.0142774 -0.0133251 -0.00364876  0.0188172 -0.0186232 -0.00372887  0.0230447 -0.0250468 -0.00362062  0.0269037 -0.0324858 -0.00342274  0.0304087 -0.0408759 -0.00319529  0.0335684 -0.0501438 -0.00295019  0.0363854 -0.0601984 -0.00270939  0.0388722 -0.0709686 -0.00247717  0.0410376 -0.0823873 -0.00226641  0.0429032 -0.0943966 -0.00205755  0.0444951 -0.106913 -0.00185871  0.0458106 -0.119897 -0.0016675  0.0468806 -0.133299 -0.0014863  0.0477018 -0.147041 -0.00132656  0.0483143 -0.161087 -0.00116491  0.0487101 -0.175411 -0.00102091  0.0489113 -0.18996 -0.000883102  0.0489421 -0.204689 -0.000751495  0.0488245 -0.219566 -0.000637054  0.0485551 -0.234557 -0.000526428  0.0481517 -0.249641 -0.000421524  0.0476513 -0.264792 -0.000338078  0.0470362 -0.279966 -0.000261784  0.0463467 -0.295183 -0.000189781  0.0455766 -0.310371 -0.000137806  0.0447507 -0.325569 -8.34465e-05  0.0438807 -0.340735 -5.67436e-05  0.0429928 -0.355873 -2.95639e-05  0.0420761 -0.37098 -1.23978e-05  0.0411849 -0.386072 2.38419e-06  0 0 0  -0.00476921 -0.00452059 0.00348473  -0.00968842 -0.00732578 0.00524855  -0.0144646 -0.0111599 0.00581217  -0.0190192 -0.016176 0.00582409  -0.0233639 -0.022304 0.00557089  -0.0274841 -0.0294575 0.00521612  -0.0313711 -0.0375417 0.0048213  -0.0350458 -0.0464865 0.00442791  -0.0385104 -0.0562061 0.00405741  -0.0417817 -0.0666445 0.00369501  -0.0448656 -0.0777289 0.00335741  -0.0477612 -0.0894068 0.00303555  -0.0504833 -0.101614 0.0027318  -0.0530355 -0.114307 0.0024457  -0.055436 -0.127421 0.00217295  -0.0576854 -0.140917 0.00191355  -0.0597808 -0.154744 0.00167418  -0.0617423 -0.168868 0.00145626  -0.0635774 -0.183242 0.0012598  -0.0652869 -0.197821 0.00106001  -0.0668824 -0.212578 0.000891685  -0.0683658 -0.227473 0.000730991  -0.0697503 -0.242471 0.000595093  -0.0710535 -0.257562 0.000455856  -0.0722568 -0.272704 0.000357151  -0.0733919 -0.287888 0.000247955  -0.0744629 -0.303082 0.000175953  -0.0754762 -0.318258 0.000103951  -0.0764496 -0.333439 6.38962e-05  -0.077383 -0.348573 3.00407e-05  -0.0782945 -0.363688 3.8147e-06  -0.0792212 -0.378779 -1.43051e-05  0 0 0  -0.0025739 -0.00226019 0.00262308  -0.00644442 -0.00537198 0.0039506  -0.0100795 -0.00941122 0.0043664  -0.0135006 -0.0145965 0.00436687  -0.0167603 -0.020894 0.00417566  -0.0198826 -0.0282135 0.0039134  -0.0228652 -0.0364673 0.00362492  -0.025705 -0.0455748 0.00332594  -0.0284207 -0.0554568 0.00304127  -0.0310042 -0.066046 0.00276852  -0.033457 -0.0772814 0.0025115  -0.0357968 -0.0891035 0.00226974  -0.0380152 -0.101441 0.00204229  -0.0401196 -0.114255 0.00182295  -0.0421205 -0.127496 0.00162745  -0.0440134 -0.141109 0.00143194  -0.0458107 -0.155033 0.0012579  -0.0475216 -0.16925 0.00109577  -0.0491221 -0.183712 0.00093317  -0.0506546 -0.198371 0.000794888  -0.0520971 -0.213194 0.000668526  -0.0534551 -0.228149 0.000546455  -0.054749 -0.2432 0.000440121  -0.0559831 -0.258328 0.000340939  -0.0571477 -0.273519 0.000261784  -0.0582561 -0.288725 0.000189781  -0.0593181 -0.303936 0.000128746  -0.0603359 -0.319146 8.44002e-05  -0.0613215 -0.334331 4.3869e-05  -0.0622761 -0.34949 1.81198e-05  -0.0632122 -0.364597 0  -0.064127 -0.379681 -1.09673e-05  0 0 0  -0.00148185 -0.00111078 0.00180006  -0.00386463 -0.00401627 0.00270033  -0.00627685 -0.00817747 0.00295448  -0.00857109 -0.0135064 0.00293636  -0.0107845 -0.0199344 0.00279474  -0.0129121 -0.0273898 0.00260735  -0.0149726 -0.0357684 0.00241327  -0.0169647 -0.0449972 0.00221157  -0.0188942 -0.0550018 0.00202608  -0.0207616 -0.0657168 0.00184202  -0.0225724 -0.0770695 0.00166988  -0.0243168 -0.0889971 0.00150728  -0.0260051 -0.101451 0.00135183  -0.0276366 -0.114369 0.00120354  -0.0292101 -0.127707 0.00107622  -0.0307319 -0.141402 0.000946045  -0.0322013 -0.155425 0.000831604  -0.0336158 -0.169716 0.000720024  -0.0349824 -0.184237 0.000617027  -0.0362995 -0.19896 0.000522614  -0.0375655 -0.21384 0.000435829  -0.0387871 -0.228837 0.00036335  -0.0399563 -0.243945 0.000288486  -0.0411015 -0.259114 0.000222683  -0.0422001 -0.274325 0.000170231  -0.0432584 -0.289554 0.000125408  -0.0442934 -0.304795 8.82149e-05  -0.0452912 -0.320025 5.96046e-05  -0.0462701 -0.335216 2.95639e-05  -0.0472171 -0.350377 1.23978e-05  -0.0481517 -0.365498 1.90735e-06  -0.0490658 -0.380564 -2.47955e-05  0 0 0  -0.00067088 -0.000636727 0.000914097  -0.00176133 -0.00332046 0.00136518  -0.00293276 -0.00749689 0.00149536  -0.00408763 -0.0129158 0.00148058  -0.00522488 -0.0194421 0.00140667  -0.00635254 -0.0269822 0.00129986  -0.00748444 -0.0354545 0.00120592  -0.0086121 -0.0447736 0.00109959  -0.00974405 -0.0548668 0.00100374  -0.0108888 -0.0656726 0.000909328  -0.0120257 -0.0771092 0.000823021  -0.0131637 -0.0891271 0.000739574  -0.0143104 -0.101665 0.000661373  -0.0154508 -0.11466 0.000593185  -0.016588 -0.12807 0.000522137  -0.0177075 -0.141838 0.000458717  -0.0188348 -0.155919 0.000401497  -0.0199478 -0.170271 0.000347137  -0.0210488 -0.184857 0.000291824  -0.0221412 -0.199623 0.000245571  -0.0232115 -0.214543 0.000202656  -0.0242703 -0.229585 0.000167847  -0.025317 -0.244719 0.000133991  -0.0263457 -0.259914 0.000104427  -0.0273583 -0.275151 7.96318e-05  -0.0283532 -0.290399 6.19888e-05  -0.0293365 -0.305657 4.43459e-05  -0.030308 -0.320894 2.86102e-05  -0.0312552 -0.336103 1.09673e-05  -0.032197 -0.351272 7.62939e-06  -0.0331185 -0.366385 2.86102e-06  -0.0340309 -0.381446 -6.19888e-06  0 0 0  5.07087e-05 -0.000540793 -1.19209e-05  0.000124216 -0.00318116 -2.86102e-06  0.000175953 -0.00737441 0  0.000176489 -0.0128364 1.14441e-05  0.0001176 -0.0194154 8.58307e-06  -4.58956e-06 -0.0270087 -2.86102e-06  -0.000200629 -0.0355374 -2.38419e-06  -0.00046432 -0.0449169 -1.04904e-05  -0.00079608 -0.0550713 -1.00136e-05  -0.00120902 -0.0659352 -2.09808e-05  -0.00167346 -0.0774343 -2.57492e-05  -0.00219703 -0.0895144 -2.67029e-05  -0.00278187 -0.102113 -3.52859e-05  -0.00341797 -0.115158 -2.86102e-05  -0.00410295 -0.128621 -3.76701e-05  -0.00483298 -0.142439 -2.86102e-05  -0.00559902 -0.156566 -3.48091e-05  -0.00639987 -0.170954 -3.14713e-05  -0.00722814 -0.185573 -3.09944e-05  -0.00808001 -0.200373 -2.95639e-05  -0.00895429 -0.21533 -1.81198e-05  -0.00984263 -0.230391 -2.47955e-05  -0.0107474 -0.245544 -1.90735e-05  -0.0116591 -0.260756 -2.00272e-05  -0.0125794 -0.276006 -1.71661e-05  -0.0135 -0.29128 -1.81198e-05  -0.0144267 -0.306539 -1.00136e-05  -0.0153501 -0.321785 -8.10623e-06  -0.0162725 -0.337 -6.67572e-06  -0.0171945 -0.352167 -6.19888e-06  -0.0181041 -0.367289 4.76837e-07  -0.0190182 -0.382345 2.86102e-06  0 0 0  0.000768751 -0.000764132 -0.000934124  0.00201285 -0.00354648 -0.00136328  0.00326753 -0.00779337 -0.00147581  0.00442147 -0.0132806 -0.00145721  0.00544238 -0.019871 -0.00139189  0.00630933 -0.0274808 -0.00130701  0.0070523 -0.0360363 -0.0012145  0.00765193 -0.0454394 -0.001122  0.00811267 -0.0556242 -0.00104141  0.00845301 -0.0665203 -0.000957489  0.00865424 -0.0780505 -0.000874996  0.00874615 -0.0901633 -0.000796318  0.00871658 -0.102792 -0.000727177  0.00858581 -0.11588 -0.000651836  0.00835145 -0.129368 -0.000590324  0.00802755 -0.143212 -0.000528336  0.00762081 -0.157368 -0.000463486  0.00713563 -0.171779 -0.000403881  0.00658393 -0.186407 -0.00035429  0.00596714 -0.201227 -0.000308514  0.00530362 -0.216187 -0.000260353  0.00457978 -0.231272 -0.000216961  0.00382113 -0.246429 -0.000182152  0.00302434 -0.261661 -0.000141621  0.00219655 -0.276912 -0.000113487  0.00135136 -0.292184 -8.44002e-05  0.00047946 -0.307451 -6.4373e-05  -0.000396252 -0.322696 -4.00543e-05  -0.00129914 -0.337911 -2.76566e-05  -0.00219607 -0.353086 -1.28746e-05  -0.00310278 -0.368197 2.38419e-06  -0.00400805 -0.383256 1.00136e-05  0 0 0  0.00158192 -0.00137287 -0.00180817  0.00408897 -0.00444853 -0.00266647  0.0065766 -0.00875241 -0.00290251  0.00886041 -0.0142145 -0.00288105  0.0109311 -0.0207868 -0.00275993  0.0127952 -0.0283868 -0.00259161  0.0144514 -0.0369247 -0.00241137  0.015911 -0.0463336 -0.00223255  0.0171679 -0.0565249 -0.00204849  0.0182291 -0.0674288 -0.00187826  0.0191078 -0.0789676 -0.00172186  0.0198035 -0.0910866 -0.00156307  0.0203316 -0.10372 -0.00141001  0.0206978 -0.116814 -0.00127268  0.0209104 -0.130315 -0.00114632  0.0209839 -0.144164 -0.00101089  0.0209289 -0.158315 -0.000891685  0.0207572 -0.172734 -0.000781536  0.0204744 -0.187368 -0.000674248  0.0200865 -0.20219 -0.000573635  0.0196183 -0.217156 -0.000489712  0.0190666 -0.232234 -0.000409603  0.0184386 -0.247393 -0.000333786  0.0177603 -0.26261 -0.000268459  0.0170155 -0.277867 -0.000206947  0.0162408 -0.293128 -0.000148296  0.0154252 -0.30839 -0.000112534  0.01458 -0.323628 -7.48634e-05  0.0137105 -0.338832 -5.00679e-05  0.0128224 -0.354005 -2.52724e-05  0.0119205 -0.369123 1.43051e-06  0.0110216 -0.384183 2.0504e-05  0 0 0  0.00266278 -0.00261855 -0.00259161  0.00662833 -0.00598031 -0.00386429  0.0102936 -0.0102361 -0.00425577  0.0136695 -0.0156291 -0.00426912  0.0167745 -0.0221471 -0.00410509  0.019613 -0.0297122 -0.00386429  0.0221806 -0.038221 -0.00359774  0.0244855 -0.0476012 -0.00332355  0.0265236 -0.0577699 -0.00306368  0.0283051 -0.0686583 -0.00280666  0.0298373 -0.080187 -0.00255632  0.0311335 -0.0922856 -0.00232458  0.0322027 -0.104907 -0.00209427  0.0330496 -0.117984 -0.00188446  0.0336983 -0.131471 -0.00168419  0.0341578 -0.145308 -0.00150156  0.0344436 -0.159446 -0.00131655  0.0345657 -0.173844 -0.00114584  0.0345395 -0.188472 -0.000997543  0.034375 -0.203272 -0.000848293  0.0340869 -0.218219 -0.000720024  0.0336857 -0.233276 -0.000597954  0.03318 -0.248424 -0.000483513  0.032603 -0.263631 -0.000380993  0.0319393 -0.278859 -0.000293255  0.0312161 -0.294105 -0.000217915  0.0304348 -0.309352 -0.000161171  0.0296137 -0.32458 -0.000109673  0.028753 -0.339776 -5.76973e-05  0.0278759 -0.354929 -3.48091e-05  0.0269754 -0.370046 9.53674e-07  0.0260739 -0.385131 1.81198e-05  0 0 0  0.00482628 -0.004924 -0.00338697  0.00978297 -0.00804353 -0.00506926  0.0145206 -0.012176 -0.00561666  0.0189879 -0.017485 -0.00565529  0.0231318 -0.023941 -0.00543642  0.026947 -0.0314451 -0.00512362  0.0304183 -0.0399092 -0.0047698  0.0335593 -0.0492406 -0.00441599  0.0363625 -0.0593632 -0.00406408  0.0388418 -0.0702087 -0.00371742  0.041018 -0.08169 -0.00339127  0.0428782 -0.0937658 -0.0030818  0.0444636 -0.10634 -0.00277948  0.0457867 -0.119383 -0.00249767  0.0468564 -0.132826 -0.00223255  0.0476677 -0.146634 -0.00197649  0.0482788 -0.160728 -0.00173569  0.0486703 -0.175101 -0.00151253  0.0488861 -0.18969 -0.00131369  0.0489149 -0.20446 -0.00112581  0.0487952 -0.219367 -0.000944138  0.0485244 -0.234399 -0.000781536  0.0481322 -0.249509 -0.000631332  0.047622 -0.264694 -0.000494957  0.0470197 -0.279891 -0.000381947  0.0463226 -0.295118 -0.000275612  0.0455577 -0.310342 -0.000201702  0.0447309 -0.325543 -0.000137329  0.0438714 -0.34072 -7.53403e-05  0.0429685 -0.355857 -3.76701e-05  0.042058 -0.37097 -1.09673e-05  0.0411406 -0.386034 1.57356e-05  0 0 0  -0.00599581 -0.00307287 0.0055542  -0.010347 -0.00553245 0.00733376  -0.0146448 -0.00932972 0.00781298  -0.018911 -0.0144147 0.00772095  -0.0230997 -0.0206591 0.00737858  -0.0271267 -0.0279448 0.00689602  -0.0309807 -0.0361639 0.00638676  -0.0346451 -0.0452247 0.00587654  -0.0381306 -0.0550666 0.00537395  -0.0414128 -0.0656076 0.00489426  -0.0445068 -0.0767782 0.00445318  -0.0474205 -0.0885579 0.00401783  -0.0501686 -0.100841 0.00363445  -0.0527369 -0.113608 0.00325298  -0.0551574 -0.126812 0.00288677  -0.0574135 -0.140394 0.00254536  -0.0595419 -0.154295 0.00223303  -0.0615299 -0.168473 0.00193691  -0.0633826 -0.1829 0.00166035  -0.0650969 -0.197543 0.00141239  -0.0667198 -0.212324 0.00117826  -0.0682237 -0.227276 0.000967503  -0.0696235 -0.242315 0.000794888  -0.070931 -0.257442 0.000611305  -0.0721655 -0.272621 0.000462532  -0.0733142 -0.287812 0.000333309  -0.0743959 -0.303056 0.000220776  -0.0754247 -0.318239 0.00014925  -0.0764153 -0.33343 6.62804e-05  -0.0773559 -0.348592 1.81198e-05  -0.078275 -0.363687 -6.67572e-06  -0.0791824 -0.378775 -2.71797e-05  0 0 0  -0.00374644 -0.00126868 0.00428677  -0.00708145 -0.00388634 0.00546837  -0.0102507 -0.0077597 0.00580788  -0.0133891 -0.0129446 0.00575304  -0.0165026 -0.0193023 0.00549936  -0.0195463 -0.0267248 0.00515938  -0.0224867 -0.0350925 0.00478649  -0.025325 -0.0443046 0.00440836  -0.0280497 -0.0542927 0.00403357  -0.0306386 -0.064987 0.00368214  -0.033113 -0.0763261 0.00334072  -0.0354645 -0.0882308 0.00302076  -0.0377074 -0.100656 0.00271797  -0.0398296 -0.11356 0.00243378  -0.0418571 -0.126883 0.00216293  -0.0437615 -0.140566 0.00190639  -0.0455823 -0.154568 0.00166893  -0.0473013 -0.168847 0.00144958  -0.0489392 -0.183355 0.00124311  -0.0504725 -0.198068 0.00105762  -0.0519342 -0.212942 0.000882149  -0.053324 -0.227938 0.0007267  -0.0546265 -0.243035 0.00058794  -0.0558774 -0.258214 0.000454426  -0.0570486 -0.273423 0.000347137  -0.0581763 -0.28865 0.000255108  -0.0592573 -0.303903 0.000172615  -0.0602918 -0.319129 0.000105381  -0.0612867 -0.334323 6.19888e-05  -0.0622504 -0.349473 3.05176e-05  -0.0631897 -0.364589 -9.05991e-06  -0.0641105 -0.379682 -2.57492e-05  0 0 0  -0.00227326 -0.000184238 0.00293493  -0.00428465 -0.00263982 0.00370407  -0.00638071 -0.00661384 0.00389147  -0.00848532 -0.0119064 0.00383568  -0.0105745 -0.0183757 0.00366068  -0.0126512 -0.0259113 0.00342798  -0.014677 -0.0343872 0.00318003  -0.0166702 -0.0437253 0.0029273  -0.0186019 -0.0538286 0.0026741  -0.0204794 -0.0646479 0.00244856  -0.0222975 -0.0760949 0.00220919  -0.024055 -0.0881128 0.0019989  -0.0257612 -0.100663 0.00180292  -0.0274137 -0.113664 0.00161219  -0.0289987 -0.127073 0.00142336  -0.0305336 -0.140849 0.00126362  -0.0320239 -0.154929 0.00110817  -0.0334558 -0.169297 0.000962734  -0.0348339 -0.183873 0.000820637  -0.0361638 -0.198652 0.000699043  -0.0374432 -0.213584 0.000585079  -0.0386753 -0.228623 0.00048399  -0.0398719 -0.24377 0.000385761  -0.0410132 -0.258977 0.000301838  -0.0421293 -0.274221 0.000233173  -0.0432057 -0.289488 0.0001688  -0.0442445 -0.304749 0.000115395  -0.0452576 -0.319985 7.24792e-05  -0.046231 -0.335195 4.29153e-05  -0.0471928 -0.350363 1.4782e-05  -0.0481308 -0.365492 -6.19888e-06  -0.0490415 -0.380564 -3.43323e-05  0 0 0  -0.0010497 0.00028953 0.00144815  -0.00196129 -0.00196758 0.00185013  -0.00295502 -0.00596461 0.00195074  -0.00400516 -0.0113349 0.00192451  -0.00507635 -0.0178953 0.0018239  -0.00617087 -0.0255074 0.00170803  -0.00727814 -0.0340772 0.00158739  -0.00840288 -0.0434871 0.00145149  -0.00954545 -0.053687 0.00132799  -0.0106994 -0.0645913 0.00120544  -0.0118401 -0.0761321 0.00108337  -0.0129879 -0.0882432 0.000983238  -0.0141398 -0.100865 0.000885487  -0.0153016 -0.113944 0.00078392  -0.0164443 -0.127434 0.000696659  -0.017584 -0.141271 0.000612736  -0.0187204 -0.15542 0.000536442  -0.0198393 -0.169837 0.000459671  -0.0209498 -0.184476 0.000396252  -0.0220528 -0.199307 0.000334263  -0.0231302 -0.21427 0.000274658  -0.0242128 -0.229361 0.000225067  -0.0252621 -0.244533 0.000186443  -0.0262902 -0.259777 0.000139236  -0.0273211 -0.275039 0.000114441  -0.0283217 -0.290321 7.58171e-05  -0.0293069 -0.305605 4.43459e-05  -0.0302837 -0.320858 2.47955e-05  -0.0312383 -0.336076 2.3365e-05  -0.0321832 -0.351264 1.04904e-05  -0.0331061 -0.366384 -4.29153e-06  -0.034014 -0.381447 -1.33514e-05  0 0 0  6.9797e-05 0.000365794 -3.19481e-05  0.000158668 -0.0018484 -3.14713e-05  0.000225902 -0.00584382 -2.14577e-05  0.000244915 -0.0112668 -7.62939e-06  0.000212193 -0.0178775 -1.28746e-05  9.63807e-05 -0.0255409 -8.58307e-06  -0.000104964 -0.0341579 -1.38283e-05  -0.000361264 -0.0436338 -2.14577e-05  -0.000694513 -0.0538943 -2.76566e-05  -0.00110602 -0.0648551 -3.43323e-05  -0.00157714 -0.0764467 -3.71933e-05  -0.00210905 -0.0886204 -4.05312e-05  -0.00269282 -0.101307 -4.48227e-05  -0.00334108 -0.114429 -4.91142e-05  -0.00403631 -0.12797 -5.00679e-05  -0.00476503 -0.141868 -4.52995e-05  -0.00553203 -0.156057 -3.76701e-05  -0.00635099 -0.170513 -3.91006e-05  -0.00717711 -0.185189 -4.52995e-05  -0.00803614 -0.200044 -3.71933e-05  -0.00891733 -0.215055 -2.90871e-05  -0.00982285 -0.23017 -3.24249e-05  -0.0107284 -0.245358 -2.81334e-05  -0.0116463 -0.260608 -2.57492e-05  -0.0125611 -0.275888 -2.76566e-05  -0.0134938 -0.291185 -2.28882e-05  -0.0144279 -0.306477 -1.23978e-05  -0.0153458 -0.321745 -1.28746e-05  -0.0162709 -0.336973 -7.62939e-06  -0.0171926 -0.352158 -1.04904e-05  -0.0181098 -0.367288 -4.29153e-06  -0.0190163 -0.382341 2.86102e-06  0 0 0  0.00117488 0.000123978 -0.00152826  0.00226596 -0.00221592 -0.00189638  0.00340036 -0.00628525 -0.00197029  0.00448585 -0.0117092 -0.00192595  0.00546771 -0.0183322 -0.00184727  0.00633496 -0.0260139 -0.00173664  0.00706351 -0.0346476 -0.00162888  0.00765932 -0.0441558 -0.00150537  0.0081259 -0.0544395 -0.00138664  0.00845432 -0.0654307 -0.00128317  0.00865185 -0.0770662 -0.0011754  0.00874841 -0.0892609 -0.00106001  0.00872684 -0.101981 -0.000964642  0.00858831 -0.115145 -0.000880241  0.00835383 -0.12871 -0.00079155  0.00802302 -0.142637 -0.000705719  0.00761366 -0.156856 -0.000618458  0.00712514 -0.171331 -0.00054884  0.00657678 -0.186021 -0.000471115  0.00595641 -0.200893 -0.000406265  0.00528526 -0.215912 -0.000346661  0.0045588 -0.231043 -0.000294209  0.00379729 -0.246247 -0.000237942  0.00300241 -0.261506 -0.000192165  0.00217366 -0.276801 -0.000150681  0.00132871 -0.292089 -0.000115871  0.000463724 -0.30738 -8.7738e-05  -0.000414133 -0.322644 -6.10352e-05  -0.00130749 -0.337884 -4.1008e-05  -0.00220513 -0.353065 -1.33514e-05  -0.0031209 -0.368198 -5.24521e-06  -0.00402713 -0.38326 1.71661e-05  0 0 0  0.00235067 -0.00050658 -0.00297213  0.00455308 -0.00313598 -0.00369596  0.00678715 -0.0072425 -0.00386715  0.00891966 -0.0126556 -0.0038209  0.0109156 -0.0192471 -0.00366068  0.0127384 -0.0269095 -0.00344658  0.0143802 -0.0355455 -0.00321913  0.0158244 -0.0450463 -0.00297737  0.0170827 -0.0553377 -0.00273991  0.0181569 -0.06634 -0.00250912  0.0190281 -0.0779714 -0.00229883  0.0197306 -0.090185 -0.00209332  0.0202543 -0.102904 -0.00188875  0.0206246 -0.116081 -0.00169849  0.0208478 -0.129658 -0.00152969  0.020921 -0.143579 -0.00135183  0.0208573 -0.157811 -0.00118971  0.0206923 -0.172295 -0.00104952  0.0204034 -0.186989 -0.000899792  0.0200222 -0.201862 -0.000772476  0.0195482 -0.21687 -0.000657558  0.0190001 -0.231997 -0.000550747  0.0183837 -0.247205 -0.000440598  0.0177042 -0.262456 -0.000357628  0.0169733 -0.277748 -0.000278473  0.0161967 -0.293035 -0.000203609  0.0153847 -0.30832 -0.000143528  0.0145433 -0.323589 -0.000110626  0.0136757 -0.338809 -5.91278e-05  0.0127897 -0.353991 -2.90871e-05  0.0118978 -0.36911 8.10623e-06  0.0110116 -0.384178 2.81334e-05  0 0 0  0.00377367 -0.00171077 -0.00425482  0.00727227 -0.00460124 -0.00537586  0.0105657 -0.008681 -0.00570869  0.013726 -0.0140399 -0.00567484  0.0167176 -0.020601 -0.00545073  0.0194922 -0.0282339 -0.00513697  0.022039 -0.0368387 -0.00478554  0.0243309 -0.04632 -0.00443363  0.0263729 -0.0565881 -0.00408316  0.0281554 -0.0675708 -0.00373697  0.0296991 -0.0791895 -0.00340366  0.030993 -0.0913805 -0.00310135  0.032066 -0.104091 -0.0028019  0.0329187 -0.117244 -0.00251961  0.0335741 -0.130817 -0.00224447  0.0340371 -0.144725 -0.00200415  0.0343263 -0.158933 -0.00176048  0.0344527 -0.173395 -0.00153446  0.0344298 -0.18808 -0.00133038  0.0342691 -0.202936 -0.00113249  0.0339885 -0.217938 -0.000956535  0.0335932 -0.233049 -0.000797749  0.0331011 -0.248228 -0.000645161  0.0325224 -0.263469 -0.00051403  0.0318654 -0.278742 -0.000399113  0.0311525 -0.294015 -0.00029707  0.030375 -0.309296 -0.000199318  0.0295658 -0.32454 -0.000135422  0.0287206 -0.33975 -7.9155e-05  0.0278378 -0.354917 -4.48227e-05  0.0269458 -0.370034 4.76837e-06  0.0260458 -0.385117 1.52588e-05  0 0 0  0.00596872 -0.00363201 -0.00543261  0.0104479 -0.00642103 -0.00710869  0.0147983 -0.0104836 -0.00760746  0.0190516 -0.0158386 -0.00755358  0.0230718 -0.0223615 -0.00724888  0.0268177 -0.0299599 -0.00681496  0.0302652 -0.038543 -0.00634289  0.0333973 -0.0479713 -0.00587082  0.0362041 -0.0581956 -0.00540924  0.0386791 -0.0691339 -0.00494385  0.0408607 -0.0807137 -0.00451851  0.0427312 -0.0928666 -0.00410175  0.044323 -0.105534 -0.00370026  0.0456395 -0.118656 -0.00333071  0.0467187 -0.132194 -0.00296259  0.0475419 -0.146059 -0.00262308  0.0481486 -0.160228 -0.0023222  0.0485561 -0.174659 -0.00201559  0.04877 -0.189299 -0.0017519  0.0488029 -0.20414 -0.00148249  0.0486875 -0.219104 -0.00124884  0.0484281 -0.234165 -0.00104094  0.0480437 -0.249329 -0.000839233  0.0475423 -0.264535 -0.000658989  0.0469429 -0.279775 -0.00050354  0.0462513 -0.295036 -0.000376225  0.0455017 -0.31028 -0.000253201  0.0446801 -0.325511 -0.000154018  0.0438323 -0.340692 -9.67979e-05  0.042937 -0.355857 -3.14713e-05  0.042033 -0.370959 1.43051e-06  0.0411372 -0.386057 -7.62939e-06  -0.00315966 -0.00237139 -0.00376272  -0.00505795 -0.00401672 -0.00453091  -0.00225674 -0.00310554 -0.00197768  0 0 0  0 0 0  -0.00481504 -0.00217076 -0.00496817  -0.00348819 -0.00332918 -0.00304437  0 0 0  -0.00185645 -0.000415131 -0.00301147  -0.00296815 -0.00182448 -0.00347519  -0.00100164 -0.00100852 -0.0014863  0 0 0  -0.00227416 -0.00268249 -0.00261879  -0.00232589 -0.00111155 -0.00335193  -0.00388222 -0.00282687 -0.00399446  -0.00133467 -0.00174727 -0.00170207  0 0 0  -0.00113538 -0.00077489 -0.00202799  -0.00146264 -0.00146239 -0.00228953  -0.00817528 -0.00418621 -0.00669861  -0.00993246 -0.00654034 -0.0063138  -0.00723298 -0.00583146 -0.00457311  -0.00867619 -0.00467907 -0.0063529  -0.00798696 -0.00629157 -0.00458097  -0.00545095 -0.00243391 -0.00503349  -0.00672331 -0.0047008 -0.00474977  -0.00452141 -0.00372923 -0.00345182  -0.00754361 -0.00513393 -0.00564313  -0.00679629 -0.00327504 -0.00582743  -0.00827254 -0.00555843 -0.0055027  -0.00576903 -0.00471973 -0.00399446  -0.00488845 -0.00315293 -0.00426745  -0.00615771 -0.00407661 -0.00493145  -0.0124861 -0.00726198 -0.00767875  -0.0145612 -0.0103231 -0.00683355  -0.0121014 -0.00909238 -0.00562286  -0.0123729 -0.00849142 -0.00678873  -0.0121971 -0.0102176 -0.00507545  -0.00866666 -0.00565713 -0.00570869  -0.0101813 -0.00864991 -0.00511098  -0.00829554 -0.00723977 -0.00422692  -0.0122689 -0.00827288 -0.00667286  -0.0105249 -0.00641047 -0.00665903  -0.0122997 -0.00942235 -0.00595427  -0.0101211 -0.00810809 -0.0049119  -0.00847715 -0.00652067 -0.00499964  -0.0103108 -0.00733301 -0.00581169  -0.016783 -0.0116971 -0.007833  -0.0190164 -0.0153504 -0.00678825  -0.0167629 -0.0135085 -0.00585985  -0.0160598 -0.013611 -0.00672674  -0.0161803 -0.0153208 -0.0050838  -0.0118195 -0.0101865 -0.00581837  -0.0134826 -0.0138266 -0.00507092  -0.0118119 -0.0118524 -0.00439763  -0.0168107 -0.0126891 -0.00685859  -0.0142232 -0.0108894 -0.00679851  -0.0161578 -0.014527 -0.0059216  -0.0142137 -0.0126182 -0.00512218  -0.0118483 -0.0110873 -0.00512505  -0.0142461 -0.0118259 -0.00597572  -0.0210175 -0.0173885 -0.00757051  -0.0232806 -0.0215349 -0.00647283  -0.0212181 -0.019091 -0.00571227  -0.0196957 -0.019932 -0.00643063  -0.0199721 -0.021538 -0.00487375  -0.0149514 -0.0159713 -0.00564456  -0.016672 -0.0201512 -0.00484943  -0.015149 -0.0176041 -0.00428796  -0.0211697 -0.0183049 -0.00665569  -0.0178872 -0.0166224 -0.00659704  -0.0198792 -0.020786 -0.0056591  -0.0180988 -0.0182876 -0.00499606  -0.0150908 -0.0168496 -0.00497651  -0.0180354 -0.0175204 -0.00580835  -0.025127 -0.0241708 -0.00714207  -0.0273514 -0.0287426 -0.0060668  -0.0254409 -0.0257481 -0.00540066  -0.0232297 -0.02728 -0.00602746  -0.023591 -0.0287805 -0.00456214  -0.0180371 -0.0228844 -0.00533938  -0.0197538 -0.0275125 -0.00453877  -0.0183409 -0.0244243 -0.00404835  -0.0253381 -0.0250113 -0.00627732  -0.0214759 -0.0234744 -0.00623631  -0.0234525 -0.0280768 -0.00530005  -0.0218067 -0.0250324 -0.00472164  -0.0182248 -0.0237119 -0.00469875  -0.0216845 -0.0243086 -0.00548506  -0.0290735 -0.031922 -0.00664806  -0.031225 -0.0368834 -0.00561571  -0.0294501 -0.0333774 -0.00502467  -0.0266303 -0.0355726 -0.00558734  -0.0270303 -0.0369589 -0.00422025  -0.0210378 -0.0307858 -0.00497484  -0.0227093 -0.0358182 -0.00420952  -0.0213916 -0.0322203 -0.00376463  -0.0293124 -0.0326941 -0.00583458  -0.024945 -0.0313082 -0.00580883  -0.0268703 -0.0363053 -0.00490928  -0.0253306 -0.0327501 -0.00439668  -0.0212467 -0.0315542 -0.0043745  -0.0251828 -0.0320746 -0.0051074  -0.0328473 -0.0405779 -0.00613213  -0.0348952 -0.0458857 -0.00515866  -0.0332347 -0.0419058 -0.00463319  -0.0298839 -0.0447134 -0.00514531  -0.0302892 -0.0459888 -0.00388336  -0.0239291 -0.0395858 -0.00459647  -0.0255466 -0.0449723 -0.00386477  -0.0243005 -0.0409098 -0.00347352  -0.0330883 -0.0412803 -0.00538564  -0.0282752 -0.0400407 -0.00536609  -0.030126 -0.0453887 -0.00451541  -0.0286797 -0.0413656 -0.00405264  -0.0241423 -0.0402951 -0.004035  -0.0285171 -0.0407464 -0.00470948  -0.0364184 -0.0500334 -0.00562668  -0.0383649 -0.0556594 -0.00472403  -0.0368079 -0.0512476 -0.00424767  -0.0329854 -0.0546397 -0.00471544  -0.0333853 -0.0557944 -0.00355124  -0.0267031 -0.0491984 -0.00421715  -0.0282588 -0.0549086 -0.00353599  -0.0270782 -0.0504162 -0.00317979  -0.0366551 -0.0506763 -0.00493646  -0.0314518 -0.0495827 -0.00492835  -0.0332221 -0.0552496 -0.00413013  -0.0318609 -0.050793 -0.00371289  -0.0269184 -0.0498473 -0.00370073  -0.0316932 -0.0502246 -0.00432348  -0.0397924 -0.0602298 -0.00514603  -0.0416409 -0.0661421 -0.00430417  -0.0401729 -0.0613335 -0.00387406  -0.0359288 -0.0652632 -0.00430036  -0.0363182 -0.0663122 -0.00323105  -0.0293556 -0.0595556 -0.00385141  -0.0308492 -0.065548 -0.00322294  -0.0297275 -0.060661 -0.00289917  -0.0400237 -0.0608181 -0.0045104  -0.0344745 -0.0598639 -0.00450253  -0.0361565 -0.0658117 -0.0037663  -0.0348699 -0.0609661 -0.00338674  -0.0295675 -0.0601431 -0.00337648  -0.0347086 -0.06045 -0.00394678  -0.0429797 -0.0711027 -0.00467587  -0.0447261 -0.0772717 -0.00390697  -0.0433464 -0.0721049 -0.00352263  -0.0387232 -0.0765203 -0.00389886  -0.0390872 -0.0774715 -0.00293112  -0.0318922 -0.0705662 -0.00350881  -0.0333102 -0.0768236 -0.00292683  -0.0322503 -0.0715806 -0.00263762  -0.0432091 -0.0716325 -0.00409913  -0.0373459 -0.0708095 -0.00409722  -0.0389335 -0.0770208 -0.00341511  -0.037722 -0.0718115 -0.00307989  -0.0320961 -0.0711079 -0.00306916  -0.0375623 -0.071342 -0.0035882  -0.0459901 -0.0825791 -0.00423717  -0.0476329 -0.0889965 -0.0035274  -0.0463382 -0.0834876 -0.00318885  -0.0413567 -0.0883642 -0.00352645  -0.0417094 -0.0892289 -0.00265098  -0.0343071 -0.0822016 -0.0031774  -0.035655 -0.0886854 -0.00264335  -0.0346415 -0.0831138 -0.00238609  -0.0461998 -0.0830617 -0.00371408  -0.0400606 -0.0823703 -0.00371194  -0.0415651 -0.0888179 -0.0030899  -0.0404176 -0.0832724 -0.00278902  -0.0344962 -0.0826856 -0.00278473  -0.0402658 -0.0828482 -0.00325012  -0.0488092 -0.0946144 -0.00383139  -0.0503582 -0.10124 -0.00317454  -0.0491462 -0.0954386 -0.00288081  -0.0438565 -0.10073 -0.00316978  -0.0441818 -0.101508 -0.00238371  -0.0366056 -0.0943789 -0.00286627  -0.0378802 -0.101072 -0.00237393  -0.0369214 -0.0952018 -0.00215173  -0.0490166 -0.0950566 -0.00335002  -0.0426245 -0.0944796 -0.00334477  -0.0440439 -0.101136 -0.00277877  -0.0429646 -0.095298 -0.00251555  -0.0367829 -0.0948151 -0.00251079  -0.0428232 -0.094914 -0.00292921  -0.0514774 -0.107156 -0.0034337  -0.0529178 -0.113968 -0.00284815  -0.051775 -0.107893 -0.00258613  -0.0462105 -0.113568 -0.00284028  -0.0465175 -0.114258 -0.00213742  -0.0387843 -0.107047 -0.00257659  -0.0399944 -0.113924 -0.00213313  -0.0390805 -0.107787 -0.00193477  -0.0516595 -0.107546 -0.00301099  -0.0450448 -0.107086 -0.00300574  -0.0463861 -0.113931 -0.00248647  -0.0453659 -0.107819 -0.00225902  -0.0389514 -0.107442 -0.00225568  -0.0452315 -0.107476 -0.00263262  -0.0539651 -0.120156 -0.00306201  -0.0553268 -0.12713 -0.00253201  -0.0542623 -0.120808 -0.00230026  -0.0484334 -0.126832 -0.00253105  -0.0487202 -0.127445 -0.00189686  -0.0408567 -0.120165 -0.00229263  -0.0420012 -0.127204 -0.001899  -0.0411296 -0.120825 -0.0017221  -0.0541408 -0.1205 -0.0026834  -0.0473385 -0.120144 -0.00267982  -0.0485958 -0.127149 -0.00221252  -0.0476363 -0.120799 -0.00201511  -0.0410112 -0.120513 -0.00200868  -0.0475068 -0.120492 -0.00234699  -0.0563048 -0.133548 -0.00271177  -0.0575781 -0.140659 -0.00224042  -0.0565727 -0.134123 -0.00204515  -0.0505248 -0.140454 -0.00223565  -0.0507919 -0.141 -0.00167584  -0.0428203 -0.133671 -0.00204301  -0.0439048 -0.140846 -0.00167084  -0.0430787 -0.134255 -0.00152707  -0.0564686 -0.133847 -0.00237799  -0.0494953 -0.133594 -0.00237727  -0.050681 -0.140741 -0.00195432  -0.0497707 -0.134173 -0.00178623  -0.0429655 -0.133979 -0.00178337  -0.0496538 -0.133901 -0.00208259  -0.0585008 -0.147278 -0.00239182  -0.0596831 -0.154524 -0.00195622  -0.0587463 -0.147792 -0.00179577  -0.0524967 -0.154412 -0.00195527  -0.0527456 -0.154882 -0.00146675  -0.044687 -0.147515 -0.00179505  -0.0457151 -0.154807 -0.00146437  -0.0449288 -0.148025 -0.00134492  -0.0586479 -0.14755 -0.00209594  -0.0515275 -0.147388 -0.00209117  -0.05264 -0.154659 -0.00171113  -0.0517836 -0.1479 -0.00157213  -0.0448196 -0.14779 -0.00156784  -0.0516763 -0.147659 -0.00182915  -0.0605426 -0.161333 -0.00208712  -0.0616562 -0.168675 -0.00169492  -0.0607779 -0.16177 -0.00156403  -0.0543523 -0.168645 -0.00170064  -0.0545821 -0.169053 -0.00127316  -0.0464497 -0.161665 -0.00156164  -0.0474234 -0.169053 -0.00127387  -0.0466709 -0.162109 -0.00117016  -0.0606868 -0.161563 -0.00182056  -0.0534401 -0.161491 -0.00182343  -0.0544851 -0.168856 -0.00148463  -0.0536778 -0.161929 -0.00136876  -0.0465825 -0.161899 -0.00136971  -0.0535774 -0.161722 -0.00159597  -0.0624576 -0.175647 -0.00179005  -0.0634935 -0.183067 -0.00145984  -0.0626714 -0.176016 -0.00135469  -0.0560997 -0.183116 -0.00145459  -0.0563021 -0.183469 -0.00109506  -0.0481269 -0.176059 -0.00134611  -0.0490394 -0.183532 -0.00108886  -0.048327 -0.176447 -0.00100923  -0.0625908 -0.175844 -0.00157499  -0.0552406 -0.175846 -0.00157523  -0.0562174 -0.183296 -0.00127864  -0.0554545 -0.176224 -0.00118136  -0.0482407 -0.176265 -0.00117826  -0.0553641 -0.176047 -0.00137758  -0.064254 -0.190184 -0.00153494  -0.0652113 -0.197677 -0.00123954  -0.0644393 -0.190502 -0.0011549  -0.0577362 -0.197794 -0.00123382  -0.0579247 -0.198087 -0.000929832  -0.0497143 -0.190681 -0.00115228  -0.0505726 -0.198218 -0.000925064  -0.0498974 -0.191005 -0.00086236  -0.0643692 -0.190348 -0.00134754  -0.0569313 -0.190428 -0.00134993  -0.0578485 -0.197945 -0.00108314  -0.0571277 -0.190747 -0.00101399  -0.0498183 -0.190853 -0.00100756  -0.0570457 -0.190596 -0.00117993  -0.0659285 -0.20491 -0.00129342  -0.0668166 -0.212459 -0.00103498  -0.0660944 -0.205177 -0.000975609  -0.0592849 -0.212637 -0.00103593  -0.0594478 -0.212881 -0.000774384  -0.0512214 -0.205484 -0.000973225  -0.0520258 -0.213068 -0.000780582  -0.051383 -0.205752 -0.000728846  -0.066026 -0.20505 -0.00113177  -0.058522 -0.205197 -0.0011344  -0.0593779 -0.212759 -0.000905991  -0.0586989 -0.205464 -0.000850439  -0.0513089 -0.205623 -0.000848293  -0.0586259 -0.205335 -0.000992537  -0.0674837 -0.219787 -0.00107288  -0.0683095 -0.22737 -0.000851393  -0.0676312 -0.220002 -0.000806808  -0.0607269 -0.227608 -0.000853539  -0.0608766 -0.227803 -0.000638723  -0.0526407 -0.220416 -0.000803232  -0.0533979 -0.228041 -0.000636816  -0.0527859 -0.220649 -0.000601768  -0.0675747 -0.219899 -0.000939608  -0.0600145 -0.220101 -0.000936985  -0.0608201 -0.227704 -0.00074482  -0.0601745 -0.220324 -0.000705242  -0.0527222 -0.220536 -0.000701427  -0.0601094 -0.220217 -0.000824451  -0.0689385 -0.234781 -0.000869513  -0.0697093 -0.242396 -0.000688076  -0.0690718 -0.234955 -0.000657082  -0.0620904 -0.242678 -0.00068903  -0.0622239 -0.242837 -0.000516176  -0.0539818 -0.235471 -0.000660181  -0.054698 -0.243115 -0.000511885  -0.0541127 -0.235653 -0.000491619  -0.069021 -0.234869 -0.000760317  -0.0614181 -0.235122 -0.000766993  -0.0621676 -0.242755 -0.000601768  -0.0615604 -0.235304 -0.000573635  -0.0540557 -0.235568 -0.000576019  -0.0615034 -0.235217 -0.000667572  -0.0702882 -0.249867 -0.000697374  -0.0710042 -0.257497 -0.000542641  -0.07041 -0.250004 -0.000530243  -0.0633705 -0.257821 -0.000534296  -0.0634892 -0.257948 -0.00040555  -0.0552614 -0.250612 -0.000522375  -0.0559335 -0.258265 -0.000407219  -0.0553722 -0.250752 -0.000393629  -0.0703623 -0.249932 -0.000615597  -0.0627387 -0.250239 -0.000611544  -0.0634403 -0.25788 -0.000469446  -0.0628645 -0.250378 -0.000459433  -0.0553267 -0.250682 -0.000458002  -0.0628171 -0.25031 -0.000535727  -0.0715587 -0.265009 -0.000540257  -0.0722244 -0.272657 -0.000407457  -0.0716677 -0.265121 -0.000403166  -0.064575 -0.273013 -0.000409842  -0.0646811 -0.273112 -0.000302076  -0.0564685 -0.265805 -0.000408888  -0.0571036 -0.273465 -0.000307322  -0.0565658 -0.265914 -0.000302076  -0.0716207 -0.265069 -0.0004673  -0.063983 -0.265412 -0.000472784  -0.0646389 -0.27306 -0.000358343  -0.06409 -0.265517 -0.000352621  -0.0565245 -0.265858 -0.000351667  -0.0640454 -0.265465 -0.000412464  -0.0727415 -0.280205 -0.000389814  -0.0733638 -0.287846 -0.000295877  -0.072835 -0.280285 -0.000301361  -0.0657234 -0.28824 -0.000296354  -0.0658085 -0.288303 -0.000225067  -0.0576198 -0.281027 -0.000303984  -0.0582206 -0.288685 -0.000222445  -0.0577068 -0.281113 -0.00022316  -0.072803 -0.280246 -0.000345945  -0.0651548 -0.280623 -0.000352383  -0.0657718 -0.288268 -0.000258923  -0.0652514 -0.2807 -0.000263691  -0.0576713 -0.28107 -0.000264645  -0.0652127 -0.280659 -0.000306606  -0.0738573 -0.295423 -0.000277996  -0.0744379 -0.303043 -0.00019908  -0.0739322 -0.295467 -0.000212669  -0.0668046 -0.303465 -0.00020051  -0.0668764 -0.303505 -0.000153065  -0.0587268 -0.296263 -0.000209808  -0.0592923 -0.303906 -0.000154018  -0.0587935 -0.296327 -0.000155687  -0.0739081 -0.295444 -0.00024581  -0.066273 -0.295846 -0.000246286  -0.0668495 -0.303477 -0.000175953  -0.0663495 -0.295897 -0.000184059  -0.0587628 -0.296296 -0.000183582  -0.0663168 -0.295875 -0.000213385  -0.0749168 -0.310632 -0.000172615  -0.0754542 -0.318244 -0.00011611  -0.0749762 -0.310659 -0.000142574  -0.0678408 -0.318685 -0.000120163  -0.0678937 -0.318707 -9.32217e-05  -0.0597804 -0.311505 -0.000138998  -0.060317 -0.319123 -9.05991e-05  -0.0598359 -0.311538 -0.000105619  -0.0749536 -0.310642 -0.000160694  -0.0673275 -0.311068 -0.00016284  -0.067873 -0.318686 -0.000106573  -0.0673907 -0.311102 -0.000120163  -0.059808 -0.311518 -0.000124931  -0.0673654 -0.311084 -0.000139475  -0.0759189 -0.325836 -9.53674e-05  -0.0764279 -0.333416 -6.36578e-05  -0.075969 -0.325844 -7.89165e-05  -0.0688386 -0.333872 -7.1764e-05  -0.0688753 -0.333882 -5.4121e-05  -0.0607946 -0.326711 -8.15392e-05  -0.0613031 -0.334316 -5.17368e-05  -0.060837 -0.32673 -6.50883e-05  -0.0759506 -0.325834 -8.86917e-05  -0.0683436 -0.326272 -8.98838e-05  -0.068857 -0.33387 -6.48499e-05  -0.0683866 -0.32629 -7.05719e-05  -0.060813 -0.326721 -7.24792e-05  -0.0683706 -0.326282 -7.84397e-05  -0.0768807 -0.340996 -4.91142e-05  -0.0773699 -0.348567 -2.57492e-05  -0.0769207 -0.340995 -4.26769e-05  -0.0697963 -0.349028 -2.47955e-05  -0.0698242 -0.349026 -1.81198e-05  -0.061765 -0.341893 -3.6478e-05  -0.0622649 -0.349474 -2.38419e-05  -0.0617971 -0.341901 -2.76566e-05  -0.0769014 -0.340999 -4.76837e-05  -0.0693171 -0.341448 -4.60148e-05  -0.0698063 -0.349023 -1.7643e-05  -0.0693548 -0.341453 -3.74317e-05  -0.0617893 -0.341895 -3.14713e-05  -0.069334 -0.34145 -4.07696e-05  -0.0778122 -0.356132 -1.33514e-05  -0.0782855 -0.363685 -2.6226e-06  -0.077843 -0.356132 -1.78814e-05  -0.0707259 -0.364142 2.38419e-07  -0.0707526 -0.364147 -3.8147e-06  -0.0627139 -0.357038 -9.05991e-06  -0.0631945 -0.364587 3.57628e-06  -0.0627465 -0.357038 -4.52995e-06  -0.0778325 -0.356128 -9.53674e-06  -0.0702641 -0.356587 -9.05991e-06  -0.0707402 -0.364136 -2.6226e-06  -0.0702887 -0.356586 -8.34465e-06  -0.0627296 -0.357034 -5.48363e-06  -0.0702744 -0.356584 -7.62939e-06  -0.0787263 -0.371227 3.09944e-06  -0.0791891 -0.378767 2.47955e-05  -0.0787497 -0.371231 9.53674e-07  -0.0716457 -0.379221 2.38419e-05  -0.0716724 -0.379228 9.05991e-06  -0.0636439 -0.372129 1.71661e-05  -0.0641193 -0.379668 3.12328e-05  -0.0636742 -0.372134 9.05991e-06  -0.0787404 -0.371226 3.09944e-06  -0.0711887 -0.371683 1.0252e-05  -0.0716567 -0.379221 1.74046e-05  -0.0712113 -0.371681 6.67572e-06  -0.063658 -0.372129 1.21593e-05  -0.0712006 -0.371681 7.86781e-06  0 0 0  -0.00297455 -0.000622019 -0.00363016  -0.00198849 -0.00157759 -0.0022254  0 0 0  -0.00114514 0.00027597 -0.00204349  -0.00175271 -0.000730664 -0.00238252  -0.000576708 -0.000285253 -0.00101805  0 0 0  -0.00147453 6.13928e-06 -0.00251317  -0.00232014 -0.00117026 -0.00294232  -0.000755083 -0.000563711 -0.00125241  0 0 0  -0.000665281 -8.96007e-05 -0.00138545  -0.000870481 -0.000356242 -0.00170922  -0.0056164 -0.00320083 -0.00459552  -0.00508067 -0.00461072 -0.00333452  -0.00326337 -0.00119893 -0.00342202  -0.00406237 -0.00341806 -0.00323057  -0.0026429 -0.00239517 -0.00236559  -0.00428554 -0.00172487 -0.00423694  -0.00532395 -0.00398239 -0.00400329  -0.00350522 -0.00295001 -0.0029161  -0.00289975 -0.0018851 -0.00292158  -0.0038255 -0.00242069 -0.0036037  -0.0082503 -0.00713246 -0.00484991  -0.00811213 -0.00872673 -0.00366378  -0.00533277 -0.00445329 -0.00384283  -0.00635096 -0.00747795 -0.00344539  -0.00507975 -0.00594357 -0.00287747  -0.00693551 -0.00499699 -0.00477695  -0.00820205 -0.00799982 -0.00427842  -0.00662005 -0.00651839 -0.00355577  -0.00521621 -0.0052852 -0.00338697  -0.00678068 -0.00583512 -0.00419879  -0.0108759 -0.0123667 -0.00478959  -0.010972 -0.0139918 -0.00364995  -0.0074361 -0.00909972 -0.00388551  -0.00855872 -0.0127728 -0.00339341  -0.00744292 -0.0106951 -0.00296211  -0.00956827 -0.00959027 -0.00485182  -0.0109549 -0.0132414 -0.00423312  -0.00956076 -0.0112124 -0.00368428  -0.00746307 -0.0099759 -0.00344181  -0.0095897 -0.0104718 -0.00428438  -0.0134769 -0.0187848 -0.0045855  -0.0137075 -0.0203546 -0.00349092  -0.00953865 -0.0149947 -0.00375581  -0.0107052 -0.0192134 -0.00324059  -0.00969446 -0.0165802 -0.00287461  -0.0121781 -0.0154292 -0.00470042  -0.0136225 -0.0196254 -0.00404239  -0.0123539 -0.017035 -0.00358081  -0.00963736 -0.0158566 -0.00332665  -0.0122994 -0.0162955 -0.00415134  -0.0160346 -0.0262594 -0.00429511  -0.0163327 -0.0277415 -0.00326228  -0.0116196 -0.0220098 -0.00355601  -0.0128028 -0.0266957 -0.00302243  -0.0118566 -0.0235327 -0.002707  -0.0147658 -0.0223918 -0.00444245  -0.01621 -0.0270538 -0.00378203  -0.0150337 -0.023922 -0.00338197  -0.0117617 -0.0228282 -0.00313878  -0.0149274 -0.0232169 -0.00392222  -0.018521 -0.0346831 -0.00398183  -0.018851 -0.0360675 -0.00301433  -0.0136648 -0.0300269 -0.0033083  -0.0148407 -0.0351188 -0.00279689  -0.0139481 -0.0314587 -0.00251174  -0.0172857 -0.0303573 -0.00413823  -0.0187119 -0.0354226 -0.00350189  -0.0176064 -0.0317943 -0.00313759  -0.0138265 -0.0307938 -0.002913  -0.0174715 -0.031125 -0.0036428  -0.020931 -0.0439637 -0.00366473  -0.0212748 -0.0452375 -0.00276661  -0.0156778 -0.0389393 -0.00305963  -0.0168316 -0.0443948 -0.00257254  -0.0159736 -0.0402717 -0.00231314  -0.0197369 -0.0392179 -0.00382304  -0.0211254 -0.0446409 -0.00321889  -0.0200731 -0.0405443 -0.00288987  -0.0158455 -0.0396535 -0.00268841  -0.0199293 -0.0399288 -0.00335979  -0.0232587 -0.0540189 -0.00335288  -0.0236007 -0.055186 -0.00253248  -0.017637 -0.0486715 -0.00280452  -0.0187608 -0.0544476 -0.00235343  -0.0179363 -0.0498963 -0.00211453  -0.0221053 -0.0488974 -0.00350761  -0.0234497 -0.054643 -0.00294447  -0.0224497 -0.0501174 -0.00264692  -0.0178044 -0.0493296 -0.00246024  -0.0222992 -0.0495467 -0.00308108  -0.0255023 -0.0647783 -0.00306273  -0.0258269 -0.0658389 -0.00230193  -0.0195452 -0.0591492 -0.00256348  -0.0206399 -0.0652125 -0.00213575  -0.0198375 -0.060269 -0.00192904  -0.0243902 -0.0593159 -0.0032053  -0.0256821 -0.0653445 -0.00268459  -0.0247266 -0.0604293 -0.00241709  -0.0197083 -0.0597447 -0.00224614  -0.0245763 -0.0599065 -0.00281167  -0.0276493 -0.0761756 -0.00277853  -0.0279588 -0.0771395 -0.00209022  -0.0214049 -0.070294 -0.00232744  -0.0224522 -0.0766034 -0.00194001  -0.021674 -0.0713066 -0.00174975  -0.0265838 -0.0703956 -0.00291991  -0.0278232 -0.0766835 -0.00243735  -0.026904 -0.0714097 -0.0021944  -0.0215483 -0.0708286 -0.00204039  -0.0267645 -0.070934 -0.00255632  -0.0297114 -0.0881405 -0.00250936  -0.0300031 -0.0890179 -0.0018847  -0.0231925 -0.0820316 -0.0021019  -0.0242041 -0.088578 -0.00175118  -0.0234492 -0.0829542 -0.00158286  -0.0286934 -0.0820852 -0.00264621  -0.0298767 -0.0886045 -0.00219536  -0.0289931 -0.0830043 -0.00198746  -0.0233359 -0.0825216 -0.00184488  -0.0288607 -0.0825753 -0.00231576  -0.0316881 -0.100636 -0.00226307  -0.0319632 -0.101419 -0.0016973  -0.0249212 -0.0943182 -0.00189757  -0.0258967 -0.101074 -0.00157762  -0.025169 -0.0951527 -0.00142956  -0.0307107 -0.0943238 -0.00238442  -0.0318389 -0.101051 -0.0019834  -0.0309895 -0.095151 -0.00179076  -0.0250549 -0.0947638 -0.00166845  -0.0308702 -0.0947643 -0.00208879  -0.0335767 -0.113587 -0.00202465  -0.033831 -0.11429 -0.0015192  -0.0265931 -0.107097 -0.00170183  -0.0275366 -0.114036 -0.00140858  -0.0268314 -0.107847 -0.00128317  -0.0326393 -0.107054 -0.00214481  -0.0337192 -0.113959 -0.00177169  -0.0329068 -0.107794 -0.00160766  -0.0267231 -0.107497 -0.00149322  -0.0327901 -0.107447 -0.00187182  -0.0353794 -0.126956 -0.00179887  -0.0356226 -0.127581 -0.00135112  -0.0282167 -0.120312 -0.0015192  -0.0291204 -0.127404 -0.00125408  -0.0284345 -0.12098 -0.00114036  -0.034488 -0.120221 -0.00190854  -0.0355154 -0.127288 -0.00157499  -0.0347363 -0.120883 -0.00143147  -0.028334 -0.12067 -0.00132918  -0.0346267 -0.120571 -0.00167179  -0.0371085 -0.140686 -0.00158572  -0.0373392 -0.141238 -0.00119185  -0.0297786 -0.133915 -0.0013454  -0.0306454 -0.141135 -0.00110245  -0.0299796 -0.134504 -0.00101113  -0.0362525 -0.133779 -0.00169063  -0.0372341 -0.140975 -0.00138855  -0.0364934 -0.134362 -0.00126863  -0.0298897 -0.134225 -0.00117636  -0.036387 -0.134086 -0.00148034  -0.0387645 -0.154734 -0.00139785  -0.0389693 -0.155215 -0.00104117  -0.0312858 -0.147849 -0.00118566  -0.0321231 -0.155186 -0.000970602  -0.0314772 -0.148371 -0.000883818  -0.0379446 -0.147671 -0.00148845  -0.0388763 -0.154983 -0.0012188  -0.0381632 -0.148183 -0.00111556  -0.0313897 -0.148121 -0.00103307  -0.0380681 -0.14794 -0.00130033  -0.0403445 -0.169051 -0.00121713  -0.040534 -0.169465 -0.000906944  -0.0327442 -0.162076 -0.00103378  -0.0335476 -0.169506 -0.00084281  -0.0329185 -0.162528 -0.000775814  -0.0395601 -0.161858 -0.00130367  -0.0404494 -0.169267 -0.00106001  -0.0397601 -0.162305 -0.000970602  -0.0328441 -0.162315 -0.000905991  -0.0396731 -0.162097 -0.0011375  -0.0418482 -0.183603 -0.0010376  -0.0420187 -0.183955 -0.000773907  -0.034153 -0.176547 -0.000892639  -0.0349174 -0.184059 -0.00071907  -0.0343082 -0.176937 -0.000667572  -0.0411026 -0.176297 -0.00112128  -0.0419428 -0.183785 -0.000903368  -0.0412831 -0.176682 -0.000838757  -0.0342376 -0.176757 -0.000780344  -0.0412059 -0.176499 -0.000977516  -0.0432878 -0.198346 -0.000878811  -0.043443 -0.198653 -0.00065589  -0.0355015 -0.191225 -0.000762463  -0.036238 -0.198804 -0.000611544  -0.0356433 -0.191565 -0.000566483  -0.042578 -0.190944 -0.000957012  -0.0433743 -0.198503 -0.000768661  -0.0427403 -0.191278 -0.000716686  -0.0355833 -0.191407 -0.000663757  -0.042666 -0.191122 -0.000835657  -0.0446615 -0.213247 -0.000739574  -0.0448003 -0.213506 -0.000553131  -0.0368016 -0.20609 -0.000642776  -0.0375102 -0.213711 -0.000510216  -0.0369334 -0.206375 -0.000483036  -0.0439811 -0.205779 -0.000805616  -0.0447426 -0.213383 -0.000646591  -0.0441303 -0.206057 -0.000601768  -0.03688 -0.206239 -0.000563383  -0.0440681 -0.205923 -0.00070715  -0.0459762 -0.228279 -0.000606298  -0.0461006 -0.228483 -0.000451803  -0.0380657 -0.221082 -0.000532389  -0.0387402 -0.228734 -0.000422478  -0.038183 -0.221315 -0.000397205  -0.0453277 -0.220747 -0.000670195  -0.0460422 -0.228384 -0.000528097  -0.0454571 -0.220977 -0.00049901  -0.0381303 -0.221206 -0.000465155  -0.045399 -0.220865 -0.000585318  -0.0472274 -0.243397 -0.000491858  -0.047339 -0.243563 -0.000364542  -0.0392809 -0.236184 -0.000435829  -0.0399241 -0.24385 -0.00033617  -0.0393796 -0.236371 -0.000324249  -0.0466096 -0.235825 -0.00054431  -0.0472884 -0.24348 -0.000426769  -0.0467222 -0.236007 -0.000409126  -0.0393369 -0.236283 -0.000383139  -0.0466695 -0.235922 -0.000477076  -0.0484257 -0.258587 -0.000383615  -0.0485251 -0.258715 -0.000286341  -0.0404534 -0.251357 -0.000342131  -0.0410669 -0.25904 -0.000264645  -0.0405376 -0.251511 -0.000255346  -0.0478318 -0.250982 -0.000436544  -0.0484781 -0.258652 -0.000332355  -0.0479367 -0.25113 -0.000326633  -0.0405002 -0.251439 -0.000303268  -0.0478914 -0.251058 -0.0003829  -0.0495727 -0.273819 -0.000290871  -0.0496542 -0.273917 -0.000218868  -0.0415838 -0.266588 -0.000267029  -0.0421693 -0.274265 -0.000200748  -0.0416498 -0.266704 -0.000196218  -0.0490041 -0.266197 -0.00033474  -0.0496192 -0.273866 -0.00025177  -0.0490944 -0.266309 -0.00025034  -0.0416214 -0.26665 -0.000227451  -0.0490544 -0.266253 -0.000291824  -0.0506766 -0.289066 -0.000213623  -0.0507472 -0.289141 -0.000158072  -0.0426736 -0.281835 -0.000200748  -0.0432377 -0.289514 -0.000146151  -0.0427308 -0.28193 -0.000144482  -0.0501306 -0.281433 -0.000252962  -0.0507171 -0.289099 -0.000187159  -0.0502024 -0.281521 -0.000185966  -0.0427082 -0.281886 -0.000173092  -0.0501716 -0.281478 -0.000219345  -0.0517364 -0.30432 -0.000153065  -0.0517943 -0.304364 -0.000109434  -0.0437298 -0.297105 -0.000142097  -0.0442677 -0.304761 -9.89437e-05  -0.0437789 -0.297171 -0.000103235  -0.0512118 -0.296685 -0.000178337  -0.0517666 -0.304333 -0.000129938  -0.0512722 -0.296747 -0.000129223  -0.0437539 -0.297138 -0.00012517  -0.0512464 -0.296717 -0.000154257  -0.0527592 -0.31955 -9.13143e-05  -0.0528076 -0.319582 -6.36578e-05  -0.044755 -0.31236 -0.000100613  -0.0452719 -0.319995 -6.05583e-05  -0.0447955 -0.312404 -7.10487e-05  -0.0522523 -0.31193 -0.000119925  -0.0527847 -0.31956 -7.53403e-05  -0.0523059 -0.311969 -8.44002e-05  -0.0447729 -0.312382 -8.4877e-05  -0.0522792 -0.311949 -0.000104904  -0.0537493 -0.334748 -4.72069e-05  -0.0537865 -0.334772 -3.95775e-05  -0.0457485 -0.327583 -6.22272e-05  -0.0462551 -0.335192 -2.88486e-05  -0.0457833 -0.327612 -3.67165e-05  -0.0532558 -0.327148 -7.31945e-05  -0.0537703 -0.334754 -4.45843e-05  -0.0532994 -0.327172 -5.24521e-05  -0.0457675 -0.327598 -4.8399e-05  -0.0532789 -0.327159 -6.41346e-05  -0.0547135 -0.349918 -1.69277e-05  -0.0547383 -0.349921 -2.02656e-05  -0.0467155 -0.342783 -3.02792e-05  -0.0472028 -0.350365 -1.62125e-05  -0.0467386 -0.34279 -2.02656e-05  -0.0542383 -0.342339 -3.48091e-05  -0.0547271 -0.349919 -1.88351e-05  -0.0542643 -0.342345 -2.74181e-05  -0.0467305 -0.342782 -2.5034e-05  -0.0542512 -0.342337 -2.93255e-05  -0.0556474 -0.36504 4.52995e-06  -0.0556724 -0.365044 5.48363e-06  -0.0476518 -0.357932 -2.14577e-06  -0.0481398 -0.365485 9.29832e-06  -0.0476835 -0.357933 -1.19209e-06  -0.0551827 -0.357485 -1.14441e-05  -0.0556624 -0.365037 4.76837e-06  -0.0552082 -0.357485 -6.4373e-06  -0.0476742 -0.35793 -4.05312e-06  -0.0551958 -0.357484 -9.77516e-06  -0.0565634 -0.380113 3.74317e-05  -0.0565975 -0.380118 1.93119e-05  -0.0485804 -0.373027 1.83582e-05  -0.0490568 -0.380553 3.0756e-05  -0.0486097 -0.373028 1.97887e-05  -0.0561104 -0.372575 1.57356e-05  -0.0565846 -0.380111 2.07424e-05  -0.0561354 -0.372584 1.35899e-05  -0.0485983 -0.373025 1.90735e-05  -0.0561254 -0.372575 1.26362e-05  0 0 0  -0.00163896 0.00010854 -0.00219154  -0.00105783 -0.000816792 -0.00136566  0 0 0  -0.000539806 0.000545532 -0.00101399  -0.000796758 -0.00026235 -0.00119567  -0.000257771 -1.04308e-05 -0.000514507  0 0 0  -0.00083356 0.0004448 -0.00152421  -0.00125239 -0.000439525 -0.00179124  -0.000407442 -0.000109404 -0.000767708  0 0 0  -0.000306256 0.00017032 -0.00069499  -0.000472859 7.4178e-05 -0.00104308  -0.00308558 -0.00222895 -0.00278258  -0.00277479 -0.00358814 -0.00203991  -0.00149421 -0.000582635 -0.00172043  -0.0018581 -0.00274494 -0.00163031  -0.00119413 -0.0017603 -0.00119877  -0.00234297 -0.000817746 -0.00256968  -0.00292063 -0.00300768 -0.00244093  -0.00188899 -0.00200734 -0.00178981  -0.0013171 -0.00128257 -0.00147223  -0.00207736 -0.00151494 -0.00220037  -0.00462627 -0.00622368 -0.00292277  -0.00455868 -0.00776863 -0.00222635  -0.00244945 -0.00376958 -0.00192404  -0.00295538 -0.00681961 -0.00173593  -0.00234866 -0.00523713 -0.00145411  -0.0038453 -0.00404117 -0.00288582  -0.00460961 -0.00708309 -0.00259686  -0.0036712 -0.00551569 -0.00217128  -0.00240257 -0.00460541 -0.00170708  -0.00376791 -0.00487643 -0.00255179  -0.00620231 -0.0115662 -0.00287628  -0.00628844 -0.013145 -0.00220537  -0.00347325 -0.00848821 -0.00194359  -0.00405657 -0.0121992 -0.00170445  -0.00351137 -0.010054 -0.00149632  -0.00541213 -0.00873181 -0.00291491  -0.00626934 -0.0124228 -0.00255346  -0.00543222 -0.0103061 -0.00223184  -0.00350764 -0.00935864 -0.00173163  -0.00544313 -0.00960311 -0.00258636  -0.00778753 -0.0180764 -0.00274611  -0.00796288 -0.0196265 -0.00210118  -0.0045352 -0.0144646 -0.0018785  -0.00516695 -0.0187311 -0.00162053  -0.00465304 -0.0160382 -0.00144482  -0.00699788 -0.0146731 -0.00281715  -0.00789708 -0.0189152 -0.00243282  -0.00713205 -0.0162472 -0.0021584  -0.00461262 -0.0153254 -0.00166869  -0.00708717 -0.0155314 -0.0024972  -0.00936943 -0.0256594 -0.00256467  -0.00959468 -0.0271295 -0.00196195  -0.00562012 -0.0215652 -0.00176787  -0.00627238 -0.0262986 -0.0015142  -0.00578696 -0.0230824 -0.00136113  -0.0085817 -0.0217354 -0.00266409  -0.00949836 -0.0264443 -0.00227094  -0.00878257 -0.023253 -0.00203633  -0.00571793 -0.0223901 -0.00156951  -0.00870109 -0.0225544 -0.00235367  -0.0109453 -0.0341817 -0.00238252  -0.0111887 -0.035562 -0.00180864  -0.00672793 -0.0296702 -0.00164318  -0.00739324 -0.0348068 -0.00139737  -0.00691342 -0.0310983 -0.00125623  -0.0101507 -0.0298007 -0.00247693  -0.0110773 -0.034914 -0.00209761  -0.0103954 -0.0312247 -0.00188518  -0.00683111 -0.0304416 -0.00145173  -0.0102876 -0.0305683 -0.00218368  -0.012501 -0.0435587 -0.00219488  -0.0127495 -0.0448353 -0.00165796  -0.00784153 -0.0386743 -0.0015173  -0.00851989 -0.0441692 -0.00127983  -0.00804687 -0.0400038 -0.0011549  -0.0117269 -0.0387549 -0.0022862  -0.0126413 -0.0442376 -0.00192976  -0.0119727 -0.0400904 -0.0017345  -0.00795501 -0.0393865 -0.00133801  -0.0118625 -0.0394739 -0.00201178  -0.0140377 -0.0537136 -0.00200176  -0.0142858 -0.0548914 -0.00151086  -0.0089705 -0.04849 -0.00138807  -0.00965655 -0.0543165 -0.00116849  -0.0091747 -0.049719 -0.00105262  -0.0132738 -0.0485393 -0.00209475  -0.0141746 -0.0543429 -0.00175714  -0.013521 -0.0497666 -0.0015831  -0.00908959 -0.0491506 -0.00122118  -0.0134139 -0.0491946 -0.00184035  -0.0155473 -0.0645786 -0.00182581  -0.0157917 -0.0656468 -0.00137305  -0.0101209 -0.0590507 -0.00126767  -0.0107998 -0.0651642 -0.00105524  -0.0103171 -0.060176 -0.000955582  -0.014796 -0.0590597 -0.00191236  -0.0156834 -0.0651514 -0.00160003  -0.0150437 -0.0601857 -0.00144482  -0.0102283 -0.0596524 -0.00110984  -0.0149297 -0.0596582 -0.00168014  -0.017037 -0.0760759 -0.00165439  -0.0172669 -0.0770492 -0.00124383  -0.0112703 -0.0702846 -0.0011487  -0.0119443 -0.0766507 -0.000958443  -0.0114559 -0.0713075 -0.000864983  -0.0162942 -0.0702525 -0.00173616  -0.0171624 -0.0765941 -0.00145078  -0.0165313 -0.0712686 -0.00130892  -0.011371 -0.0708292 -0.00100732  -0.0164269 -0.0707936 -0.00152493  -0.0184978 -0.0881545 -0.00149322  -0.0187089 -0.0890227 -0.00112271  -0.0124166 -0.0821102 -0.00103688  -0.0130923 -0.0887076 -0.000865221  -0.0125957 -0.0830463 -0.000780344  -0.0177718 -0.0820384 -0.00157285  -0.0186131 -0.0886117 -0.00130868  -0.017989 -0.0829708 -0.00118113  -0.012518 -0.0826083 -0.000909805  -0.0178912 -0.0825318 -0.00137925  -0.0199243 -0.100734 -0.00134254  -0.0201266 -0.101529 -0.00100493  -0.0135696 -0.0944844 -0.000931501  -0.0142376 -0.101286 -0.00077033  -0.0137386 -0.095325 -0.000700235  -0.0192155 -0.0943733 -0.00141716  -0.0200357 -0.10115 -0.00117707  -0.0194237 -0.0952123 -0.00106525  -0.0136622 -0.0949347 -0.000812531  -0.0193251 -0.0948201 -0.00124192  -0.0213252 -0.113778 -0.00119233  -0.0215167 -0.114488 -0.000900269  -0.0147178 -0.107346 -0.000831842  -0.0153812 -0.11432 -0.000683784  -0.0148811 -0.108102 -0.00062561  -0.0206296 -0.107197 -0.00126719  -0.0214276 -0.114152 -0.00104594  -0.0208288 -0.10795 -0.00095129  -0.0148093 -0.107746 -0.000728846  -0.0207375 -0.107595 -0.00110912  -0.0226963 -0.12723 -0.00106621  -0.0228748 -0.127867 -0.000794649  -0.0158677 -0.120638 -0.000733137  -0.0165147 -0.127764 -0.000607491  -0.0160153 -0.121311 -0.000555515  -0.022016 -0.120449 -0.00112987  -0.0227916 -0.127564 -0.000931263  -0.0221961 -0.121123 -0.00084734  -0.015949 -0.120996 -0.000645876  -0.0221133 -0.120809 -0.000987291  -0.0240366 -0.141039 -0.000941277  -0.024202 -0.141601 -0.000702381  -0.0170146 -0.134306 -0.00065732  -0.0176525 -0.141572 -0.000537634  -0.0171534 -0.134909 -0.000489235  -0.0233647 -0.134093 -0.000995398  -0.0241232 -0.141333 -0.000821114  -0.0235394 -0.134685 -0.000750303  -0.0170877 -0.134623 -0.000571728  -0.0234617 -0.134405 -0.000874043  -0.0253499 -0.155164 -0.000820875  -0.0254991 -0.155654 -0.000611067  -0.018153 -0.148307 -0.000567198  -0.0187807 -0.15568 -0.000468969  -0.0182805 -0.148839 -0.000427246  -0.0246956 -0.14806 -0.000882626  -0.0254307 -0.155415 -0.000714064  -0.0248554 -0.148588 -0.000660181  -0.0182183 -0.148589 -0.000500917  -0.0247798 -0.148338 -0.000771523  -0.0266309 -0.169547 -0.000715971  -0.0267665 -0.169978 -0.000531912  -0.0192809 -0.162597 -0.000499725  -0.0199039 -0.170065 -0.000401974  -0.019393 -0.163062 -0.00037241  -0.0259941 -0.162318 -0.000762701  -0.0267024 -0.169772 -0.000622034  -0.0261331 -0.162778 -0.000574589  -0.0193419 -0.16284 -0.000436306  -0.0260732 -0.162562 -0.000668526  -0.0278752 -0.184165 -0.000609398  -0.0279956 -0.184531 -0.000453472  -0.0203981 -0.177131 -0.000425577  -0.0210059 -0.184669 -0.000345469  -0.0205019 -0.177532 -0.000320435  -0.027252 -0.176822 -0.00065732  -0.0279393 -0.184352 -0.000530243  -0.0273836 -0.177224 -0.000494957  -0.0204556 -0.177339 -0.000371695  -0.0273259 -0.177034 -0.000577927  -0.0290868 -0.198965 -0.000518799  -0.0291982 -0.199275 -0.000385523  -0.0214951 -0.191861 -0.000361443  -0.0220976 -0.199465 -0.000292301  -0.0215919 -0.192206 -0.000267506  -0.0284908 -0.191533 -0.000562668  -0.0291505 -0.199123 -0.00045085  -0.028599 -0.191876 -0.000417233  -0.0215514 -0.192043 -0.000319004  -0.0285456 -0.191716 -0.000488997  -0.0302653 -0.213911 -0.000433683  -0.0303719 -0.214181 -0.000323772  -0.022594 -0.206764 -0.000305176  -0.0231783 -0.214407 -0.000237942  -0.0226765 -0.207058 -0.000228405  -0.0296772 -0.206417 -0.000474453  -0.0303288 -0.21405 -0.000378132  -0.0297875 -0.206708 -0.000353336  -0.0226402 -0.206918 -0.000265837  -0.029743 -0.206568 -0.000415325  -0.0314245 -0.22898 -0.000355482  -0.0315163 -0.229206 -0.000263929  -0.0236721 -0.221796 -0.000251293  -0.0242419 -0.229475 -0.000198364  -0.0237439 -0.222041 -0.000187635  -0.0308468 -0.221435 -0.000393629  -0.0314713 -0.229094 -0.000310183  -0.0309458 -0.22167 -0.000293732  -0.0237098 -0.221928 -0.000217199  -0.0309064 -0.221556 -0.000342846  -0.0325556 -0.244142 -0.000285387  -0.0326326 -0.244327 -0.000206709  -0.0247302 -0.236934 -0.00020504  -0.0252922 -0.244625 -0.000156879  -0.0247965 -0.237133 -0.000146151  -0.0319901 -0.236552 -0.000319958  -0.0325935 -0.244233 -0.000249147  -0.0320752 -0.236749 -0.000236034  -0.0247672 -0.237037 -0.000178099  -0.0320377 -0.236654 -0.000276566  -0.0336521 -0.259365 -0.000221491  -0.0337141 -0.259506 -0.000164747  -0.0257766 -0.252143 -0.000163078  -0.0263226 -0.25984 -0.000117779  -0.025836 -0.252303 -0.000118971  -0.0331044 -0.251743 -0.000256062  -0.0336859 -0.259435 -0.000191927  -0.0331762 -0.251903 -0.000186682  -0.0258107 -0.252225 -0.000138521  -0.0331445 -0.251825 -0.000218391  -0.0347168 -0.274623 -0.000170946  -0.034771 -0.274733 -0.00012207  -0.0268044 -0.267391 -0.000121593  -0.0273411 -0.275092 -8.82149e-05  -0.0268564 -0.267523 -9.10759e-05  -0.0341885 -0.266989 -0.000194311  -0.0347447 -0.274678 -0.000145912  -0.0342453 -0.267107 -0.000143528  -0.0268335 -0.26746 -0.000105858  -0.0342185 -0.267051 -0.000170708  -0.0357552 -0.289897 -0.000115395  -0.0358009 -0.289977 -9.20296e-05  -0.0278215 -0.282677 -9.20296e-05  -0.0283439 -0.290356 -6.22272e-05  -0.0278573 -0.28277 -6.69956e-05  -0.0352385 -0.282258 -0.000141621  -0.0357819 -0.289935 -0.000104666  -0.035289 -0.282348 -0.000108004  -0.0278451 -0.282721 -7.55787e-05  -0.0352657 -0.2823 -0.000123739  -0.0367727 -0.305168 -8.60691e-05  -0.0368078 -0.305223 -6.41346e-05  -0.0288177 -0.297951 -6.1512e-05  -0.0293236 -0.305622 -4.29153e-05  -0.0288448 -0.298024 -4.76837e-05  -0.0362644 -0.297526 -0.000101328  -0.0367911 -0.30519 -7.27177e-05  -0.0363059 -0.297594 -7.60555e-05  -0.0288379 -0.297988 -5.4121e-05  -0.0362911 -0.297561 -8.84533e-05  -0.0377579 -0.320415 -5.45979e-05  -0.0377922 -0.32045 -3.83854e-05  -0.0297964 -0.31322 -3.88622e-05  -0.030293 -0.320871 -2.88486e-05  -0.0298207 -0.313269 -3.0756e-05  -0.0372672 -0.312791 -6.79493e-05  -0.0377798 -0.320433 -4.57764e-05  -0.0372977 -0.312835 -4.95911e-05  -0.0298123 -0.313247 -3.57628e-05  -0.0372872 -0.312813 -5.84126e-05  -0.0387349 -0.335632 -3.14713e-05  -0.0387554 -0.335655 -2.36034e-05  -0.0307548 -0.328461 -2.67029e-05  -0.0312483 -0.336084 -1.45435e-05  -0.0307808 -0.328494 -1.66893e-05  -0.0382483 -0.328018 -4.22001e-05  -0.0387456 -0.335638 -2.69413e-05  -0.038276 -0.328051 -2.93255e-05  -0.0307727 -0.328478 -2.21729e-05  -0.0382638 -0.328038 -3.45707e-05  -0.0396833 -0.350811 -8.58307e-06  -0.0396993 -0.350818 -1.21593e-05  -0.0317094 -0.343668 -4.52995e-06  -0.0321853 -0.351252 4.76837e-07  -0.0317261 -0.343684 -5.72205e-06  -0.0392077 -0.343224 -1.81198e-05  -0.0396888 -0.350807 -1.04904e-05  -0.0392265 -0.343238 -1.3113e-05  -0.0317197 -0.343673 -7.62939e-06  -0.0392196 -0.34323 -1.81198e-05  -0.0406129 -0.365936 9.77516e-06  -0.0406308 -0.365939 6.91414e-06  -0.0326409 -0.358821 1.66893e-06  -0.0331113 -0.366378 7.62939e-06  -0.0326512 -0.358823 4.05312e-06  -0.0401473 -0.358379 3.57628e-06  -0.0406201 -0.365932 8.82149e-06  -0.0401647 -0.358379 -1.66893e-06  -0.0326493 -0.358822 7.15256e-07  -0.0401559 -0.358373 1.43051e-06  -0.0415277 -0.381009 3.21865e-05  -0.041544 -0.381004 2.21729e-05  -0.0335598 -0.37392 1.93119e-05  -0.0340307 -0.381437 1.19209e-05  -0.0335784 -0.373918 8.34465e-06  -0.0410736 -0.373471 2.28882e-05  -0.0415397 -0.380993 2.21729e-05  -0.0410867 -0.373473 1.45435e-05  -0.0335674 -0.373916 1.38283e-05  -0.0410831 -0.373472 1.81198e-05  0 0 0  -0.00048802 0.000367373 -0.000709295  -0.000304095 -0.000545055 -0.00045085  0 0 0  2.62931e-05 0.000588119 3.05176e-05  5.79953e-05 -0.000180602 2.26498e-05  1.6503e-05 3.48687e-05 1.07288e-05  0 0 0  -0.00025275 0.000589579 -0.00049448  -0.000362672 -0.000183851 -0.000584364  -0.000115748 3.53158e-05 -0.000252008  0 0 0  2.27615e-05 0.000214756 1.85966e-05  -0.000139195 0.00021401 -0.0003407  -0.000887439 -0.00184199 -0.000915051  -0.000806972 -0.00318083 -0.000680685  0.000113964 -0.000467002 3.93391e-05  0.000138581 -0.00261459 1.57356e-05  8.82447e-05 -0.00163436 1.26362e-05  -0.000678658 -0.000473022 -0.000841141  -0.000845835 -0.00261873 -0.000811577  -0.000543803 -0.00164416 -0.000594378  9.93013e-05 -0.00116321 1.93119e-05  -0.000598699 -0.00116944 -0.000724077  -0.00135106 -0.00583977 -0.000968695  -0.0013634 -0.00736707 -0.000752449  0.000195771 -0.00364506 2.5034e-05  0.000198275 -0.00670382 4.05312e-06  0.000153005 -0.00509742 2.6226e-06  -0.00110993 -0.00363871 -0.000950813  -0.00136465 -0.00669241 -0.00086689  -0.00108203 -0.00509682 -0.000727654  0.000173062 -0.00447711 9.53674e-06  -0.00110272 -0.00447381 -0.000848532  -0.00185758 -0.0112252 -0.000946522  -0.0019387 -0.0128138 -0.000740528  0.000248462 -0.00839132 1.50204e-05  0.000207603 -0.0121309 7.62939e-06  0.000182718 -0.00995561 -6.67572e-06  -0.00160158 -0.00837061 -0.000964165  -0.00190902 -0.0120998 -0.000847101  -0.00165033 -0.00993645 -0.000752687  0.000211537 -0.0092639 3.57628e-06  -0.00163242 -0.00924647 -0.00086689  -0.00241864 -0.0178176 -0.000901937  -0.00253886 -0.0193721 -0.000702381  0.000238121 -0.014422 1.81198e-05  0.000159264 -0.0187114 5.48363e-06  0.000159204 -0.0159896 -3.09944e-06  -0.00213635 -0.0143803 -0.000929832  -0.0024876 -0.0186641 -0.000807047  -0.00223327 -0.0159519 -0.000725031  0.000192523 -0.0152829 8.10623e-06  -0.00219411 -0.0152445 -0.000831127  -0.0030241 -0.0254681 -0.000840425  -0.00316387 -0.0269442 -0.000652075  0.000160456 -0.0215769 1.74046e-05  4.47631e-05 -0.0263328 9.77516e-06  6.74129e-05 -0.0230915 -2.86102e-06  -0.00271809 -0.0215152 -0.000875711  -0.00310379 -0.0262607 -0.000751019  -0.00284457 -0.0230283 -0.000678062  0.000112057 -0.0223967 5.48363e-06  -0.00279301 -0.0223364 -0.000778675  -0.00367522 -0.034068 -0.000780821  -0.00382 -0.0354452 -0.000601292  9.65595e-06 -0.0297299 1.57356e-05  -0.000149965 -0.0348974 1.21593e-05  -9.60827e-05 -0.031158 3.09944e-06  -0.0033437 -0.0296492 -0.000812054  -0.00375652 -0.0348019 -0.000692844  -0.00348949 -0.0310784 -0.000626087  -4.63128e-05 -0.0305004 1.23978e-05  -0.00342268 -0.0304187 -0.000723362  -0.00436974 -0.0435109 -0.000713348  -0.00452304 -0.0447968 -0.000544548  -0.000216842 -0.0387897 2.24113e-05  -0.000416577 -0.0443147 2.12193e-05  -0.000318289 -0.040121 1.09673e-05  -0.0040167 -0.0386806 -0.000747204  -0.00445223 -0.0441978 -0.000629902  -0.00416994 -0.0400132 -0.000572443  -0.000275612 -0.0395034 1.40667e-05  -0.00409871 -0.0393956 -0.000662088  -0.00510597 -0.0537409 -0.000639915  -0.00526392 -0.0549288 -0.000496864  -0.000520229 -0.048657 3.12328e-05  -0.000754714 -0.0545152 2.7895e-05  -0.000625253 -0.0498939 1.54972e-05  -0.00473201 -0.0485319 -0.000682592  -0.0051918 -0.0543717 -0.000570536  -0.00488675 -0.049763 -0.000517845  -0.000578761 -0.0493221 2.16961e-05  -0.00481904 -0.0491913 -0.000599861  -0.00588393 -0.0646812 -0.000584126  -0.00603199 -0.0657587 -0.000442505  -0.000891328 -0.0592777 3.67165e-05  -0.00115812 -0.0654243 3.29018e-05  -0.000993371 -0.0604137 2.3365e-05  -0.00549054 -0.0591251 -0.000612974  -0.00596452 -0.0652532 -0.000513792  -0.00564599 -0.060254 -0.000466585  -0.000948906 -0.0598862 2.98023e-05  -0.00557315 -0.0597277 -0.000539541  -0.00670028 -0.0762559 -0.000526667  -0.00683951 -0.0772376 -0.000397205  -0.00133336 -0.0705649 4.12464e-05  -0.00162995 -0.0769706 3.02792e-05  -0.00142896 -0.0716037 2.57492e-05  -0.00628984 -0.0703896 -0.000554085  -0.0067724 -0.0767717 -0.000463486  -0.00643003 -0.0714178 -0.000422478  -0.0013839 -0.0711228 3.00407e-05  -0.00636697 -0.0709397 -0.00048852  -0.00754082 -0.0883946 -0.000469208  -0.00767326 -0.0892866 -0.000356674  -0.00183439 -0.0824562 4.79221e-05  -0.00216293 -0.0890861 4.1008e-05  -0.00192976 -0.0833995 2.88486e-05  -0.00711465 -0.082247 -0.000495911  -0.00761259 -0.0888643 -0.000412941  -0.00725365 -0.0831869 -0.000375986  -0.00188863 -0.082959 3.67165e-05  -0.00718987 -0.0827518 -0.000434637  -0.00841236 -0.101054 -0.000416756  -0.00853586 -0.101856 -0.000313282  -0.00239742 -0.0948938 4.43459e-05  -0.00274289 -0.101725 3.55244e-05  -0.00248575 -0.0957431 2.81334e-05  -0.00797546 -0.0946556 -0.000439405  -0.00847864 -0.101475 -0.000365257  -0.00809848 -0.0954999 -0.000334978  -0.00244451 -0.0953438 3.74317e-05  -0.00804198 -0.0951077 -0.000388622  -0.00930774 -0.114164 -0.000368118  -0.00942552 -0.11488 -0.000283241  -0.00301588 -0.107806 4.81606e-05  -0.00338221 -0.114816 3.3617e-05  -0.0030967 -0.108569 2.93255e-05  -0.00885534 -0.107546 -0.000392199  -0.00936961 -0.114542 -0.000324011  -0.008973 -0.108308 -0.000295162  -0.00305593 -0.108212 3.67165e-05  -0.00892305 -0.107951 -0.000344515  -0.0102272 -0.127674 -0.00032568  -0.0103323 -0.128323 -0.00024271  -0.00367796 -0.121148 4.41074e-05  -0.00407231 -0.128311 4.07696e-05  -0.00375354 -0.121833 3.33786e-05  -0.00976479 -0.120867 -0.000349045  -0.0102856 -0.128013 -0.000284433  -0.00987542 -0.121547 -0.000258923  -0.00372159 -0.121513 3.98159e-05  -0.00982392 -0.121229 -0.000302553  -0.0111673 -0.141547 -0.000279665  -0.0112668 -0.14212 -0.000213146  -0.00439274 -0.134872 4.98295e-05  -0.00480294 -0.142164 4.43459e-05  -0.00446475 -0.13548 3.40939e-05  -0.0106953 -0.134567 -0.000309229  -0.0112153 -0.141844 -0.000248432  -0.0107965 -0.135172 -0.000226736  -0.00443196 -0.135196 4.26769e-05  -0.0107476 -0.134888 -0.00026679  -0.0121191 -0.155722 -0.00024581  -0.012207 -0.156225 -0.000180006  -0.00515485 -0.148915 4.41074e-05  -0.00556946 -0.156324 3.57628e-05  -0.00520635 -0.149458 3.31402e-05  -0.0116391 -0.148591 -0.000266075  -0.0121691 -0.155981 -0.000214577  -0.0117338 -0.14913 -0.000196695  -0.00518322 -0.149205 3.86238e-05  -0.0116904 -0.148876 -0.000229836  -0.0130854 -0.170162 -0.000207901  -0.013166 -0.1706 -0.000158548  -0.00593853 -0.163248 4.55379e-05  -0.00637317 -0.170742 3.67165e-05  -0.00599074 -0.163725 3.62396e-05  -0.0126009 -0.162901 -0.00022459  -0.013129 -0.170385 -0.000184774  -0.0126843 -0.163376 -0.000168324  -0.00596642 -0.1635 4.1008e-05  -0.0126472 -0.163153 -0.000197411  -0.0140615 -0.184815 -0.0001719  -0.0141318 -0.185194 -0.000132322  -0.0067625 -0.177819 4.55379e-05  -0.00720406 -0.185386 3.62396e-05  -0.00680995 -0.178233 2.95639e-05  -0.0135746 -0.17746 -0.00019002  -0.0140972 -0.185012 -0.000156403  -0.013644 -0.177867 -0.000145912  -0.00678635 -0.178037 4.00543e-05  -0.0136125 -0.177673 -0.000169277  -0.0150411 -0.199656 -0.000152111  -0.0151007 -0.199976 -0.000112772  -0.00760841 -0.192592 3.95775e-05  -0.00805902 -0.20021 2.95639e-05  -0.00764918 -0.192944 2.98023e-05  -0.014549 -0.192212 -0.000164747  -0.0150716 -0.199827 -0.00013566  -0.0146163 -0.192562 -0.000123978  -0.00762987 -0.19278 3.19481e-05  -0.0145836 -0.192398 -0.000141621  -0.016017 -0.214645 -0.000120163  -0.0160754 -0.214917 -8.79765e-05  -0.00847721 -0.20752 3.57628e-05  -0.00893688 -0.215188 3.05176e-05  -0.00851083 -0.207821 2.88486e-05  -0.0155294 -0.207135 -0.000137329  -0.0160494 -0.214788 -0.000101328  -0.015589 -0.207427 -0.000100374  -0.00849676 -0.207682 2.95639e-05  -0.0155597 -0.207288 -0.000118017  -0.0170012 -0.229749 -9.75132e-05  -0.01705 -0.229976 -7.05719e-05  -0.00936651 -0.222588 3.57628e-05  -0.00983214 -0.230277 3.12328e-05  -0.00939322 -0.222835 2.6226e-05  -0.0165126 -0.222184 -0.000110626  -0.0170319 -0.229866 -8.05855e-05  -0.0165639 -0.22243 -7.98702e-05  -0.00938201 -0.222718 3.24249e-05  -0.0165391 -0.222313 -9.48906e-05  -0.0179896 -0.244933 -7.55787e-05  -0.0180311 -0.245119 -5.24521e-05  -0.0102701 -0.237745 3.21865e-05  -0.0107377 -0.245452 2.43187e-05  -0.0102923 -0.23795 2.36034e-05  -0.0175011 -0.237332 -8.79765e-05  -0.0180082 -0.24503 -6.74725e-05  -0.017539 -0.237533 -6.48499e-05  -0.0102818 -0.237856 2.52724e-05  -0.0175188 -0.237439 -7.48634e-05  -0.0189662 -0.260187 -5.67436e-05  -0.0190017 -0.260329 -3.86238e-05  -0.0111816 -0.252976 2.5034e-05  -0.0116529 -0.260686 2.43187e-05  -0.0112004 -0.25314 2.28882e-05  -0.0184772 -0.25255 -6.58035e-05  -0.0189841 -0.260254 -4.81606e-05  -0.0185173 -0.252713 -4.86374e-05  -0.0111938 -0.25306 2.6226e-05  -0.0184982 -0.252637 -5.43594e-05  -0.0199351 -0.275462 -3.48091e-05  -0.0199666 -0.275573 -2.40803e-05  -0.0120962 -0.268245 2.76566e-05  -0.0125709 -0.275946 2.09808e-05  -0.012115 -0.268373 2.09808e-05  -0.0194523 -0.267814 -4.76837e-05  -0.0199518 -0.275513 -2.95639e-05  -0.0194833 -0.267941 -3.31402e-05  -0.0121129 -0.268311 2.12193e-05  -0.0194669 -0.267879 -3.83854e-05  -0.0209043 -0.290743 -2.38419e-05  -0.0209246 -0.290836 -1.93119e-05  -0.0130274 -0.283533 2.16961e-05  -0.0134978 -0.291227 2.43187e-05  -0.0130365 -0.283635 1.78814e-05  -0.0204215 -0.283097 -3.24249e-05  -0.0209191 -0.290789 -2.26498e-05  -0.0204515 -0.283197 -2.3365e-05  -0.0130339 -0.283586 2.12193e-05  -0.0204356 -0.283151 -2.7895e-05  -0.021858 -0.306031 -1.14441e-05  -0.0218771 -0.30609 -1.16825e-05  -0.0139523 -0.29883 2.16961e-05  -0.0144255 -0.3065 1.3113e-05  -0.0139639 -0.2989 1.45435e-05  -0.0213811 -0.298387 -2.45571e-05  -0.0218725 -0.306058 -1.43051e-05  -0.0214007 -0.29846 -1.74046e-05  -0.0139613 -0.298864 1.85966e-05  -0.0213962 -0.298423 -1.69277e-05  -0.0228152 -0.321294 -7.62939e-06  -0.0228248 -0.321334 -1.66893e-06  -0.0148797 -0.314102 1.78814e-05  -0.0153511 -0.321752 1.26362e-05  -0.0148888 -0.314155 1.81198e-05  -0.0223408 -0.313659 -1.19209e-05  -0.0228174 -0.32131 -5.00679e-06  -0.0223498 -0.313708 -1.04904e-05  -0.0148857 -0.314128 1.69277e-05  -0.0223422 -0.313684 -7.86781e-06  -0.0237513 -0.336526 -1.90735e-06  -0.0237613 -0.336546 -5.96046e-06  -0.0158057 -0.329356 1.26362e-05  -0.016273 -0.336976 7.39098e-06  -0.0158076 -0.329387 6.91414e-06  -0.023284 -0.328907 -4.52995e-06  -0.0237563 -0.336529 -4.05312e-06  -0.0232944 -0.32894 -4.05312e-06  -0.0158112 -0.32937 1.00136e-05  -0.0232902 -0.328921 -3.57628e-06  -0.0246842 -0.351698 -2.38419e-07  -0.0246902 -0.351715 2.38419e-06  -0.0167255 -0.344562 1.00136e-05  -0.01719 -0.352153 1.33514e-05  -0.0167305 -0.34458 1.00136e-05  -0.0242145 -0.34411 -2.38419e-07  -0.0246871 -0.351703 4.29153e-06  -0.0242267 -0.34413 2.38419e-06  -0.0167298 -0.344568 5.96046e-06  -0.0242221 -0.344118 1.19209e-06  -0.0256035 -0.366833 3.57628e-06  -0.0256073 -0.366834 2.86102e-06  -0.0176523 -0.359719 4.05312e-06  -0.0181072 -0.367277 9.53674e-07  -0.017652 -0.359728 5.96046e-06  -0.0251439 -0.359269 3.33786e-06  -0.0256081 -0.366826 3.57628e-06  -0.0251482 -0.359277 7.39098e-06  -0.017653 -0.359723 5.72205e-06  -0.0251486 -0.359274 5.96046e-06  -0.0265174 -0.381891 5.24521e-06  -0.0265207 -0.381891 2.14577e-06  -0.0185564 -0.374817 2.38419e-06  -0.019016 -0.382328 -3.33786e-06  -0.0185647 -0.374817 2.14577e-06  -0.0260601 -0.37436 8.58307e-06  -0.0265222 -0.38188 7.86781e-06  -0.026067 -0.374364 4.05312e-06  -0.0185609 -0.374814 -2.38419e-07  -0.0260665 -0.374362 6.67572e-06  0 0 0  0.000621095 0.000293255 0.000781059  0.000402778 -0.000611007 0.000473976  0 0 0  0.000582062 0.000453234 0.00106525  0.000907734 -0.000407279 0.0012331  0.000298597 -8.4579e-05 0.000531912  0 0 0  0.000304274 0.000545144 0.000548124  0.000481382 -0.000254691 0.00063014  0.000153229 1.37091e-06 0.000272512  0 0 0  0.000341639 9.20892e-05 0.000724316  0.00017982 0.000174642 0.000370741  0.00119951 -0.00196731 0.000966549  0.00105458 -0.00329572 0.000698805  0.00171241 -0.000789881 0.00176525  0.00213104 -0.0029875 0.00164914  0.00136943 -0.00194454 0.0012114  0.000906825 -0.00057447 0.00090456  0.00112337 -0.00273854 0.000842333  0.000718296 -0.00173473 0.000616789  0.00151059 -0.00147849 0.00149941  0.000799909 -0.00126332 0.00076437  0.00179836 -0.00599831 0.00100517  0.00170588 -0.00751328 0.000739574  0.00282598 -0.00406116 0.00195503  0.00334263 -0.00712681 0.00173068  0.00264767 -0.00549817 0.00144553  0.00150463 -0.00378394 0.000993729  0.00175658 -0.00684911 0.000872135  0.00138912 -0.00523275 0.000728607  0.0027445 -0.00488096 0.00171137  0.00144386 -0.00461227 0.000864506  0.00235927 -0.0114253 0.000977039  0.00228709 -0.0129935 0.000730515  0.00395104 -0.00883436 0.00195956  0.00446206 -0.0125716 0.00169778  0.00385994 -0.0103843 0.00147676  0.00209105 -0.00854737 0.000992298  0.00232333 -0.0122898 0.000854492  0.00200734 -0.0101015 0.000739336  0.00391749 -0.00969601 0.00172377  0.00205052 -0.00941581 0.000867844  0.00282747 -0.0180395 0.000932932  0.00276989 -0.0195834 0.000694513  0.00499517 -0.0148759 0.00189352  0.00546312 -0.0191666 0.00161815  0.00494719 -0.016436 0.0014286  0.0026058 -0.0145908 0.000956774  0.00280172 -0.018881 0.000814676  0.00254136 -0.016149 0.000714302  0.004978 -0.0157277 0.00166392  0.00257498 -0.0154444 0.000835657  0.00320572 -0.0257242 0.000878334  0.00314742 -0.0271878 0.000653982  0.00592053 -0.0220424 0.00179124  0.00632912 -0.026801 0.00151968  0.00589502 -0.0235485 0.00135112  0.00303012 -0.0217531 0.000907421  0.00317621 -0.0265151 0.000765562  0.00297225 -0.0232615 0.000677109  0.00591117 -0.0228597 0.00157213  0.00300163 -0.022572 0.00078702  0.00347608 -0.0343552 0.000826359  0.00342149 -0.0357333 0.000608683  0.0067153 -0.0302116 0.00167918  0.00706035 -0.035386 0.00141716  0.00669837 -0.0316388 0.00125861  0.00335264 -0.0299188 0.000850677  0.00344598 -0.0350893 0.000714779  0.00329798 -0.0313467 0.000632286  0.00671196 -0.0309804 0.00146937  0.00332475 -0.0306894 0.000737667  0.00364137 -0.0438416 0.000760794  0.00358498 -0.0451307 0.000567198  0.00737637 -0.0392867 0.00156093  0.00765932 -0.0448353 0.00131226  0.00736976 -0.0406257 0.00116801  0.0035705 -0.0389897 0.000796556  0.00361264 -0.0445284 0.00066638  0.00351447 -0.0403256 0.000589132  0.00737745 -0.0400074 0.0013659  0.00354421 -0.0397058 0.000692844  0.0037086 -0.0541195 0.000710487  0.00365222 -0.0553058 0.000529289  0.00791085 -0.0491911 0.00144196  0.00811994 -0.0550668 0.00121331  0.00789857 -0.0504321 0.00108171  0.00368822 -0.048879 0.000738144  0.00367558 -0.0547475 0.000621557  0.00363195 -0.0501188 0.000547409  0.00790691 -0.049855 0.00126243  0.00365603 -0.0495415 0.000641346  0.00367296 -0.0651002 0.00065732  0.00361621 -0.066183 0.00048852  0.00830638 -0.0598422 0.00133419  0.00845647 -0.0660077 0.00111604  0.00829911 -0.0609769 0.000993967  0.00370252 -0.0595189 0.000686407  0.00364423 -0.0656764 0.000574827  0.00364709 -0.0606546 0.000506401  0.00830412 -0.0604498 0.00116277  0.00367224 -0.0601264 0.000597239  0.00353682 -0.0767147 0.000603437  0.00348556 -0.0777065 0.000451088  0.00858223 -0.0711648 0.00122166  0.00866222 -0.077587 0.00101876  0.00856936 -0.0722062 0.000911951  0.00361359 -0.070823 0.000630617  0.00350976 -0.0772429 0.000527382  0.00356352 -0.0718648 0.00047183  0.00857198 -0.0717182 0.00106692  0.00358844 -0.0713798 0.000551224  0.0033145 -0.0889107 0.000553131  0.00326228 -0.0898004 0.000417233  0.00872207 -0.0830849 0.00111771  0.00874579 -0.0897397 0.000927448  0.00871122 -0.0840331 0.000834465  0.0034343 -0.0827333 0.00058198  0.00329041 -0.0893791 0.000482082  0.00338483 -0.08368 0.000431061  0.00871801 -0.0835925 0.000977516  0.00341284 -0.0832406 0.000504017  0.00300157 -0.101605 0.000505686  0.00295818 -0.102416 0.000379086  0.00874794 -0.0955536 0.00101304  0.00871897 -0.102406 0.000844479  0.0087409 -0.0964113 0.00075841  0.00317442 -0.095194 0.000528574  0.00298274 -0.102031 0.000442743  0.00312018 -0.0960424 0.000395298  0.00874805 -0.0960099 0.000886679  0.00314641 -0.0956446 0.000461578  0.00261486 -0.114756 0.000463247  0.00257683 -0.115489 0.00034523  0.00867152 -0.1085 0.000921965  0.00858629 -0.115532 0.000765085  0.00866818 -0.109275 0.000690699  0.00281537 -0.108121 0.000486612  0.00259507 -0.115144 0.000403643  0.00277436 -0.108893 0.000363588  0.00866532 -0.108913 0.000806093  0.00279677 -0.108532 0.000419378  0.00215876 -0.128318 0.00041604  0.00212121 -0.128964 0.000312805  0.00848126 -0.121874 0.000824928  0.0083518 -0.129053 0.000685453  0.00848258 -0.122562 0.000622034  0.00239611 -0.121485 0.000440121  0.00213671 -0.128655 0.000365496  0.00235724 -0.122174 0.000326395  0.00848401 -0.122243 0.000726223  0.00237584 -0.121851 0.000384569  0.00162363 -0.14222 0.000373363  0.00159574 -0.1428 0.00027442  0.00820148 -0.135619 0.000738621  0.00803041 -0.142933 0.000612974  0.00820458 -0.136238 0.000554085  0.00190425 -0.135218 0.000397205  0.00160837 -0.142526 0.000325441  0.00186789 -0.135833 0.000294685  0.00820363 -0.135949 0.000646591  0.00187838 -0.135549 0.000344753  0.00103331 -0.156436 0.000336409  0.00100684 -0.156941 0.000246763  0.00783277 -0.1497 0.000660181  0.00761652 -0.157113 0.000544071  0.00783515 -0.150239 0.00049448  0.00133538 -0.149286 0.000349283  0.00101638 -0.156699 0.000289679  0.00130892 -0.149828 0.000264406  0.00783396 -0.149985 0.000577688  0.00131941 -0.149575 0.000307083  0.000379801 -0.170901 0.000296831  0.000365019 -0.171345 0.000220299  0.00737906 -0.164051 0.000582933  0.0071311 -0.171559 0.000474215  0.00738168 -0.164526 0.000435591  0.00071311 -0.16363 0.000308752  0.000374079 -0.171131 0.0002563  0.000692368 -0.164105 0.000233412  0.00738049 -0.164307 0.000510693  0.000701427 -0.163885 0.000275135  -0.000312567 -0.18559 0.000256777  -0.000328302 -0.185974 0.000190973  0.00686312 -0.178646 0.000510454  0.00657678 -0.186222 0.00041151  0.00686502 -0.179057 0.00038147  3.86238e-05 -0.178211 0.000275612  -0.000319719 -0.185788 0.000227928  2.5034e-05 -0.178626 0.000207424  0.00686383 -0.178862 0.00044775  3.50475e-05 -0.178433 0.000241756  -0.00105 -0.200445 0.000225782  -0.00105977 -0.200784 0.000166893  0.00626826 -0.193434 0.000441313  0.00595808 -0.201063 0.000361681  0.00628328 -0.193789 0.000332117  -0.000674963 -0.192997 0.000239849  -0.00105143 -0.200623 0.000197411  -0.000687599 -0.193356 0.00017786  0.00627255 -0.193622 0.000385284  -0.000684023 -0.193185 0.000212431  -0.00182176 -0.215459 0.000191212  -0.00183392 -0.215744 0.000141859  0.00562692 -0.20838 0.000378847  0.0052917 -0.216053 0.000301838  0.00563598 -0.208683 0.000280857  -0.00143075 -0.20794 0.000203609  -0.00182748 -0.215607 0.000167608  -0.001441 -0.208243 0.000155449  0.0056324 -0.208542 0.000328302  -0.00143671 -0.208099 0.000180721  -0.0026288 -0.23059 0.000164032  -0.00263405 -0.230817 0.000117302  0.00493097 -0.223457 0.000323057  0.00457311 -0.231153 0.000255823  0.00494099 -0.223709 0.000238657  -0.00222254 -0.223015 0.000178337  -0.00263166 -0.230708 0.000142097  -0.00223064 -0.223264 0.00013566  0.00493908 -0.223592 0.000281572  -0.00222492 -0.223143 0.000159264  -0.00346375 -0.245793 0.000132799  -0.00346828 -0.24598 0.000100613  0.00418735 -0.238628 0.000260353  0.00381041 -0.246338 0.000204802  0.00420332 -0.23884 0.000196457  -0.00304461 -0.238182 0.000145912  -0.00346494 -0.245889 0.000114441  -0.0030458 -0.238386 0.000109673  0.0041976 -0.238739 0.00022769  -0.00304341 -0.238287 0.000127554  -0.00432062 -0.26105 0.00011158  -0.00432062 -0.261202 8.22544e-05  0.00340986 -0.253864 0.000217676  0.00301409 -0.261576 0.000165701  0.00342464 -0.254037 0.000157595  -0.00388908 -0.253408 0.000121832  -0.00432372 -0.261125 9.799e-05  -0.00389051 -0.253579 9.10759e-05  0.00341392 -0.253951 0.000187159  -0.00389171 -0.253499 0.000105143  -0.00519013 -0.276331 8.91685e-05  -0.0051918 -0.276452 6.74725e-05  0.00259805 -0.269141 0.000170708  0.00219393 -0.276852 0.000131845  0.00260997 -0.269276 0.000127077  -0.00475454 -0.268684 0.000100613  -0.00519466 -0.276393 7.70092e-05  -0.00475264 -0.268817 7.62939e-05  0.00260568 -0.269213 0.000148773  -0.00475931 -0.268756 8.86917e-05  -0.006078 -0.291639 6.91414e-05  -0.00608063 -0.291722 5.24521e-05  0.00176167 -0.284438 0.000128746  0.00134087 -0.292133 0.000100136  0.00177932 -0.28454 0.000101805  -0.00563407 -0.28398 7.79629e-05  -0.00607896 -0.291674 6.29425e-05  -0.00563669 -0.284082 5.98431e-05  0.00176907 -0.284492 0.000115633  -0.00563288 -0.284033 6.74725e-05  -0.00698137 -0.306928 5.07832e-05  -0.00697637 -0.306987 3.69549e-05  0.000904322 -0.299732 9.56059e-05  0.000475645 -0.307408 7.60555e-05  0.000916958 -0.299804 7.51019e-05  -0.00652695 -0.299278 6.27041e-05  -0.00697565 -0.306951 4.14848e-05  -0.00652194 -0.299346 4.57764e-05  0.000912666 -0.29977 8.4877e-05  -0.00652647 -0.299312 5.65052e-05  -0.00788617 -0.322189 3.74317e-05  -0.00787711 -0.322235 2.69413e-05  2.98023e-05 -0.315016 7.08103e-05  -0.000409126 -0.322663 4.91142e-05  4.26769e-05 -0.315071 5.50747e-05  -0.00743103 -0.314554 4.60148e-05  -0.00787783 -0.322205 3.29018e-05  -0.00742698 -0.314607 3.40939e-05  3.74317e-05 -0.31504 6.05583e-05  -0.00742865 -0.31458 4.29153e-05  -0.0087893 -0.337419 1.7643e-05  -0.00878263 -0.337449 1.71661e-05  -0.000854015 -0.330262 5.36442e-05  -0.00129843 -0.337886 3.12328e-05  -0.000843287 -0.330297 3.43323e-05  -0.00833464 -0.329805 3.05176e-05  -0.0087862 -0.337427 1.90735e-05  -0.00832772 -0.329839 2.12193e-05  -0.000854015 -0.33028 4.14848e-05  -0.00833178 -0.329822 2.31266e-05  -0.00970078 -0.352608 6.4373e-06  -0.00969815 -0.352619 1.19209e-05  -0.00175381 -0.345469 3.14713e-05  -0.00220108 -0.353063 1.38283e-05  -0.00174332 -0.345491 1.90735e-05  -0.0092485 -0.345014 1.83582e-05  -0.0096972 -0.352607 7.62939e-06  -0.0092392 -0.345033 1.3113e-05  -0.00174785 -0.345479 2.36034e-05  -0.00924087 -0.345024 1.66893e-05  -0.0106113 -0.367744 -2.38419e-07  -0.0106068 -0.367744 2.86102e-06  -0.00266504 -0.360629 5.00679e-06  -0.00310922 -0.368188 1.19209e-06  -0.00264788 -0.360641 6.91414e-06  -0.0101531 -0.360172 7.39098e-06  -0.010608 -0.367732 3.8147e-06  -0.0101557 -0.360183 6.4373e-06  -0.00265408 -0.360632 7.15256e-06  -0.0101531 -0.360177 6.19888e-06  -0.0115106 -0.382788 -1.21593e-05  -0.0115125 -0.382796 -4.76837e-07  -0.0035646 -0.375729 -1.33514e-05  -0.00400877 -0.383247 -2.09808e-05  -0.0035584 -0.375728 -9.29832e-06  -0.011061 -0.37527 -5.96046e-06  -0.0115099 -0.382784 -6.91414e-06  -0.0110588 -0.375273 -5.48363e-06  -0.0035584 -0.375727 -8.10623e-06  -0.01106 -0.375268 -6.91414e-06  0 0 0  0.00174801 -0.000124931 0.00225234  0.00115578 -0.00100839 0.0013783  0 0 0  0.00115599 9.71556e-05 0.00208211  0.00185047 -0.00100899 0.00239611  0.00060527 -0.000428975 0.00103307  0 0 0  0.000860289 0.000311494 0.00156903  0.00136331 -0.000652671 0.00182533  0.000439674 -0.000221908 0.000785351  0 0 0  0.000696167 -0.00024575 0.00141311  0.000509903 -4.37498e-05 0.00107193  0.00337523 -0.00260949 0.00280619  0.00301409 -0.00392276 0.002033  0.00344659 -0.00160605 0.00343394  0.00431052 -0.00387859 0.00320768  0.00280859 -0.00274259 0.00235081  0.00254679 -0.00113022 0.00260949  0.00318336 -0.00336081 0.00244117  0.00206022 -0.00227195 0.00179005  0.00307412 -0.00226229 0.00291228  0.00226803 -0.00180411 0.00221825  0.00505006 -0.00669897 0.00293398  0.00488284 -0.00820422 0.00219464  0.00566965 -0.00500977 0.0038166  0.00669548 -0.00807613 0.00340056  0.00535399 -0.00644845 0.00282383  0.00420979 -0.00446808 0.00290203  0.00497729 -0.00753397 0.00257444  0.00396439 -0.00590396 0.00214648  0.00552139 -0.00581867 0.00334501  0.00409159 -0.0052799 0.0025413  0.00666493 -0.0121208 0.00288057  0.00660419 -0.0136823 0.00217795  0.0078733 -0.00978357 0.00386071  0.0089072 -0.0135034 0.0033586  0.00774807 -0.011336 0.0029161  0.0058744 -0.00924784 0.00291824  0.00664991 -0.0129778 0.00253296  0.00576377 -0.0107952 0.0022006  0.00782686 -0.0106388 0.00339842  0.00583178 -0.0101045 0.00256872  0.0081569 -0.0187345 0.00275731  0.00814855 -0.0202696 0.00207901  0.0099479 -0.0158022 0.00374603  0.0109373 -0.0200776 0.00321507  0.00992191 -0.0173604 0.00283051  0.00742763 -0.0152788 0.00282454  0.0081628 -0.019566 0.00242019  0.00739759 -0.0168371 0.00213385  0.00994337 -0.0166512 0.00329399  0.00742602 -0.016133 0.00248051  0.00950408 -0.0264043 0.00259447  0.00952178 -0.0278757 0.00195312  0.0118434 -0.0229509 0.00355124  0.0127781 -0.0276985 0.00301957  0.0118875 -0.024455 0.00268078  0.00885057 -0.022442 0.00267601  0.00952005 -0.0271993 0.00227523  0.00885844 -0.0239459 0.00201869  0.0118806 -0.0237634 0.00312138  0.00886405 -0.0232574 0.00235128  0.0106903 -0.0350446 0.00241899  0.0107231 -0.0364252 0.00181675  0.0135801 -0.0311053 0.00332642  0.0144255 -0.0362831 0.00281596  0.013648 -0.0325352 0.00250769  0.0101185 -0.0306038 0.00250578  0.0107127 -0.035786 0.00211906  0.0101441 -0.0320368 0.00188684  0.0136273 -0.0318788 0.00292063  0.0101349 -0.0313774 0.00219798  0.0117185 -0.0445531 0.00223255  0.0117507 -0.0458364 0.00167727  0.0151256 -0.0401827 0.00308919  0.0158818 -0.0457307 0.00260162  0.0152056 -0.0415221 0.00232315  0.0112227 -0.0396878 0.00232744  0.0117381 -0.0452352 0.00195193  0.0112607 -0.0410264 0.00174856  0.0151773 -0.0409034 0.00270629  0.0112481 -0.0404066 0.00203514  0.0125782 -0.0548422 0.00206351  0.0126131 -0.0560253 0.00154328  0.0164808 -0.0500926 0.00285125  0.0171345 -0.0559655 0.00239539  0.0165594 -0.0513286 0.00214052  0.0121682 -0.0495979 0.00214887  0.0125993 -0.0554737 0.00180387  0.0122026 -0.0508373 0.0016098  0.016531 -0.050753 0.00249767  0.0121891 -0.0502579 0.0018785  0.0132787 -0.0658426 0.00189829  0.0133134 -0.0669305 0.00141454  0.0176433 -0.060742 0.00262928  0.018198 -0.0669131 0.00219822  0.0177244 -0.0618823 0.00196886  0.0129484 -0.0602486 0.00197673  0.0133011 -0.0664206 0.00165248  0.0129845 -0.0613869 0.00148129  0.0176893 -0.061353 0.00229645  0.0129684 -0.0608594 0.00172949  0.0138206 -0.077482 0.00173807  0.013855 -0.0784693 0.00129437  0.0186158 -0.0720726 0.00240803  0.0190761 -0.0785025 0.00200844  0.0186894 -0.0731161 0.0017972  0.0135654 -0.0715798 0.0018146  0.0138404 -0.0780044 0.00151253  0.0136037 -0.0726206 0.00135493  0.0186592 -0.0726296 0.00210166  0.0135918 -0.0721363 0.00158477  0.0142128 -0.0896842 0.00158  0.0142474 -0.0905921 0.00118041  0.0194035 -0.0840049 0.00219107  0.0197741 -0.0906598 0.00182486  0.0194746 -0.0849547 0.00164175  0.0140377 -0.0835092 0.00165796  0.0142357 -0.0901666 0.0013814  0.0140686 -0.0844569 0.00123835  0.0194468 -0.0845118 0.00191426  0.0140573 -0.084017 0.00144815  0.0144666 -0.102408 0.0014329  0.0144979 -0.103227 0.00106597  0.0200104 -0.0964752 0.00198627  0.0203041 -0.103333 0.00164986  0.020089 -0.0973375 0.00148749  0.0143558 -0.0959801 0.00150299  0.014487 -0.102839 0.00124884  0.0143912 -0.0968411 0.00112295  0.0200605 -0.0969382 0.00173736  0.0143774 -0.0964411 0.00131202  0.014585 -0.115581 0.00129128  0.0146174 -0.116318 0.000958443  0.020466 -0.109432 0.00179386  0.0206676 -0.116463 0.00148344  0.0205349 -0.11021 0.00133991  0.0145454 -0.108943 0.00135994  0.0146075 -0.115967 0.00112653  0.0145755 -0.109712 0.00101328  0.020505 -0.109847 0.00156403  0.014562 -0.109351 0.0011878  0.0145774 -0.129156 0.00115705  0.0146117 -0.129808 0.000861406  0.0207547 -0.122818 0.00160623  0.020884 -0.13 0.00132799  0.0208205 -0.123508 0.00120282  0.0145966 -0.122316 0.00121903  0.0145988 -0.129502 0.0010078  0.0146313 -0.123008 0.000912905  0.0207953 -0.123183 0.00140548  0.0146161 -0.122686 0.00106406  0.0144522 -0.143077 0.0010314  0.0144901 -0.143661 0.000768185  0.0209029 -0.136568 0.00142646  0.0209568 -0.143884 0.00117683  0.0209663 -0.13719 0.00107265  0.0145277 -0.136071 0.00108695  0.0144734 -0.143384 0.000896454  0.0145686 -0.13669 0.000815392  0.0209359 -0.136902 0.00124884  0.0145502 -0.1364 0.000952721  0.01422 -0.157304 0.000908136  0.0142584 -0.157814 0.000676394  0.0209126 -0.150652 0.00126886  0.0209045 -0.158071 0.00104046  0.0209739 -0.151197 0.000953197  0.0143454 -0.150151 0.000961542  0.0142431 -0.15757 0.000790358  0.0143878 -0.150695 0.000725985  0.0209472 -0.150944 0.00111246  0.0143716 -0.150441 0.000844717  0.0138907 -0.171792 0.000800371  0.0139277 -0.172236 0.000593185  0.0207963 -0.165015 0.00111723  0.0207286 -0.172521 0.000911474  0.0208569 -0.16549 0.000834465  0.01407 -0.164515 0.000849247  0.013912 -0.172023 0.000699043  0.0141053 -0.16499 0.000635386  0.0208302 -0.165268 0.00097394  0.0140891 -0.164768 0.000744104  0.013469 -0.186492 0.000689745  0.0135119 -0.186877 0.000513077  0.0205693 -0.179605 0.000974894  0.0204434 -0.187185 0.000787735  0.0206239 -0.180027 0.000730276  0.0136893 -0.179109 0.000742674  0.0134954 -0.186685 0.000602245  0.0137317 -0.179525 0.000555277  0.0205994 -0.179827 0.000851393  0.0137155 -0.179328 0.000649452  0.0129695 -0.201366 0.000593424  0.0130107 -0.20169 0.000445366  0.0202334 -0.194394 0.000841141  0.0200589 -0.202029 0.000678539  0.0202866 -0.194754 0.00063014  0.0132308 -0.193898 0.000639915  0.0129931 -0.201532 0.000521183  0.0132706 -0.194258 0.00047946  0.0202608 -0.194589 0.000733614  0.0132525 -0.19409 0.000560045  0.0124078 -0.216385 0.000502825  0.0124397 -0.216659 0.00037241  0.0198028 -0.209344 0.000718832  0.0195909 -0.217017 0.000573397  0.0198636 -0.209651 0.000532389  0.0126948 -0.208852 0.000548363  0.0124259 -0.216526 0.00043869  0.0127351 -0.209157 0.000410795  0.0198367 -0.209506 0.000624895  0.0127194 -0.20901 0.000478268  0.0117707 -0.23151 0.000412464  0.011806 -0.231739 0.000309229  0.0192938 -0.22442 0.000593185  0.0190401 -0.232119 0.000474691  0.019346 -0.224678 0.000446796  0.0120959 -0.223928 0.000456333  0.0117929 -0.231626 0.000359297  0.01213 -0.224184 0.000339985  0.0193264 -0.224554 0.000519037  0.012116 -0.224059 0.000398159  0.0110769 -0.246718 0.000341177  0.0111167 -0.246911 0.000253201  0.0187018 -0.239588 0.000490904  0.0184152 -0.247303 0.000390053  0.0187562 -0.2398 0.000369072  0.0114331 -0.239098 0.000377893  0.0111003 -0.246813 0.000297785  0.0114694 -0.239309 0.000281572  0.0187371 -0.239699 0.000428438  0.0114522 -0.239209 0.000329494  0.0103433 -0.261973 0.000275135  0.0103769 -0.262124 0.000205994  0.0180509 -0.254819 0.000398874  0.0177326 -0.262534 0.000305891  0.0181038 -0.254991 0.000297308  0.0107162 -0.254331 0.000300884  0.0103629 -0.262049 0.00024271  0.0107517 -0.254504 0.000228643  0.0180812 -0.254911 0.000346422  0.01074 -0.254423 0.000264645  0.00957084 -0.27726 0.000215054  0.00959802 -0.27738 0.000159979  0.0173454 -0.270093 0.000313044  0.0170014 -0.277799 0.000242949  0.0173926 -0.270227 0.00023365  0.00996566 -0.26961 0.000244856  0.0095861 -0.277322 0.000186682  0.0099926 -0.269747 0.000182867  0.0173779 -0.270165 0.000272036  0.00998068 -0.269683 0.000212193  0.0087564 -0.292561 0.000167847  0.00878406 -0.292644 0.000123739  0.0165915 -0.285379 0.000246048  0.0162244 -0.293077 0.000186205  0.0166302 -0.285485 0.000183105  0.00916791 -0.284909 0.000189066  0.00877213 -0.292602 0.000146627  0.00919533 -0.28501 0.00014019  0.0166156 -0.285437 0.000213146  0.00918436 -0.284958 0.000163317  0.00792336 -0.30785 0.000122309  0.00794554 -0.307918 8.58307e-05  0.0158002 -0.300675 0.000182152  0.0154078 -0.30835 0.0001266  0.0158372 -0.300752 0.000128746  0.00834394 -0.300203 0.000140667  0.00793552 -0.307879 0.000103474  0.00836873 -0.300272 0.000103474  0.0158198 -0.300716 0.000154972  0.00835466 -0.300239 0.000122786  0.00705719 -0.32311 7.86781e-05  0.00708461 -0.32316 5.57899e-05  0.0149739 -0.315949 0.000127316  0.014564 -0.323601 9.2268e-05  0.0150063 -0.316004 9.36985e-05  0.00749516 -0.315481 9.799e-05  0.00707364 -0.323132 6.86646e-05  0.00751853 -0.315534 7.4625e-05  0.0149903 -0.315978 0.000106573  0.00750709 -0.315506 8.79765e-05  0.00617862 -0.338344 4.98295e-05  0.00619864 -0.338367 3.79086e-05  0.0141172 -0.331193 8.46386e-05  0.0136971 -0.338813 5.48363e-05  0.0141432 -0.33123 5.91278e-05  0.00662136 -0.330725 6.65188e-05  0.00619483 -0.338347 4.43459e-05  0.00664377 -0.330765 4.76837e-05  0.014132 -0.331209 7.27177e-05  0.00663495 -0.330743 5.48363e-05  0.00528979 -0.353521 2.12193e-05  0.00530744 -0.353539 1.54972e-05  0.0132425 -0.346398 4.31538e-05  0.0128074 -0.353985 2.09808e-05  0.0132701 -0.346415 3.50475e-05  0.00573683 -0.345934 3.6478e-05  0.00530028 -0.353524 1.7643e-05  0.00576043 -0.34595 2.59876e-05  0.0132539 -0.346404 3.86238e-05  0.0057466 -0.345939 3.29018e-05  0.00438857 -0.368651 -6.4373e-06  0.00440574 -0.368653 -9.53674e-07  0.0123479 -0.361547 1.40667e-05  0.0119123 -0.369106 -2.14577e-06  0.0123689 -0.361555 1.14441e-05  0.00484538 -0.361087 9.77516e-06  0.00439858 -0.368646 -3.8147e-06  0.00485778 -0.361095 9.29832e-06  0.0123618 -0.361551 1.09673e-05  0.00484967 -0.36109 9.53674e-06  0.00348234 -0.383712 -3.38554e-05  0.00350428 -0.383718 -1.7643e-05  0.011447 -0.376647 -1.33514e-05  0.0110097 -0.384174 -2.52724e-05  0.0114682 -0.376648 -1.35899e-05  0.00393748 -0.37619 -1.45435e-05  0.00349522 -0.383711 -2.16961e-05  0.00395608 -0.376186 -1.04904e-05  0.0114629 -0.376646 -1.45435e-05  0.00394559 -0.376184 -1.23978e-05  0 0 0  0.0030335 -0.00100118 0.00364399  0.00208713 -0.00188076 0.00221467  0 0 0  0.00180481 -0.000669003 0.00301766  0.00305198 -0.00221252 0.0034349  0.00102518 -0.00121516 0.00148678  0 0 0  0.00145837 -0.000211895 0.00254083  0.00241257 -0.00150782 0.00293541  0.000788756 -0.000737667 0.00126243  0 0 0  0.00115722 -0.000996351 0.00203395  0.000897951 -0.000544429 0.00172663  0.005851 -0.00380141 0.00455213  0.00529006 -0.00513262 0.00327563  0.0055598 -0.00301385 0.00496435  0.00692078 -0.00534678 0.00464773  0.00466418 -0.00421154 0.00338602  0.00443622 -0.00222385 0.00421286  0.00554594 -0.00454021 0.00393939  0.00366686 -0.00337213 0.0028789  0.00503168 -0.0036785 0.00419068  0.00398868 -0.0028789 0.00356817  0.00861278 -0.00791115 0.00479913  0.00837225 -0.00943273 0.00358534  0.0089328 -0.00646406 0.00561619  0.010441 -0.00951666 0.00500202  0.00850207 -0.00796014 0.00412822  0.0072439 -0.00568599 0.00472569  0.00851026 -0.00873953 0.00420165  0.00686124 -0.00713277 0.00348282  0.00871509 -0.00728154 0.00488925  0.00705412 -0.00648761 0.00412869  0.011266 -0.0132865 0.00474858  0.0112063 -0.0148626 0.00358081  0.0121682 -0.0111902 0.00572944  0.0137207 -0.0148882 0.00498486  0.0120141 -0.0127839 0.00429392  0.00996089 -0.0104386 0.00480032  0.0112586 -0.0141432 0.00417566  0.00982222 -0.0119998 0.0036099  0.0121086 -0.0120519 0.00502157  0.00991037 -0.011291 0.00421643  0.0137569 -0.0198691 0.0045588  0.0137957 -0.0214096 0.0034349  0.0152435 -0.0171655 0.00557923  0.0167696 -0.0214264 0.00478292  0.0152556 -0.0187468 0.0042026  0.0125329 -0.0164315 0.00466204  0.0137942 -0.020697 0.00400209  0.0125311 -0.0179986 0.0035181  0.015272 -0.0180171 0.00489688  0.0125531 -0.0172809 0.00409412  0.0160571 -0.0275204 0.00429463  0.0161458 -0.0289909 0.00323057  0.0181311 -0.0242803 0.00530005  0.0195727 -0.0290209 0.00450444  0.0182245 -0.0257933 0.00399399  0.0149333 -0.0235617 0.00443101  0.0161186 -0.0283082 0.0037663  0.0149994 -0.0250707 0.00333834  0.0182027 -0.0250955 0.00464725  0.014984 -0.0243779 0.00388551  0.0181538 -0.0361432 0.00400114  0.0182669 -0.0375234 0.00301099  0.0207932 -0.032415 0.00496912  0.0221311 -0.037577 0.00420046  0.0209293 -0.0338448 0.00373626  0.0171313 -0.0317099 0.00415206  0.0182258 -0.0368785 0.00350714  0.0172368 -0.0331354 0.00312328  0.0208819 -0.0331829 0.00435328  0.0172012 -0.0324823 0.00364065  0.0200254 -0.0456367 0.00370479  0.0201458 -0.0469213 0.00277925  0.0232154 -0.04147 0.00461149  0.02443 -0.0470021 0.00387621  0.023367 -0.0428028 0.00346613  0.0191169 -0.0407826 0.00385046  0.0201001 -0.0463198 0.00324607  0.0192345 -0.0421138 0.0028944  0.0233113 -0.0421855 0.0040369  0.0191926 -0.0414969 0.00337315  0.0216738 -0.0559158 0.00341129  0.0217978 -0.0571013 0.00255704  0.0253875 -0.0513526 0.00424957  0.0264659 -0.0572155 0.00356627  0.0255371 -0.0525862 0.00319338  0.0208787 -0.0506768 0.00355816  0.0217508 -0.0565479 0.00298333  0.0210013 -0.0519137 0.00266576  0.0254791 -0.0520135 0.003721  0.0209533 -0.0513372 0.00310993  0.0231067 -0.0669121 0.0031302  0.0232244 -0.0679982 0.00234675  0.0272985 -0.0619838 0.00391388  0.0282497 -0.0681448 0.00327539  0.0274466 -0.0631208 0.00293112  0.0224181 -0.0613218 0.00327206  0.0231751 -0.0674881 0.00273871  0.0225399 -0.062462 0.00245094  0.0273886 -0.0625938 0.00342226  0.0224912 -0.06193 0.00286126  0.0243164 -0.0785438 0.00285769  0.0244277 -0.0795375 0.00213528  0.0289552 -0.073297 0.00357819  0.0297819 -0.0797157 0.00298214  0.0291075 -0.0743326 0.00267792  0.0237349 -0.0726427 0.00299358  0.0243826 -0.0790681 0.0024991  0.0238497 -0.0736848 0.00224209  0.0290447 -0.0738521 0.00312614  0.0238045 -0.0732041 0.00261235  0.025314 -0.0907425 0.00259805  0.0254275 -0.0916548 0.00194216  0.0303741 -0.0852154 0.00325704  0.0310799 -0.0918636 0.00271201  0.0305179 -0.0861597 0.00244093  0.0248389 -0.0845708 0.00272679  0.0253817 -0.0912289 0.00226998  0.0249535 -0.0855221 0.00204039  0.0304618 -0.0857177 0.00284791  0.0249068 -0.0850777 0.0023818  0.0261208 -0.103461 0.00235105  0.0262241 -0.104283 0.00175405  0.0315583 -0.0976684 0.00295258  0.0321465 -0.104513 0.00245404  0.0316981 -0.0985276 0.00220942  0.0257442 -0.0970388 0.00247574  0.0261821 -0.103894 0.00205064  0.0258515 -0.0979022 0.00184774  0.0316422 -0.098129 0.00257993  0.025805 -0.0975013 0.00216103  0.0267345 -0.116636 0.00211239  0.0268335 -0.117368 0.00158119  0.0325217 -0.110606 0.00265789  0.0330009 -0.117634 0.00220537  0.0326502 -0.111384 0.00199223  0.0264473 -0.109989 0.00223112  0.0267925 -0.117021 0.00184321  0.0265529 -0.110764 0.00167036  0.0326 -0.111021 0.00232553  0.0265114 -0.110402 0.0019505  0.0271696 -0.130204 0.00189066  0.0272707 -0.130866 0.00140977  0.0332769 -0.123977 0.00238657  0.0336511 -0.131155 0.00196648  0.033402 -0.124676 0.00178385  0.0269729 -0.123368 0.00199795  0.0272268 -0.130551 0.00164962  0.027077 -0.124066 0.00149655  0.0333505 -0.12435 0.00208378  0.0270301 -0.12374 0.00174594  0.0274394 -0.144126 0.00167346  0.027539 -0.144708 0.00125313  0.0338299 -0.137716 0.00212407  0.0341108 -0.145026 0.00174809  0.0339495 -0.138337 0.00158978  0.0273222 -0.137116 0.00178003  0.0274968 -0.14443 0.00146198  0.0274235 -0.137741 0.00132966  0.0339041 -0.13805 0.00185609  0.0273817 -0.137451 0.00155735  0.0275636 -0.15835 0.00147772  0.0276535 -0.15886 0.00110912  0.03421 -0.151785 0.00188351  0.0343986 -0.159195 0.00154185  0.0343251 -0.152332 0.00140667  0.0275187 -0.151194 0.00158  0.0276177 -0.158612 0.00128865  0.0276172 -0.151741 0.00117946  0.0342767 -0.152077 0.00164223  0.0275741 -0.15149 0.00137925  0.0275385 -0.172829 0.00128746  0.0276277 -0.173272 0.000966072  0.0344095 -0.166123 0.00165224  0.0345206 -0.173635 0.00134349  0.0345223 -0.166606 0.00123501  0.0275712 -0.165548 0.00138307  0.0275948 -0.173056 0.00112915  0.027658 -0.166028 0.00103378  0.0344789 -0.166384 0.00144076  0.027621 -0.165808 0.00120711  0.0273893 -0.187525 0.00111079  0.027477 -0.187903 0.000835896  0.034461 -0.180711 0.00143003  0.0344937 -0.188283 0.00115943  0.0345724 -0.181126 0.00107121  0.0274806 -0.180141 0.00120115  0.0274386 -0.187718 0.000972033  0.0275681 -0.18056 0.000899792  0.0345294 -0.18093 0.00124955  0.0275314 -0.180361 0.00105047  0.0271182 -0.202388 0.000958443  0.0272048 -0.202716 0.000716209  0.034368 -0.195482 0.00123525  0.0343311 -0.203109 0.000994682  0.0344696 -0.195841 0.000921011  0.0272636 -0.194925 0.00103331  0.0271649 -0.202556 0.000835657  0.0273554 -0.195285 0.000774384  0.0344269 -0.195676 0.00107694  0.0273163 -0.19512 0.000902653  0.0267441 -0.217395 0.000809431  0.026823 -0.217675 0.000598907  0.0341446 -0.210415 0.00105047  0.0340462 -0.218077 0.000843048  0.0342407 -0.210719 0.000782728  0.0269461 -0.209864 0.000885963  0.0267909 -0.217534 0.000704527  0.0270278 -0.210172 0.000659943  0.0342033 -0.21058 0.000919342  0.0269916 -0.210029 0.000770569  0.0262775 -0.232506 0.000669479  0.0263455 -0.232744 0.000502586  0.0338016 -0.225472 0.000874281  0.0336452 -0.233161 0.000695467  0.0338986 -0.225728 0.000651598  0.026521 -0.224931 0.000736475  0.0263186 -0.23263 0.000583887  0.0265944 -0.225192 0.000552416  0.03386 -0.225608 0.000763893  0.0265667 -0.225071 0.000642061  0.0257208 -0.247704 0.000546455  0.0257936 -0.247896 0.00041151  0.0333574 -0.240621 0.000725031  0.0331526 -0.248327 0.000569344  0.0334461 -0.240838 0.000538588  0.0260103 -0.240094 0.000607729  0.0257635 -0.247803 0.000476122  0.0260799 -0.240314 0.000452995  0.0334072 -0.240735 0.000632048  0.0260482 -0.240208 0.000530243  0.025094 -0.262959 0.000434875  0.0251637 -0.26311 0.00032258  0.0328214 -0.255842 0.000579119  0.0325692 -0.263548 0.000447512  0.032907 -0.256015 0.000430346  0.0254209 -0.255323 0.000492096  0.0251312 -0.263034 0.000378609  0.0254843 -0.255494 0.000365496  0.0328712 -0.25593 0.000505209  0.0254538 -0.255414 0.000427008  0.0244067 -0.278235 0.000337362  0.0244622 -0.278353 0.000256538  0.0322032 -0.271097 0.000451088  0.0319073 -0.278797 0.000342607  0.0322781 -0.271229 0.000340223  0.0247595 -0.270589 0.00038743  0.0244443 -0.27829 0.000296116  0.024822 -0.270721 0.000288248  0.0322466 -0.271167 0.000392437  0.0247941 -0.270661 0.000336885  0.0236633 -0.293519 0.000254631  0.0237164 -0.293611 0.000190973  0.0315175 -0.286376 0.000345945  0.0311902 -0.294059 0.000258923  0.0315819 -0.286474 0.000256538  0.0240448 -0.285874 0.000291109  0.0236933 -0.293565 0.000222683  0.0240927 -0.285976 0.000220776  0.0315564 -0.286427 0.000300169  0.0240741 -0.285925 0.000256538  0.0228741 -0.308803 0.000178576  0.022922 -0.308864 0.000133991  0.0307827 -0.301654 0.00025034  0.0304124 -0.309315 0.000182152  0.030833 -0.301724 0.000187159  0.0232694 -0.301162 0.000219822  0.0228994 -0.30883 0.000157356  0.0233228 -0.301237 0.000160933  0.0308061 -0.301691 0.000219107  0.0233006 -0.301198 0.000189543  0.0220499 -0.324052 0.000122547  0.0220876 -0.324094 8.63075e-05  0.0299754 -0.316911 0.000168085  0.0295923 -0.324551 0.000119448  0.0300312 -0.316963 0.0001297  0.022464 -0.316426 0.000147343  0.0220692 -0.324072 0.000105381  0.022507 -0.316481 0.000110626  0.0300097 -0.316938 0.000154018  0.0224872 -0.316454 0.000133753  0.0211861 -0.33928 7.27177e-05  0.02122 -0.3393 5.05447e-05  0.0291445 -0.332141 0.000109196  0.028738 -0.339755 6.74725e-05  0.0291879 -0.332175 8.46386e-05  0.0216186 -0.331669 8.84533e-05  0.021208 -0.339279 5.93662e-05  0.0216568 -0.331699 7.1764e-05  0.0291705 -0.332156 9.53674e-05  0.0216422 -0.33168 8.05855e-05  0.0203114 -0.354447 3.09944e-05  0.020339 -0.354458 2.28882e-05  0.0282848 -0.34733 6.05583e-05  0.0278575 -0.354915 3.3617e-05  0.0283115 -0.347353 4.33922e-05  0.0207551 -0.346863 5.14984e-05  0.0203283 -0.35445 2.69413e-05  0.0207808 -0.346883 3.88622e-05  0.0282986 -0.347337 4.8399e-05  0.0207696 -0.34687 4.26769e-05  0.0194209 -0.369564 -4.76837e-07  0.0194478 -0.36958 7.15256e-07  0.0274019 -0.362471 2.07424e-05  0.0269635 -0.370028 7.86781e-06  0.0274253 -0.362482 1.45435e-05  0.0198677 -0.362005 1.97887e-05  0.0194316 -0.369566 -2.38419e-07  0.0198936 -0.362018 1.54972e-05  0.0274122 -0.362476 2.02656e-05  0.0198827 -0.362013 1.45435e-05  0.0185089 -0.384641 -3.09944e-05  0.0185432 -0.384654 -1.57356e-05  0.0265028 -0.377564 -1.07288e-05  0.0260568 -0.385104 -1.52588e-05  0.0265245 -0.377579 -4.29153e-06  0.0189655 -0.3771 -1.00136e-05  0.0185332 -0.384644 -2.86102e-05  0.0189939 -0.377115 -1.09673e-05  0.0265119 -0.37757 -5.96046e-06  0.0189817 -0.377106 -9.29832e-06  0 0 0  0.00478899 -0.00264901 0.0049119  0.00356558 -0.00370848 0.00297904  0 0 0  0.0030346 -0.00262505 0.00376344  0.00511119 -0.00444382 0.00440335  0.00222379 -0.00333512 0.00194144  0 0 0  0.00224233 -0.00138253 0.00334167  0.00394419 -0.00324011 0.00391436  0.00135315 -0.00197506 0.0016818  0 0 0  0.00226655 -0.00292695 0.00260019  0.0014713 -0.00170594 0.0022769  0.00883183 -0.00546962 0.00621963  0.00812656 -0.00696069 0.004457  0.00823393 -0.00489002 0.00651717  0.010052 -0.00731361 0.00611448  0.00731477 -0.00639421 0.00442982  0.00686708 -0.00392461 0.00571489  0.00842887 -0.00628138 0.00535321  0.00588803 -0.00524688 0.00388837  0.0076331 -0.00574255 0.0054729  0.00626925 -0.00465494 0.00480819  0.0126281 -0.0095259 0.00664926  0.0123471 -0.0111465 0.00493574  0.0126404 -0.00826865 0.00746632  0.0146718 -0.0113953 0.0066278  0.0121857 -0.00995958 0.00544333  0.0107407 -0.00732487 0.00651407  0.0124968 -0.0104011 0.0058074  0.0102779 -0.00891 0.00477195  0.0123934 -0.00919908 0.00646329  0.0104965 -0.00818813 0.00566006  0.0163118 -0.0148753 0.00660634  0.0162558 -0.0165022 0.0049603  0.0169455 -0.0129955 0.00762129  0.0190443 -0.0167212 0.00660634  0.0167878 -0.0146754 0.00567818  0.0144896 -0.0120462 0.00666237  0.0163104 -0.0157512 0.0057888  0.014336 -0.0136741 0.00498223  0.0168921 -0.0139002 0.00666142  0.0144345 -0.012921 0.00583196  0.0198101 -0.021423 0.00634432  0.0198773 -0.0229898 0.00477386  0.0210838 -0.0189462 0.00742078  0.0231377 -0.0232042 0.00634623  0.0210994 -0.0205687 0.00556707  0.0180858 -0.0180033 0.00649452  0.0198729 -0.0222631 0.00556207  0.0181038 -0.0196053 0.00488186  0.0211281 -0.0198211 0.0064981  0.0181246 -0.0188637 0.00569463  0.0230651 -0.0290349 0.00598288  0.0232015 -0.0305259 0.00449729  0.0249884 -0.0260219 0.00704408  0.0269234 -0.0307502 0.00597835  0.0250821 -0.0275597 0.00529408  0.0214688 -0.0251032 0.00617337  0.0231649 -0.0298344 0.00524378  0.0215782 -0.0266239 0.00464272  0.0250688 -0.0268478 0.00617075  0.0215541 -0.0259181 0.00541043  0.0260614 -0.0376385 0.00557685  0.0262253 -0.0390083 0.00418806  0.0285894 -0.0341226 0.006598  0.0303854 -0.0392618 0.00556016  0.0287251 -0.0355564 0.00495434  0.0245998 -0.0332228 0.00577927  0.0261738 -0.0383695 0.00488305  0.0247517 -0.0346516 0.00434875  0.0286955 -0.0348921 0.00577641  0.0247043 -0.033987 0.0050683  0.0287744 -0.0470984 0.00516057  0.0289469 -0.0483699 0.00387335  0.031876 -0.0431451 0.00611711  0.0335118 -0.0486454 0.00514436  0.0320269 -0.044463 0.00459599  0.0274539 -0.0422595 0.00536585  0.028886 -0.0477777 0.00451636  0.0276257 -0.0435863 0.00403357  0.0319871 -0.0438477 0.00535798  0.027568 -0.0429707 0.00470018  0.0311967 -0.0573407 0.0047493  0.0313718 -0.0585262 0.0035584  0.0348369 -0.0529761 0.00564027  0.0363117 -0.0588115 0.0047338  0.0350066 -0.0541971 0.00423551  0.0300215 -0.0521197 0.00494957  0.0313067 -0.0579709 0.00414968  0.0301964 -0.0533473 0.00371218  0.0349537 -0.0536345 0.00493717  0.0301329 -0.052781 0.00433087  0.0333366 -0.0683072 0.00435185  0.0335073 -0.0693903 0.00326276  0.0374857 -0.0635671 0.00518346  0.0387962 -0.0696961 0.00434184  0.0376428 -0.0646943 0.00388575  0.0323076 -0.0627338 0.0045495  0.0334438 -0.0688782 0.00380278  0.0324745 -0.0638679 0.00340915  0.0375938 -0.06417 0.00453115  0.0324106 -0.0633377 0.00398016  0.0351934 -0.0799053 0.00397277  0.0353619 -0.0808982 0.00297689  0.0398108 -0.0748317 0.00473571  0.0409683 -0.0812313 0.00395226  0.0399693 -0.0758668 0.00354457  0.0342953 -0.0740228 0.00415421  0.0353009 -0.0804369 0.00347137  0.0344666 -0.0750604 0.00311613  0.0399189 -0.0753851 0.00414181  0.0344063 -0.0745808 0.00363708  0.0367913 -0.0920863 0.00360632  0.0369459 -0.0929857 0.00270343  0.0418388 -0.0867164 0.00430584  0.0428348 -0.0933375 0.00359106  0.04199 -0.0876514 0.00323343  0.0360324 -0.0859286 0.00378513  0.0368872 -0.0925675 0.00315356  0.0361882 -0.0868695 0.00283623  0.0419407 -0.0872177 0.00376582  0.0361282 -0.0864337 0.00331044  0.0381243 -0.104777 0.00326037  0.0382732 -0.105587 0.00243831  0.0435666 -0.0991274 0.00390458  0.0444236 -0.105953 0.00323701  0.0437086 -0.099972 0.00292277  0.0374897 -0.0983655 0.00343037  0.0382214 -0.105204 0.00285029  0.0376427 -0.0992199 0.00257087  0.0436639 -0.0995842 0.00341201  0.0375856 -0.0988233 0.00299954  0.0392156 -0.11792 0.00292945  0.0393628 -0.118656 0.00219345  0.0450169 -0.112031 0.00351858  0.0457423 -0.119033 0.00291467  0.0451567 -0.112792 0.00263834  0.0387 -0.11129 0.00308704  0.0393075 -0.118305 0.00256133  0.0388492 -0.112062 0.00231576  0.0451192 -0.112443 0.00307441  0.0387946 -0.111703 0.002702  0.040076 -0.131464 0.00261259  0.0402182 -0.132121 0.00195837  0.0462081 -0.12536 0.00314093  0.0468034 -0.132518 0.00259566  0.0463463 -0.126054 0.00236106  0.0396727 -0.12464 0.00276804  0.0401677 -0.131811 0.002285  0.0398219 -0.125335 0.00207758  0.0463016 -0.125731 0.0027554  0.0397644 -0.125014 0.00242233  0.04073 -0.145357 0.0023191  0.0408616 -0.145942 0.00173807  0.04716 -0.139068 0.00280023  0.0476277 -0.146356 0.00230813  0.0472952 -0.139678 0.0020988  0.0404308 -0.138367 0.00246644  0.0408177 -0.145669 0.00202942  0.0405715 -0.138983 0.00184608  0.0472442 -0.139395 0.00245047  0.0405157 -0.138699 0.00215602  0.0411761 -0.159558 0.00204158  0.0413129 -0.160069 0.00153351  0.047878 -0.153094 0.00248384  0.0482371 -0.160492 0.00202751  0.0480022 -0.153638 0.00185895  0.0409822 -0.152416 0.00217938  0.041266 -0.159824 0.00178742  0.0411153 -0.152963 0.00163341  0.0479581 -0.15339 0.00216985  0.0410657 -0.152711 0.00190663  0.0414464 -0.174009 0.00178623  0.0415752 -0.174454 0.00133896  0.0483732 -0.16741 0.00215888  0.0486364 -0.174891 0.00176859  0.0485017 -0.16788 0.00162363  0.0413375 -0.166747 0.00191021  0.0415287 -0.174244 0.00155973  0.0414667 -0.167223 0.00143027  0.04846 -0.167659 0.00189281  0.04142 -0.167002 0.00167084  0.0415511 -0.188674 0.00154448  0.0416698 -0.189061 0.00115752  0.0486879 -0.181954 0.00188303  0.0488453 -0.189501 0.00153065  0.0488017 -0.18236 0.00141001  0.0415201 -0.181313 0.00166273  0.0416226 -0.188876 0.00134778  0.0416434 -0.181727 0.0012455  0.0487618 -0.182172 0.00164652  0.0415976 -0.181535 0.00145292  0.0414889 -0.203521 0.00131965  0.0416088 -0.203846 0.000983953  0.0488086 -0.196694 0.00161648  0.0488799 -0.204296 0.0013001  0.048923 -0.197042 0.00121593  0.0415411 -0.196074 0.00142932  0.0415623 -0.203692 0.00115013  0.0416522 -0.196428 0.00107074  0.0488861 -0.196879 0.00142169  0.041611 -0.196261 0.00124979  0.0412946 -0.218497 0.00111127  0.0414004 -0.218781 0.000830412  0.0487702 -0.211585 0.00137496  0.0487525 -0.219236 0.00109863  0.0488718 -0.211884 0.00102663  0.0414104 -0.21099 0.0012126  0.0413616 -0.218643 0.000968456  0.041523 -0.21129 0.000906229  0.048836 -0.211751 0.00120044  0.0414777 -0.211154 0.00105643  0.0409667 -0.233594 0.000917435  0.0410736 -0.233825 0.00069046  0.0485773 -0.226608 0.00114703  0.0484951 -0.234286 0.000908136  0.0486782 -0.226864 0.000860453  0.0411501 -0.226032 0.00101399  0.0410306 -0.233716 0.000802994  0.0412557 -0.226285 0.000757217  0.0486434 -0.226746 0.000999212  0.0412116 -0.226165 0.000885963  0.0405364 -0.248776 0.000750542  0.0406301 -0.24896 0.000560522  0.0482457 -0.241741 0.000934124  0.048104 -0.249422 0.000739813  0.0483487 -0.241938 0.000706196  0.0407672 -0.241174 0.000830889  0.0405936 -0.248867 0.000653744  0.0408661 -0.241378 0.000620127  0.0483127 -0.241845 0.000816107  0.0408268 -0.24128 0.000725269  0.0399947 -0.263998 0.000591993  0.0400834 -0.26415 0.000441551  0.0477972 -0.256921 0.000748158  0.0475922 -0.264615 0.000584602  0.0478907 -0.257084 0.000566721  0.0402768 -0.256373 0.00066781  0.0400517 -0.264073 0.000515461  0.0403681 -0.256541 0.00050354  0.0478611 -0.257007 0.000659466  0.0403345 -0.256462 0.000582933  0.0393767 -0.279255 0.00045228  0.0394523 -0.279368 0.0003407  0.0472536 -0.272153 0.000571489  0.046988 -0.279829 0.000439644  0.0473282 -0.27228 0.000439167  0.0396912 -0.271617 0.000519037  0.0394228 -0.279309 0.000397921  0.0397797 -0.271748 0.000390291  0.0473051 -0.272219 0.000504494  0.0397475 -0.271687 0.000450611  0.0386777 -0.294513 0.000333786  0.0387506 -0.294605 0.00025177  0.0466034 -0.287404 0.000435829  0.0462954 -0.29507 0.000334501  0.0466754 -0.287494 0.000329733  0.0390358 -0.286888 0.000390291  0.0387204 -0.294562 0.000291348  0.0391109 -0.286981 0.000294447  0.0466518 -0.287449 0.0003829  0.039078 -0.286934 0.0003438  0.037919 -0.309786 0.000231981  0.0379791 -0.309839 0.000178337  0.0458772 -0.302657 0.000309229  0.0455344 -0.310302 0.000225306  0.0459478 -0.30271 0.000238419  0.0383036 -0.302155 0.000286579  0.037956 -0.309809 0.000206709  0.0383685 -0.302216 0.000214577  0.045922 -0.302684 0.00027132  0.0383465 -0.302185 0.000251532  0.0371141 -0.325024 0.000145435  0.0371644 -0.325057 0.000115156  0.0450983 -0.3179 0.000202656  0.044718 -0.325516 0.000144005  0.0451496 -0.31793 0.000160694  0.0375245 -0.317406 0.000190258  0.0371435 -0.325032 0.000131607  0.0375798 -0.317446 0.000145197  0.0451338 -0.317911 0.000184298  0.0375562 -0.317422 0.000169277  0.036263 -0.340217 8.91685e-05  0.0362964 -0.340251 7.03335e-05  0.0442541 -0.333098 0.000127792  0.0438495 -0.340697 8.39233e-05  0.0443113 -0.333125 9.98974e-05  0.0366933 -0.332619 0.00011611  0.0362837 -0.340223 8.03471e-05  0.0367336 -0.332649 9.20296e-05  0.0442874 -0.33311 0.000111103  0.0367186 -0.332636 0.000103235  0.0353744 -0.355379 4.07696e-05  0.0354104 -0.355397 3.43323e-05  0.0433872 -0.348271 6.22272e-05  0.0429566 -0.355843 4.48227e-05  0.0434189 -0.348289 5.38826e-05  0.0358303 -0.347801 6.27041e-05  0.0353997 -0.35538 3.86238e-05  0.0358572 -0.34782 4.79221e-05  0.0434053 -0.348275 5.55515e-05  0.0358441 -0.347806 5.6982e-05  0.0344806 -0.37049 1.52588e-05  0.0345173 -0.3705 1.12057e-05  0.0424795 -0.363396 3.02792e-05  0.0420396 -0.370948 1.23978e-05  0.0425179 -0.363412 2.69413e-05  0.0349293 -0.362932 2.6226e-05  0.0345001 -0.370487 1.19209e-05  0.0349665 -0.36295 2.0504e-05  0.0424981 -0.363396 2.69413e-05  0.0349486 -0.362939 2.3365e-05  0.0335841 -0.385565 -2.40803e-05  0.0336065 -0.385581 -1.4782e-05  0.0415671 -0.378493 -5.48363e-06  0.0411305 -0.386031 -2.57492e-05  0.0416071 -0.378498 1.90735e-06  0.0340288 -0.37803 -1.66893e-06  0.0335965 -0.385571 -2.00272e-05  0.034061 -0.37804 -4.76837e-07  0.0415874 -0.378491 -5.72205e-06  0.0340517 -0.378031 -1.19209e-06  -0.00477365 -0.00497165 -0.00269318  -0.00232822 -0.00350197 -0.00113058  0 0 0  -0.00336248 -0.00397463 -0.00177574  0 0 0  -0.00246676 -0.00257885 -0.0020206  -0.000933204 -0.00129435 -0.000833511  0 0 0  -0.00226596 -0.00330671 -0.00151181  -0.00339869 -0.00370039 -0.00234938  -0.0012774 -0.00207313 -0.000968933  0 0 0  -0.000945888 -0.00117801 -0.00111675  -0.00127874 -0.00193343 -0.00129652  -0.00955588 -0.00798005 -0.00421143  -0.00712729 -0.00683 -0.00275207  -0.00771068 -0.0073325 -0.00285172  -0.00625591 -0.00589321 -0.00317907  -0.00423336 -0.00449934 -0.00207615  -0.00713883 -0.00639779 -0.00359535  -0.00780861 -0.00687711 -0.00368667  -0.00552726 -0.00559824 -0.00240779  -0.00433148 -0.00417189 -0.00271678  -0.00560202 -0.00522083 -0.00314307  -0.014363 -0.0118468 -0.00478053  -0.0118991 -0.0103031 -0.00358319  -0.0120092 -0.0113827 -0.00330663  -0.00997162 -0.0100152 -0.00360537  -0.00803488 -0.00827397 -0.00270581  -0.0119729 -0.00977528 -0.0045855  -0.0120904 -0.0108679 -0.00418854  -0.00988096 -0.00922892 -0.00313997  -0.00814039 -0.00782294 -0.00345683  -0.00997582 -0.00873758 -0.00401068  -0.0189965 -0.0168463 -0.00483513  -0.0166496 -0.0147516 -0.00385141  -0.0161237 -0.0164994 -0.0033772  -0.0134845 -0.0152218 -0.00363898  -0.0116962 -0.0129751 -0.0029037  -0.0167103 -0.0142036 -0.00485206  -0.0161572 -0.0159715 -0.00423431  -0.0140945 -0.0138046 -0.00337434  -0.0117547 -0.0124786 -0.00365329  -0.0141504 -0.0132774 -0.00424743  -0.023389 -0.0229414 -0.00465536  -0.0212063 -0.0202929 -0.00380754  -0.0200212 -0.0226772 -0.00326109  -0.0168082 -0.0215006 -0.00348949  -0.0151621 -0.0187292 -0.00286603  -0.0212235 -0.0197564 -0.00476646  -0.0200116 -0.022162 -0.00406861  -0.0181008 -0.0194547 -0.00333571  -0.0151667 -0.0182275 -0.00357842  -0.0181081 -0.0189326 -0.00417089  -0.0275391 -0.0300488 -0.00435781  -0.0255048 -0.0268777 -0.00361538  -0.0237077 -0.0298495 -0.00305915  -0.0199668 -0.0287912 -0.00327539  -0.0184358 -0.0255108 -0.00271559  -0.0254933 -0.026369 -0.00451159  -0.0236664 -0.0293671 -0.0038147  -0.0218908 -0.0261398 -0.00316763  -0.0184082 -0.0250209 -0.00338817  -0.021865 -0.0256407 -0.00394964  -0.0314547 -0.0380918 -0.00403214  -0.029563 -0.0344289 -0.00336909  -0.0271878 -0.0379582 -0.00283217  -0.0229687 -0.0370025 -0.00303173  -0.0215391 -0.0332465 -0.00252771  -0.0295244 -0.0339571 -0.00420094  -0.027127 -0.0375011 -0.00352931  -0.0254743 -0.03379 -0.00295115  -0.0214834 -0.0327857 -0.00315022  -0.0254205 -0.033322 -0.00367475  -0.0351371 -0.0469853 -0.00370431  -0.0333762 -0.0428723 -0.00310683  -0.0304756 -0.0469094 -0.00259924  -0.0258218 -0.0460686 -0.00277686  -0.0244852 -0.0418645 -0.00232601  -0.0333253 -0.0424353 -0.00386882  -0.0304024 -0.0464864 -0.00324106  -0.0288554 -0.0423247 -0.00271678  -0.0244131 -0.0414368 -0.00290346  -0.0287865 -0.041892 -0.00338793  -0.0386159 -0.0566582 -0.00339484  -0.0369648 -0.052131 -0.002841  -0.0335765 -0.0566341 -0.00237632  -0.0285366 -0.0559112 -0.00253606  -0.0272778 -0.0512916 -0.00212884  -0.0369014 -0.0517309 -0.0035491  -0.0335004 -0.0562486 -0.00296593  -0.0320445 -0.0516723 -0.00248528  -0.0271974 -0.0508948 -0.00265622  -0.0319736 -0.0512748 -0.00310087  -0.0418873 -0.0670609 -0.00308704  -0.0403438 -0.0621373 -0.00259376  -0.0365096 -0.067077 -0.00216436  -0.0311189 -0.0664564 -0.00231338  -0.0299262 -0.0614581 -0.00194383  -0.0402759 -0.0617738 -0.00323248  -0.0364281 -0.0667266 -0.00269723  -0.0350623 -0.0617638 -0.00226951  -0.029843 -0.0610987 -0.00242233  -0.0349836 -0.061403 -0.00282788  -0.044963 -0.078101 -0.00279903  -0.0435134 -0.0728362 -0.00235558  -0.0392735 -0.0781731 -0.00196028  -0.0335717 -0.0776541 -0.00209451  -0.0324453 -0.0723076 -0.00175929  -0.0434487 -0.0724999 -0.00294065  -0.0391984 -0.0778481 -0.00244498  -0.0379094 -0.0725416 -0.00205684  -0.0323617 -0.0719797 -0.00219893  -0.0378332 -0.07221 -0.00256705  -0.0478539 -0.0897394 -0.00253201  -0.0464953 -0.0841503 -0.00213265  -0.0418875 -0.0898556 -0.00177145  -0.0359024 -0.0894402 -0.00189376  -0.0348314 -0.083774 -0.00159979  -0.0464311 -0.0838503 -0.00266147  -0.0418123 -0.0895664 -0.00220847  -0.0405977 -0.0839364 -0.00186253  -0.0347525 -0.0834755 -0.00199199  -0.040525 -0.0836382 -0.00232625  -0.0505717 -0.101912 -0.00227666  -0.049297 -0.096036 -0.00191951  -0.0443507 -0.102072 -0.00159431  -0.0381111 -0.101742 -0.00170207  -0.037097 -0.0957975 -0.00144196  -0.0492302 -0.0957624 -0.00240207  -0.0442783 -0.101808 -0.00199008  -0.0431372 -0.0958937 -0.00168228  -0.0370212 -0.0955279 -0.00179672  -0.0430626 -0.0956249 -0.0020957  -0.05312 -0.114571 -0.00203609  -0.0519215 -0.10843 -0.00172806  -0.0466744 -0.114767 -0.0014267  -0.0402131 -0.114529 -0.00152373  -0.0392447 -0.108323 -0.0012908  -0.0518651 -0.108184 -0.00215864  -0.0466105 -0.114533 -0.00178146  -0.0455287 -0.108357 -0.00150704  -0.0391785 -0.108082 -0.00161052  -0.0454611 -0.108114 -0.00188375  -0.0555105 -0.127663 -0.00181079  -0.0543902 -0.121279 -0.00153971  -0.0488657 -0.127893 -0.00127077  -0.042206 -0.127736 -0.00135446  -0.0412885 -0.121299 -0.00115442  -0.0543336 -0.121068 -0.00192761  -0.0488048 -0.127684 -0.00158572  -0.0477843 -0.121276 -0.0013454  -0.0412252 -0.121083 -0.00143456  -0.0477246 -0.12106 -0.00168085  -0.0577525 -0.141128 -0.00159883  -0.0566977 -0.134535 -0.00136375  -0.0509241 -0.141396 -0.0011189  -0.0440991 -0.141313 -0.00119472  -0.0432233 -0.134675 -0.00101781  -0.0566499 -0.134348 -0.00170469  -0.0508722 -0.141208 -0.00139689  -0.0499117 -0.134593 -0.00119162  -0.0431664 -0.134482 -0.0012722  -0.0498526 -0.134402 -0.00149083  -0.0598445 -0.154937 -0.00140309  -0.058856 -0.148165 -0.00120687  -0.0528715 -0.155231 -0.000977516  -0.0458844 -0.155223 -0.00104618  -0.0450597 -0.148399 -0.0008986  -0.0588143 -0.147989 -0.00150084  -0.0528195 -0.155069 -0.00122404  -0.0519137 -0.14827 -0.00104761  -0.0450017 -0.148231 -0.00112343  -0.0518594 -0.148098 -0.00131035  -0.0618067 -0.16903 -0.00121498  -0.0608864 -0.1621 -0.00104666  -0.0546966 -0.169355 -0.000851154  -0.0475848 -0.169416 -0.000906467  -0.0467989 -0.162436 -0.000780106  -0.0608392 -0.161949 -0.00130749  -0.0546477 -0.169217 -0.00106597  -0.0537965 -0.162257 -0.00091362  -0.0467458 -0.162282 -0.000977039  -0.0537477 -0.162108 -0.00114036  -0.0636284 -0.183379 -0.00104952  -0.062767 -0.176306 -0.000911236  -0.0564101 -0.183729 -0.000731468  -0.0491898 -0.183843 -0.000783443  -0.0484431 -0.176731 -0.000676155  -0.0627322 -0.176175 -0.00112963  -0.0563672 -0.183605 -0.000910521  -0.0555656 -0.176512 -0.00079155  -0.0483971 -0.176601 -0.000838995  -0.055521 -0.176382 -0.000988007  -0.0653281 -0.197937 -0.000887632  -0.0645287 -0.190741 -0.000775814  -0.0580199 -0.198312 -0.000622749  -0.050705 -0.198483 -0.000665903  -0.049998 -0.191249 -0.000577927  -0.0644922 -0.190632 -0.000967264  -0.0579793 -0.198205 -0.000777006  -0.057224 -0.190991 -0.000678301  -0.0499561 -0.19114 -0.000719786  -0.0571859 -0.19088 -0.000843287  -0.0669222 -0.212672 -0.000739336  -0.0661707 -0.205371 -0.000653744  -0.0595303 -0.213064 -0.000522852  -0.052145 -0.213285 -0.0005548  -0.0514727 -0.20596 -0.000485897  -0.0661423 -0.205287 -0.000815392  -0.0594962 -0.212979 -0.00065136  -0.0587852 -0.205661 -0.000570536  -0.0514331 -0.205863 -0.000605106  -0.058748 -0.205571 -0.000709772  -0.0684037 -0.227548 -0.000611305  -0.0677059 -0.220169 -0.000542164  -0.0609529 -0.227959 -0.000426769  -0.0535035 -0.228222 -0.000457048  -0.0528643 -0.220818 -0.000405788  -0.067673 -0.220095 -0.000674009  -0.0609205 -0.227882 -0.000532627  -0.0602529 -0.220493 -0.000473499  -0.0528324 -0.220739 -0.000504494  -0.060219 -0.220415 -0.000590324  -0.0697837 -0.242533 -0.00049448  -0.0691285 -0.235092 -0.00044322  -0.0622859 -0.242957 -0.000346184  -0.0547936 -0.24326 -0.000364304  -0.0541897 -0.235797 -0.000328064  -0.0691054 -0.235027 -0.000553608  -0.0622597 -0.242895 -0.000429392  -0.06163 -0.235443 -0.000384569  -0.0541553 -0.23573 -0.000409842  -0.0616026 -0.235377 -0.000479937  -0.0710764 -0.257606 -0.000386477  -0.0704579 -0.250112 -0.000352621  -0.0635443 -0.258048 -0.000272751  -0.0560122 -0.258376 -0.000290632  -0.0554352 -0.250865 -0.000261545  -0.0704429 -0.250054 -0.000439167  -0.0635207 -0.257994 -0.000337124  -0.0629263 -0.250487 -0.000307083  -0.0554092 -0.250813 -0.000327349  -0.0629005 -0.250433 -0.000381947  -0.0722806 -0.272738 -0.000296354  -0.0717037 -0.265209 -0.000271797  -0.0647264 -0.27318 -0.000209332  -0.0571771 -0.273547 -0.000212193  -0.056623 -0.266 -0.000203609  -0.0716863 -0.265168 -0.000337601  -0.0647061 -0.273145 -0.000256062  -0.0641465 -0.265606 -0.00023675  -0.0566046 -0.265959 -0.000254631  -0.0641222 -0.265566 -0.000294685  -0.0734107 -0.287906 -0.000212431  -0.0728662 -0.280349 -0.000209808  -0.0658443 -0.288358 -0.00015378  -0.0582829 -0.288747 -0.000154734  -0.0577507 -0.281175 -0.000151157  -0.0728552 -0.280318 -0.000254631  -0.0658298 -0.288328 -0.00018549  -0.0652945 -0.280764 -0.000175238  -0.0577366 -0.281143 -0.000183582  -0.0652769 -0.280733 -0.000216961  -0.0744786 -0.303085 -0.000144958  -0.0739605 -0.295517 -0.00014782  -0.0669105 -0.303545 -0.000103235  -0.0593364 -0.303952 -0.000112295  -0.058831 -0.296371 -0.000105619  -0.073956 -0.295493 -0.000182152  -0.0668974 -0.303521 -0.000126839  -0.0663836 -0.295949 -0.000125408  -0.0588167 -0.296349 -0.000133276  -0.0663717 -0.295922 -0.000154018  -0.0754888 -0.318267 -9.15527e-05  -0.0750136 -0.310689 -9.89437e-05  -0.0679247 -0.318732 -6.77109e-05  -0.0603549 -0.319157 -7.08103e-05  -0.0598674 -0.311568 -7.08103e-05  -0.07499 -0.310674 -0.000123262  -0.0679123 -0.318714 -8.15392e-05  -0.0674171 -0.311135 -8.32081e-05  -0.0598512 -0.311554 -8.63075e-05  -0.0674119 -0.311116 -9.98974e-05  -0.0764575 -0.333429 -5.48363e-05  -0.0759928 -0.325858 -5.93662e-05  -0.0689003 -0.333899 -3.67165e-05  -0.0613415 -0.334329 -3.98159e-05  -0.0608618 -0.326754 -4.12464e-05  -0.0759778 -0.325852 -7.27177e-05  -0.0688896 -0.333879 -4.64916e-05  -0.0684161 -0.326313 -5.17368e-05  -0.0608525 -0.326744 -5.31673e-05  -0.0684037 -0.326302 -6.12736e-05  -0.0773933 -0.348572 -2.19345e-05  -0.0769398 -0.34101 -3.31402e-05  -0.0698445 -0.349045 -2.02656e-05  -0.0622876 -0.349481 -1.62125e-05  -0.061821 -0.341917 -2.3365e-05  -0.0769308 -0.341005 -3.71933e-05  -0.0698347 -0.349029 -2.19345e-05  -0.0693772 -0.341464 -2.64645e-05  -0.0618179 -0.341907 -2.43187e-05  -0.069365 -0.341459 -3.14713e-05  -0.0783045 -0.363681 -5.48363e-06  -0.0778644 -0.356134 -1.3113e-05  -0.0707664 -0.364147 -2.86102e-06  -0.0632164 -0.364595 2.38419e-06  -0.0627639 -0.357047 -5.48363e-06  -0.0778503 -0.356133 -1.88351e-05  -0.0707607 -0.364138 -5.72205e-06  -0.0703106 -0.356593 -1.21593e-05  -0.062753 -0.357039 -5.96046e-06  -0.070298 -0.356591 -1.09673e-05  -0.0792179 -0.378769 1.45435e-05  -0.0787783 -0.371235 -4.05312e-06  -0.0716851 -0.379238 5.96046e-06  -0.0641425 -0.379677 1.64509e-05  -0.0636833 -0.37214 2.38419e-06  -0.0787647 -0.371231 2.38419e-06  -0.0716798 -0.37923 1.35899e-05  -0.0712266 -0.37169 2.14577e-06  -0.0636775 -0.372138 6.91414e-06  -0.0712178 -0.371686 4.76837e-06  -0.00182519 -0.00206262 -0.00128341  0 0 0  -0.00140351 -0.00136568 -0.00138164  -0.000522133 -0.000509873 -0.000560284  0 0 0  -0.0018896 -0.00185215 -0.0017035  -0.000693221 -0.000811651 -0.000694275  0 0 0  -0.00053446 -0.000419617 -0.000760078  -0.000703938 -0.000713095 -0.000938177  -0.00479002 -0.00545207 -0.0020709  -0.00371765 -0.00445268 -0.00217438  -0.00241689 -0.00301416 -0.00141048  -0.00490388 -0.00508289 -0.00268054  -0.00323702 -0.0036339 -0.0017457  -0.00250001 -0.00275302 -0.00185347  -0.00333376 -0.00334501 -0.00228953  -0.0079312 -0.00975159 -0.00239611  -0.00619152 -0.00872111 -0.00243878  -0.0048748 -0.00682962 -0.00184155  -0.00801188 -0.00929801 -0.00303078  -0.00637078 -0.00746952 -0.00228047  -0.0049597 -0.00644429 -0.00235248  -0.00647515 -0.00705518 -0.00290465  -0.0109296 -0.0150819 -0.00243592  -0.00856957 -0.0140892 -0.00244594  -0.00734669 -0.0117177 -0.00196028  -0.0109584 -0.0145899 -0.0030489  -0.00944859 -0.0122812 -0.00243688  -0.00739554 -0.0112676 -0.00246644  -0.00950518 -0.0118066 -0.00306392  -0.0137689 -0.0214374 -0.00234675  -0.0108255 -0.0205178 -0.00234866  -0.00970745 -0.017648 -0.00192785  -0.0137504 -0.0209489 -0.00292373  -0.0123687 -0.0181283 -0.00239992  -0.00971311 -0.017174 -0.0024085  -0.0123732 -0.0176407 -0.00299382  -0.0164587 -0.0287883 -0.00219202  -0.0129812 -0.0279482 -0.00218749  -0.011946 -0.0245829 -0.00182605  -0.0164122 -0.0283188 -0.00273228  -0.0151297 -0.0249932 -0.00227141  -0.0119146 -0.0241125 -0.00227022  -0.0150961 -0.024512 -0.00282812  -0.0190164 -0.0370495 -0.00202513  -0.015058 -0.0362948 -0.00202084  -0.0140821 -0.0324639 -0.00168991  -0.0189531 -0.0366016 -0.00252318  -0.0177541 -0.0328034 -0.00211167  -0.0140322 -0.0320092 -0.00210524  -0.0176945 -0.032347 -0.00262666  -0.0214581 -0.0461526 -0.00185513  -0.0170605 -0.0454903 -0.00185275  -0.0161384 -0.041219 -0.00155711  -0.0213835 -0.0457373 -0.00231385  -0.0202533 -0.0414972 -0.00194216  -0.0160679 -0.0407898 -0.00193477  -0.0201811 -0.0410699 -0.00241685  -0.0237908 -0.0560259 -0.00169063  -0.0189937 -0.0554572 -0.00168848  -0.0181121 -0.0507722 -0.00142193  -0.0237094 -0.0556452 -0.00211072  -0.0226351 -0.0509938 -0.00177479  -0.0180362 -0.0503781 -0.0017705  -0.0225579 -0.0505962 -0.00221252  -0.0260183 -0.0666095 -0.00154209  -0.0208633 -0.0661277 -0.0015347  -0.0200127 -0.0610722 -0.00128698  -0.0259352 -0.0662587 -0.00192261  -0.0249159 -0.0612299 -0.00161791  -0.0199364 -0.0607051 -0.00160766  -0.0248362 -0.0608641 -0.00201845  -0.0281469 -0.077838 -0.0013957  -0.0226654 -0.0774468 -0.0013895  -0.0218447 -0.0720436 -0.00116849  -0.0280674 -0.0775193 -0.0017426  -0.0270944 -0.0721408 -0.00146604  -0.021769 -0.0717083 -0.0014627  -0.0270138 -0.0718112 -0.00182986  -0.0301809 -0.0896514 -0.00126457  -0.0244033 -0.0893373 -0.00125313  -0.0236156 -0.083625 -0.00105882  -0.0301055 -0.0893599 -0.00157499  -0.0291758 -0.0836687 -0.00132847  -0.023542 -0.0833224 -0.0013237  -0.029097 -0.0833697 -0.00165725  -0.0321282 -0.101993 -0.00112939  -0.0260915 -0.101758 -0.00112629  -0.0253261 -0.0957591 -0.000954628  -0.0320569 -0.101725 -0.00141478  -0.0311641 -0.0957548 -0.0011971  -0.0252547 -0.095484 -0.00119019  -0.0310935 -0.095481 -0.00149584  -0.0339874 -0.114798 -0.0010159  -0.0277208 -0.114641 -0.00100875  -0.0269762 -0.108385 -0.000853539  -0.033922 -0.114564 -0.00126934  -0.0330669 -0.108333 -0.00107288  -0.0269114 -0.108145 -0.00106716  -0.0329996 -0.10809 -0.00133801  -0.0357728 -0.128035 -0.000898838  -0.0292896 -0.12795 -0.00089407  -0.0285676 -0.121464 -0.000759363  -0.0357063 -0.127825 -0.00112414  -0.0348893 -0.121362 -0.000955105  -0.0285128 -0.121243 -0.000948906  -0.0348234 -0.121142 -0.00119519  -0.0374728 -0.141637 -0.000787735  -0.0308057 -0.141622 -0.000792265  -0.0301089 -0.134932 -0.000674725  -0.0374128 -0.141452 -0.000991583  -0.0366293 -0.134785 -0.000845194  -0.0300561 -0.134739 -0.000843525  -0.0365688 -0.134594 -0.00105453  -0.0390961 -0.155571 -0.00069356  -0.0322669 -0.155609 -0.000691175  -0.0315964 -0.148748 -0.000590801  -0.0390415 -0.155403 -0.000865936  -0.0382907 -0.148562 -0.000745535  -0.0315413 -0.148575 -0.00073719  -0.0382347 -0.148389 -0.000931978  -0.0406477 -0.169774 -0.000604868  -0.0336781 -0.169875 -0.000600338  -0.0330267 -0.162859 -0.000515938  -0.0405979 -0.169635 -0.000754356  -0.0398815 -0.162633 -0.000645161  -0.0329812 -0.162714 -0.000644684  -0.0398254 -0.162485 -0.000807762  -0.0421252 -0.184228 -0.000520229  -0.0350366 -0.184375 -0.000510454  -0.0344083 -0.17723 -0.000443935  -0.042079 -0.1841 -0.000646353  -0.0413942 -0.176969 -0.000560999  -0.0343618 -0.177096 -0.000557899  -0.0413492 -0.176838 -0.000701666  -0.0435352 -0.198879 -0.000442266  -0.0363452 -0.199075 -0.000437737  -0.0357368 -0.191816 -0.000374317  -0.0434985 -0.198771 -0.000549555  -0.0428388 -0.191525 -0.000474691  -0.0356956 -0.191702 -0.000466585  -0.0427985 -0.191412 -0.000597  -0.0448844 -0.213698 -0.00037241  -0.0376093 -0.213934 -0.000365257  -0.0370178 -0.206585 -0.000318527  -0.0448472 -0.213603 -0.000461578  -0.0442178 -0.206264 -0.000398874  -0.0369833 -0.206485 -0.000399113  -0.0441809 -0.206167 -0.000500679  -0.0461698 -0.228648 -0.000300407  -0.0388243 -0.228924 -0.000296831  -0.0382559 -0.221493 -0.000264406  -0.0461416 -0.228571 -0.000377893  -0.0455315 -0.221151 -0.000333548  -0.0382204 -0.221412 -0.000329018  -0.0455019 -0.22107 -0.000417471  -0.0474033 -0.243693 -0.000241756  -0.0400019 -0.244007 -0.000235796  -0.0394466 -0.23652 -0.000212908  -0.0473759 -0.243632 -0.000302792  -0.0467951 -0.236154 -0.00026989  -0.0394156 -0.236453 -0.000267744  -0.0467651 -0.236087 -0.000337124  -0.0485754 -0.258815 -0.000193357  -0.0411284 -0.259159 -0.000188828  -0.0405924 -0.251631 -0.000170469  -0.0485556 -0.258766 -0.000240088  -0.0479951 -0.251248 -0.00021553  -0.0405726 -0.251576 -0.000210047  -0.0479724 -0.251191 -0.000267744  -0.0497024 -0.27399 -0.000144958  -0.0422208 -0.274359 -0.000135899  -0.0416977 -0.266798 -0.000133514  -0.0496814 -0.273953 -0.000181198  -0.0491447 -0.266395 -0.000168324  -0.0416815 -0.266752 -0.000164986  -0.0491247 -0.266353 -0.000209808  -0.0507853 -0.289193 -0.000102282  -0.0432789 -0.289579 -0.000102758  -0.0427718 -0.282001 -9.77516e-05  -0.0507662 -0.289165 -0.000131369  -0.0502515 -0.281587 -0.000123501  -0.0427539 -0.281966 -0.000121117  -0.0502269 -0.281554 -0.000152826  -0.0518258 -0.304406 -7.03335e-05  -0.0443056 -0.304809 -7.34329e-05  -0.0438128 -0.297221 -6.53267e-05  -0.0518134 -0.30438 -8.96454e-05  -0.0513082 -0.296795 -8.7738e-05  -0.0437977 -0.297194 -8.39233e-05  -0.0512967 -0.296771 -0.000109196  -0.0528271 -0.31961 -4.79221e-05  -0.0453031 -0.320028 -4.45843e-05  -0.0448179 -0.312436 -4.48227e-05  -0.05282 -0.319589 -5.65052e-05  -0.0523305 -0.312002 -5.74589e-05  -0.044806 -0.312421 -5.65052e-05  -0.0523202 -0.311989 -6.84261e-05  -0.0538073 -0.334788 -2.26498e-05  -0.0462744 -0.335216 -2.71797e-05  -0.0458007 -0.327636 -2.5034e-05  -0.0537982 -0.334774 -3.02792e-05  -0.0533206 -0.327194 -3.45707e-05  -0.0457911 -0.327622 -3.12328e-05  -0.0533109 -0.327184 -4.29153e-05  -0.0547614 -0.349937 -1.23978e-05  -0.0472262 -0.350373 -8.10623e-06  -0.046757 -0.342812 -1.04904e-05  -0.0547493 -0.349928 -1.54972e-05  -0.0542893 -0.342363 -1.85966e-05  -0.0467501 -0.342799 -1.40667e-05  -0.0542777 -0.342355 -2.24113e-05  -0.0556893 -0.36505 7.15256e-07  -0.0481529 -0.365492 8.82149e-06  -0.0476947 -0.35794 -4.05312e-06  -0.0556829 -0.365044 3.33786e-06  -0.0552258 -0.357494 -3.09944e-06  -0.0476921 -0.357936 -5.72205e-06  -0.0552185 -0.357487 -1.90735e-06  -0.0566158 -0.380123 8.34465e-06  -0.0490816 -0.380558 1.83582e-05  -0.0486214 -0.373035 8.58307e-06  -0.0566032 -0.38012 1.26362e-05  -0.0561514 -0.372588 6.4373e-06  -0.0486171 -0.373032 1.21593e-05  -0.0561428 -0.372586 8.82149e-06  -0.000954345 -0.00121772 -0.000782967  0 0 0  -0.000625387 -0.000857681 -0.000700712  -0.000231508 -0.000211388 -0.000282526  0 0 0  -0.000994377 -0.00105086 -0.00104499  -0.000364177 -0.000320971 -0.000423431  0 0 0  -0.000237931 -0.000135452 -0.000384569  -0.000374287 -0.000239909 -0.00057435  -0.00259371 -0.00431451 -0.00126743  -0.00169376 -0.0037128 -0.00110006  -0.00108846 -0.0023132 -0.000714779  -0.00266607 -0.00400078 -0.00164413  -0.00171785 -0.00258243 -0.00106931  -0.00112346 -0.00208563 -0.000940084  -0.00178112 -0.00234288 -0.0014081  -0.00444409 -0.00869682 -0.00146389  -0.0028941 -0.00800306 -0.00123858  -0.00224888 -0.00604928 -0.000934839  -0.00449854 -0.00828961 -0.00184655  -0.00351211 -0.00635746 -0.00139451  -0.00228897 -0.0057019 -0.00119281  -0.00358257 -0.00599644 -0.00178075  -0.00626996 -0.0141717 -0.0014751  -0.00408909 -0.0134703 -0.00123692  -0.0034762 -0.011017 -0.000996828  -0.00628489 -0.0137149 -0.00184727  -0.00536409 -0.0112969 -0.00148273  -0.00349486 -0.0106001 -0.00125003  -0.00540102 -0.0108642 -0.00186014  -0.00801957 -0.0206741 -0.00141931  -0.00525671 -0.0200062 -0.00117469  -0.00468653 -0.0170639 -0.00097084  -0.0079993 -0.0202034 -0.00176501  -0.00715488 -0.0172949 -0.00145459  -0.00467694 -0.0166113 -0.00121355  -0.0071497 -0.0168296 -0.00181079  -0.00969809 -0.0281477 -0.00132346  -0.00640261 -0.0275366 -0.00109744  -0.00586045 -0.024112 -0.000917673  -0.00965649 -0.0276884 -0.00164652  -0.00886524 -0.0242876 -0.00137234  -0.00583208 -0.023654 -0.00114202  -0.00883281 -0.0238236 -0.0017066  -0.011321 -0.0365267 -0.00121665  -0.00754577 -0.035981 -0.00100732  -0.00701791 -0.0320897 -0.000847816  -0.0112653 -0.0360857 -0.00151181  -0.0105184 -0.0322254 -0.00127053  -0.00697654 -0.0316466 -0.00105572  -0.0104667 -0.0317767 -0.00157976  -0.0128987 -0.0457447 -0.00111127  -0.00868326 -0.0452669 -0.000920534  -0.00816441 -0.0409431 -0.000775099  -0.0128365 -0.0453307 -0.00138354  -0.0121128 -0.0410315 -0.00116348  -0.00811481 -0.0405225 -0.000965834  -0.0120552 -0.0406073 -0.00145221  -0.014438 -0.0557284 -0.00101161  -0.00981867 -0.055322 -0.000839233  -0.00930548 -0.0505958 -0.000704288  -0.0143723 -0.0553476 -0.00126219  -0.0136725 -0.0506395 -0.00106215  -0.00924873 -0.0502016 -0.000879526  -0.0136081 -0.0502463 -0.00132251  -0.0159433 -0.0664241 -0.000922441  -0.0109587 -0.0660867 -0.000763416  -0.0104434 -0.0609833 -0.000643253  -0.0158734 -0.0660692 -0.00114918  -0.0151927 -0.0609894 -0.000967026  -0.0103898 -0.0606211 -0.000796795  -0.0151281 -0.0606243 -0.00120711  -0.0174109 -0.0777574 -0.000831604  -0.0120943 -0.0774939 -0.000690699  -0.0115789 -0.0720477 -0.000579119  -0.0173484 -0.0774367 -0.00103807  -0.0166786 -0.0720118 -0.000874043  -0.0115241 -0.0717123 -0.00072217  -0.0166146 -0.071674 -0.00109196  -0.0188534 -0.089669 -0.000750065  -0.0132371 -0.0894732 -0.000617981  -0.0127196 -0.0837188 -0.000522375  -0.0187911 -0.0893746 -0.0009377  -0.0181367 -0.0836412 -0.000790596  -0.012666 -0.0834135 -0.000653505  -0.0180732 -0.0833366 -0.000984669  -0.0202593 -0.102101 -0.000671148  -0.0143739 -0.101973 -0.000553608  -0.0138535 -0.0959359 -0.000466824  -0.0202026 -0.101837 -0.000836134  -0.0195607 -0.0958185 -0.000709772  -0.013806 -0.0956602 -0.000582218  -0.0195005 -0.0955428 -0.000887871  -0.0216376 -0.115003 -0.000599146  -0.0155077 -0.114942 -0.000490189  -0.014984 -0.108648 -0.000417948  -0.0215853 -0.114769 -0.000750303  -0.0209503 -0.108491 -0.000635147  -0.014939 -0.1084 -0.000520229  -0.0208986 -0.108246 -0.000795126  -0.0229919 -0.128325 -0.000533819  -0.0166374 -0.128319 -0.000433683  -0.0161148 -0.121799 -0.000372648  -0.0229394 -0.128113 -0.000664949  -0.0223199 -0.121609 -0.00056386  -0.0160766 -0.12158 -0.000463724  -0.0222669 -0.121389 -0.000707388  -0.0243044 -0.142011 -0.000466108  -0.0177624 -0.142064 -0.000382185  -0.0172417 -0.135341 -0.000325441  -0.0242596 -0.141823 -0.000586033  -0.0236524 -0.135117 -0.000501156  -0.0172012 -0.135148 -0.000406742  -0.023604 -0.134925 -0.000622988  -0.0255952 -0.156015 -0.000406981  -0.0188823 -0.156112 -0.000334501  -0.0183609 -0.149225 -0.000284672  -0.0255513 -0.155843 -0.000507593  -0.0249536 -0.148968 -0.000439405  -0.0183232 -0.149047 -0.000355721  -0.0249102 -0.148794 -0.000545502  -0.0268524 -0.17029 -0.000353575  -0.0199862 -0.17044 -0.000286579  -0.0194705 -0.163396 -0.000248194  -0.0268106 -0.170144 -0.000443459  -0.0262239 -0.163115 -0.000382423  -0.0194361 -0.163244 -0.000310183  -0.0261865 -0.162964 -0.000475645  -0.0280783 -0.184801 -0.00030303  -0.0210829 -0.184993 -0.000245094  -0.0205708 -0.177824 -0.000212669  -0.0280414 -0.184671 -0.000378132  -0.0274682 -0.177514 -0.000323772  -0.020534 -0.17769 -0.000267982  -0.0274301 -0.17738 -0.000409603  -0.0292728 -0.199508 -0.000258207  -0.0221674 -0.199739 -0.00020504  -0.0216591 -0.192458 -0.000178814  -0.0292408 -0.199398 -0.000319719  -0.0286798 -0.192125 -0.00027585  -0.0216267 -0.192341 -0.000222206  -0.028645 -0.192011 -0.000345707  -0.0304322 -0.214369 -0.000215292  -0.023246 -0.21464 -0.000173807  -0.0227332 -0.207271 -0.00014925  -0.0304101 -0.214279 -0.000268459  -0.0298567 -0.206917 -0.000234842  -0.0227072 -0.207174 -0.000188112  -0.0298288 -0.206822 -0.000295162  -0.0315709 -0.229366 -0.000174999  -0.024298 -0.229664 -0.000139713  -0.0237963 -0.222221 -0.000124454  -0.0315475 -0.229285 -0.000219584  -0.0310061 -0.22185 -0.000196695  -0.0237725 -0.222138 -0.000155687  -0.0309825 -0.221766 -0.000245333  -0.0326779 -0.244453 -0.000135899  -0.0253403 -0.24478 -0.000105381  -0.0248406 -0.237281 -9.70364e-05  -0.0326579 -0.244387 -0.000171185  -0.0321267 -0.236894 -0.00015521  -0.0248215 -0.237211 -0.000121593  -0.0321066 -0.236825 -0.000194788  -0.0337567 -0.25961 -0.000110149  -0.0263662 -0.259964 -8.63075e-05  -0.0258658 -0.252421 -7.93934e-05  -0.0337367 -0.259558 -0.00014019  -0.0332205 -0.25202 -0.000124931  -0.0258579 -0.252366 -9.75132e-05  -0.0332005 -0.251968 -0.000152826  -0.0348027 -0.274813 -8.36849e-05  -0.0273747 -0.275188 -6.34193e-05  -0.0268841 -0.267617 -5.93662e-05  -0.0347853 -0.274771 -0.00010252  -0.0342839 -0.267203 -9.34601e-05  -0.0268714 -0.267571 -7.41482e-05  -0.0342648 -0.267158 -0.00011611  -0.0358305 -0.290031 -6.03199e-05  -0.0283692 -0.29043 -4.45843e-05  -0.0278821 -0.282839 -4.05312e-05  -0.0358136 -0.290004 -7.72476e-05  -0.0353198 -0.282416 -6.7234e-05  -0.027873 -0.282806 -5.67436e-05  -0.0353034 -0.282383 -8.67844e-05  -0.0368335 -0.305271 -4.02927e-05  -0.0293474 -0.305677 -3.09944e-05  -0.0288689 -0.29808 -2.59876e-05  -0.0368204 -0.305242 -5.126e-05  -0.0363357 -0.297647 -4.50611e-05  -0.0288606 -0.298052 -3.86238e-05  -0.0363212 -0.297621 -6.22272e-05  -0.0378146 -0.320482 -2.52724e-05  -0.0303142 -0.320904 -1.97887e-05  -0.02984 -0.31331 -1.88351e-05  -0.0378025 -0.320464 -3.02792e-05  -0.0373225 -0.312873 -3.40939e-05  -0.0298312 -0.313289 -2.52724e-05  -0.0373149 -0.312854 -4.19617e-05  -0.0387714 -0.335673 -1.57356e-05  -0.0312641 -0.336104 -1.07288e-05  -0.0307989 -0.328516 -8.10623e-06  -0.0387642 -0.335658 -1.62125e-05  -0.0382931 -0.328075 -1.90735e-05  -0.0307877 -0.328506 -1.21593e-05  -0.0382857 -0.328062 -2.21729e-05  -0.0397162 -0.350832 -9.05991e-06  -0.0321987 -0.351268 -2.14577e-06  -0.0317321 -0.343698 -3.8147e-06  -0.0397072 -0.35082 -8.82149e-06  -0.0392435 -0.343251 -7.39098e-06  -0.0317316 -0.343692 -6.19888e-06  -0.0392354 -0.343243 -1.12057e-05  -0.0406427 -0.365945 5.24521e-06  -0.0331204 -0.366388 5.72205e-06  -0.0326571 -0.358837 7.15256e-07  -0.0406377 -0.365939 5.96046e-06  -0.0401766 -0.358391 -5.48363e-06  -0.0326617 -0.358829 1.43051e-06  -0.040174 -0.358382 -1.66893e-06  -0.0415599 -0.381015 1.5974e-05  -0.0340359 -0.381448 1.19209e-05  -0.0335877 -0.373927 8.10623e-06  -0.0415566 -0.381001 1.78814e-05  -0.0410991 -0.37348 6.67572e-06  -0.0335767 -0.373924 4.52995e-06  -0.0410967 -0.373475 1.09673e-05  -0.000275388 -0.000915289 -0.000259399  0 0 0  4.40925e-05 -0.000752032 8.82149e-06  1.57654e-05 -0.000153333 1.43051e-06  0 0 0  -0.000287227 -0.000766605 -0.000349045  -0.000108063 -0.000157446 -0.000139236  0 0 0  1.64658e-05 -8.20756e-05 4.76837e-06  -0.000108086 -8.59201e-05 -0.000187874  -0.000758767 -0.00385845 -0.000426769  0.000112712 -0.00356039 5.00679e-06  7.18087e-05 -0.00216016 3.33786e-06  -0.000780165 -0.00357166 -0.000554562  -0.000500336 -0.00217688 -0.000358582  7.8246e-05 -0.00194654 7.39098e-06  -0.000515983 -0.00195768 -0.000467777  -0.00134543 -0.00824976 -0.000494719  0.000158876 -0.00786856 -5.72205e-06  0.000126123 -0.00588202 -1.43051e-06  -0.00135419 -0.0078623 -0.000624895  -0.00104547 -0.00589246 -0.000473022  0.000138909 -0.00554818 -7.15256e-07  -0.00106114 -0.00555408 -0.000598669  -0.00195959 -0.0138017 -0.000499964  0.000148773 -0.0133851 -1.3113e-05  0.000142425 -0.01089 -9.05991e-06  -0.00195354 -0.0133626 -0.000621557  -0.00164947 -0.0108855 -0.000502348  0.000160605 -0.0104852 -9.53674e-06  -0.00165161 -0.0104735 -0.000629425  -0.00259411 -0.0203972 -0.000473022  9.07779e-05 -0.0199782 -8.10623e-06  0.000102699 -0.0169964 -7.39098e-06  -0.0025689 -0.0199332 -0.000591993  -0.00227231 -0.0169678 -0.00048995  0.000126779 -0.0165538 -8.82149e-06  -0.00225866 -0.0165184 -0.000608444  -0.00324005 -0.0279476 -0.000444174  -3.73721e-05 -0.027563 -3.8147e-06  6.31809e-06 -0.0241055 -5.96046e-06  -0.00320715 -0.0274955 -0.000548363  -0.00291389 -0.0240505 -0.000461578  3.20077e-05 -0.0236531 -3.8147e-06  -0.0028854 -0.0235969 -0.000570297  -0.00391519 -0.0364069 -0.000405788  -0.000240505 -0.0360647 4.76837e-07  -0.000158966 -0.0321431 -2.6226e-06  -0.00387645 -0.0359722 -0.000501394  -0.00357383 -0.032061 -0.000424623  -0.000128269 -0.0317028 -1.66893e-06  -0.00353712 -0.031623 -0.000524521  -0.00462484 -0.0457039 -0.000366926  -0.000506222 -0.0454127 1.35899e-05  -0.000393689 -0.0410545 1.90735e-06  -0.00458091 -0.0452951 -0.000458956  -0.0042637 -0.0409499 -0.000386715  -0.000365555 -0.0406341 5.72205e-06  -0.00422442 -0.0405311 -0.000480413  -0.00536025 -0.0557659 -0.000329971  -0.000841737 -0.055528 1.35899e-05  -0.000699162 -0.050771 8.34465e-06  -0.00531805 -0.0553821 -0.000411272  -0.00498927 -0.0506409 -0.000348091  -0.000665784 -0.0503765 9.77516e-06  -0.00494528 -0.0502442 -0.000433683  -0.00613177 -0.0665358 -0.000302792  -0.00124371 -0.0663533 2.07424e-05  -0.00106764 -0.0612169 1.3113e-05  -0.00608718 -0.066182 -0.000372648  -0.00574148 -0.061059 -0.000314474  -0.00103295 -0.0608561 1.66893e-05  -0.00570071 -0.0606972 -0.000390768  -0.00693262 -0.0779458 -0.000265837  -0.0017122 -0.0778187 2.67029e-05  -0.00150275 -0.0723416 1.50204e-05  -0.00689018 -0.0776202 -0.000331163  -0.00652516 -0.0721607 -0.000283003  -0.00147045 -0.0720106 2.14577e-05  -0.00648499 -0.0718239 -0.000350237  -0.0077641 -0.0899286 -0.000239134  -0.0022341 -0.0898621 2.28882e-05  -0.00199437 -0.0840746 1.26362e-05  -0.00772274 -0.0896356 -0.000301838  -0.00734448 -0.0838622 -0.000254393  -0.00196838 -0.0837685 2.19345e-05  -0.00730264 -0.0835578 -0.000316143  -0.00861931 -0.102432 -0.000211477  -0.00281847 -0.102421 2.59876e-05  -0.00254154 -0.0963516 1.90735e-05  -0.00858402 -0.102166 -0.00026536  -0.00818861 -0.0961162 -0.000226498  -0.00251997 -0.0960763 2.5034e-05  -0.00815034 -0.0958386 -0.000278234  -0.00950384 -0.115404 -0.000190973  -0.00344825 -0.11544 2.07424e-05  -0.00315058 -0.109121 1.7643e-05  -0.0094676 -0.115161 -0.000234604  -0.00905955 -0.108855 -0.000198841  -0.00312924 -0.108872 2.38419e-05  -0.00902164 -0.108608 -0.000249624  -0.0104102 -0.128788 -0.000165701  -0.00412881 -0.128871 2.93255e-05  -0.00380504 -0.122329 2.21729e-05  -0.0103737 -0.12857 -0.000202179  -0.0099498 -0.122038 -0.000177383  -0.00378227 -0.122104 2.83718e-05  -0.00991881 -0.121817 -0.000218391  -0.011328 -0.142529 -0.000142336  -0.00485623 -0.142659 2.6226e-05  -0.00450778 -0.135923 2.26498e-05  -0.0113004 -0.14234 -0.000177383  -0.0108663 -0.13561 -0.000150919  -0.00448644 -0.135721 2.52724e-05  -0.0108337 -0.135412 -0.000189066  -0.0122681 -0.156589 -0.000121117  -0.00561762 -0.156755 2.36034e-05  -0.00525045 -0.149847 2.36034e-05  -0.0122378 -0.156414 -0.00015378  -0.0117955 -0.149516 -0.000130892  -0.00523257 -0.149673 2.81334e-05  -0.0117676 -0.149341 -0.000163555  -0.0132208 -0.170916 -0.000102997  -0.00641251 -0.171128 2.57492e-05  -0.00602531 -0.164067 1.69277e-05  -0.0131905 -0.170767 -0.000132084  -0.0127432 -0.163714 -0.000115633  -0.00601125 -0.163909 2.71797e-05  -0.012713 -0.16356 -0.000142097  -0.014179 -0.18547 -8.55923e-05  -0.00724483 -0.185717 2.55108e-05  -0.00684118 -0.178528 2.3365e-05  -0.0141561 -0.185342 -0.000107288  -0.0136979 -0.178161 -9.39369e-05  -0.00682282 -0.178394 2.5034e-05  -0.013674 -0.178027 -0.000115871  -0.0151434 -0.200216 -7.20024e-05  -0.00808954 -0.200497 2.38419e-05  -0.00767875 -0.193199 1.66893e-05  -0.0151248 -0.200102 -9.10759e-05  -0.0146613 -0.192813 -7.9155e-05  -0.00766349 -0.19308 2.0504e-05  -0.0146382 -0.192697 -0.000103235  -0.0161119 -0.215118 -5.91278e-05  -0.00896478 -0.215425 2.26498e-05  -0.00853515 -0.208045 1.83582e-05  -0.0160975 -0.215023 -7.29561e-05  -0.0156257 -0.207647 -6.84261e-05  -0.00852323 -0.207941 2.57492e-05  -0.0156112 -0.207547 -8.53539e-05  -0.0170813 -0.230145 -4.57764e-05  -0.00985217 -0.230474 1.90735e-05  -0.00941157 -0.223018 1.90735e-05  -0.0170705 -0.23006 -5.88894e-05  -0.0165918 -0.222611 -5.29289e-05  -0.00940776 -0.222934 1.83582e-05  -0.016583 -0.222528 -6.38962e-05  -0.0180554 -0.245258 -3.31402e-05  -0.0107508 -0.245615 1.74046e-05  -0.0103085 -0.2381 1.4782e-05  -0.0180426 -0.24519 -4.3869e-05  -0.0175662 -0.237683 -4.17233e-05  -0.0102997 -0.238031 1.90735e-05  -0.0175567 -0.237614 -5.31673e-05  -0.0190229 -0.260437 -2.38419e-05  -0.0116646 -0.260813 1.5974e-05  -0.0112121 -0.253264 1.4782e-05  -0.0190132 -0.260383 -3.48091e-05  -0.0185399 -0.252835 -3.17097e-05  -0.0112073 -0.253202 1.78814e-05  -0.0185289 -0.252778 -3.74317e-05  -0.0199821 -0.275658 -2.00272e-05  -0.0125804 -0.27605 1.64509e-05  -0.0121291 -0.268474 1.0252e-05  -0.0199764 -0.275614 -2.31266e-05  -0.0195019 -0.26804 -2.07424e-05  -0.0121214 -0.268427 1.69277e-05  -0.0194957 -0.267994 -2.64645e-05  -0.020941 -0.290895 -1.35899e-05  -0.0135016 -0.291303 1.0252e-05  -0.013046 -0.283709 1.62125e-05  -0.0209341 -0.290861 -1.38283e-05  -0.020463 -0.283271 -1.35899e-05  -0.0130434 -0.283676 1.50204e-05  -0.0204554 -0.283237 -1.81198e-05  -0.0218921 -0.30614 -9.05991e-06  -0.0144312 -0.306556 1.26362e-05  -0.0139668 -0.298959 1.3113e-05  -0.0218852 -0.306112 -1.09673e-05  -0.0214148 -0.298516 -9.05991e-06  -0.013967 -0.29893 1.35899e-05  -0.0214102 -0.298488 -1.28746e-05  -0.0228376 -0.321365 -9.53674e-07  -0.0153508 -0.321796 8.58307e-06  -0.0148907 -0.314198 8.34465e-06  -0.0228291 -0.321348 -2.6226e-06  -0.0223627 -0.31375 -8.10623e-06  -0.014888 -0.314178 1.23978e-05  -0.0223606 -0.313732 -6.91414e-06  -0.0237706 -0.33657 2.38419e-07  -0.0162725 -0.337004 6.19888e-06  -0.0158167 -0.329417 5.72205e-06  -0.0237653 -0.336551 -2.38419e-06  -0.0233018 -0.328965 -7.15256e-07  -0.0158119 -0.329401 4.29153e-06  -0.0232997 -0.328952 -3.33786e-06  -0.0246968 -0.351733 -2.6226e-06  -0.0171902 -0.35217 9.29832e-06  -0.0167325 -0.3446 8.10623e-06  -0.0246937 -0.351717 2.14577e-06  -0.0242324 -0.344149 -1.19209e-06  -0.0167325 -0.344589 9.77516e-06  -0.0242324 -0.344139 -4.76837e-07  -0.0256155 -0.366843 3.09944e-06  -0.0181103 -0.367285 1.66893e-06  -0.0176499 -0.35974 5.96046e-06  -0.0256109 -0.366836 5.00679e-06  -0.0251539 -0.359288 2.6226e-06  -0.0176501 -0.359732 7.15256e-06  -0.0251546 -0.359279 3.09944e-06  -0.0265355 -0.38191 3.8147e-06  -0.0190151 -0.382348 1.19209e-06  -0.0185614 -0.374828 -2.38419e-07  -0.026526 -0.3819 3.57628e-06  -0.0260735 -0.37438 4.76837e-07  -0.0185592 -0.374822 1.19209e-06  -0.0260706 -0.374369 0  0.000357762 -0.000974834 0.000267506  0 0 0  0.000718698 -0.000978708 0.000711441  0.000263445 -0.000276089 0.000284672  0 0 0  0.00037834 -0.000821888 0.000357866  0.000138775 -0.000190794 0.000144243  0 0 0  0.000270687 -0.000203073 0.00039506  0.000141971 -0.000119984 0.00019908  0.000968337 -0.00396085 0.000427008  0.00192031 -0.00392616 0.00109959  0.00123082 -0.00247645 0.000720739  0.00100449 -0.00367582 0.000556231  0.000643119 -0.00225604 0.000362158  0.00128633 -0.00225812 0.000947475  0.000674963 -0.00204498 0.000478983  0.00162435 -0.008389 0.000480413  0.00319588 -0.00828868 0.00121546  0.00249773 -0.0062896 0.000920057  0.00166333 -0.00800878 0.000609398  0.00129747 -0.00601166 0.000462294  0.00256485 -0.00595325 0.00117683  0.00133944 -0.00568157 0.000593424  0.00221574 -0.0139778 0.000479937  0.00437236 -0.0138264 0.00120902  0.00375065 -0.0113296 0.000973463  0.00224954 -0.0135404 0.000602961  0.0019336 -0.0110392 0.000482798  0.00380093 -0.0109174 0.00122333  0.00196627 -0.0106332 0.000609636  0.00270981 -0.020604 0.000460863  0.00540775 -0.0204328 0.00116038  0.00487256 -0.0174457 0.000952244  0.00273716 -0.0201477 0.00057745  0.0024755 -0.0171563 0.000470638  0.00490874 -0.0169991 0.00118899  0.00250691 -0.0167134 0.000594139  0.00309741 -0.0282019 0.000434637  0.0062983 -0.0280322 0.0010922  0.00584662 -0.0245656 0.000899315  0.00311887 -0.0277434 0.000543594  0.00291628 -0.0242773 0.00044632  0.00586891 -0.0241132 0.00112557  0.00294298 -0.0238256 0.000558615  0.00337046 -0.0366921 0.000406027  0.00703835 -0.0365563 0.00101066  0.00666696 -0.0326251 0.000842333  0.00339454 -0.0362598 0.000508785  0.00324661 -0.0323325 0.000417233  0.0066855 -0.0321824 0.00105166  0.00327063 -0.0318892 0.000524521  0.00354218 -0.0460306 0.000374317  0.00763834 -0.0459282 0.000932932  0.00734735 -0.0415592 0.000781059  0.0035609 -0.0456212 0.000469208  0.00346929 -0.0412582 0.000394583  0.00735521 -0.0411398 0.00097394  0.00349098 -0.0408375 0.000488997  0.00360608 -0.0561451 0.000349998  0.00810742 -0.0560787 0.000864744  0.00788069 -0.0513024 0.000718832  0.00362587 -0.055759 0.000439167  0.00358474 -0.05099 0.000363827  0.00789428 -0.0509118 0.000902414  0.00360584 -0.0505983 0.000454426  0.00356984 -0.0669604 0.000326633  0.00844145 -0.0669386 0.000793934  0.00827956 -0.061788 0.000660896  0.00359201 -0.0666051 0.000404835  0.00359988 -0.0614593 0.000336885  0.00829422 -0.061422 0.000827789  0.00362182 -0.0610962 0.000421286  0.00344491 -0.0784122 0.000296593  0.00865221 -0.0784366 0.00073123  0.0085535 -0.0729449 0.000606775  0.00346267 -0.0780901 0.000374794  0.00351703 -0.0726061 0.000313282  0.00856066 -0.07261 0.000757694  0.00354064 -0.072273 0.000393152  0.00322914 -0.0904464 0.00027442  0.00873852 -0.0905093 0.000666857  0.00869858 -0.0847111 0.000554562  0.00324404 -0.090151 0.0003438  0.00334787 -0.0843575 0.000283003  0.00870776 -0.0844048 0.000694752  0.00336516 -0.0840518 0.000356674  0.0029279 -0.102993 0.000252724  0.00871122 -0.103099 0.00060463  0.00873339 -0.0970188 0.00050354  0.00294244 -0.102728 0.000315666  0.00308645 -0.0966534 0.000263214  0.00874066 -0.0967445 0.000632763  0.00310242 -0.0963783 0.000329971  0.00254536 -0.116011 0.000226736  0.0085814 -0.116154 0.00054574  0.00865638 -0.109823 0.000457764  0.00256014 -0.11577 0.000286818  0.00274897 -0.109441 0.000241995  0.00866151 -0.109574 0.000573874  0.00276113 -0.109196 0.000299215  0.00208974 -0.129433 0.000207663  0.00835168 -0.129616 0.000486135  0.00847411 -0.12306 0.000413418  0.00210619 -0.129219 0.000257015  0.00232685 -0.122669 0.000216007  0.00847888 -0.122837 0.000515461  0.00234175 -0.122445 0.000269651  0.00156784 -0.143216 0.000182629  0.00802851 -0.143431 0.000439167  0.00819659 -0.136683 0.000368118  0.00158358 -0.143023 0.00022769  0.0018388 -0.13628 0.000194073  0.00820065 -0.136481 0.000459909  0.00185263 -0.136078 0.000243425  0.000989914 -0.157306 0.000162363  0.00762129 -0.157556 0.000386953  0.00783515 -0.150637 0.000333071  0.000997066 -0.157133 0.000205755  0.00128508 -0.15022 0.000178337  0.00783253 -0.150453 0.000412226  0.00129676 -0.150042 0.000222206  0.000350952 -0.171667 0.000146627  0.00713801 -0.171943 0.000335932  0.00738978 -0.164872 0.000289917  0.000356197 -0.171517 0.000183582  0.000676394 -0.164451 0.000156164  0.00738788 -0.164718 0.000362396  0.000684023 -0.164296 0.000193357  -0.000341654 -0.186249 0.000128746  0.00658369 -0.186554 0.000295401  0.00686741 -0.179357 0.000252724  -0.000332355 -0.186119 0.000158548  1.09673e-05 -0.178929 0.000136375  0.00686765 -0.179225 0.000317335  1.7643e-05 -0.178793 0.000171185  -0.00107074 -0.201022 0.000110626  0.00597119 -0.201349 0.000254631  0.00628328 -0.194049 0.00022006  -0.00106359 -0.20091 0.000142574  -0.000700712 -0.193611 0.000116825  0.00628424 -0.19393 0.000272512  -0.000695229 -0.19349 0.000149965  -0.00184131 -0.215946 9.70364e-05  0.00530267 -0.216294 0.000218391  0.00564337 -0.208907 0.000190258  -0.0018332 -0.215847 0.00011754  -0.00145078 -0.208462 0.000105858  0.00564337 -0.208803 0.00023818  -0.00144577 -0.208358 0.000130892  -0.00263953 -0.230985 8.05855e-05  0.00458431 -0.231354 0.000178814  0.00495195 -0.223897 0.000160217  -0.00263643 -0.230905 9.9659e-05  -0.0022347 -0.223447 9.01222e-05  0.00494885 -0.223813 0.000198603  -0.00223184 -0.223362 0.00011301  -0.00347114 -0.246118 6.62804e-05  0.00382161 -0.246505 0.000144243  0.00421691 -0.238993 0.000129223  -0.00346732 -0.246053 8.36849e-05  -0.00305367 -0.238536 7.24792e-05  0.00420904 -0.238921 0.000161886  -0.00304914 -0.238468 9.17912e-05  -0.00432181 -0.261308 5.48363e-05  0.00302672 -0.261711 0.000118256  0.00343299 -0.254157 0.000105143  -0.00431919 -0.261255 6.7234e-05  -0.00389266 -0.253702 6.03199e-05  0.00342774 -0.254102 0.000129223  -0.00389028 -0.253645 7.53403e-05  -0.00518847 -0.276541 4.57764e-05  0.00220418 -0.276953 9.39369e-05  0.00262284 -0.269375 8.34465e-05  -0.00519109 -0.276494 5.57899e-05  -0.00475216 -0.268918 4.86374e-05  0.00262213 -0.269327 0.00010848  -0.00475097 -0.26887 6.22272e-05  -0.00607467 -0.291794 3.19481e-05  0.00135565 -0.29221 7.31945e-05  0.00179076 -0.284619 6.96182e-05  -0.00607824 -0.291752 3.93391e-05  -0.00562859 -0.284162 3.93391e-05  0.00178194 -0.284582 8.67844e-05  -0.00563216 -0.284124 4.95911e-05  -0.00697184 -0.307037 3.17097e-05  0.000484705 -0.307469 5.43594e-05  0.000929832 -0.299867 5.17368e-05  -0.00697231 -0.307012 3.57628e-05  -0.00652194 -0.29941 2.93255e-05  0.000924349 -0.299838 6.22272e-05  -0.00652313 -0.29938 3.71933e-05  -0.00787711 -0.32227 1.66893e-05  -0.000395536 -0.322709 3.74317e-05  4.88758e-05 -0.315109 3.93391e-05  -0.00787282 -0.322251 2.09808e-05  -0.00742102 -0.314651 2.16961e-05  4.50611e-05 -0.31509 4.31538e-05  -0.00742364 -0.314631 2.95639e-05  -0.00878406 -0.337475 1.14441e-05  -0.00128913 -0.337911 2.38419e-05  -0.00083971 -0.330326 2.43187e-05  -0.00878477 -0.337454 1.4782e-05  -0.00832987 -0.329872 1.50204e-05  -0.000838757 -0.330314 3.02792e-05  -0.00832748 -0.329855 1.74046e-05  -0.00969267 -0.352631 6.67572e-06  -0.0021925 -0.353076 8.34465e-06  -0.00173569 -0.345509 1.62125e-05  -0.00969315 -0.35262 1.0252e-05  -0.00923467 -0.345054 1.07288e-05  -0.00174165 -0.345502 1.7643e-05  -0.00923777 -0.345043 1.5974e-05  -0.0105999 -0.36775 7.15256e-07  -0.00309491 -0.368195 -1.43051e-06  -0.00263524 -0.360652 4.52995e-06  -0.0106006 -0.367741 2.38419e-06  -0.0101492 -0.360192 2.6226e-06  -0.00264454 -0.360643 7.39098e-06  -0.0101461 -0.360186 7.86781e-06  -0.011508 -0.382811 -1.43051e-06  -0.00400233 -0.383256 -1.19209e-05  -0.00354552 -0.375741 -1.66893e-06  -0.0115137 -0.382798 2.14577e-06  -0.0110519 -0.375283 2.38419e-07  -0.00355053 -0.375733 -7.62939e-06  -0.0110583 -0.375277 -1.66893e-06  0.00103903 -0.00139511 0.000785351  0 0 0  0.00149447 -0.00160629 0.00137353  0.000552833 -0.000642419 0.000556469  0 0 0  0.00108799 -0.00123316 0.0010488  0.000396304 -0.0004161 0.000425339  0 0 0  0.000566341 -0.000555813 0.000765085  0.000407159 -0.000342011 0.000582933  0.00278905 -0.00461882 0.00125241  0.0039238 -0.00486225 0.00214005  0.00255342 -0.00333333 0.00139785  0.00288194 -0.00431567 0.00162935  0.00186174 -0.00283033 0.00106478  0.00265355 -0.003084 0.00183916  0.00193745 -0.00259852 0.00140047  0.00470316 -0.00910878 0.00142837  0.00645307 -0.00927305 0.00239205  0.00509581 -0.00729895 0.00180411  0.00478697 -0.00871044 0.00181341  0.00375134 -0.00671381 0.00136924  0.00520688 -0.00692952 0.0023067  0.00384429 -0.00636864 0.00175118  0.00649017 -0.0146852 0.00144839  0.00879455 -0.0147793 0.00240731  0.00757378 -0.012323 0.00191998  0.00654715 -0.014241 0.00181317  0.00562054 -0.0117567 0.00145197  0.00765318 -0.0118917 0.00241566  0.00568995 -0.0113387 0.00182509  0.00809085 -0.0212988 0.00139046  0.0109049 -0.0213547 0.00230575  0.00982928 -0.0183966 0.00188923  0.00812191 -0.0208364 0.00173664  0.00731605 -0.0178606 0.00142479  0.00987667 -0.0179371 0.00235868  0.00735879 -0.0174093 0.00178027  0.00949943 -0.0288871 0.00130367  0.0127905 -0.0289373 0.00216365  0.0118518 -0.0254831 0.00179315  0.00951308 -0.028432 0.00162792  0.00882035 -0.0249684 0.0013454  0.0118732 -0.025025 0.00223732  0.00884032 -0.0245136 0.00168514  0.0107141 -0.037397 0.00121212  0.0144634 -0.0374524 0.0020175  0.0136477 -0.0335253 0.00167584  0.0107239 -0.0369551 0.00151587  0.0101282 -0.0330231 0.00125718  0.0136532 -0.0330816 0.00209308  0.0101417 -0.03258 0.00157118  0.0117515 -0.0467481 0.00111938  0.0159233 -0.0468263 0.00185919  0.0152205 -0.0424571 0.00155234  0.0117543 -0.0463313 0.00139856  0.0112576 -0.0419611 0.00116658  0.0152184 -0.042037 0.00194144  0.0112591 -0.0415408 0.00145578  0.0126231 -0.0568684 0.00102758  0.0171838 -0.0569844 0.00170612  0.0165845 -0.052201 0.00142837  0.0126184 -0.0564871 0.00128603  0.0122094 -0.0517071 0.00107622  0.0165817 -0.0518075 0.00178552  0.0122081 -0.0513147 0.00134301  0.0133212 -0.0677052 0.000938177  0.0182526 -0.0678452 0.00156832  0.0177523 -0.0626932 0.0013082  0.0133197 -0.0673482 0.00117993  0.0129894 -0.0621982 0.000986576  0.0177406 -0.0623276 0.0016408  0.0129908 -0.0618324 0.00123191  0.0138648 -0.0791809 0.000866652  0.0191257 -0.0793529 0.00143433  0.0187272 -0.0738546 0.00119972  0.0138645 -0.0788575 0.00108027  0.0136155 -0.0733619 0.000904799  0.0187119 -0.0735213 0.00149608  0.013612 -0.0730279 0.00112653  0.0142605 -0.091234 0.000790119  0.0198268 -0.0914361 0.00130248  0.0195113 -0.0856303 0.001091  0.0142568 -0.0909365 0.000983715  0.0140818 -0.0851361 0.000827312  0.0194948 -0.0853227 0.00136352  0.0140789 -0.0848272 0.00103211  0.0145139 -0.103804 0.000710964  0.0203518 -0.104036 0.0011766  0.0201198 -0.0979503 0.000987053  0.0145116 -0.103535 0.000889301  0.0144038 -0.0974544 0.000748158  0.0201068 -0.0976731 0.00123644  0.0143991 -0.0971765 0.000934601  0.014631 -0.11684 0.00064373  0.0207204 -0.117099 0.00106359  0.0205647 -0.110766 0.000890017  0.0146282 -0.1166 0.000800371  0.0145895 -0.110264 0.000674486  0.0205563 -0.110512 0.00111365  0.0145849 -0.110011 0.000841856  0.014626 -0.130278 0.000573397  0.0209297 -0.130559 0.00095129  0.0208542 -0.124009 0.000803232  0.0146216 -0.130063 0.000716925  0.0146434 -0.123507 0.000608683  0.0208403 -0.123781 0.00100088  0.0146397 -0.123283 0.00075984  0.0145042 -0.144076 0.000513077  0.0210073 -0.144387 0.000845194  0.0209966 -0.13763 0.000716448  0.0144951 -0.143885 0.000638247  0.014577 -0.137134 0.000542879  0.0209855 -0.137433 0.00089407  0.0145702 -0.136932 0.000677586  0.0142732 -0.158184 0.000449896  0.0209508 -0.158516 0.000740528  0.0210071 -0.151591 0.000633955  0.014267 -0.158015 0.000561237  0.0143976 -0.151094 0.000480175  0.0209937 -0.151415 0.000790358  0.0143938 -0.150912 0.000603914  0.0139468 -0.172561 0.000393629  0.0207727 -0.172907 0.000652313  0.020889 -0.165837 0.000555992  0.0139384 -0.172405 0.000494242  0.0141196 -0.165333 0.000426054  0.0208747 -0.165675 0.000695705  0.0141156 -0.165177 0.00053072  0.0135252 -0.187152 0.000341415  0.020488 -0.187516 0.00056529  0.0206561 -0.180324 0.00048542  0.01352 -0.187022 0.000425339  0.0137496 -0.179822 0.000366688  0.0206432 -0.180185 0.000605822  0.0137408 -0.179689 0.000457525  0.0130303 -0.201933 0.000294685  0.0201082 -0.202316 0.000481367  0.0203214 -0.195012 0.000415087  0.0130227 -0.201818 0.000369072  0.0132864 -0.194517 0.000319004  0.0203066 -0.194896 0.000522614  0.0132821 -0.194398 0.000399113  0.0124605 -0.21686 0.000249863  0.0196326 -0.217261 0.000409365  0.0198948 -0.209869 0.000352859  0.0124567 -0.216769 0.000313997  0.0127547 -0.209377 0.000269651  0.0198803 -0.209771 0.000443935  0.0127468 -0.209274 0.0003407  0.011826 -0.231911 0.000211239  0.019078 -0.232321 0.000343323  0.0193825 -0.224861 0.0002985  0.0118227 -0.231827 0.000260353  0.0121527 -0.224369 0.000226974  0.0193655 -0.224776 0.000372648  0.0121462 -0.224283 0.000283241  0.0111368 -0.247047 0.000171185  0.0184598 -0.247464 0.000278234  0.0187926 -0.239953 0.000245571  0.0111282 -0.246974 0.000209332  0.0114892 -0.239465 0.000188351  0.0187769 -0.239882 0.000306129  0.0114827 -0.239392 0.000235796  0.0103972 -0.262239 0.000137329  0.0177712 -0.262664 0.00021553  0.0181355 -0.255117 0.00019908  0.0103886 -0.262181 0.000172615  0.0107727 -0.25463 0.000154495  0.0181239 -0.25506 0.00025034  0.0107625 -0.254573 0.00019002  0.00961542 -0.27747 0.000103235  0.0170329 -0.277906 0.000175238  0.0174208 -0.270327 0.000155449  0.00961161 -0.277425 0.00013113  0.0100148 -0.269846 0.000118971  0.0174057 -0.27028 0.000189781  0.0100031 -0.269797 0.000150919  0.0088017 -0.292717 7.67708e-05  0.0162528 -0.293155 0.000126362  0.0166557 -0.285567 0.000118732  0.00879788 -0.292678 9.91821e-05  0.00921416 -0.285084 9.15527e-05  0.0166488 -0.285529 0.000149965  0.00920939 -0.285051 0.000116587  0.00796056 -0.307962 5.96046e-05  0.0154383 -0.308408 8.98838e-05  0.015857 -0.300813 8.89301e-05  0.00795317 -0.307932 7.1764e-05  0.00838447 -0.300338 7.1764e-05  0.015851 -0.300782 0.000109673  0.00838089 -0.300306 8.79765e-05  0.00709438 -0.323196 4.12464e-05  0.0145893 -0.323639 6.07967e-05  0.015027 -0.316048 6.10352e-05  0.00709033 -0.323172 4.88758e-05  0.00753164 -0.315575 4.3869e-05  0.0150137 -0.316026 7.31945e-05  0.00752592 -0.315558 5.62668e-05  0.00621533 -0.338388 2.52724e-05  0.0137162 -0.338838 3.74317e-05  0.0141621 -0.331259 4.31538e-05  0.00621104 -0.338371 2.90871e-05  0.00665951 -0.330791 3.19481e-05  0.0141537 -0.331242 5.126e-05  0.00665021 -0.330776 4.00543e-05  0.00532079 -0.353548 1.64509e-05  0.0128267 -0.354002 1.52588e-05  0.013283 -0.346435 2.28882e-05  0.00531697 -0.353538 1.23978e-05  0.00576901 -0.34597 1.5974e-05  0.013274 -0.346422 2.90871e-05  0.00576353 -0.345962 1.93119e-05  0.00441933 -0.368666 2.38419e-07  0.0119288 -0.369116 2.14577e-06  0.0123873 -0.36157 7.86781e-06  0.00441289 -0.368653 -2.6226e-06  0.00487041 -0.361111 7.62939e-06  0.0123785 -0.361563 1.14441e-05  0.00486541 -0.361105 5.72205e-06  0.00351906 -0.383726 -6.19888e-06  0.0110326 -0.384186 -2.00272e-05  0.0114872 -0.376657 -9.77516e-06  0.00350666 -0.383719 -5.96046e-06  0.00396371 -0.376196 -4.52995e-06  0.0114801 -0.376654 -7.15256e-06  0.00396323 -0.376193 -8.10623e-06  0.00190693 -0.00234318 0.00126457  0 0 0  0.00254825 -0.00291491 0.0019896  0.000951767 -0.00149024 0.000818014  0 0 0  0.00197679 -0.00214696 0.00168943  0.000718616 -0.000979245 0.000688076  0 0 0  0.000969358 -0.00137359 0.00110674  0.000734381 -0.000878155 0.000934839  0.00496671 -0.005925 0.00202751  0.00642183 -0.00646687 0.00310659  0.00434932 -0.00494188 0.00202656  0.00509727 -0.00558132 0.00262809  0.00337233 -0.0040229 0.00171328  0.00446422 -0.00462848 0.00265527  0.00348024 -0.00374645 0.00225472  0.00812963 -0.0104074 0.00233483  0.0101545 -0.0108024 0.00351357  0.0081909 -0.00892895 0.00263786  0.00824088 -0.00997412 0.00295496  0.00656661 -0.00803882 0.00222731  0.00832507 -0.00850469 0.00336957  0.0066942 -0.00764453 0.00284719  0.0110685 -0.0159104 0.00237894  0.0135924 -0.0162207 0.00355244  0.0118167 -0.0138448 0.0028255  0.0111366 -0.0154417 0.00297713  0.00963268 -0.0130227 0.00237966  0.0119093 -0.0133718 0.00355721  0.00972202 -0.0125709 0.00299382  0.0137334 -0.0224636 0.00229836  0.0167407 -0.0227308 0.00342846  0.0151499 -0.0198237 0.00280142  0.0137699 -0.0219888 0.00286603  0.0124345 -0.0190538 0.00234771  0.0152025 -0.0193432 0.00350165  0.0124861 -0.018584 0.00293303  0.0161369 -0.0300134 0.00216126  0.0196146 -0.0302688 0.00322866  0.0181922 -0.026848 0.00266695  0.016151 -0.0295506 0.00269699  0.0149681 -0.0261123 0.00223184  0.0182139 -0.0263755 0.00333095  0.014993 -0.0256459 0.00278807  0.0182854 -0.0384927 0.00201106  0.0222039 -0.0387502 0.00299978  0.0209422 -0.0348442 0.00249648  0.0182817 -0.0380521 0.00251126  0.0172439 -0.0341368 0.00209117  0.0209435 -0.0343953 0.00312018  0.0172466 -0.0336876 0.00260735  0.0201851 -0.0478253 0.0018568  0.0245173 -0.0480955 0.00277019  0.0234044 -0.0437409 0.00231409  0.0201728 -0.0474136 0.00231719  0.019267 -0.0430523 0.00193381  0.0233956 -0.0433198 0.00289202  0.0192555 -0.0426304 0.00241613  0.0218382 -0.0579516 0.00170588  0.0265584 -0.0582247 0.00255537  0.0255868 -0.0534602 0.00213432  0.0218246 -0.0575626 0.00213075  0.0210379 -0.0527846 0.00178051  0.0255697 -0.053068 0.00266361  0.0210307 -0.0523934 0.00222397  0.023268 -0.0687716 0.00156045  0.0283411 -0.0690717 0.00234127  0.0274986 -0.0639312 0.00195551  0.0232497 -0.0684196 0.00195193  0.0225824 -0.063272 0.00163054  0.027481 -0.0635673 0.0024426  0.0225627 -0.062904 0.00204182  0.0244738 -0.0802416 0.00142241  0.0298752 -0.0805646 0.00213289  0.0291584 -0.0750737 0.00178432  0.0244565 -0.0799216 0.00177979  0.023898 -0.0744252 0.00149226  0.0291382 -0.0747424 0.00223255  0.0238838 -0.0740926 0.00186658  0.0254732 -0.0922946 0.00129342  0.0311677 -0.0926326 0.00193286  0.0305707 -0.0868301 0.00162578  0.0254557 -0.0919986 0.00161648  0.0250002 -0.0861969 0.00135827  0.0305506 -0.0865314 0.00203276  0.0249829 -0.0858917 0.00169659  0.0262686 -0.104866 0.00116777  0.0322338 -0.105219 0.00175047  0.0317435 -0.0991402 0.00147223  0.026256 -0.104598 0.00145912  0.0258969 -0.0985147 0.00123096  0.0317298 -0.0988636 0.00183988  0.0258795 -0.0982353 0.00154185  0.0268824 -0.117895 0.001055  0.0330844 -0.118265 0.00157762  0.0327047 -0.111939 0.00132751  0.0268625 -0.117653 0.00131392  0.0265992 -0.111323 0.00111341  0.0326859 -0.11169 0.00165844  0.0265822 -0.11107 0.00139165  0.0273126 -0.131333 0.000939846  0.0337312 -0.13172 0.00140333  0.0334516 -0.125167 0.00119328  0.0272961 -0.131114 0.00117588  0.0271168 -0.124563 0.000997066  0.0334312 -0.124944 0.00148892  0.0270991 -0.124335 0.00124741  0.0275781 -0.145127 0.000835657  0.0341892 -0.145525 0.00125074  0.0340054 -0.138777 0.00105953  0.0275667 -0.144933 0.00104666  0.0274675 -0.138179 0.000886202  0.0339836 -0.138578 0.00132322  0.0274518 -0.137984 0.00111079  0.0276964 -0.159229 0.000736475  0.0344751 -0.159636 0.00110221  0.034373 -0.152722 0.000938177  0.0276787 -0.159056 0.000924349  0.0276589 -0.152135 0.000786066  0.0343537 -0.152544 0.0011735  0.0276396 -0.151958 0.000983  0.0276752 -0.173594 0.000644207  0.0345907 -0.174016 0.000953674  0.0345716 -0.166953 0.00082159  0.0276551 -0.173443 0.000804424  0.0277009 -0.166377 0.000689507  0.0345542 -0.166796 0.00103021  0.0276852 -0.166216 0.000860214  0.0275173 -0.188179 0.000554562  0.0345681 -0.188611 0.000831127  0.0346174 -0.181423 0.000715017  0.0275004 -0.188048 0.000695705  0.0276122 -0.180859 0.000599861  0.0345962 -0.181291 0.000893593  0.0275919 -0.18072 0.000748396  0.0272479 -0.202956 0.000476837  0.0343993 -0.203392 0.000709295  0.034518 -0.196098 0.000616074  0.0272276 -0.202841 0.000596762  0.0273943 -0.195543 0.000516176  0.0345008 -0.19598 0.000769854  0.0273778 -0.195424 0.000644445  0.0268655 -0.217871 0.00040102  0.0341082 -0.218321 0.000597954  0.0342884 -0.210938 0.000521183  0.0268486 -0.21778 0.000504732  0.0270712 -0.210391 0.000438452  0.03427 -0.210839 0.000653505  0.0270483 -0.210292 0.000550032  0.0263925 -0.232915 0.00033617  0.0337071 -0.233362 0.000497103  0.0339417 -0.22591 0.000434875  0.0263717 -0.232832 0.000416517  0.0266435 -0.225375 0.000367403  0.0339222 -0.225827 0.000544548  0.0266228 -0.225291 0.000459909  0.0258272 -0.248037 0.000277042  0.0332108 -0.24849 0.000404358  0.0334857 -0.240985 0.000355959  0.0258119 -0.247968 0.000341654  0.0261178 -0.24046 0.000303507  0.0334697 -0.240918 0.000447035  0.0261009 -0.240391 0.000376463  0.0251925 -0.263222 0.000216484  0.0326238 -0.263674 0.000321865  0.0329442 -0.256134 0.00028944  0.025178 -0.263164 0.000269413  0.0255172 -0.255617 0.000243425  0.0329287 -0.256076 0.000358105  0.0255029 -0.255559 0.000304222  0.024493 -0.278446 0.000170708  0.0319602 -0.278899 0.000249863  0.0323143 -0.271326 0.00022912  0.0244806 -0.278397 0.000211477  0.0248494 -0.270825 0.00019002  0.0322995 -0.271286 0.000285864  0.0248363 -0.270777 0.000240326  0.0237405 -0.293677 0.000124931  0.0312302 -0.294141 0.000182152  0.031615 -0.286551 0.00017333  0.02373 -0.293644 0.000159025  0.024123 -0.286057 0.000145435  0.0316048 -0.286517 0.000214577  0.0241103 -0.286018 0.000185013  0.0229399 -0.308921 9.17912e-05  0.0304523 -0.309372 0.000133991  0.0308597 -0.301775 0.000125647  0.0229306 -0.308886 0.000112057  0.0233459 -0.301293 0.000108004  0.0308487 -0.301755 0.000157356  0.0233388 -0.301266 0.000134468  0.0221078 -0.324132 5.6982e-05  0.0296311 -0.324586 8.70228e-05  0.030056 -0.316999 8.98838e-05  0.0220976 -0.324108 7.03335e-05  0.0225282 -0.316524 7.27177e-05  0.0300462 -0.316983 0.000108242  0.0225184 -0.316502 9.29832e-05  0.0212419 -0.339328 3.40939e-05  0.0287676 -0.339781 5.03063e-05  0.0292108 -0.332199 5.93662e-05  0.021234 -0.339307 4.14848e-05  0.0216777 -0.331728 4.91142e-05  0.0291989 -0.332187 7.10487e-05  0.0216689 -0.331714 6.27041e-05  0.0203571 -0.354475 1.93119e-05  0.0278814 -0.354928 2.59876e-05  0.0283356 -0.347366 3.52859e-05  0.0203495 -0.354463 2.19345e-05  0.0208051 -0.346901 2.6226e-05  0.0283289 -0.347358 3.91006e-05  0.0207946 -0.346888 3.50475e-05  0.0194621 -0.369591 1.66893e-06  0.0269871 -0.370043 4.76837e-07  0.0274496 -0.362495 1.21593e-05  0.0194538 -0.36958 9.53674e-07  0.019913 -0.36203 9.53674e-06  0.0274332 -0.362491 1.52588e-05  0.0199046 -0.362026 1.35899e-05  0.0185618 -0.384664 -1.0252e-05  0.0260844 -0.38512 -4.76837e-06  0.0265429 -0.377587 -3.33786e-06  0.0185533 -0.384656 -1.54972e-05  0.0190127 -0.377124 -3.33786e-06  0.0265377 -0.377581 -5.00679e-06  0.0190055 -0.377121 -4.05312e-06  0.00340919 -0.00433064 0.00173044  0 0 0  0.0047909 -0.00535804 0.00261545  0.00226891 -0.00373721 0.00109196  0 0 0  0.00346141 -0.0040614 0.00229573  0.00128938 -0.00229162 0.000942707  0 0 0  0.00222083 -0.00354338 0.0014751  0.00129385 -0.00215697 0.00127077  0.0078066 -0.00793386 0.00276875  0.00961432 -0.00864542 0.00407529  0.00714794 -0.00733018 0.00266123  0.00792727 -0.00750881 0.00358486  0.00560866 -0.00607741 0.00233722  0.0071848 -0.00692463 0.00348449  0.00569768 -0.00572151 0.00305843  0.0120882 -0.0122332 0.00320458  0.0143824 -0.012809 0.0046289  0.0119141 -0.0110707 0.00346398  0.012201 -0.0117516 0.00406122  0.00997493 -0.00994831 0.00304794  0.0120228 -0.0105851 0.00443625  0.0100988 -0.0094943 0.00389457  0.0161018 -0.0176079 0.00327992  0.0189009 -0.0181119 0.00468779  0.016587 -0.0158259 0.00372529  0.0161794 -0.0171123 0.00411677  0.0141299 -0.0147809 0.00327396  0.0166803 -0.0153167 0.00469446  0.0142287 -0.0142881 0.00412679  0.0198016 -0.0240725 0.00318551  0.0230907 -0.0245464 0.00453448  0.0209715 -0.0216939 0.00369763  0.0198469 -0.0235869 0.00398302  0.0179917 -0.0207055 0.00324941  0.0210358 -0.0211934 0.00462985  0.0180542 -0.0202124 0.00406861  0.0231829 -0.0315592 0.0030055  0.0269307 -0.0320169 0.00427699  0.0250121 -0.0286315 0.00352526  0.023202 -0.0310917 0.00375152  0.0215314 -0.0276871 0.0031004  0.0250554 -0.0281524 0.00441027  0.0215632 -0.0272137 0.00387502  0.026243 -0.0399922 0.00279593  0.0304263 -0.0404371 0.00398445  0.0286968 -0.0365643 0.00330663  0.0262439 -0.0395451 0.0034945  0.02475 -0.0356543 0.00290442  0.0287219 -0.0361123 0.00412893  0.0247611 -0.0352052 0.00362659  0.028985 -0.0492815 0.00258136  0.033574 -0.049728 0.00368142  0.0320324 -0.0454006 0.00306559  0.0289776 -0.048867 0.00322866  0.0276523 -0.0445262 0.00269151  0.0320441 -0.0449783 0.00382972  0.0276491 -0.0441024 0.00336266  0.0314163 -0.0593631 0.0023787  0.0363808 -0.0598173 0.00338459  0.0350169 -0.0550683 0.00282836  0.0314052 -0.058979 0.00297213  0.0302379 -0.0542226 0.0024817  0.0350204 -0.0546801 0.00353599  0.0302308 -0.0538299 0.00309134  0.0335532 -0.0701606 0.00217628  0.0388631 -0.0706242 0.00309634  0.0376629 -0.0654963 0.00258994  0.0335393 -0.069809 0.00272012  0.032524 -0.0646713 0.00227451  0.037661 -0.0651326 0.00323939  0.0325065 -0.0643104 0.00283957  0.0354066 -0.0816038 0.00198102  0.0410335 -0.0820675 0.00282669  0.0399923 -0.0766016 0.00236821  0.0353955 -0.0812773 0.00247693  0.0345169 -0.0758026 0.00207686  0.0399896 -0.0762673 0.00295949  0.034502 -0.0754669 0.00259376  0.0369931 -0.0936271 0.00179887  0.0429084 -0.0940989 0.00256228  0.0420057 -0.0883175 0.00215316  0.0369781 -0.0933338 0.00225043  0.0362339 -0.08754 0.0018909  0.0420076 -0.0880133 0.0026927  0.0362194 -0.087237 0.00236344  0.0383233 -0.106173 0.00162268  0.0444946 -0.106643 0.00231695  0.0437397 -0.100587 0.00195241  0.0383074 -0.105901 0.00202894  0.037692 -0.0998318 0.00170922  0.0437363 -0.100311 0.00243449  0.0376767 -0.0995552 0.00213838  0.0394074 -0.119175 0.00146174  0.0458108 -0.119657 0.00208688  0.0451907 -0.113341 0.00176096  0.0393953 -0.118934 0.00182843  0.0388972 -0.112613 0.00154352  0.0451862 -0.113094 0.0021987  0.0388794 -0.112363 0.00193024  0.0402664 -0.132584 0.00130796  0.0468706 -0.133074 0.00185919  0.0463753 -0.12654 0.00157142  0.0402516 -0.132372 0.00163245  0.039866 -0.125827 0.00138426  0.0463717 -0.126317 0.00196981  0.0398511 -0.125607 0.00173092  0.0409117 -0.146355 0.00116038  0.0476954 -0.146843 0.00164866  0.0473262 -0.140109 0.00140381  0.0408971 -0.146162 0.00144863  0.0406162 -0.139422 0.00122857  0.047313 -0.139918 0.00174999  0.0405988 -0.139224 0.00154138  0.0413539 -0.160431 0.00102067  0.0482969 -0.160923 0.00145173  0.0480359 -0.154018 0.00123549  0.0413432 -0.160259 0.0012784  0.0411572 -0.153351 0.0010891  0.0480208 -0.153846 0.00154877  0.0411427 -0.153175 0.00136256  0.0416183 -0.174772 0.000896215  0.0486996 -0.175265 0.0012629  0.0485301 -0.168217 0.00108767  0.0416038 -0.174625 0.00111508  0.0415125 -0.167568 0.00095439  0.0485268 -0.168063 0.00135827  0.0414963 -0.16741 0.00119424  0.0417104 -0.189336 0.000770807  0.0489044 -0.189825 0.0010941  0.0488298 -0.182656 0.000946045  0.0416932 -0.189204 0.000964642  0.0416863 -0.182024 0.000830889  0.0488241 -0.182522 0.00117373  0.0416687 -0.181891 0.00103688  0.0416474 -0.204082 0.000652075  0.048938 -0.204572 0.000934839  0.0489533 -0.197297 0.000809908  0.0416319 -0.203966 0.000818253  0.0416965 -0.196685 0.000713587  0.0489409 -0.197181 0.00101256  0.0416827 -0.196565 0.000891924  0.0414436 -0.21898 0.000551462  0.0488181 -0.219467 0.000787735  0.0489044 -0.212097 0.000684023  0.0414276 -0.218882 0.000688076  0.0415659 -0.211503 0.000605106  0.0488923 -0.212004 0.000852346  0.041548 -0.21141 0.000756502  0.0411158 -0.233988 0.000457764  0.0485432 -0.234477 0.000649691  0.0487094 -0.227044 0.000580788  0.0410964 -0.233912 0.000571966  0.0412941 -0.226465 0.00050354  0.0486994 -0.226958 0.000720024  0.0412767 -0.226383 0.000632286  0.040664 -0.249092 0.000375271  0.0481536 -0.249575 0.000530958  0.0483749 -0.242082 0.000469923  0.0406513 -0.249026 0.000468254  0.0409057 -0.241528 0.00041461  0.0483618 -0.242019 0.00059104  0.0408881 -0.241459 0.000516653  0.0401185 -0.264259 0.000294924  0.0476413 -0.264732 0.000415087  0.0479193 -0.257202 0.000380516  0.0401101 -0.264198 0.000370741  0.0404022 -0.256664 0.000334501  0.0479078 -0.257147 0.000477314  0.0403931 -0.256606 0.000417471  0.0394852 -0.279455 0.000231266  0.0470335 -0.279929 0.000319719  0.0473621 -0.272375 0.000295162  0.0394747 -0.279409 0.000289202  0.0398123 -0.271846 0.000259876  0.0473461 -0.272322 0.000369549  0.0398018 -0.2718 0.000326633  0.038775 -0.294668 0.000174284  0.0463345 -0.295141 0.000242949  0.0466959 -0.287565 0.000226021  0.0387654 -0.294638 0.000213146  0.039139 -0.287059 0.000197411  0.0466969 -0.287531 0.000285387  0.0391269 -0.287021 0.000244617  0.0380054 -0.309886 0.000119686  0.0455735 -0.310356 0.000173092  0.0459707 -0.302771 0.000164747  0.0379972 -0.309861 0.000150204  0.0383966 -0.302271 0.000145912  0.045965 -0.302748 0.00019908  0.0383885 -0.302247 0.000178814  0.0371866 -0.325088 8.03471e-05  0.0447454 -0.325546 0.000101089  0.0451736 -0.317967 0.00011301  0.0371749 -0.325067 9.72748e-05  0.0375998 -0.317483 9.72748e-05  0.0451674 -0.317948 0.000137568  0.0375929 -0.317465 0.000120401  0.0363238 -0.340264 5.05447e-05  0.0438788 -0.340721 6.53267e-05  0.0443244 -0.333145 7.89165e-05  0.036314 -0.340251 6.22272e-05  0.0367584 -0.332674 6.24657e-05  0.0443153 -0.333135 8.9407e-05  0.0367477 -0.332661 7.89165e-05  0.0354388 -0.355406 2.52724e-05  0.04298 -0.355858 3.88622e-05  0.0434387 -0.348302 4.41074e-05  0.0354261 -0.355396 2.90871e-05  0.0358846 -0.347834 3.55244e-05  0.043433 -0.348294 4.76837e-05  0.0358713 -0.347828 4.19617e-05  0.034533 -0.370514 5.48363e-06  0.0420687 -0.370962 1.07288e-05  0.0425448 -0.363414 1.88351e-05  0.0345287 -0.370503 6.67572e-06  0.0349884 -0.362959 1.52588e-05  0.0425253 -0.363414 2.28882e-05  0.0349772 -0.362954 1.69277e-05  0.033627 -0.385593 -9.77516e-06  0.0411611 -0.386049 -1.28746e-05  0.04162 -0.37851 -7.62939e-06  0.0336218 -0.385582 -1.16825e-05  0.0340798 -0.378047 -3.09944e-06  0.0416133 -0.378499 -1.90735e-06  0.034076 -0.378044 -1.90735e-06  -0.00486148 -0.00549883 -0.00146413  -0.00240646 -0.00371783 -0.000520706  0 0 0  -0.00335719 -0.00428682 -0.000831842  0 0 0  -0.00237294 -0.00296856 -0.00109863  -0.000924338 -0.00142746 -0.000388622  0 0 0  -0.00236711 -0.00362807 -0.000807762  -0.00335371 -0.00415739 -0.00128269  -0.00127985 -0.00222363 -0.000450134  0 0 0  -0.00092344 -0.00137036 -0.000598907  -0.00127589 -0.00216362 -0.000694752  -0.00949457 -0.00882273 -0.00237751  -0.00717574 -0.00732955 -0.00129533  -0.00764665 -0.00788104 -0.00136423  -0.00607966 -0.00658821 -0.00179148  -0.00416112 -0.00489461 -0.000977755  -0.007146 -0.0071196 -0.00199246  -0.0076683 -0.00765083 -0.00208163  -0.0054958 -0.0060472 -0.00113368  -0.00418672 -0.00473706 -0.00150204  -0.00550121 -0.00586489 -0.00174141  -0.0142548 -0.0128066 -0.00279403  -0.0118541 -0.0109618 -0.00172734  -0.0119177 -0.0120408 -0.00161839  -0.00982937 -0.0108567 -0.00211096  -0.00792783 -0.00884061 -0.00131249  -0.0118724 -0.0106907 -0.00263262  -0.0119549 -0.0117679 -0.00244927  -0.00979233 -0.00984139 -0.00151896  -0.00797069 -0.00860729 -0.00199437  -0.00982431 -0.00959199 -0.00231218  -0.0189256 -0.0178084 -0.00287652  -0.0165803 -0.0154651 -0.00189447  -0.0160601 -0.0171802 -0.00167823  -0.0134218 -0.0161041 -0.00217175  -0.011613 -0.0136147 -0.00143433  -0.0166115 -0.0151729 -0.00285602  -0.01609 -0.0168957 -0.00252366  -0.0140118 -0.0144751 -0.00166607  -0.0116484 -0.013351 -0.00216556  -0.0140466 -0.0141986 -0.0025115  -0.0233768 -0.0238626 -0.00279713  -0.0211581 -0.0210007 -0.00189328  -0.0200074 -0.0233435 -0.00163102  -0.0168226 -0.0223751 -0.0021069  -0.0151293 -0.0193862 -0.00143504  -0.0211771 -0.0207026 -0.00284743  -0.0200173 -0.023063 -0.00244784  -0.0180602 -0.0201324 -0.00166345  -0.0151484 -0.0191132 -0.00214934  -0.0180797 -0.0198494 -0.00249863  -0.0275782 -0.0309159 -0.00263333  -0.0255001 -0.0275514 -0.00181127  -0.023734 -0.030497 -0.00153303  -0.0200342 -0.0296329 -0.00197244  -0.0184548 -0.0261513 -0.00136733  -0.0255077 -0.0272687 -0.00271606  -0.0237263 -0.0302227 -0.00229478  -0.0218985 -0.0267953 -0.00159001  -0.0184501 -0.0258847 -0.00204229  -0.021899 -0.0265229 -0.00237751  -0.031527 -0.0388962 -0.00243378  -0.0295827 -0.035057 -0.00168943  -0.0272459 -0.038555 -0.00142002  -0.0230752 -0.0377938 -0.00182462  -0.0215883 -0.0338589 -0.00127244  -0.0295844 -0.0347959 -0.00253224  -0.027225 -0.0382984 -0.00212789  -0.0255157 -0.0344093 -0.00147724  -0.021578 -0.0336033 -0.0019021  -0.0255017 -0.034151 -0.0022161  -0.0352373 -0.0477274 -0.00223207  -0.0334249 -0.0434521 -0.00155687  -0.0305459 -0.0474633 -0.00130486  -0.0259503 -0.0468065 -0.00167656  -0.0245596 -0.0424384 -0.00116777  -0.0334101 -0.0432093 -0.00233626  -0.0305195 -0.047224 -0.00195074  -0.0289205 -0.0429028 -0.00136209  -0.0245331 -0.0421979 -0.00174975  -0.028897 -0.0426615 -0.00204253  -0.0387185 -0.0573514 -0.00204539  -0.0370287 -0.0526709 -0.0014205  -0.0336616 -0.057146 -0.00119305  -0.0286756 -0.0565888 -0.00152779  -0.0273678 -0.0518204 -0.00107074  -0.0370051 -0.0524443 -0.00213218  -0.0336268 -0.0569337 -0.00178337  -0.0321243 -0.0522047 -0.00124621  -0.0273291 -0.0516015 -0.0016005  -0.032095 -0.0519866 -0.00186777  -0.0420004 -0.0676804 -0.00186348  -0.0404079 -0.0626261 -0.00130081  -0.036593 -0.0675441 -0.00108576  -0.0312592 -0.0670764 -0.0013907  -0.0300217 -0.0619466 -0.000971794  -0.0403881 -0.0624268 -0.00195122  -0.0365604 -0.0673466 -0.00162411  -0.0351467 -0.0622553 -0.00113916  -0.0299847 -0.0617442 -0.00145721  -0.035116 -0.0620504 -0.00170255  -0.0450747 -0.0786638 -0.00168562  -0.0435842 -0.0732759 -0.0011797  -0.0393628 -0.0785931 -0.000981569  -0.033715 -0.0782143 -0.00125957  -0.0325371 -0.0727549 -0.000879765  -0.0435591 -0.0730918 -0.0017674  -0.0393282 -0.0784102 -0.00147128  -0.0380002 -0.0729873 -0.00103259  -0.0325019 -0.0725675 -0.00132036  -0.0379651 -0.0728005 -0.00154829  -0.0479611 -0.09025 -0.00152588  -0.0465637 -0.0845548 -0.00106788  -0.0419703 -0.0902418 -0.000888348  -0.0360363 -0.0899449 -0.00114393  -0.0349197 -0.0841785 -0.000802755  -0.0465364 -0.0843821 -0.00159764  -0.0419375 -0.0900714 -0.00133085  -0.0406839 -0.084337 -0.000934124  -0.0348887 -0.0840091 -0.00120211  -0.0406528 -0.0841688 -0.00139976  -0.0506696 -0.102371 -0.00137067  -0.049358 -0.0964007 -0.000966072  -0.0444331 -0.102416 -0.000799894  -0.0382421 -0.102202 -0.00101757  -0.0371842 -0.0961623 -0.000723124  -0.0493349 -0.0962468 -0.00144911  -0.0443991 -0.102265 -0.0011971  -0.0432185 -0.0962579 -0.000842333  -0.0371525 -0.096011 -0.00108242  -0.0431876 -0.0961058 -0.00126338  -0.0532138 -0.114979 -0.00122929  -0.0519907 -0.108757 -0.000867128  -0.0467501 -0.115077 -0.000714779  -0.0403308 -0.114941 -0.000918627  -0.0393339 -0.108653 -0.000645638  -0.0519602 -0.108618 -0.00130033  -0.04672 -0.11494 -0.00107336  -0.0456073 -0.10868 -0.000753403  -0.0392983 -0.108513 -0.000970364  -0.0455763 -0.108545 -0.00113058  -0.0555977 -0.128018 -0.00109267  -0.0544474 -0.121572 -0.000772476  -0.0489347 -0.128167 -0.00063467  -0.0423155 -0.128103 -0.000814915  -0.0413705 -0.121593 -0.000578642  -0.0544257 -0.121448 -0.00115585  -0.0489068 -0.128046 -0.000950813  -0.0478561 -0.121563 -0.000673056  -0.0413371 -0.121471 -0.000863314  -0.0478278 -0.121443 -0.00100994  -0.0578281 -0.141449 -0.000965834  -0.0567572 -0.134804 -0.000680923  -0.0509912 -0.141641 -0.000563145  -0.0441955 -0.141638 -0.000715494  -0.043301 -0.134935 -0.000509024  -0.0567306 -0.134688 -0.00102019  -0.0509663 -0.141531 -0.000838757  -0.0499802 -0.134854 -0.000597954  -0.0432684 -0.134826 -0.000764608  -0.049951 -0.134744 -0.000893354  -0.0599179 -0.155217 -0.000842333  -0.0589063 -0.148391 -0.000602007  -0.052928 -0.155449 -0.000491381  -0.0459774 -0.155508 -0.000627041  -0.0451243 -0.148631 -0.000447512  -0.0588939 -0.148294 -0.000904799  -0.0529027 -0.155353 -0.000736952  -0.0519724 -0.148502 -0.000527382  -0.0451007 -0.148534 -0.000669956  -0.0519512 -0.148403 -0.00078845  -0.0618703 -0.169273 -0.000731468  -0.0609226 -0.162292 -0.000522614  -0.0547481 -0.169542 -0.000427485  -0.0476699 -0.16966 -0.000546217  -0.0468602 -0.162635 -0.000393152  -0.0609102 -0.162212 -0.000784159  -0.0547285 -0.169459 -0.000639439  -0.0538518 -0.162454 -0.000458479  -0.0468342 -0.162548 -0.000585556  -0.0538309 -0.162371 -0.000688314  -0.0636878 -0.183588 -0.000633955  -0.0628052 -0.176473 -0.000455618  -0.056457 -0.183885 -0.000371695  -0.0492647 -0.18406 -0.000469208  -0.0485017 -0.176904 -0.000340939  -0.0627954 -0.176405 -0.000687361  -0.0564389 -0.183817 -0.000551701  -0.0556178 -0.176684 -0.000400305  -0.0484774 -0.17683 -0.000511169  -0.0555987 -0.176612 -0.000594616  -0.0653849 -0.198119 -0.00053668  -0.0645664 -0.190885 -0.000392199  -0.0580637 -0.198444 -0.000314474  -0.050777 -0.198661 -0.000396252  -0.0500515 -0.191399 -0.00028801  -0.0645511 -0.190829 -0.000584364  -0.058048 -0.198386 -0.000469208  -0.0572731 -0.191137 -0.000338793  -0.0500309 -0.191333 -0.000434875  -0.0572538 -0.191075 -0.000510931  -0.0669696 -0.212816 -0.000443935  -0.0662012 -0.205499 -0.000327587  -0.0595708 -0.213179 -0.000259399  -0.0522068 -0.213437 -0.000331879  -0.0515189 -0.206083 -0.000242472  -0.0661981 -0.205447 -0.00049305  -0.0595555 -0.213125 -0.000390291  -0.0588298 -0.20579 -0.000285864  -0.0515015 -0.206032 -0.000364304  -0.0588121 -0.205736 -0.000426292  -0.0684466 -0.227673 -0.000373363  -0.0677304 -0.220274 -0.00027585  -0.0609844 -0.228051 -0.000213146  -0.0535607 -0.228349 -0.000268936  -0.0529089 -0.220917 -0.000201702  -0.0677218 -0.220229 -0.000409842  -0.0609734 -0.228009 -0.000319719  -0.0602887 -0.220593 -0.000238895  -0.0528913 -0.220876 -0.000303984  -0.0602741 -0.22055 -0.000353575  -0.0698204 -0.242639 -0.000295877  -0.0691524 -0.235179 -0.000222206  -0.0623181 -0.243035 -0.000173807  -0.0548406 -0.243366 -0.000221491  -0.0542192 -0.235883 -0.000160694  -0.0691445 -0.235139 -0.000336409  -0.0623066 -0.243003 -0.000259399  -0.0616617 -0.235528 -0.000192165  -0.0542097 -0.235844 -0.00024581  -0.06165 -0.23549 -0.000291586  -0.0711074 -0.25769 -0.000228882  -0.0704856 -0.250181 -0.000174999  -0.0635653 -0.258104 -0.000142336  -0.0560515 -0.258463 -0.000173092  -0.0554678 -0.250934 -0.000132084  -0.0704749 -0.250149 -0.000264168  -0.0635557 -0.258074 -0.000205278  -0.0629535 -0.250558 -0.000155687  -0.0554531 -0.250905 -0.000196934  -0.0629416 -0.250528 -0.000229597  -0.0723035 -0.272796 -0.00018239  -0.0717227 -0.265257 -0.000141144  -0.0647454 -0.273231 -0.000106096  -0.0572085 -0.27361 -0.000136852  -0.0566452 -0.266053 -0.000103951  -0.0717151 -0.265233 -0.000207663  -0.064739 -0.273204 -0.000156403  -0.0641637 -0.265658 -0.000118256  -0.0566382 -0.266028 -0.000156641  -0.0641553 -0.265633 -0.000179291  -0.0734355 -0.287944 -0.000134945  -0.0728786 -0.280386 -0.000105143  -0.065865 -0.288392 -7.82013e-05  -0.0583129 -0.288792 -9.75132e-05  -0.0577781 -0.281217 -7.53403e-05  -0.0728815 -0.280369 -0.000154972  -0.0658562 -0.288374 -0.000114441  -0.0653145 -0.280804 -9.03606e-05  -0.0577672 -0.281198 -0.000112057  -0.0653036 -0.280785 -0.000136375  -0.0744975 -0.303112 -8.96454e-05  -0.0739775 -0.295541 -7.55787e-05  -0.0669265 -0.303567 -5.22137e-05  -0.0593607 -0.303988 -6.67572e-05  -0.0588522 -0.2964 -5.91278e-05  -0.0739708 -0.295528 -0.000109434  -0.0669177 -0.303555 -8.05855e-05  -0.0663981 -0.295972 -6.4373e-05  -0.0588431 -0.296386 -8.22544e-05  -0.0663958 -0.295959 -9.5129e-05  -0.0755072 -0.31829 -5.62668e-05  -0.0750082 -0.310706 -5.03063e-05  -0.067935 -0.318744 -3.52859e-05  -0.0603759 -0.319177 -4.3869e-05  -0.0598836 -0.311596 -3.60012e-05  -0.0750062 -0.310707 -7.10487e-05  -0.0679324 -0.318735 -5.17368e-05  -0.067435 -0.311153 -4.52995e-05  -0.0598726 -0.31158 -5.48363e-05  -0.06743 -0.311147 -6.41346e-05  -0.0764775 -0.333447 -3.45707e-05  -0.0759993 -0.325875 -3.09944e-05  -0.0689094 -0.333911 -2.12193e-05  -0.0613534 -0.334348 -2.67029e-05  -0.0608737 -0.32677 -2.0504e-05  -0.0760005 -0.325868 -4.36306e-05  -0.068907 -0.333898 -2.74181e-05  -0.0684242 -0.326323 -2.76566e-05  -0.0608685 -0.326761 -3.3617e-05  -0.0684237 -0.326318 -3.79086e-05  -0.0774047 -0.348581 -1.62125e-05  -0.076947 -0.341021 -1.62125e-05  -0.0698564 -0.349044 -8.10623e-06  -0.0623031 -0.349492 -1.28746e-05  -0.061831 -0.341923 -1.40667e-05  -0.0769455 -0.341016 -2.71797e-05  -0.0698512 -0.349038 -1.26362e-05  -0.0693846 -0.341473 -1.5974e-05  -0.0618293 -0.341922 -1.93119e-05  -0.0693824 -0.341473 -2.28882e-05  -0.0783248 -0.363691 -1.16825e-05  -0.0778751 -0.356136 -8.34465e-06  -0.0707817 -0.364159 -5.00679e-06  -0.0632308 -0.364604 -2.14577e-06  -0.0627682 -0.35705 -5.24521e-06  -0.0778666 -0.356136 -1.07288e-05  -0.0707774 -0.364147 -4.76837e-07  -0.0703201 -0.356598 -7.39098e-06  -0.0627673 -0.35705 -2.6226e-06  -0.0703187 -0.356595 -9.77516e-06  -0.0792403 -0.378781 7.62939e-06  -0.0787911 -0.371237 0  -0.0716984 -0.379249 1.90735e-06  -0.0641534 -0.379686 8.58307e-06  -0.0636983 -0.372147 -2.38419e-07  -0.0787847 -0.371234 -3.09944e-06  -0.0716894 -0.379233 4.52995e-06  -0.0712368 -0.371695 -4.76837e-06  -0.0636947 -0.372144 -1.43051e-06  -0.0712335 -0.371694 1.19209e-06  -0.0017854 -0.00229253 -0.000597239  0 0 0  -0.00132494 -0.00167485 -0.000742435  -0.000510123 -0.000617281 -0.000255346  0 0 0  -0.00179704 -0.0021991 -0.000922203  -0.000676323 -0.000934422 -0.000320911  0 0 0  -0.000509996 -0.000574514 -0.000397921  -0.000677768 -0.000883237 -0.000496149  -0.00469117 -0.00589186 -0.000986099  -0.00356208 -0.00502257 -0.00122166  -0.0023448 -0.0033257 -0.000660658  -0.00472929 -0.00570633 -0.00150943  -0.0031634 -0.00398545 -0.000819683  -0.00237595 -0.00320086 -0.00101638  -0.00318982 -0.00384486 -0.00126314  -0.0078294 -0.0103201 -0.00117111  -0.0060685 -0.00945769 -0.00143003  -0.00477287 -0.00730538 -0.000890017  -0.00786895 -0.0100845 -0.00177431  -0.00626159 -0.0079855 -0.00110412  -0.0048112 -0.00711311 -0.00135469  -0.00630307 -0.00777718 -0.00168061  -0.010876 -0.0156993 -0.00121021  -0.00851887 -0.0149048 -0.00146627  -0.00728098 -0.0122847 -0.000968933  -0.0109015 -0.0154412 -0.00182438  -0.00936997 -0.0128789 -0.00120306  -0.00730845 -0.0120541 -0.00146389  -0.00940463 -0.0126343 -0.0018158  -0.0137667 -0.0220731 -0.00117898  -0.0108463 -0.0213533 -0.00141597  -0.00968605 -0.0182557 -0.000963211  -0.0137715 -0.0218082 -0.00176406  -0.0123411 -0.018759 -0.00119781  -0.00969893 -0.018005 -0.00144625  -0.0123555 -0.0184975 -0.00179672  -0.0164977 -0.0294091 -0.00110364  -0.0130563 -0.0287637 -0.00132608  -0.0119717 -0.0251959 -0.000917435  -0.0164834 -0.0291457 -0.00164747  -0.0151532 -0.0256185 -0.00114107  -0.0119663 -0.0249434 -0.00137472  -0.0151447 -0.0253558 -0.00170875  -0.0190867 -0.037633 -0.00101423  -0.0151588 -0.037072 -0.00122094  -0.0141433 -0.0330554 -0.000850916  -0.0190617 -0.0373851 -0.00152254  -0.0178101 -0.0334036 -0.00106239  -0.0141203 -0.032809 -0.00126934  -0.0177886 -0.0331534 -0.00158715  -0.021545 -0.0467008 -0.000934362  -0.0171825 -0.0462171 -0.00111485  -0.0162122 -0.0417783 -0.000778198  -0.0215094 -0.0464659 -0.00139546  -0.0203299 -0.0420597 -0.00097394  -0.0161811 -0.041544 -0.0011692  -0.0203021 -0.0418253 -0.00145674  -0.0238862 -0.0565367 -0.000848055  -0.0191234 -0.0561251 -0.00101447  -0.018194 -0.0512988 -0.000710249  -0.0238463 -0.0563147 -0.0012722  -0.0227262 -0.0515188 -0.000889301  -0.0181614 -0.0510802 -0.00106549  -0.0226902 -0.0512988 -0.00133538  -0.0261121 -0.0670737 -0.000770807  -0.0209907 -0.0667415 -0.000920296  -0.0201024 -0.0615559 -0.00064826  -0.026075 -0.0668736 -0.00115609  -0.0250117 -0.0617128 -0.000809431  -0.0200653 -0.0613515 -0.000967741  -0.0249726 -0.061511 -0.00121474  -0.0282406 -0.0782581 -0.00069809  -0.0227902 -0.0780042 -0.000834227  -0.0219389 -0.0724793 -0.000586987  -0.0282029 -0.078079 -0.00104952  -0.0271865 -0.0725837 -0.000734568  -0.021899 -0.0722957 -0.000875711  -0.0271534 -0.0723976 -0.00110006  -0.0302731 -0.0900294 -0.00063467  -0.0245334 -0.0898493 -0.00075531  -0.0236993 -0.0840236 -0.000530005  -0.0302355 -0.0898705 -0.000949383  -0.0292675 -0.0840764 -0.000664711  -0.0236682 -0.0838553 -0.000793695  -0.0292296 -0.0839032 -0.000995159  -0.0322145 -0.102331 -0.000566244  -0.0262039 -0.102217 -0.000676632  -0.0254085 -0.0961231 -0.000479698  -0.0321789 -0.102185 -0.000853539  -0.0312567 -0.0961172 -0.000599861  -0.0253752 -0.0959706 -0.000715494  -0.031219 -0.0959625 -0.000897884  -0.0340707 -0.115112 -0.000507593  -0.0278233 -0.115057 -0.000602007  -0.0270553 -0.108719 -0.000430822  -0.0340379 -0.114978 -0.000763655  -0.0331516 -0.108663 -0.000536919  -0.0270177 -0.10858 -0.00064373  -0.0331194 -0.108524 -0.000804186  -0.0358444 -0.128309 -0.000450611  -0.0293903 -0.128317 -0.000536442  -0.0286427 -0.121761 -0.000383139  -0.0358154 -0.128193 -0.000674009  -0.0349678 -0.121657 -0.000480175  -0.0286169 -0.121636 -0.000570059  -0.0349387 -0.121535 -0.000717163  -0.0375394 -0.141885 -0.000398397  -0.0309029 -0.141943 -0.000473261  -0.0301796 -0.135197 -0.000332355  -0.0375131 -0.141773 -0.000593901  -0.0366999 -0.135047 -0.000424385  -0.0301507 -0.135082 -0.000507116  -0.0366734 -0.134937 -0.000636816  -0.03916 -0.155784 -0.000345945  -0.0323524 -0.155899 -0.000414848  -0.0316541 -0.148976 -0.00029707  -0.0391352 -0.155689 -0.000515699  -0.0383608 -0.14879 -0.000371933  -0.0316324 -0.14888 -0.000443935  -0.0383332 -0.148691 -0.000559092  -0.0407016 -0.169966 -0.000302315  -0.0337565 -0.170124 -0.000359297  -0.0330811 -0.163063 -0.0002563  -0.0406802 -0.169884 -0.000453711  -0.0399387 -0.162836 -0.000323534  -0.0330608 -0.162978 -0.000385284  -0.0399144 -0.16275 -0.000484705  -0.0421796 -0.184389 -0.000258923  -0.0351071 -0.184591 -0.000311375  -0.0344574 -0.177406 -0.000221014  -0.042156 -0.184319 -0.000389576  -0.0414495 -0.177146 -0.000281334  -0.0344381 -0.177332 -0.000332594  -0.0414257 -0.17707 -0.00042057  -0.0435848 -0.199018 -0.000216246  -0.0364058 -0.19926 -0.000257492  -0.0357826 -0.191967 -0.00019002  -0.0435669 -0.198952 -0.000328541  -0.0428884 -0.191677 -0.000237465  -0.0357614 -0.191904 -0.000279188  -0.0428693 -0.191608 -0.000355482  -0.0449274 -0.213811 -0.000183105  -0.0376654 -0.21409 -0.000216246  -0.037056 -0.206714 -0.000154495  -0.044909 -0.213761 -0.000278234  -0.0442622 -0.206388 -0.000199318  -0.0370414 -0.206654 -0.00023818  -0.0442457 -0.206337 -0.000299215  -0.0462084 -0.22874 -0.000150204  -0.0388782 -0.229047 -0.000178814  -0.0382917 -0.221602 -0.000133753  -0.0461948 -0.228695 -0.000225544  -0.0455747 -0.221256 -0.00016737  -0.0382748 -0.221553 -0.000196934  -0.0455611 -0.221211 -0.000252485  -0.0474336 -0.243772 -0.000121117  -0.0400398 -0.244113 -0.00014472  -0.0394745 -0.236606 -0.000106573  -0.0474215 -0.243733 -0.00018096  -0.0468276 -0.236239 -0.000132561  -0.0394654 -0.236567 -0.000161648  -0.0468132 -0.236203 -0.000200272  -0.0486047 -0.258887 -9.799e-05  -0.0411675 -0.259243 -0.000113964  -0.040617 -0.251698 -8.55923e-05  -0.0485957 -0.258853 -0.000144958  -0.0480287 -0.251314 -0.000107765  -0.0406082 -0.251672 -0.000128031  -0.0480125 -0.251285 -0.000164032  -0.0497272 -0.274044 -6.8903e-05  -0.0422506 -0.274426 -8.08239e-05  -0.041723 -0.266857 -6.98566e-05  -0.0497177 -0.274017 -0.000108719  -0.0491691 -0.266455 -8.65459e-05  -0.0417154 -0.266829 -0.000102282  -0.0491626 -0.266426 -0.000128269  -0.0508034 -0.289228 -4.72069e-05  -0.0433073 -0.289633 -6.22272e-05  -0.0427964 -0.282047 -4.57764e-05  -0.0507975 -0.289214 -7.34329e-05  -0.0502701 -0.281633 -6.00815e-05  -0.0427806 -0.282027 -7.08103e-05  -0.0502613 -0.28161 -9.2268e-05  -0.0518434 -0.304433 -3.40939e-05  -0.0443258 -0.304845 -4.50611e-05  -0.0438273 -0.297255 -2.76566e-05  -0.0518367 -0.304418 -5.34058e-05  -0.0513253 -0.29683 -4.05312e-05  -0.0438192 -0.29724 -4.8399e-05  -0.0513213 -0.296813 -6.50883e-05  -0.0528436 -0.319627 -2.55108e-05  -0.0453174 -0.320052 -2.5034e-05  -0.0448332 -0.312462 -2.31266e-05  -0.0528405 -0.319611 -3.43323e-05  -0.0523472 -0.312028 -3.02792e-05  -0.044827 -0.312451 -3.31402e-05  -0.0523412 -0.312015 -4.22001e-05  -0.0538154 -0.334799 -1.45435e-05  -0.0462887 -0.335231 -1.97887e-05  -0.0458109 -0.327656 -1.26362e-05  -0.0538127 -0.334792 -1.83582e-05  -0.0533314 -0.327214 -1.85966e-05  -0.0458045 -0.327646 -2.12193e-05  -0.0533302 -0.327206 -2.43187e-05  -0.0547671 -0.349945 -6.19888e-06  -0.0472379 -0.35039 -6.91414e-06  -0.0467701 -0.342816 -7.62939e-06  -0.0547647 -0.349942 -1.09673e-05  -0.0542948 -0.342373 -9.77516e-06  -0.0467653 -0.342813 -1.26362e-05  -0.0542898 -0.342369 -1.35899e-05  -0.0556991 -0.365054 0  -0.0481658 -0.365501 1.66893e-06  -0.0477092 -0.357948 -4.52995e-06  -0.0556993 -0.36505 1.43051e-06  -0.0552359 -0.3575 -3.09944e-06  -0.0477028 -0.357947 -2.14577e-06  -0.055234 -0.357499 -3.57628e-06  -0.0566242 -0.380132 -1.43051e-06  -0.0490887 -0.380574 6.67572e-06  -0.0486348 -0.373041 6.4373e-06  -0.0566204 -0.380128 6.4373e-06  -0.0561619 -0.372597 1.66893e-06  -0.0486271 -0.37304 6.91414e-06  -0.0561602 -0.372592 3.57628e-06  -0.000926182 -0.00141415 -0.000362873  0 0 0  -0.000591531 -0.00111881 -0.000373363  -0.000226211 -0.000300318 -0.0001266  0 0 0  -0.000937022 -0.00132918 -0.000561237  -0.000356656 -0.000417531 -0.00019145  0 0 0  -0.000229649 -0.000264883 -0.000201225  -0.000360277 -0.000380546 -0.000298262  -0.00252159 -0.004684 -0.000600815  -0.00161736 -0.00420994 -0.000617266  -0.0010525 -0.00257772 -0.000334501  -0.00254878 -0.00453016 -0.000921726  -0.00166558 -0.00286818 -0.000499725  -0.00106575 -0.00247195 -0.000516653  -0.0016841 -0.00275412 -0.000771046  -0.00437769 -0.00919279 -0.000716686  -0.00284111 -0.00867352 -0.000730753  -0.00220287 -0.00646517 -0.000451088  -0.00440684 -0.00898767 -0.00108314  -0.00343552 -0.00679991 -0.000673294  -0.00221905 -0.0062961 -0.000688314  -0.0034681 -0.00662065 -0.00102639  -0.00624222 -0.0147412 -0.000738382  -0.00407839 -0.0142369 -0.000742197  -0.00344995 -0.0115415 -0.000493288  -0.00625294 -0.014503 -0.00110555  -0.00531679 -0.0118398 -0.000733852  -0.00346318 -0.011326 -0.000745058  -0.00533861 -0.0116158 -0.00110769  -0.00802702 -0.0212748 -0.00071311  -0.00528491 -0.0208138 -0.000711441  -0.0046854 -0.0176461 -0.000484467  -0.00802594 -0.0210238 -0.00106549  -0.00714505 -0.0178888 -0.000724792  -0.0046854 -0.0174041 -0.000728607  -0.00714868 -0.0176388 -0.0010922  -0.00973648 -0.0287451 -0.000663519  -0.00646728 -0.0283357 -0.000665426  -0.00589061 -0.0247088 -0.000460148  -0.00972188 -0.0284947 -0.000993252  -0.00889266 -0.0248925 -0.000688553  -0.00587863 -0.0244586 -0.000691175  -0.00888264 -0.0246435 -0.00103045  -0.0113837 -0.0371021 -0.000613928  -0.00762755 -0.0367448 -0.000608683  -0.00707042 -0.0326735 -0.000430107  -0.011358 -0.0368587 -0.000918388  -0.0105653 -0.0328098 -0.000640869  -0.00704712 -0.0324298 -0.000643253  -0.0105479 -0.0325672 -0.000954866  -0.012973 -0.0462877 -0.000557423  -0.00877458 -0.0459875 -0.000552177  -0.00822914 -0.041498 -0.000390291  -0.0129437 -0.0460568 -0.000837564  -0.0121828 -0.0415899 -0.000585556  -0.00820273 -0.0412644 -0.00058341  -0.0121566 -0.0413558 -0.000876665  -0.0145171 -0.0562332 -0.00050807  -0.00991464 -0.0559978 -0.000504971  -0.00937057 -0.05112 -0.000353336  -0.0144837 -0.0560203 -0.000759363  -0.0137484 -0.0511627 -0.000529289  -0.00934565 -0.0508984 -0.000527859  -0.0137197 -0.0509464 -0.000797987  -0.0160246 -0.0668846 -0.00046134  -0.0110549 -0.0667053 -0.000458956  -0.0105089 -0.0614679 -0.000318766  -0.0159883 -0.0666861 -0.000691891  -0.0152742 -0.061468 -0.000484228  -0.010483 -0.0612641 -0.000485182  -0.0152415 -0.0612681 -0.000728607  -0.0174949 -0.0781765 -0.00042057  -0.0121882 -0.0780567 -0.000414371  -0.0116484 -0.0724871 -0.000290155  -0.0174596 -0.0779965 -0.000626326  -0.0167607 -0.0724499 -0.000437021  -0.0116194 -0.0723026 -0.000433683  -0.0167276 -0.0722638 -0.000655413  -0.01893 -0.0900526 -0.00037694  -0.013321 -0.0899847 -0.000371456  -0.0127836 -0.0841202 -0.000263929  -0.0188955 -0.0898852 -0.000562191  -0.0182164 -0.0840389 -0.000393867  -0.012754 -0.0839529 -0.000391483  -0.0181814 -0.0838701 -0.00059247  -0.020334 -0.102449 -0.000341415  -0.0144573 -0.102439 -0.000332117  -0.0139142 -0.0963013 -0.000235558  -0.0203016 -0.102298 -0.000506639  -0.0196345 -0.0961816 -0.000354767  -0.0138903 -0.0961496 -0.000353336  -0.0196034 -0.0960323 -0.000533581  -0.021711 -0.115318 -0.0002985  -0.0155863 -0.115356 -0.000296831  -0.0150461 -0.10898 -0.000209808  -0.02168 -0.115184 -0.000447989  -0.0210254 -0.108823 -0.000316858  -0.0150242 -0.108842 -0.00031805  -0.0209929 -0.108686 -0.000475883  -0.0230516 -0.128603 -0.000264168  -0.0167155 -0.128689 -0.000262499  -0.0161731 -0.122097 -0.000185251  -0.0230267 -0.128483 -0.000401735  -0.0223823 -0.121904 -0.00028491  -0.016151 -0.121971 -0.000277281  -0.0223559 -0.12178 -0.000423908  -0.024367 -0.142253 -0.000236511  -0.0178308 -0.142389 -0.000228405  -0.0172943 -0.135606 -0.000163555  -0.0243438 -0.142146 -0.000352621  -0.0237147 -0.135381 -0.00025034  -0.0172738 -0.135496 -0.000245571  -0.0236912 -0.135269 -0.00037694  -0.0256469 -0.156234 -0.000203609  -0.0189421 -0.156402 -0.00019908  -0.0184035 -0.149458 -0.000145435  -0.0256248 -0.156135 -0.000308514  -0.0250089 -0.1492 -0.000220776  -0.0183892 -0.149359 -0.000213623  -0.0249865 -0.149103 -0.000329494  -0.0269022 -0.170478 -0.000174999  -0.0200436 -0.170694 -0.000175238  -0.0195122 -0.163602 -0.000124693  -0.02688 -0.170394 -0.000261784  -0.0262764 -0.163321 -0.000193596  -0.0194933 -0.163516 -0.000184298  -0.0262582 -0.16323 -0.000288248  -0.0281224 -0.184963 -0.000153065  -0.0211389 -0.185216 -0.000145435  -0.0206075 -0.178004 -0.000107288  -0.0281034 -0.184892 -0.000224829  -0.0275145 -0.17769 -0.000160933  -0.0205925 -0.177925 -0.000159264  -0.0274961 -0.177616 -0.000246525  -0.029315 -0.199649 -0.00012517  -0.0222182 -0.19993 -0.000126123  -0.0216873 -0.192614 -9.48906e-05  -0.0292959 -0.199585 -0.000191689  -0.0287225 -0.192279 -0.000135422  -0.0216808 -0.192548 -0.000135183  -0.0287025 -0.192215 -0.000204802  -0.0304711 -0.214491 -0.000108242  -0.0232806 -0.214798 -0.000101566  -0.0227623 -0.2074 -7.77245e-05  -0.0304582 -0.214438 -0.000161409  -0.0298953 -0.207048 -0.000117779  -0.0227509 -0.207347 -0.000115156  -0.0298786 -0.206992 -0.000174284  -0.0315981 -0.229461 -8.58307e-05  -0.0243304 -0.229797 -8.15392e-05  -0.0238214 -0.222332 -6.29425e-05  -0.0315888 -0.229417 -0.000131369  -0.0310354 -0.221958 -9.70364e-05  -0.023809 -0.222284 -8.98838e-05  -0.0310299 -0.22191 -0.000145674  -0.0327017 -0.244534 -6.96182e-05  -0.0253668 -0.244891 -6.19888e-05  -0.0248566 -0.237373 -4.74453e-05  -0.0326929 -0.244498 -0.00010252  -0.0321546 -0.236983 -7.53403e-05  -0.0248511 -0.237334 -7.29561e-05  -0.0321453 -0.236945 -0.000116348  -0.0337787 -0.259676 -5.57899e-05  -0.0263941 -0.260049 -5.19753e-05  -0.0258846 -0.252496 -3.93391e-05  -0.0337675 -0.259643 -8.27312e-05  -0.0332429 -0.252094 -6.34193e-05  -0.0258837 -0.252464 -5.98431e-05  -0.0332327 -0.252064 -9.5129e-05  -0.034827 -0.274868 -3.71933e-05  -0.0273967 -0.27526 -3.43323e-05  -0.0268989 -0.267679 -2.57492e-05  -0.0348158 -0.274839 -6.07967e-05  -0.0343072 -0.267263 -4.62532e-05  -0.0268946 -0.267649 -4.50611e-05  -0.0342948 -0.267234 -6.96182e-05  -0.0358458 -0.290079 -2.07424e-05  -0.0283887 -0.290484 -2.19345e-05  -0.027899 -0.282888 -1.88351e-05  -0.0358386 -0.290054 -4.22001e-05  -0.0353372 -0.282466 -3.33786e-05  -0.027894 -0.282865 -2.69413e-05  -0.0353296 -0.282443 -4.8399e-05  -0.0368445 -0.305301 -1.83582e-05  -0.0293608 -0.305713 -1.50204e-05  -0.028877 -0.298115 -1.00136e-05  -0.0368369 -0.305277 -3.14713e-05  -0.0363464 -0.297684 -2.5034e-05  -0.0288756 -0.298098 -2.12193e-05  -0.0363424 -0.297667 -3.29018e-05  -0.0378165 -0.320504 -1.26362e-05  -0.030323 -0.320935 -1.28746e-05  -0.0298486 -0.313338 -8.10623e-06  -0.037816 -0.320491 -1.83582e-05  -0.0373311 -0.312901 -1.71661e-05  -0.0298429 -0.313324 -1.5974e-05  -0.0373313 -0.312885 -2.28882e-05  -0.0387826 -0.335693 -6.19888e-06  -0.0312667 -0.33612 -4.29153e-06  -0.0307965 -0.328539 -2.86102e-06  -0.0387735 -0.335678 -8.10623e-06  -0.0382996 -0.328095 -1.00136e-05  -0.0307963 -0.328529 -6.67572e-06  -0.038295 -0.328086 -1.50204e-05  -0.0397196 -0.350843 -4.05312e-06  -0.032207 -0.351281 -5.48363e-06  -0.0317388 -0.343714 -1.90735e-06  -0.0397172 -0.350835 -3.57628e-06  -0.0392499 -0.343268 -1.66893e-06  -0.0317388 -0.343705 -3.8147e-06  -0.0392489 -0.343257 -7.86781e-06  -0.0406508 -0.365957 -1.19209e-06  -0.0331275 -0.366395 6.4373e-06  -0.0326726 -0.358849 -2.6226e-06  -0.0406449 -0.36595 4.76837e-06  -0.040185 -0.358399 -1.19209e-06  -0.0326657 -0.358845 7.15256e-07  -0.0401847 -0.358395 -1.66893e-06  -0.0415726 -0.381025 7.15256e-07  -0.0340433 -0.38146 1.43051e-06  -0.0335891 -0.37394 -7.15256e-07  -0.041564 -0.381012 5.00679e-06  -0.0411096 -0.373493 4.52995e-06  -0.033586 -0.373934 2.6226e-06  -0.0411048 -0.373487 5.48363e-06  -0.000271626 -0.00108328 -0.00012064  0 0 0  4.08441e-05 -0.000999779 5.48363e-06  1.14888e-05 -0.000230044 -3.8147e-06  0 0 0  -0.000269398 -0.00101432 -0.000182867  -0.00010588 -0.000241846 -6.41346e-05  0 0 0  1.4782e-05 -0.000199109 -7.15256e-07  -0.000104658 -0.000207841 -9.9659e-05  -0.000744671 -0.00418857 -0.000200033  9.50992e-05 -0.00403389 2.6226e-06  6.75619e-05 -0.00240532 1.90735e-06  -0.000750765 -0.00404751 -0.000314474  -0.000482172 -0.00242713 -0.000165462  6.83963e-05 -0.00230941 0  -0.000490144 -0.00232872 -0.000257015  -0.00133598 -0.00870818 -0.000243425  0.000131071 -0.00850913 -6.67572e-06  0.000111729 -0.00627404 -2.38419e-07  -0.0013386 -0.00851575 -0.000368357  -0.00102958 -0.00629276 -0.000229359  0.000117093 -0.00611651 -6.19888e-06  -0.00103527 -0.00612941 -0.000347376  -0.00196904 -0.0143458 -0.000250816  0.000113249 -0.0141314 -7.39098e-06  0.000115365 -0.0113911 -8.82149e-06  -0.00196564 -0.0141142 -0.000378132  -0.00164726 -0.0113946 -0.000249386  0.000128329 -0.0111875 -9.53674e-06  -0.0016506 -0.011184 -0.000374079  -0.0026167 -0.0209771 -0.00024271  4.27961e-05 -0.0207712 -6.91414e-06  7.42674e-05 -0.0175594 -1.00136e-05  -0.00260496 -0.0207284 -0.000360727  -0.00228906 -0.017533 -0.000244856  8.60691e-05 -0.017328 -8.58307e-06  -0.00228447 -0.0173 -0.000366688  -0.00327981 -0.0285378 -0.000221729  -9.28044e-05 -0.0283574 -1.90735e-06  -2.77162e-05 -0.0246889 -5.96046e-06  -0.00326455 -0.0282871 -0.00033164  -0.0029484 -0.0246378 -0.000234127  -1.66893e-05 -0.0244485 -7.15256e-06  -0.0029313 -0.0243942 -0.000347853  -0.00396466 -0.0369754 -0.000208855  -0.000293255 -0.0368267 -9.53674e-07  -0.000198305 -0.0327243 0  -0.00394332 -0.0367325 -0.000310421  -0.00361812 -0.0326456 -0.000215054  -0.000187159 -0.032481 -1.90735e-06  -0.00360167 -0.0324021 -0.000321388  -0.00467438 -0.0462467 -0.000182629  -0.00056088 -0.046132 -3.57628e-06  -0.00043124 -0.0416111 2.38419e-07  -0.00465375 -0.0460121 -0.000274897  -0.00431383 -0.0415084 -0.000197887  -0.000419796 -0.0413778 2.14577e-06  -0.00429398 -0.0412718 -0.000292778  -0.00541568 -0.0562757 -0.000164509  -0.000898719 -0.056202 1.43051e-06  -0.00073874 -0.0512945 2.86102e-06  -0.00539017 -0.0560559 -0.000250578  -0.005041 -0.0511618 -0.000175953  -0.000721455 -0.0510733 6.4373e-06  -0.0050174 -0.0509416 -0.000262499  -0.00618732 -0.0669982 -0.000148058  -0.0012989 -0.0669734 1.12057e-05  -0.00110841 -0.0617055 6.67572e-06  -0.00616562 -0.066801 -0.000226974  -0.00579298 -0.0615461 -0.00015974  -0.00109172 -0.0615034 9.29832e-06  -0.00577462 -0.0613445 -0.000236034  -0.00698566 -0.0783643 -0.000136614  -0.0017606 -0.0783832 3.8147e-06  -0.00153625 -0.0727878 5.00679e-06  -0.00696337 -0.0781835 -0.000197887  -0.00658369 -0.0725966 -0.000142097  -0.00152194 -0.0726019 1.0252e-05  -0.00656092 -0.0724158 -0.000215292  -0.007815 -0.0903161 -0.000118256  -0.00228465 -0.0903782 1.16825e-05  -0.00203264 -0.0844785 8.82149e-06  -0.00779319 -0.0901476 -0.000181198  -0.00739741 -0.0842658 -0.000128269  -0.00201523 -0.0843102 1.07288e-05  -0.00737381 -0.0840971 -0.000191212  -0.00867212 -0.102785 -0.000103951  -0.00286496 -0.102887 1.40667e-05  -0.00257969 -0.0967235 8.10623e-06  -0.00864851 -0.102633 -0.000160694  -0.00823879 -0.0964827 -0.000113726  -0.00256968 -0.0965684 1.43051e-05  -0.00821781 -0.0963273 -0.000169039  -0.00955081 -0.115719 -9.27448e-05  -0.00349784 -0.115857 1.33514e-05  -0.00318909 -0.109456 8.58307e-06  -0.00952744 -0.11558 -0.000144958  -0.00910676 -0.109191 -0.000103712  -0.0031743 -0.109315 1.26362e-05  -0.0090872 -0.109052 -0.000149727  -0.01045 -0.129069 -7.84397e-05  -0.0041728 -0.129242 1.7643e-05  -0.00383937 -0.122627 8.58307e-06  -0.0104327 -0.128941 -0.000120401  -0.0100002 -0.12234 -8.89301e-05  -0.00382781 -0.122504 1.43051e-05  -0.00997865 -0.122212 -0.000133038  -0.0113682 -0.142778 -6.98566e-05  -0.00489187 -0.142993 1.97887e-05  -0.00454092 -0.136188 1.33514e-05  -0.0113522 -0.142672 -0.000103951  -0.010908 -0.135874 -7.77245e-05  -0.00452781 -0.136076 1.93119e-05  -0.0108926 -0.135765 -0.000112534  -0.0123019 -0.156804 -5.93662e-05  -0.00564957 -0.157054 1.04904e-05  -0.00527859 -0.150082 1.28746e-05  -0.0122883 -0.156707 -9.03606e-05  -0.0118313 -0.149752 -6.69956e-05  -0.00526762 -0.149984 2.02656e-05  -0.0118194 -0.149652 -0.000101089  -0.0132492 -0.171104 -5.126e-05  -0.00644493 -0.171381 1.40667e-05  -0.00605106 -0.164268 4.52995e-06  -0.0132387 -0.171022 -7.86781e-05  -0.0127754 -0.163917 -5.6982e-05  -0.0060432 -0.164185 1.43051e-05  -0.0127609 -0.163834 -8.51154e-05  -0.0142055 -0.185637 -4.43459e-05  -0.00726485 -0.185936 1.12057e-05  -0.00685954 -0.178707 1.19209e-05  -0.0141902 -0.18556 -6.58035e-05  -0.0137281 -0.178338 -4.98295e-05  -0.00685334 -0.178632 1.57356e-05  -0.0137119 -0.178264 -7.15256e-05  -0.0151715 -0.200354 -4.02927e-05  -0.00811577 -0.200685 1.19209e-05  -0.00769019 -0.193354 6.91414e-06  -0.0151582 -0.200295 -5.4121e-05  -0.0146852 -0.192973 -4.00543e-05  -0.00768733 -0.193288 1.3113e-05  -0.0146754 -0.192906 -5.81741e-05  -0.0161338 -0.215239 -3.00407e-05  -0.00897884 -0.215586 1.38283e-05  -0.00854897 -0.208173 5.96046e-06  -0.0161252 -0.215181 -4.3869e-05  -0.0156507 -0.207776 -3.43323e-05  -0.0085454 -0.208117 1.35899e-05  -0.0156388 -0.20772 -4.81606e-05  -0.0171015 -0.230243 -2.16961e-05  -0.0098629 -0.230607 1.14441e-05  -0.00942445 -0.22313 1.00136e-05  -0.017092 -0.230193 -3.19481e-05  -0.0166163 -0.222717 -2.57492e-05  -0.00942087 -0.223084 1.43051e-05  -0.0166092 -0.222673 -3.98159e-05  -0.0180726 -0.245338 -1.69277e-05  -0.0107613 -0.245725 1.28746e-05  -0.0103135 -0.238194 5.00679e-06  -0.0180607 -0.2453 -2.69413e-05  -0.0175889 -0.237775 -2.12193e-05  -0.0103102 -0.238155 1.19209e-05  -0.0175774 -0.237737 -3.14713e-05  -0.0190265 -0.260504 -1.38283e-05  -0.0116706 -0.260902 1.0252e-05  -0.01122 -0.253341 9.29832e-06  -0.0190287 -0.260473 -1.81198e-05  -0.0185506 -0.252909 -1.40667e-05  -0.0112152 -0.253304 1.54972e-05  -0.0185432 -0.252877 -2.14577e-05  -0.0199928 -0.275713 -9.53674e-06  -0.0125914 -0.276122 5.24521e-06  -0.0121298 -0.268533 6.91414e-06  -0.0199878 -0.275686 -1.3113e-05  -0.0195134 -0.268102 -1.12057e-05  -0.0121298 -0.268509 7.15256e-06  -0.0195069 -0.268075 -1.69277e-05  -0.020947 -0.290942 -2.86102e-06  -0.0135062 -0.291362 1.14441e-05  -0.0130506 -0.283758 7.62939e-06  -0.0209444 -0.290919 -1.12057e-05  -0.0204687 -0.28332 -4.76837e-06  -0.0130424 -0.28374 1.04904e-05  -0.0204663 -0.283298 -9.05991e-06  -0.0218985 -0.306175 -6.4373e-06  -0.0144315 -0.3066 6.4373e-06  -0.0139701 -0.298999 7.39098e-06  -0.0218976 -0.306154 -6.91414e-06  -0.0214238 -0.298551 -7.39098e-06  -0.0139682 -0.298979 5.72205e-06  -0.0214224 -0.298536 -7.15256e-06  -0.02284 -0.321389 -2.14577e-06  -0.0153584 -0.321828 7.62939e-06  -0.0148933 -0.314228 2.14577e-06  -0.0228379 -0.321378 -1.19209e-06  -0.0223699 -0.313782 -3.57628e-06  -0.0148942 -0.314213 5.24521e-06  -0.0223689 -0.313767 -5.72205e-06  -0.0237696 -0.336585 1.43051e-06  -0.0162754 -0.337021 3.8147e-06  -0.0158203 -0.329438 4.76837e-06  -0.0237699 -0.336568 1.19209e-06  -0.0233009 -0.328987 -4.76837e-07  -0.0158181 -0.329427 4.52995e-06  -0.0233054 -0.328976 -9.53674e-07  -0.0247021 -0.351743 4.76837e-06  -0.0171919 -0.352181 5.96046e-06  -0.0167365 -0.344615 1.19209e-06  -0.0246956 -0.351731 3.09944e-06  -0.0242369 -0.344161 -2.38419e-07  -0.0167317 -0.344605 6.91414e-06  -0.0242321 -0.344155 9.53674e-07  -0.0256212 -0.366858 9.53674e-07  -0.0181074 -0.367295 2.14577e-06  -0.0176492 -0.359753 3.09944e-06  -0.0256152 -0.366843 4.52995e-06  -0.0251625 -0.359299 1.90735e-06  -0.0176508 -0.359744 6.67572e-06  -0.0251567 -0.359294 2.6226e-06  -0.0265362 -0.38192 1.66893e-06  -0.0190136 -0.382356 3.09944e-06  -0.0185657 -0.374839 -1.43051e-06  -0.0265312 -0.381903 1.90735e-06  -0.0260751 -0.374388 4.76837e-07  -0.0185633 -0.374834 -4.52995e-06  -0.0260735 -0.374382 1.90735e-06  0.000343189 -0.00113618 0.000121355  0 0 0  0.000670403 -0.00123191 0.000375271  0.000254884 -0.000358105 0.000131369  0 0 0  0.000347719 -0.00106996 0.000192642  0.000131294 -0.000267625 6.55651e-05  0 0 0  0.000259042 -0.000326753 0.00019908  0.000133328 -0.000237644 0.000104427  0.000923783 -0.00428569 0.000196934  0.00181061 -0.00441206 0.000612259  0.0011823 -0.00273389 0.000335693  0.000943303 -0.00415277 0.000305891  0.000615746 -0.00250375 0.000167847  0.00120242 -0.00263149 0.000516891  0.000624746 -0.00240874 0.000258446  0.00157398 -0.00884056 0.000231743  0.00308779 -0.00894219 0.000711918  0.00241768 -0.00669658 0.000442982  0.00159577 -0.00865185 0.000352144  0.00125194 -0.00640947 0.000221968  0.00244755 -0.00653231 0.000674248  0.00127187 -0.00625032 0.000338793  0.00217378 -0.0145107 0.000236034  0.00429243 -0.014578 0.000725746  0.00367779 -0.0118388 0.000477791  0.00219125 -0.0142848 0.000358343  0.00188369 -0.0115434 0.000238895  0.00370324 -0.0116302 0.000723362  0.00190505 -0.0113357 0.000361919  0.00266981 -0.0211761 0.000226974  0.00535691 -0.0212264 0.000694036  0.00482082 -0.0180123 0.000472546  0.00268883 -0.020938 0.000343561  0.00243622 -0.0177221 0.000234604  0.00484288 -0.0177791 0.000711441  0.00245118 -0.0174879 0.000352144  0.00305867 -0.0287778 0.000217199  0.00625616 -0.0288248 0.000653505  0.00580555 -0.0251502 0.000448227  0.00307393 -0.0285357 0.00032711  0.00287795 -0.0248603 0.00022006  0.00582582 -0.0249077 0.000671864  0.00289768 -0.0246198 0.000335693  0.00333494 -0.0372669 0.00020051  0.00700957 -0.0373206 0.000608921  0.00664103 -0.0332047 0.000421524  0.00335139 -0.0370248 0.000304699  0.00321072 -0.0329113 0.000210047  0.00665146 -0.0329647 0.00063014  0.00322759 -0.0326698 0.000312328  0.00350797 -0.0465747 0.000188589  0.00762093 -0.04665 0.000562429  0.00732034 -0.0421152 0.000391722  0.00352252 -0.0463424 0.000283241  0.00343835 -0.0418153 0.000194311  0.0073294 -0.041886 0.000588894  0.00345165 -0.0415835 0.000293255  0.00357234 -0.0566515 0.000177383  0.00808704 -0.0567484 0.000516891  0.00786412 -0.0518273 0.000359058  0.00358951 -0.0564319 0.000263453  0.0035547 -0.051515 0.000178814  0.00787008 -0.0516076 0.000538588  0.00356841 -0.0512958 0.000270128  0.00354493 -0.0674233 0.000160694  0.00842392 -0.0675562 0.000473261  0.00826347 -0.0622709 0.000331402  0.00355625 -0.0672266 0.000243664  0.00357127 -0.0619486 0.000170231  0.00827432 -0.0620709 0.000498056  0.00358486 -0.0617446 0.000253439  0.00341833 -0.0788343 0.000147581  0.00863588 -0.0790034 0.000432968  0.00853229 -0.0733914 0.000301361  0.00343013 -0.0786565 0.000221014  0.00349343 -0.073052 0.000153303  0.00854385 -0.0732028 0.000453234  0.00350535 -0.0728627 0.000234127  0.00320411 -0.0908314 0.000131845  0.00872314 -0.091031 0.000394821  0.00869012 -0.0851167 0.000277281  0.00321281 -0.0906718 0.000203848  0.00332427 -0.0847626 0.000138283  0.00869465 -0.0849455 0.000416517  0.00333035 -0.0845927 0.000212193  0.00290549 -0.103353 0.000126123  0.0087024 -0.103571 0.000364065  0.00872612 -0.0973898 0.000249147  0.00291181 -0.103198 0.000188828  0.0030632 -0.0970265 0.00013423  0.00872672 -0.0972371 0.000375986  0.00307465 -0.0968717 0.000197411  0.0025202 -0.116328 0.000116587  0.00857103 -0.116578 0.000328541  0.00864518 -0.11016 0.000231028  0.00253391 -0.116191 0.000172615  0.00272524 -0.109777 0.000119209  0.0086484 -0.110018 0.000346661  0.0027324 -0.109637 0.000179768  0.00207388 -0.129717 0.000103474  0.00834036 -0.129994 0.000289202  0.00846672 -0.123359 0.000204086  0.00207901 -0.129592 0.000154257  0.00230742 -0.122966 0.000110388  0.00846839 -0.123234 0.000311375  0.00231469 -0.122842 0.000161886  0.00155568 -0.143469 9.2268e-05  0.00802302 -0.143769 0.000262737  0.00819206 -0.136951 0.000184536  0.00156021 -0.143359 0.000137806  0.00182152 -0.136545 9.87053e-05  0.00819552 -0.136837 0.000276089  0.00182772 -0.136433 0.000146866  0.000974178 -0.157532 7.96318e-05  0.00761604 -0.157848 0.000233173  0.00782967 -0.150871 0.000169277  0.000981092 -0.157431 0.00012207  0.00126863 -0.150453 8.84533e-05  0.00782943 -0.150773 0.00024581  0.00127983 -0.150358 0.000132322  0.000336885 -0.171859 7.55787e-05  0.0071373 -0.172203 0.000204325  0.00738621 -0.165084 0.000141382  0.000344038 -0.171773 0.000108004  0.000664949 -0.164659 7.51019e-05  0.00738764 -0.164992 0.000217676  0.000669003 -0.16457 0.000116587  -0.00034976 -0.186419 6.65188e-05  0.00658655 -0.18678 0.00017786  0.0068717 -0.179535 0.000128984  -0.000343561 -0.186344 9.89437e-05  2.86102e-06 -0.179106 7.20024e-05  0.00687027 -0.179465 0.000190258  5.48363e-06 -0.179032 0.000105381  -0.00108099 -0.201168 5.53131e-05  0.00597072 -0.201546 0.000152111  0.006284 -0.194209 0.00010848  -0.00107551 -0.201102 8.36849e-05  -0.000709534 -0.193769 5.8651e-05  0.00628734 -0.194138 0.000160933  -0.000703812 -0.193699 8.36849e-05  -0.00184274 -0.216064 5.126e-05  0.00530338 -0.216458 0.000127077  0.0056448 -0.20904 9.32217e-05  -0.00184417 -0.21601 7.51019e-05  -0.00145841 -0.208593 5.17368e-05  0.00564384 -0.208984 0.000138044  -0.00145602 -0.208539 7.72476e-05  -0.00264573 -0.231089 4.07696e-05  0.00458837 -0.231494 0.000108004  0.00495243 -0.22401 7.43866e-05  -0.00264311 -0.23104 6.4373e-05  -0.00224137 -0.22356 4.45843e-05  0.00495148 -0.223961 0.000118732  -0.00223947 -0.223513 6.86646e-05  -0.00347447 -0.2462 3.43323e-05  0.00382948 -0.246614 9.48906e-05  0.00421143 -0.239084 6.36578e-05  -0.00347018 -0.24616 5.126e-05  -0.00305438 -0.23863 3.8147e-05  0.00421166 -0.239041 9.94205e-05  -0.00305176 -0.238589 5.65052e-05  -0.00432253 -0.261375 2.95639e-05  0.00303555 -0.2618 7.00951e-05  0.00343895 -0.254235 5.4121e-05  -0.00432134 -0.261346 4.00543e-05  -0.00389624 -0.253781 2.81334e-05  0.00343895 -0.254201 7.96318e-05  -0.00389028 -0.253744 4.36306e-05  -0.00519514 -0.276598 2.16961e-05  0.00221086 -0.277023 5.26905e-05  0.00262976 -0.269439 3.93391e-05  -0.00519228 -0.27657 3.19481e-05  -0.0047543 -0.268977 2.28882e-05  0.00262761 -0.269411 6.24657e-05  -0.00475407 -0.268953 3.71933e-05  -0.00607371 -0.291831 1.93119e-05  0.0013628 -0.292267 4.3869e-05  0.00179052 -0.284667 3.31402e-05  -0.00607562 -0.29181 2.76566e-05  -0.00563359 -0.284206 2.07424e-05  0.00178742 -0.284645 5.05447e-05  -0.0056324 -0.284188 3.12328e-05  -0.00697041 -0.307068 1.23978e-05  0.000490189 -0.307508 3.52859e-05  0.000932693 -0.299904 2.7895e-05  -0.00697303 -0.30705 2.0504e-05  -0.00652218 -0.299449 1.57356e-05  0.000925303 -0.299889 4.14848e-05  -0.00652289 -0.299432 2.26498e-05  -0.00787067 -0.322291 7.39098e-06  -0.000390291 -0.322733 2.14577e-05  5.81741e-05 -0.315139 1.85966e-05  -0.00787425 -0.322278 1.43051e-05  -0.00741911 -0.314678 1.04904e-05  5.38826e-05 -0.315126 2.90871e-05  -0.00742221 -0.314665 1.40667e-05  -0.00878191 -0.337486 6.19888e-06  -0.00128484 -0.337934 1.45435e-05  -0.000832558 -0.330346 1.09673e-05  -0.00877929 -0.337476 1.09673e-05  -0.00832677 -0.32989 7.15256e-06  -0.000836372 -0.330337 1.40667e-05  -0.00832844 -0.32988 1.26362e-05  -0.00968909 -0.352645 4.76837e-06  -0.00218153 -0.353094 5.00679e-06  -0.00172567 -0.345526 9.05991e-06  -0.00969172 -0.352635 7.39098e-06  -0.00923824 -0.345068 8.10623e-06  -0.0017314 -0.345515 1.28746e-05  -0.00923562 -0.345058 1.04904e-05  -0.0105996 -0.367765 1.19209e-06  -0.00308633 -0.368208 9.53674e-07  -0.00263214 -0.360661 1.90735e-06  -0.0105977 -0.367751 7.15256e-07  -0.0101404 -0.360207 4.76837e-06  -0.00263381 -0.360655 4.05312e-06  -0.0101461 -0.360198 3.33786e-06  -0.0115087 -0.382819 -1.90735e-06  -0.00398684 -0.383264 2.86102e-06  -0.00354171 -0.37575 -2.86102e-06  -0.0115073 -0.382814 -3.33786e-06  -0.0110533 -0.375293 3.33786e-06  -0.00353909 -0.375744 -1.66893e-06  -0.0110528 -0.375287 1.66893e-06  0.000997543 -0.00157768 0.000361919  0 0 0  0.00139999 -0.00189799 0.000733852  0.00053066 -0.000736415 0.000258446  0 0 0  0.00101288 -0.00149888 0.000561237  0.000385277 -0.000507534 0.000193357  0 0 0  0.000538535 -0.000698686 0.000394583  0.000386365 -0.000472665 0.000302792  0.00269493 -0.00497133 0.000594139  0.00373647 -0.00540453 0.00119758  0.0024699 -0.00362873 0.000649691  0.00273338 -0.00482321 0.000910282  0.00179066 -0.00309741 0.000496626  0.00250292 -0.00351059 0.00100708  0.00181825 -0.00299126 0.000768423  0.00459558 -0.00958455 0.000698328  0.00627995 -0.00997889 0.00140262  0.00496703 -0.00775003 0.000870943  0.0046393 -0.00938696 0.0010581  0.00364441 -0.0071401 0.000660419  0.00501508 -0.00756449 0.00132394  0.0036872 -0.00696868 0.00100517  0.00641125 -0.0152436 0.000719309  0.00867814 -0.0155693 0.0014329  0.0074636 -0.0128674 0.000947952  0.0064466 -0.0150083 0.00108314  0.00552613 -0.0122818 0.000715971  0.00750324 -0.0126437 0.00143123  0.00556535 -0.0120668 0.00108266  0.00803941 -0.0218875 0.00069356  0.0108371 -0.022167 0.00138712  0.00975376 -0.0189887 0.000941038  0.0080629 -0.0216355 0.00104403  0.00724965 -0.0184365 0.000708818  0.00979006 -0.018745 0.00141597  0.00728077 -0.0181996 0.00106883  0.00946283 -0.0294781 0.000651836  0.0127617 -0.02974 0.00129914  0.0118079 -0.0260827 0.000896931  0.00947958 -0.029229 0.00097537  0.00877666 -0.0255608 0.00067234  0.0118278 -0.0258341 0.0013442  0.00879496 -0.0253127 0.00100803  0.0106934 -0.0379627 0.000609875  0.0144527 -0.0382239 0.00121331  0.013626 -0.0341159 0.000843287  0.0107021 -0.0377216 0.000913858  0.0101026 -0.0336082 0.000627041  0.0136332 -0.0338702 0.00125647  0.0101135 -0.033365 0.000945807  0.0117407 -0.0472841 0.000563145  0.0159295 -0.0475493 0.00111413  0.0152143 -0.043018 0.000779152  0.011746 -0.0470524 0.000844002  0.011241 -0.0425162 0.000583172  0.0152172 -0.0427827 0.00116539  0.0112451 -0.042286 0.000874281  0.0126148 -0.0573716 0.000516176  0.0171982 -0.0576525 0.00102901  0.016591 -0.0527241 0.000716209  0.0126184 -0.0571581 0.00077343  0.0121977 -0.0522282 0.000539303  0.0165843 -0.052506 0.00107408  0.0122043 -0.0520115 0.000806808  0.0133197 -0.068166 0.000469923  0.0182633 -0.0684646 0.0009377  0.0177543 -0.0631758 0.00065589  0.0133225 -0.0679718 0.00070405  0.0129896 -0.0626814 0.000492334  0.017758 -0.0629737 0.000983238  0.0129913 -0.0624811 0.00073719  0.0138646 -0.0796035 0.000433683  0.0191443 -0.0799173 0.0008533  0.0187293 -0.0743034 0.000599384  0.0138676 -0.0794245 0.000652075  0.0136082 -0.0738093 0.000455141  0.0187273 -0.0741145 0.000898838  0.0136151 -0.0736209 0.000678539  0.0142615 -0.0916235 0.000391006  0.0198421 -0.091947 0.000780582  0.0195168 -0.0860359 0.000546455  0.0142624 -0.0914537 0.000589848  0.0140806 -0.085541 0.000414133  0.0195132 -0.0858667 0.000818968  0.0140831 -0.0853707 0.000622511  0.0145154 -0.10416 0.000358105  0.0203677 -0.104503 0.000703812  0.0201313 -0.0983215 0.000493526  0.0145172 -0.104006 0.000534058  0.0144041 -0.0978237 0.000371218  0.0201259 -0.0981645 0.000738621  0.0144076 -0.0976686 0.000561476  0.0146332 -0.117155 0.000321388  0.0207343 -0.11752 0.000638247  0.0205731 -0.111097 0.000445604  0.0146339 -0.117019 0.000484228  0.0145903 -0.1106 0.000338078  0.0205722 -0.110956 0.000667572  0.0145894 -0.110458 0.000507593  0.0146296 -0.130569 0.000290394  0.0209472 -0.130941 0.00057435  0.0208682 -0.124305 0.000404119  0.0146269 -0.130442 0.000432253  0.0146487 -0.123806 0.000305414  0.0208592 -0.124179 0.000605345  0.014648 -0.123681 0.000461817  0.0145047 -0.144333 0.000252962  0.0210228 -0.144724 0.000506163  0.0210092 -0.137899 0.000361681  0.0145068 -0.144224 0.000383377  0.0145823 -0.137401 0.000272512  0.0210029 -0.137789 0.000536203  0.0145795 -0.137288 0.00040555  0.0142765 -0.158406 0.000222445  0.0209706 -0.15881 0.000443697  0.0210137 -0.151832 0.000315428  0.0142782 -0.158312 0.000334501  0.0144072 -0.151328 0.000239611  0.0210097 -0.151729 0.000473499  0.014405 -0.15123 0.000359297  0.0139515 -0.17275 0.00019455  0.0207937 -0.173166 0.000393629  0.0209019 -0.166045 0.000282049  0.0139487 -0.172666 0.000295401  0.0141268 -0.165545 0.000211477  0.0208976 -0.16596 0.000417471  0.0141263 -0.165456 0.000314951  0.0135407 -0.187319 0.000174284  0.0205102 -0.18775 0.000335217  0.0206726 -0.180508 0.000240326  0.0135324 -0.187249 0.000256538  0.0137558 -0.18001 0.000184774  0.0206673 -0.180429 0.000363111  0.0137525 -0.17993 0.000278711  0.0130353 -0.202077 0.000143528  0.0201271 -0.20251 0.00028801  0.0203378 -0.195172 0.000208616  0.0130377 -0.202014 0.000216961  0.0132985 -0.194676 0.000159502  0.0203323 -0.195106 0.000310659  0.0132954 -0.194606 0.000235796  0.0124655 -0.216983 0.000123739  0.0196526 -0.217426 0.000242472  0.019902 -0.210003 0.000174046  0.0124662 -0.216928 0.000188112  0.0127602 -0.209512 0.000134945  0.0199025 -0.209948 0.000263453  0.0127614 -0.209454 0.000201464  0.0118308 -0.232012 0.000105619  0.0190969 -0.232455 0.00020647  0.0193884 -0.22497 0.000147104  0.0118315 -0.231962 0.000154734  0.012157 -0.224481 0.00011158  0.0193839 -0.224927 0.000219107  0.0121562 -0.224434 0.000169277  0.0111434 -0.24713 8.58307e-05  0.0184779 -0.247576 0.00016737  0.0188074 -0.240043 0.000121117  0.0111401 -0.247086 0.000128031  0.0114954 -0.239553 9.46522e-05  0.0187941 -0.240008 0.000183582  0.0114939 -0.239514 0.000141382  0.0104041 -0.262311 6.29425e-05  0.0177877 -0.262758 0.000131845  0.0181475 -0.255191 0.000101566  0.0104046 -0.262275 0.000100613  0.0107808 -0.254705 7.55787e-05  0.0181394 -0.255158 0.000147104  0.010778 -0.254672 0.000115871  0.00962496 -0.277528 5.6982e-05  0.0170536 -0.277977 0.000104666  0.0174351 -0.270391 8.10623e-05  0.0096221 -0.277494 7.96318e-05  0.0100231 -0.269909 5.96046e-05  0.0174286 -0.270364 0.000121593  0.0100191 -0.26988 8.96454e-05  0.00880575 -0.292756 4.29153e-05  0.0162687 -0.293213 7.89165e-05  0.0166657 -0.285617 6.38962e-05  0.00880647 -0.292732 6.17504e-05  0.00922275 -0.285139 4.76837e-05  0.0166676 -0.285592 9.29832e-05  0.0092175 -0.285114 6.96182e-05  0.007967 -0.307993 2.74181e-05  0.015449 -0.308447 5.38826e-05  0.0158663 -0.30085 4.76837e-05  0.0079658 -0.307975 4.41074e-05  0.00839114 -0.300372 3.76701e-05  0.015862 -0.30083 6.8903e-05  0.00838804 -0.300356 5.45979e-05  0.00709915 -0.323207 2.0504e-05  0.0145993 -0.323669 3.26633e-05  0.0150347 -0.316072 2.71797e-05  0.00710273 -0.323199 3.26633e-05  0.00753427 -0.315605 2.28882e-05  0.0150299 -0.316061 4.72069e-05  0.00753522 -0.31559 3.24249e-05  0.00622225 -0.338406 1.23978e-05  0.0137274 -0.338858 2.57492e-05  0.0141728 -0.331277 1.81198e-05  0.00621963 -0.338396 1.7643e-05  0.00666332 -0.330807 1.43051e-05  0.0141661 -0.331268 3.02792e-05  0.00666523 -0.330801 2.28882e-05  0.00532985 -0.353566 1.12057e-05  0.0128434 -0.354011 1.16825e-05  0.0132935 -0.346447 1.09673e-05  0.00532293 -0.353549 1.33514e-05  0.0057795 -0.345985 1.09673e-05  0.013288 -0.346441 1.69277e-05  0.00577426 -0.345976 1.28746e-05  0.00442886 -0.368677 2.6226e-06  0.0119457 -0.369127 5.96046e-06  0.0123966 -0.361581 3.57628e-06  0.00442386 -0.368665 3.33786e-06  0.00488138 -0.361119 2.6226e-06  0.0123949 -0.361574 7.39098e-06  0.0048759 -0.361114 3.09944e-06  0.00352573 -0.383742 -3.57628e-06  0.0110464 -0.384196 -3.09944e-06  0.0114992 -0.37667 -3.57628e-06  0.00352192 -0.38373 -6.4373e-06  0.00397539 -0.376209 0  0.011493 -0.376667 -6.91414e-06  0.00397277 -0.376203 -2.6226e-06  0.00184925 -0.00256753 0.000582933  0 0 0  0.00243464 -0.00328511 0.00107169  0.000941999 -0.00161463 0.000373363  0 0 0  0.00187223 -0.00247324 0.000901222  0.000700191 -0.00108367 0.000313759  0 0 0  0.000939809 -0.00156331 0.000580549  0.000701971 -0.00104457 0.000488043  0.00483286 -0.00634408 0.000966072  0.00620756 -0.00712162 0.00175261  0.00425895 -0.0053106 0.000951529  0.00488463 -0.00617272 0.00147986  0.00326945 -0.00435233 0.000802517  0.00429013 -0.00516212 0.00146604  0.00330886 -0.00421828 0.0012331  0.00799125 -0.0109414 0.00114202  0.00995147 -0.0115929 0.00205731  0.00804582 -0.00945729 0.00127435  0.00804451 -0.0107197 0.00172925  0.00642207 -0.00852573 0.0010767  0.00810137 -0.00923961 0.0019381  0.00647816 -0.00832576 0.00163674  0.0109611 -0.0165018 0.00118375  0.0134532 -0.0170615 0.00211596  0.011688 -0.01444 0.00139451  0.0110062 -0.0162567 0.00178027  0.00950405 -0.0135922 0.00117421  0.0117394 -0.0141944 0.00210667  0.00955746 -0.0133553 0.00177002  0.01367 -0.023074 0.00114942  0.0166672 -0.0235732 0.00206137  0.0150582 -0.0204454 0.00139332  0.0136997 -0.0228159 0.00172091  0.0123517 -0.019657 0.00116825  0.0150986 -0.0201874 0.0020957  0.0123891 -0.0194075 0.00175786  0.0161043 -0.0306124 0.00108099  0.0195817 -0.0310809 0.00194216  0.0181396 -0.0274634 0.00133538  0.0161218 -0.0303571 0.00162244  0.0149233 -0.026719 0.00111771  0.018163 -0.0272065 0.00200224  0.0149452 -0.0264659 0.00167632  0.0182729 -0.0390642 0.00101018  0.0222003 -0.0395226 0.00180864  0.0209195 -0.0354318 0.0012536  0.0182803 -0.0388236 0.00151014  0.0172195 -0.0347247 0.00104499  0.0209264 -0.0351913 0.0018754  0.0172334 -0.0344772 0.00156927  0.0201828 -0.0483666 0.000929594  0.0245304 -0.048817 0.00166607  0.0233989 -0.0442995 0.00115585  0.0201828 -0.0481364 0.0013926  0.0192596 -0.0436078 0.000968456  0.0234001 -0.0440682 0.00173402  0.0192629 -0.0433775 0.00145221  0.0218461 -0.0584505 0.000851631  0.0265819 -0.0589004 0.00153184  0.0255871 -0.0539815 0.00106692  0.0218474 -0.0582349 0.00127792  0.0210444 -0.0533108 0.000891209  0.025587 -0.053763 0.00160265  0.0210438 -0.0530915 0.00133681  0.0232779 -0.0692363 0.000781059  0.0283704 -0.0696944 0.00139976  0.0275077 -0.064411 0.000976562  0.0232782 -0.0690411 0.00117087  0.0225867 -0.0637522 0.000817776  0.0275083 -0.064211 0.00146794  0.0225914 -0.0635521 0.00122309  0.0244902 -0.0806709 0.000712633  0.0299042 -0.0811282 0.00128031  0.029171 -0.0755168 0.00089097  0.0244845 -0.0804871 0.00106955  0.023912 -0.0748712 0.00074625  0.0291672 -0.0753337 0.00133777  0.0239069 -0.0746856 0.00111985  0.0254841 -0.0926822 0.000645399  0.0311947 -0.0931477 0.00116205  0.0305797 -0.0872363 0.000811577  0.025481 -0.0925136 0.000971556  0.0250115 -0.0865998 0.000678301  0.0305781 -0.0870659 0.00121856  0.0250086 -0.0864313 0.00101566  0.0262847 -0.105217 0.000585079  0.0322623 -0.105686 0.00104928  0.0317627 -0.0995099 0.000735283  0.0262811 -0.105064 0.00087595  0.0259116 -0.0988846 0.000617027  0.0317562 -0.0993525 0.00110292  0.0259066 -0.0987262 0.000925303  0.0268942 -0.118206 0.000524044  0.033111 -0.118681 0.000950813  0.0327121 -0.112264 0.000663757  0.0268897 -0.11807 0.000791073  0.0266105 -0.111653 0.000556707  0.0327128 -0.112128 0.000994682  0.0266078 -0.111515 0.000832081  0.027328 -0.131615 0.00047183  0.0337596 -0.132091 0.000843287  0.0334707 -0.125463 0.00059557  0.0273223 -0.131492 0.000707865  0.0271322 -0.124856 0.000501156  0.0334634 -0.125339 0.000893831  0.0271276 -0.124733 0.000748396  0.0275972 -0.145376 0.000418425  0.034219 -0.145856 0.000748396  0.034019 -0.139046 0.000531197  0.0275903 -0.145269 0.00062871  0.0274855 -0.138448 0.000445366  0.0340129 -0.138932 0.000792503  0.0274761 -0.138336 0.000667334  0.0277116 -0.159453 0.000369549  0.0345018 -0.159932 0.000657082  0.0343931 -0.15296 0.000466347  0.0277071 -0.159351 0.000553131  0.0276752 -0.152376 0.000393629  0.0343809 -0.152858 0.00070262  0.0276659 -0.152272 0.000590324  0.027688 -0.17379 0.000320911  0.0346208 -0.174271 0.00057435  0.0345864 -0.167161 0.000411034  0.027683 -0.173701 0.000483751  0.0277197 -0.166587 0.000345469  0.0345812 -0.167071 0.000618458  0.0277131 -0.166496 0.000517845  0.0275331 -0.188358 0.000274181  0.0345948 -0.188834 0.000500917  0.0346327 -0.181608 0.000352859  0.0275292 -0.188277 0.000417471  0.0276299 -0.18104 0.000297785  0.0346241 -0.181528 0.000533104  0.0276201 -0.180963 0.000447273  0.0272596 -0.203098 0.00023675  0.0344315 -0.203581 0.000422478  0.0345359 -0.196256 0.000306368  0.0272558 -0.203032 0.000355005  0.0274136 -0.195699 0.000257969  0.0345287 -0.19619 0.000458002  0.0274041 -0.195633 0.000387907  0.0268795 -0.217999 0.000201464  0.0341387 -0.218481 0.000356913  0.0343056 -0.211071 0.000263929  0.0268764 -0.217942 0.000303268  0.0270851 -0.210523 0.000216484  0.0342979 -0.211013 0.00039053  0.0270774 -0.210467 0.000327826  0.0264087 -0.233014 0.000166178  0.0337403 -0.233495 0.0002985  0.0339565 -0.226023 0.000218391  0.0263977 -0.232967 0.00025034  0.0266552 -0.225487 0.000181675  0.0339501 -0.225975 0.000328302  0.0266452 -0.22544 0.000276327  0.0258462 -0.24812 0.000140667  0.0332375 -0.248598 0.000243902  0.0335069 -0.24108 0.000181437  0.0258398 -0.24808 0.000207186  0.0261352 -0.240556 0.000151396  0.033499 -0.241039 0.000270367  0.0261295 -0.240514 0.000224829  0.0252075 -0.26329 0.000112295  0.0326498 -0.263769 0.000195742  0.0329521 -0.256208 0.000148773  0.025202 -0.263257 0.000163078  0.0255339 -0.255692 0.000124216  0.0329542 -0.256176 0.000217199  0.0255294 -0.255659 0.00018239  0.0245092 -0.278492 8.63075e-05  0.031985 -0.278969 0.000151396  0.0323279 -0.271387 0.000114202  0.024503 -0.27847 0.000128508  0.0248656 -0.270882 9.48906e-05  0.0323248 -0.271362 0.000172377  0.0248597 -0.270858 0.00014472  0.0237527 -0.293723 6.69956e-05  0.0312498 -0.294189 0.000113964  0.031631 -0.286595 9.10759e-05  0.023746 -0.293698 9.53674e-05  0.0241382 -0.286101 7.72476e-05  0.0316238 -0.286578 0.000132322  0.024133 -0.28608 0.000110626  0.0229497 -0.308943 4.41074e-05  0.0304656 -0.309411 7.55787e-05  0.0308692 -0.301816 6.46114e-05  0.0229499 -0.308929 6.4373e-05  0.0233591 -0.301329 5.19753e-05  0.0308676 -0.3018 9.41753e-05  0.0233517 -0.301311 7.96318e-05  0.0221176 -0.324154 3.14713e-05  0.0296445 -0.324618 5.19753e-05  0.0300646 -0.31703 4.14848e-05  0.0221117 -0.324142 4.50611e-05  0.0225356 -0.31655 3.60012e-05  0.0300591 -0.317014 6.84261e-05  0.022537 -0.316534 5.43594e-05  0.0212548 -0.339339 2.09808e-05  0.0287805 -0.339796 3.00407e-05  0.0292215 -0.33222 3.26633e-05  0.0212483 -0.339326 2.74181e-05  0.0216908 -0.331749 2.67029e-05  0.0292158 -0.332209 4.57764e-05  0.0216835 -0.331737 3.79086e-05  0.0203714 -0.354488 9.29832e-06  0.0279019 -0.354943 1.90735e-05  0.0283501 -0.347381 1.62125e-05  0.02037 -0.354477 1.26362e-05  0.0208137 -0.346913 1.38283e-05  0.0283439 -0.347375 2.43187e-05  0.0208106 -0.346908 1.95503e-05  0.0194728 -0.369597 -1.90735e-06  0.0270071 -0.370048 5.72205e-06  0.0274603 -0.362509 1.00136e-05  0.0194697 -0.369586 2.6226e-06  0.0199244 -0.362045 6.4373e-06  0.0274565 -0.3625 1.26362e-05  0.0199206 -0.362037 8.10623e-06  0.0185733 -0.384673 -4.52995e-06  0.0261049 -0.385131 -9.05991e-06  0.0265615 -0.377601 9.53674e-07  0.0185685 -0.384665 -4.76837e-06  0.0190217 -0.377133 9.53674e-07  0.026552 -0.377591 2.38419e-07  0.0190184 -0.377129 -2.6226e-06  0.0033911 -0.0046261 0.000803947  0 0 0  0.00483696 -0.00586873 0.0014081  0.00232887 -0.0039562 0.000496626  0 0 0  0.00339456 -0.0044983 0.00124025  0.0012868 -0.00244015 0.000432014  0 0 0  0.00230171 -0.00385767 0.000775337  0.00128432 -0.00237757 0.000672579  0.00770307 -0.00844026 0.00132442  0.00948951 -0.00944173 0.00229716  0.00715038 -0.00780714 0.00124812  0.00774091 -0.00823295 0.00202203  0.00554319 -0.00649488 0.00109982  0.00713794 -0.00761026 0.00192261  0.0055643 -0.00632626 0.00169325  0.0119502 -0.0128435 0.00156903  0.0142003 -0.0136936 0.00269485  0.011822 -0.0116938 0.00166965  0.0120066 -0.012589 0.00237393  0.00984657 -0.0105252 0.00147343  0.0118508 -0.0114375 0.00254631  0.00989676 -0.0102895 0.00224257  0.015984 -0.0182511 0.00162697  0.0187524 -0.019015 0.00278544  0.0164592 -0.0164869 0.00182891  0.0160322 -0.017985 0.00245118  0.0140009 -0.015407 0.00161481  0.016512 -0.0162145 0.00276852  0.0140541 -0.0151492 0.00243831  0.0197254 -0.0247086 0.00158572  0.0229864 -0.0254111 0.00271726  0.0208614 -0.0223483 0.00183463  0.0197585 -0.02444 0.00238323  0.0178928 -0.0213402 0.00161433  0.0209131 -0.0220792 0.00276136  0.017935 -0.0210805 0.00243163  0.0231363 -0.0321655 0.00150466  0.0268702 -0.0328407 0.00257039  0.0249389 -0.0292638 0.00176859  0.0231599 -0.0319093 0.00225687  0.0214717 -0.0283134 0.00155115  0.0249721 -0.0290049 0.00264621  0.0215028 -0.0280531 0.00232244  0.0262184 -0.0405652 0.00140429  0.0303885 -0.041221 0.00239158  0.0286543 -0.0371636 0.00165653  0.0262308 -0.0403227 0.0021019  0.0247173 -0.036247 0.00145364  0.0286782 -0.0369123 0.00248337  0.0247363 -0.0360029 0.00218344  0.0289739 -0.04982 0.00129557  0.0335586 -0.0504541 0.0022037  0.0319995 -0.0459611 0.00153279  0.0289809 -0.0495914 0.00193858  0.0276356 -0.0450833 0.00134635  0.0320169 -0.045728 0.00229716  0.0276459 -0.0448509 0.00201869  0.0314158 -0.0598638 0.00119281  0.0363746 -0.0604861 0.002038  0.0349962 -0.0555902 0.00141811  0.0314173 -0.0596508 0.00178933  0.0302377 -0.0547429 0.00124335  0.0350089 -0.0553745 0.00212288  0.0302372 -0.0545249 0.00186419  0.0335569 -0.0706228 0.00108671  0.038867 -0.0712316 0.00185966  0.0376543 -0.0659721 0.00129485  0.0335603 -0.0704228 0.00163317  0.0325232 -0.0651498 0.00113893  0.0376606 -0.0657715 0.00194478  0.0325265 -0.0649514 0.00170803  0.0354141 -0.0820243 0.000992537  0.0410362 -0.082625 0.00169349  0.039986 -0.077039 0.00118804  0.035416 -0.0818425 0.00149179  0.0345223 -0.076242 0.00104046  0.0399915 -0.0768516 0.00178123  0.034523 -0.0760553 0.00156188  0.0369996 -0.0940084 0.000902414  0.0429065 -0.0946072 0.00153375  0.0420018 -0.0887128 0.00107789  0.0370013 -0.0938444 0.00135088  0.0362425 -0.0879425 0.00094676  0.0420045 -0.0885477 0.00161624  0.0362415 -0.0877736 0.00141692  0.0383321 -0.106514 0.000815868  0.0444965 -0.107106 0.00139165  0.0437256 -0.100946 0.000976801  0.0383303 -0.106366 0.00121927  0.0376989 -0.100195 0.000856638  0.0437378 -0.100793 0.0014627  0.0376962 -0.100042 0.00128603  0.0394217 -0.119482 0.00073123  0.0458159 -0.120073 0.00125718  0.0451816 -0.113667 0.000880003  0.0394161 -0.11935 0.00109482  0.0389057 -0.112938 0.000769138  0.0451878 -0.113533 0.00132012  0.0388994 -0.112801 0.00115585  0.0402809 -0.132869 0.000654697  0.0468827 -0.133441 0.00111866  0.0463792 -0.126832 0.000788927  0.0402784 -0.132743 0.000981331  0.0398791 -0.126124 0.000694275  0.0463797 -0.126707 0.00118351  0.0398736 -0.125995 0.00103474  0.0409214 -0.146608 0.000581026  0.0477066 -0.147172 0.000991583  0.0473238 -0.140373 0.000704765  0.040921 -0.146492 0.000873327  0.0406271 -0.139688 0.000614166  0.0473211 -0.140263 0.00104952  0.0406274 -0.139575 0.000923395  0.0413725 -0.160652 0.000510454  0.0483091 -0.161206 0.000874996  0.0480287 -0.154247 0.000623941  0.0413666 -0.160549 0.000765324  0.0411732 -0.153585 0.000542402  0.0480363 -0.154154 0.000929832  0.041168 -0.153485 0.000819206  0.0416284 -0.174967 0.000449419  0.0487056 -0.17552 0.000761986  0.048532 -0.168421 0.000546694  0.0416255 -0.174879 0.000672817  0.0415215 -0.167771 0.000478745  0.048532 -0.168333 0.000818491  0.0415154 -0.167685 0.000716448  0.0417268 -0.189501 0.000385761  0.0489163 -0.190048 0.000659704  0.0488358 -0.182832 0.000472784  0.0417218 -0.189427 0.00058198  0.041697 -0.182206 0.000416517  0.0488322 -0.182754 0.000715256  0.0416958 -0.182125 0.000625849  0.0416596 -0.204225 0.000329494  0.0489564 -0.204759 0.000564575  0.0489569 -0.197445 0.000407934  0.0416563 -0.204157 0.000487089  0.041713 -0.196836 0.000355244  0.0489547 -0.197382 0.000609159  0.0417085 -0.196771 0.000534296  0.0414553 -0.219099 0.000275373  0.0488307 -0.219625 0.00047636  0.0489159 -0.212234 0.000343323  0.0414534 -0.219045 0.000415325  0.041574 -0.211642 0.000301361  0.0489082 -0.212175 0.000514746  0.0415714 -0.211584 0.00045228  0.0411253 -0.234091 0.000230789  0.0485628 -0.234607 0.00039196  0.0487051 -0.227152 0.00028944  0.0411205 -0.234046 0.000344276  0.041307 -0.226581 0.000252962  0.0487094 -0.227104 0.000433922  0.0413046 -0.226532 0.000378847  0.0406766 -0.249171 0.000185251  0.0481613 -0.249679 0.000319719  0.0483813 -0.242171 0.000232697  0.0406735 -0.249134 0.000282526  0.040916 -0.24162 0.000204563  0.0483766 -0.242133 0.000354052  0.0409081 -0.241579 0.000307798  0.0401278 -0.264317 0.00014782  0.0476527 -0.264816 0.000250578  0.0479224 -0.257266 0.00018692  0.0401258 -0.264287 0.000221491  0.0404141 -0.256734 0.0001688  0.0479202 -0.257241 0.000282288  0.0404122 -0.256704 0.000252247  0.0394986 -0.279506 0.000114679  0.0470433 -0.279997 0.000197411  0.0473642 -0.272427 0.000147343  0.0394948 -0.279478 0.000172615  0.0398257 -0.271903 0.000130892  0.0473554 -0.272403 0.000221252  0.0398192 -0.271878 0.000195503  0.0387895 -0.294703 8.53539e-05  0.046349 -0.295186 0.000140429  0.0467162 -0.287607 0.000112534  0.0387831 -0.294686 0.000129938  0.0391514 -0.287098 0.000100374  0.0467067 -0.287587 0.000166416  0.0391488 -0.28708 0.000151634  0.038017 -0.309913 6.36578e-05  0.0455835 -0.310385 0.000108004  0.0459754 -0.302802 8.63075e-05  0.0380132 -0.309897 9.25064e-05  0.0384102 -0.302309 7.41482e-05  0.0459731 -0.302783 0.000123501  0.0384066 -0.30229 0.000109673  0.0371959 -0.325107 4.02927e-05  0.0447571 -0.325569 6.65188e-05  0.0451777 -0.317991 6.00815e-05  0.0371883 -0.325092 5.91278e-05  0.0376124 -0.317508 5.07832e-05  0.0451732 -0.317979 8.60691e-05  0.0376065 -0.317497 7.53403e-05  0.036335 -0.340278 2.90871e-05  0.04389 -0.340739 4.57764e-05  0.0443323 -0.333163 3.60012e-05  0.0363309 -0.340269 4.07696e-05  0.0367708 -0.332692 3.17097e-05  0.0443311 -0.333155 5.65052e-05  0.0367641 -0.332683 5.00679e-05  0.0354526 -0.355418 1.40667e-05  0.0430009 -0.355871 2.76566e-05  0.043457 -0.348307 2.71797e-05  0.0354452 -0.355409 2.24113e-05  0.035898 -0.347848 2.00272e-05  0.0434494 -0.348306 3.43323e-05  0.0358903 -0.34784 3.14713e-05  0.0345507 -0.370523 4.76837e-06  0.0420928 -0.370972 7.86781e-06  0.0425489 -0.363429 1.21593e-05  0.0345459 -0.370513 4.29153e-06  0.0350041 -0.36297 1.19209e-05  0.0425479 -0.363423 1.64509e-05  0.0349972 -0.362964 1.4782e-05  0.0336394 -0.385604 -1.90735e-06  0.0411706 -0.386051 -1.64509e-05  0.0416448 -0.378522 2.38419e-06  0.0336332 -0.385593 -1.19209e-05  0.0340972 -0.378061 1.43051e-06  0.0416338 -0.378514 2.86102e-06  0.0340903 -0.378055 4.76837e-07  -0.00493668 -0.00573796 -0.000465631  -0.00243356 -0.0037872 -1.19209e-06  0 0 0  -0.00336141 -0.00438335 -4.52995e-06  0 0 0  -0.00235473 -0.00313248 -0.000350237  -0.00092243 -0.00146347 -1.19209e-06  0 0 0  -0.0024225 -0.00376467 -0.000257254  -0.003361 -0.00435202 -0.000411749  -0.00128405 -0.00227014 -4.29153e-06  0 0 0  -0.000921868 -0.00145248 -0.000190973  -0.00128223 -0.00225671 -0.000222921  -0.0095128 -0.00920239 -0.000763893  -0.00720128 -0.00748416 -1.43051e-06  -0.00763817 -0.00804728 -2.86102e-06  -0.00602771 -0.00690223 -0.00057888  -0.0041444 -0.00501417 -2.86102e-06  -0.00720039 -0.00743977 -0.000638962  -0.00763975 -0.00799783 -0.000676155  -0.00549343 -0.00618289 -9.53674e-07  -0.00415052 -0.00498426 -0.00048399  -0.00549379 -0.00614591 -0.000559092  -0.014217 -0.0132575 -0.00091362  -0.0118567 -0.0111735 -1.66893e-06  -0.0118964 -0.0122475 -1.43051e-06  -0.00976956 -0.0112559 -0.000694275  -0.00789738 -0.00901722 0  -0.0118548 -0.0111143 -0.000855684  -0.0119004 -0.0121933 -0.000803471  -0.00977546 -0.0100382 -2.38419e-07  -0.00790924 -0.00897235 -0.00064826  -0.00977972 -0.00998794 -0.000752211  -0.0188795 -0.0182757 -0.000951767  -0.0165601 -0.015691 -4.76837e-07  -0.0160368 -0.0173984 2.38419e-06  -0.0133794 -0.0165293 -0.000720024  -0.0115859 -0.0138183 2.38419e-06  -0.0165656 -0.0156323 -0.00094223  -0.0160456 -0.0173432 -0.000836611  -0.013987 -0.0146956 -4.76837e-07  -0.0115924 -0.0137682 -0.000712395  -0.0139913 -0.0146397 -0.000828266  -0.0233551 -0.0243227 -0.000927925  -0.02114 -0.0212235 5.24521e-06  -0.0199986 -0.0235657 -3.33786e-06  -0.0168098 -0.0228046 -0.000704765  -0.0151169 -0.0195989 -2.38419e-07  -0.0211474 -0.0211689 -0.000941992  -0.0200012 -0.0235064 -0.00081706  -0.0180436 -0.02035 -3.09944e-06  -0.0151196 -0.0195441 -0.000716925  -0.0180516 -0.0202963 -0.000834703  -0.0275732 -0.0313533 -0.000872135  -0.0254925 -0.0277645 -3.8147e-06  -0.0237328 -0.0307055 -5.24521e-06  -0.0200507 -0.0300454 -0.000658751  -0.018453 -0.026363 -4.05312e-06  -0.0254946 -0.0277162 -0.000905752  -0.0237343 -0.030646 -0.000770092  -0.0218931 -0.0270081 -1.19209e-06  -0.018455 -0.0263091 -0.000684261  -0.0218951 -0.0269574 -0.000799417  -0.0315425 -0.039305 -0.000813246  -0.0295907 -0.0352657 1.19209e-06  -0.0272554 -0.03875 1.90735e-06  -0.0231121 -0.0381895 -0.000608683  -0.0216064 -0.0340581 0  -0.0295892 -0.0352141 -0.000843048  -0.0272518 -0.0386975 -0.000710487  -0.0255244 -0.0346134 1.19209e-06  -0.0216029 -0.0340075 -0.000635862  -0.0255194 -0.0345628 -0.000740767  -0.035265 -0.0481047 -0.000751734  -0.0334315 -0.0436495 1.90735e-06  -0.0305672 -0.0476419 3.09944e-06  -0.0259969 -0.047168 -0.000555038  -0.0245809 -0.0426267 -2.38419e-06  -0.033435 -0.0436015 -0.000777006  -0.0305631 -0.0475925 -0.000650167  -0.0289348 -0.0430963 0  -0.0245754 -0.0425754 -0.000584126  -0.0289314 -0.0430456 -0.000681162  -0.0387533 -0.0576843 -0.000681877  -0.0370486 -0.0528454 4.76837e-07  -0.0336851 -0.0573187 2.6226e-06  -0.0287329 -0.056925 -0.000511408  -0.0273923 -0.0519978 2.14577e-06  -0.0370373 -0.0528024 -0.000708818  -0.033677 -0.057269 -0.000593424  -0.0321492 -0.052384 -2.38419e-07  -0.0273845 -0.051953 -0.00053525  -0.0321437 -0.0523397 -0.000623703  -0.0420282 -0.0679893 -0.000620365  -0.0404252 -0.0627918 2.38419e-06  -0.036621 -0.0676986 0  -0.0313163 -0.0673852 -0.000463009  -0.0300441 -0.0621093 -2.38419e-07  -0.0404155 -0.0627469 -0.00064826  -0.0366132 -0.0676541 -0.000540733  -0.0351733 -0.0624187 2.6226e-06  -0.0300418 -0.0620701 -0.000485182  -0.0351648 -0.062375 -0.000569105  -0.0451159 -0.0789447 -0.000562668  -0.043596 -0.0734289 -2.38419e-07  -0.0393828 -0.0787353 -3.8147e-06  -0.0337652 -0.0784973 -0.000423193  -0.0325594 -0.0729021 3.09944e-06  -0.0435984 -0.0733903 -0.00059557  -0.039378 -0.078694 -0.00049305  -0.0380207 -0.0731328 0  -0.0325572 -0.0728609 -0.000440121  -0.0380172 -0.0730936 -0.000515461  -0.0480012 -0.090504 -0.000511169  -0.046584 -0.0846904 -4.52995e-06  -0.0419934 -0.0903617 -1.66893e-06  -0.0360857 -0.0902025 -0.000386477  -0.0349472 -0.0843103 -3.09944e-06  -0.0465783 -0.0846539 -0.000533819  -0.0419884 -0.0903285 -0.00044322  -0.0407056 -0.0844741 -1.66893e-06  -0.0349394 -0.0842744 -0.000402689  -0.040701 -0.0844368 -0.000469923  -0.0507108 -0.102603 -0.000452995  -0.049384 -0.0965192 2.38419e-06  -0.0444498 -0.102535 -4.76837e-07  -0.0382936 -0.102433 -0.000341892  -0.0372159 -0.0962837 1.90735e-06  -0.0493772 -0.0964885 -0.000483036  -0.0444474 -0.102496 -0.000400543  -0.0432391 -0.0963798 2.38419e-06  -0.0372055 -0.0962524 -0.000359058  -0.0432336 -0.0963483 -0.000422001  -0.0532495 -0.115188 -0.00041151  -0.0519998 -0.108867 -2.14577e-06  -0.046769 -0.115181 1.90735e-06  -0.0403854 -0.115148 -0.000303268  -0.0393603 -0.108762 2.86102e-06  -0.0520018 -0.108838 -0.000436306  -0.0467658 -0.11515 -0.000356436  -0.0456265 -0.108795 -1.43051e-06  -0.0393534 -0.108731 -0.000317574  -0.0456228 -0.108765 -0.000383377  -0.0556303 -0.128206 -0.000365019  -0.0544615 -0.121673 2.38419e-07  -0.0489537 -0.128256 0  -0.0423626 -0.128286 -0.000271559  -0.0413907 -0.121693 0  -0.0544575 -0.121647 -0.000386715  -0.0489502 -0.128231 -0.000316143  -0.0478822 -0.121665 -1.66893e-06  -0.0413874 -0.121664 -0.000286102  -0.047874 -0.121638 -0.000338316  -0.0578635 -0.141615 -0.000326633  -0.0567677 -0.134885 1.90735e-06  -0.0510095 -0.141718 -1.19209e-06  -0.0442415 -0.141804 -0.000238657  -0.0433172 -0.135025 1.66893e-06  -0.0567642 -0.134866 -0.000338554  -0.0510061 -0.141695 -0.000281811  -0.0499984 -0.134939 1.43051e-06  -0.0433151 -0.135 -0.000254393  -0.0499935 -0.134918 -0.000299931  -0.0599451 -0.155363 -0.000276804  -0.0589254 -0.148463 2.6226e-06  -0.0529468 -0.155516 -1.43051e-06  -0.0460212 -0.15565 -0.000213146  -0.0451472 -0.148707 4.76837e-07  -0.0589209 -0.148447 -0.000300407  -0.0529423 -0.155495 -0.000242233  -0.0519943 -0.148574 -5.72205e-06  -0.0451462 -0.148687 -0.000224829  -0.0519903 -0.148555 -0.000267029  -0.0618906 -0.169396 -0.000242472  -0.0609426 -0.162364 5.00679e-06  -0.0547628 -0.169606 4.76837e-07  -0.0477059 -0.169785 -0.00018239  -0.0468774 -0.162706 2.86102e-06  -0.0609334 -0.162343 -0.000262976  -0.054759 -0.169583 -0.000211954  -0.0538683 -0.162524 9.53674e-07  -0.0468738 -0.162686 -0.000190973  -0.0538673 -0.162505 -0.000230074  -0.0637133 -0.183694 -0.000219107  -0.0628233 -0.176533 7.15256e-07  -0.0564697 -0.183944 -2.86102e-06  -0.0492995 -0.184167 -0.000157595  -0.0485141 -0.176963 4.76837e-07  -0.0628209 -0.176516 -0.000227928  -0.0564694 -0.183927 -0.000183105  -0.0556297 -0.176743 -1.66893e-06  -0.0485122 -0.176947 -0.000168085  -0.0556257 -0.176724 -0.000199318  -0.0654035 -0.198207 -0.000185013  -0.0645728 -0.190935 -2.38419e-06  -0.0580719 -0.19849 -3.09944e-06  -0.0508046 -0.198752 -0.000133753  -0.0500669 -0.191451 1.66893e-06  -0.064574 -0.190921 -0.000195503  -0.0580711 -0.198475 -0.000158548  -0.0572832 -0.191188 -1.19209e-06  -0.050065 -0.191436 -0.000144243  -0.0572834 -0.191175 -0.000170946  -0.0669792 -0.212903 -0.000152111  -0.0662091 -0.205542 -1.66893e-06  -0.0595803 -0.213224 -7.15256e-07  -0.0522332 -0.213516 -0.000104427  -0.0515265 -0.206123 2.38419e-07  -0.066206 -0.205529 -0.000166416  -0.0595758 -0.213205 -0.000130892  -0.0588367 -0.205828 -4.52995e-06  -0.0515268 -0.206117 -0.000119209  -0.058836 -0.20582 -0.000144482  -0.0684571 -0.227729 -0.000123024  -0.067729 -0.220311 -7.15256e-06  -0.0609939 -0.228086 9.53674e-07  -0.053581 -0.22841 -8.7738e-05  -0.0529141 -0.220957 1.90735e-06  -0.067733 -0.220299 -0.000136137  -0.0609903 -0.22807 -0.000106096  -0.0602994 -0.220629 -2.14577e-06  -0.0529172 -0.220946 -0.000100613  -0.0602942 -0.22062 -0.00012207  -0.0698316 -0.242686 -0.000100136  -0.069155 -0.235203 7.15256e-07  -0.062324 -0.243067 -2.38419e-07  -0.0548589 -0.24342 -7.27177e-05  -0.0542297 -0.235914 9.53674e-07  -0.069155 -0.235197 -0.000112295  -0.0623217 -0.243053 -8.79765e-05  -0.0616677 -0.235557 0  -0.0542252 -0.235902 -8.05855e-05  -0.0616655 -0.235549 -9.67979e-05  -0.0711198 -0.257722 -8.03471e-05  -0.0704865 -0.250208 -1.43051e-06  -0.0635772 -0.258122 -3.57628e-06  -0.056071 -0.258502 -5.81741e-05  -0.0554738 -0.250958 -3.33786e-06  -0.0704849 -0.250198 -8.72612e-05  -0.0635712 -0.258114 -6.8903e-05  -0.0629585 -0.25058 -7.15256e-07  -0.0554738 -0.250952 -6.58035e-05  -0.0629542 -0.250574 -7.93934e-05  -0.0723128 -0.272826 -6.05583e-05  -0.0717316 -0.265272 -3.33786e-06  -0.0647578 -0.273249 -1.66893e-06  -0.0572267 -0.273645 -4.07696e-05  -0.0566573 -0.266072 -7.15256e-07  -0.0717237 -0.265267 -6.91414e-05  -0.0647514 -0.273238 -5.22137e-05  -0.0641766 -0.265673 -1.19209e-06  -0.0566525 -0.266067 -5.14984e-05  -0.0641711 -0.265669 -6.10352e-05  -0.0734439 -0.287965 -4.22001e-05  -0.0728898 -0.280394 -3.57628e-06  -0.0658689 -0.288408 2.6226e-06  -0.0583229 -0.288819 -3.45707e-05  -0.0577815 -0.281229 4.76837e-07  -0.0728867 -0.280393 -5.79357e-05  -0.0658677 -0.288394 -3.55244e-05  -0.0653164 -0.280816 1.43051e-06  -0.0577819 -0.281225 -3.55244e-05  -0.0653164 -0.280812 -4.36306e-05  -0.074502 -0.303123 -3.50475e-05  -0.073982 -0.295551 -2.38419e-07  -0.0669279 -0.303576 -4.76837e-07  -0.059375 -0.304005 -2.02656e-05  -0.058857 -0.29641 5.24521e-06  -0.0739806 -0.295546 -3.98159e-05  -0.066925 -0.303567 -2.6226e-05  -0.0664039 -0.295986 3.57628e-06  -0.0588527 -0.296409 -2.74181e-05  -0.0664082 -0.295981 -3.0756e-05  -0.0755146 -0.318294 -1.62125e-05  -0.0750144 -0.31071 -2.6226e-06  -0.0679367 -0.318752 -1.19209e-06  -0.060385 -0.319187 -1.71661e-05  -0.0598817 -0.311604 -2.38419e-07  -0.075016 -0.310715 -2.69413e-05  -0.0679386 -0.318743 -1.66893e-05  -0.0674341 -0.311162 1.90735e-06  -0.059886 -0.311597 -1.57356e-05  -0.0674369 -0.311157 -2.59876e-05  -0.0764842 -0.333449 -1.23978e-05  -0.0760043 -0.325876 -7.15256e-07  -0.0689135 -0.333915 1.19209e-06  -0.0613596 -0.334358 -1.07288e-05  -0.0608761 -0.326775 4.76837e-07  -0.075999 -0.325875 -1.66893e-05  -0.0689108 -0.333906 -8.82149e-06  -0.0684295 -0.326332 -7.15256e-07  -0.0608764 -0.326775 -1.12057e-05  -0.0684271 -0.326327 -1.62125e-05  -0.077414 -0.348582 -2.86102e-06  -0.0769529 -0.341023 -5.00679e-06  -0.0698597 -0.349045 3.09944e-06  -0.0623081 -0.349496 -5.48363e-06  -0.0618427 -0.341928 -3.8147e-06  -0.0769517 -0.341021 -1.19209e-05  -0.0698578 -0.34904 -5.24521e-06  -0.0693867 -0.341478 1.90735e-06  -0.0618358 -0.341928 -6.67572e-06  -0.0693879 -0.341478 -7.15256e-06  -0.0783324 -0.363692 2.38419e-07  -0.0778739 -0.356143 -4.52995e-06  -0.0707858 -0.364153 -1.43051e-06  -0.0632379 -0.364605 1.66893e-06  -0.0627797 -0.357057 -1.66893e-06  -0.0778763 -0.356141 -6.19888e-06  -0.0707841 -0.364152 -4.76837e-06  -0.0703235 -0.356602 -9.53674e-07  -0.0627744 -0.35705 -2.38419e-06  -0.0703239 -0.356597 -2.86102e-06  -0.0792503 -0.378788 -9.05991e-06  -0.0787876 -0.37124 -7.15256e-06  -0.0717022 -0.379244 -4.29153e-06  -0.0641637 -0.379686 0  -0.0636997 -0.37215 -3.57628e-06  -0.0787935 -0.371239 -4.52995e-06  -0.0717006 -0.379238 1.90735e-06  -0.0712471 -0.371697 -9.53674e-07  -0.0637038 -0.372149 -4.76837e-07  -0.0712411 -0.371694 -1.66893e-06  -0.00177176 -0.0023648 -1.66893e-06  0 0 0  -0.00130054 -0.00181022 -0.000233412  -0.000504367 -0.000649706 -2.38419e-07  0 0 0  -0.00177366 -0.00234772 -0.000295401  -0.000672799 -0.000966817 7.15256e-07  0 0 0  -0.00050395 -0.000636026 -0.000123978  -0.000672892 -0.000955284 -0.000158072  -0.00466292 -0.00603268 -1.43051e-06  -0.00350842 -0.00527868 -0.000394583  -0.00232573 -0.00342421 1.43051e-06  -0.00467022 -0.00599076 -0.000487089  -0.00314048 -0.00409366 1.43051e-06  -0.00233354 -0.00339907 -0.000324965  -0.0031464 -0.00406511 -0.000403643  -0.00780427 -0.0104976 -1.66893e-06  -0.00601682 -0.00979491 -0.000466585  -0.00474861 -0.00745118 1.66893e-06  -0.00781059 -0.0104507 -0.000583887  -0.0062322 -0.00814986 1.90735e-06  -0.00475329 -0.00741644 -0.000440836  -0.00623918 -0.00810713 -0.000545263  -0.0108566 -0.0159015 -2.38419e-07  -0.00848755 -0.0152908 -0.000487566  -0.00726011 -0.0124691 2.6226e-06  -0.0108638 -0.0158461 -0.000602007  -0.00934795 -0.0130735 1.43051e-06  -0.00726435 -0.0124192 -0.000483751  -0.00935349 -0.0130235 -0.000602007  -0.0137625 -0.022286 -2.38419e-06  -0.0108435 -0.021761 -0.000474691  -0.00967968 -0.0184581 1.43051e-06  -0.013763 -0.0222248 -0.000590324  -0.0123289 -0.0189667 -1.90735e-06  -0.00968236 -0.0184068 -0.000477076  -0.0123337 -0.0189127 -0.000602245  -0.0165091 -0.0296094 -3.33786e-06  -0.0130774 -0.029164 -0.000447035  -0.0119763 -0.0253955 -4.76837e-06  -0.0165046 -0.0295526 -0.00055337  -0.015155 -0.0258224 -9.53674e-07  -0.0119714 -0.0253475 -0.000457525  -0.0151545 -0.0257723 -0.000575304  -0.0191031 -0.0378291 2.38419e-07  -0.0152041 -0.037454 -0.00041008  -0.0141581 -0.0332544 -2.38419e-07  -0.0191004 -0.0377712 -0.000510454  -0.0178224 -0.0336041 2.38419e-06  -0.014153 -0.0332037 -0.000426769  -0.0178193 -0.0335546 -0.000529051  -0.0215674 -0.0468802 2.38419e-06  -0.0172303 -0.0465771 -0.000377178  -0.0162328 -0.0419668 -1.43051e-06  -0.0215622 -0.0468274 -0.000464439  -0.0203497 -0.0422481 4.76837e-07  -0.0162311 -0.0419176 -0.000391006  -0.0203464 -0.0422003 -0.00048542  -0.0239108 -0.0566984 3.8147e-06  -0.0191758 -0.0564654 -0.000339746  -0.0182225 -0.051472 -1.43051e-06  -0.0239034 -0.0566527 -0.000422478  -0.022751 -0.0516926 3.33786e-06  -0.0182129 -0.0514278 -0.000356913  -0.0227475 -0.0516485 -0.000444412  -0.0261413 -0.0672299 -1.43051e-06  -0.0210437 -0.0670509 -0.000311136  -0.0201288 -0.061716 1.66893e-06  -0.0261348 -0.0671837 -0.000383854  -0.0250415 -0.0618744 1.90735e-06  -0.0201199 -0.061673 -0.000320673  -0.0250328 -0.0618344 -0.000402689  -0.028268 -0.0784035 9.53674e-07  -0.0228506 -0.0782855 -0.000281096  -0.0219631 -0.0726319 1.43051e-06  -0.0282596 -0.0783623 -0.000348091  -0.0272188 -0.0727342 -3.09944e-06  -0.0219544 -0.0725925 -0.000298262  -0.0272096 -0.0726934 -0.000368595  -0.0303011 -0.0901655 0  -0.0245848 -0.0901037 -0.000252247  -0.0237296 -0.0841611 3.8147e-06  -0.030295 -0.0901257 -0.000315905  -0.0292964 -0.0842074 0  -0.0237262 -0.0841262 -0.000266552  -0.0292871 -0.0841692 -0.000333071  -0.0322403 -0.102452 -9.53674e-07  -0.0262623 -0.102448 -0.000226736  -0.025437 -0.096245 2.38419e-06  -0.0322362 -0.102413 -0.000288486  -0.0312841 -0.0962371 -1.43051e-06  -0.0254294 -0.0962124 -0.000239849  -0.0312754 -0.0962065 -0.000302553  -0.0340968 -0.115219 -2.38419e-06  -0.0278733 -0.115267 -0.000200748  -0.0270773 -0.108829 4.76837e-07  -0.0340894 -0.115188 -0.000253201  -0.0331776 -0.108771 -4.76837e-07  -0.0270768 -0.108799 -0.000213861  -0.0331725 -0.108742 -0.000270128  -0.0358698 -0.128407 3.8147e-06  -0.0294373 -0.128503 -0.000180721  -0.0286652 -0.121857 -3.09944e-06  -0.0358633 -0.128378 -0.00022316  -0.0349939 -0.121755 9.53674e-07  -0.0286636 -0.121834 -0.000193357  -0.0349866 -0.121731 -0.000237226  -0.0375637 -0.141965 -2.6226e-06  -0.0309395 -0.142109 -0.000158548  -0.0302001 -0.135282 4.76837e-07  -0.0375578 -0.141939 -0.000202417  -0.0367253 -0.135135 9.53674e-07  -0.0301969 -0.135261 -0.000166178  -0.0367208 -0.135114 -0.000210285  -0.0391757 -0.155856 -1.66893e-06  -0.032388 -0.156041 -0.000139952  -0.0316741 -0.149055 -3.09944e-06  -0.0391748 -0.15583 -0.000172853  -0.0383763 -0.148864 -1.19209e-06  -0.0316706 -0.149036 -0.000149727  -0.0383739 -0.148846 -0.000188112  -0.0407259 -0.170027 2.38419e-07  -0.0337894 -0.170252 -0.000121593  -0.0330992 -0.163133 -1.43051e-06  -0.0407171 -0.170009 -0.000149965  -0.039958 -0.162904 -1.66893e-06  -0.0330954 -0.163113 -0.000126362  -0.0399556 -0.162888 -0.000163317  -0.042196 -0.184444 3.33786e-06  -0.0351374 -0.184702 -0.000103712  -0.0344703 -0.177464 0  -0.0421929 -0.184425 -0.000128508  -0.0414674 -0.177204 0  -0.0344694 -0.177449 -0.000109673  -0.0414619 -0.177188 -0.000139236  -0.0435994 -0.199067 4.05312e-06  -0.0364423 -0.199356 -8.4877e-05  -0.0357988 -0.192019 6.19888e-06  -0.0435979 -0.199047 -0.000106812  -0.0429072 -0.191728 4.76837e-07  -0.0357947 -0.192005 -9.10759e-05  -0.0429037 -0.191711 -0.000117064  -0.044946 -0.213853 1.19209e-06  -0.0376909 -0.214172 -7.22408e-05  -0.0370734 -0.206754 1.19209e-06  -0.0449407 -0.213837 -9.36985e-05  -0.0442772 -0.206432 2.14577e-06  -0.0370712 -0.20674 -7.72476e-05  -0.0442765 -0.206422 -0.000101089  -0.0462222 -0.228772 -3.57628e-06  -0.0388968 -0.229114 -6.67572e-05  -0.0383036 -0.221636 7.15256e-07  -0.0462189 -0.228759 -7.55787e-05  -0.0455902 -0.221292 -2.38419e-06  -0.0382984 -0.221625 -6.58035e-05  -0.0455878 -0.221279 -8.41618e-05  -0.047442 -0.243802 -2.14577e-06  -0.0400596 -0.244166 -4.91142e-05  -0.0394852 -0.236635 9.53674e-07  -0.0474412 -0.243787 -5.91278e-05  -0.0468416 -0.236272 -1.19209e-06  -0.0394828 -0.236629 -5.29289e-05  -0.0468361 -0.236261 -6.77109e-05  -0.048614 -0.258908 -3.09944e-06  -0.0411832 -0.259289 -4.22001e-05  -0.0406303 -0.251726 -3.8147e-06  -0.0486095 -0.258893 -4.673e-05  -0.0480354 -0.251335 2.14577e-06  -0.040627 -0.251717 -4.24385e-05  -0.0480301 -0.251334 -5.67436e-05  -0.0497351 -0.274058 3.09944e-06  -0.0422671 -0.274457 -2.47955e-05  -0.0417325 -0.266874 -2.6226e-06  -0.0497329 -0.27405 -3.29018e-05  -0.0491788 -0.266469 2.14577e-06  -0.0417278 -0.266868 -3.76701e-05  -0.0491762 -0.266467 -4.29153e-05  -0.0508096 -0.289245 1.43051e-06  -0.0433156 -0.289657 -1.71661e-05  -0.0427985 -0.282057 1.90735e-06  -0.050812 -0.289237 -2.52724e-05  -0.0502756 -0.281642 2.38419e-07  -0.042794 -0.282054 -2.3365e-05  -0.0502777 -0.281639 -3.0756e-05  -0.0518446 -0.304448 2.86102e-06  -0.0443332 -0.304869 -1.19209e-05  -0.0438306 -0.297267 -1.19209e-06  -0.0518434 -0.304438 -1.33514e-05  -0.0513301 -0.296841 2.14577e-06  -0.0438285 -0.297263 -1.38283e-05  -0.0513344 -0.296836 -1.81198e-05  -0.05285 -0.319635 2.14577e-06  -0.0453281 -0.320067 -1.33514e-05  -0.0448353 -0.31247 2.14577e-06  -0.0528486 -0.31963 -8.10623e-06  -0.05235 -0.312034 -2.38419e-07  -0.044836 -0.312468 -9.53674e-06  -0.0523505 -0.312035 -1.35899e-05  -0.0538204 -0.334806 -1.90735e-06  -0.0462949 -0.335245 -1.19209e-06  -0.0458164 -0.327662 1.19209e-06  -0.0538228 -0.334801 -8.58307e-06  -0.0533383 -0.327219 7.15256e-07  -0.0458171 -0.32766 -7.62939e-06  -0.0533392 -0.327217 -8.58307e-06  -0.0547767 -0.349951 -1.90735e-06  -0.0472407 -0.350393 -3.33786e-06  -0.0467703 -0.342827 0  -0.0547709 -0.349943 1.66893e-06  -0.0543027 -0.342379 -7.15256e-07  -0.0467703 -0.342822 -4.05312e-06  -0.0542974 -0.342375 -9.05991e-06  -0.0557046 -0.365063 3.33786e-06  -0.0481696 -0.365503 8.10623e-06  -0.0477073 -0.357956 2.6226e-06  -0.0557022 -0.365056 -1.19209e-06  -0.0552411 -0.357506 5.24521e-06  -0.0477064 -0.357951 2.38419e-06  -0.0552373 -0.3575 -1.90735e-06  -0.0566254 -0.380134 -9.53674e-07  -0.0490983 -0.380575 1.04904e-05  -0.0486317 -0.373046 1.19209e-06  -0.0566275 -0.380136 -4.29153e-06  -0.0561635 -0.372603 1.66893e-06  -0.0486348 -0.373043 4.76837e-07  -0.0561647 -0.372597 7.15256e-07  -0.000917554 -0.00147 1.66893e-06  0 0 0  -0.000577994 -0.00122941 -0.000117064  -0.000228673 -0.000324756 3.33786e-06  0 0 0  -0.000919871 -0.00145259 -0.00017786  -0.000354093 -0.000446111 -1.19209e-06  0 0 0  -0.000225257 -0.00031659 -5.81741e-05  -0.000353478 -0.000434905 -9.27448e-05  -0.00250486 -0.00479594 4.52995e-06  -0.00159571 -0.0044328 -0.000197649  -0.00104569 -0.00265974 4.29153e-06  -0.0025091 -0.00476831 -0.000298738  -0.00165197 -0.00295511 9.53674e-07  -0.00104801 -0.00263736 -0.000163794  -0.00165637 -0.00293609 -0.000243425  -0.00436211 -0.00935015 1.90735e-06  -0.00281361 -0.00897816 -0.000239849  -0.00218987 -0.00659448 -4.76837e-07  -0.00436324 -0.00930908 -0.000354767  -0.00342306 -0.00693363 -2.38419e-07  -0.00219151 -0.0065634 -0.000225306  -0.00342309 -0.00690326 -0.000333071  -0.00622553 -0.0149264 -2.6226e-06  -0.00406882 -0.0146016 -0.000246048  -0.00344202 -0.0117075 1.66893e-06  -0.00623202 -0.014877 -0.000369787  -0.0052985 -0.0120123 2.6226e-06  -0.00344333 -0.0116657 -0.000243664  -0.00530484 -0.0119666 -0.00036478  -0.00802934 -0.0214692 -1.43051e-06  -0.00529492 -0.0211987 -0.000238657  -0.00468916 -0.0178261 -9.53674e-07  -0.00802767 -0.0214194 -0.000355244  -0.00713819 -0.0180773 -7.15256e-07  -0.00468606 -0.017783 -0.00024128  -0.00713968 -0.0180275 -0.00036478  -0.00975066 -0.0289481 -9.53674e-07  -0.00649124 -0.0287257 -0.000219107  -0.00589603 -0.0248972 -4.76837e-07  -0.00974596 -0.0288888 -0.000332117  -0.00889844 -0.0250871 -9.53674e-07  -0.00589639 -0.0248488 -0.000229836  -0.00889599 -0.0250393 -0.000344038  -0.0113997 -0.0372931 2.86102e-06  -0.00766218 -0.0371227 -0.000207663  -0.00708187 -0.0328676 -9.53674e-07  -0.0113935 -0.0372401 -0.000303745  -0.0105813 -0.0330052 2.14577e-06  -0.00707948 -0.0328189 -0.000217915  -0.0105781 -0.0329577 -0.000322104  -0.0129972 -0.0464672 -2.14577e-06  -0.00881481 -0.0463463 -0.000185966  -0.00824493 -0.0416845 3.09944e-06  -0.0129895 -0.0464149 -0.000281096  -0.0122046 -0.0417777 -7.15256e-07  -0.008241 -0.0416354 -0.000192165  -0.0121999 -0.0417278 -0.000291586  -0.0145415 -0.0564029 3.09944e-06  -0.00996006 -0.0563327 -0.000166893  -0.00939691 -0.0512929 2.38419e-07  -0.0145329 -0.0563541 -0.000253201  -0.0137732 -0.0513359 3.09944e-06  -0.0093894 -0.0512466 -0.000177383  -0.0137656 -0.0512939 -0.000265121  -0.0160497 -0.0670383 3.09944e-06  -0.0110977 -0.0670125 -0.000147104  -0.0105366 -0.0616254 1.66893e-06  -0.0160424 -0.0669945 -0.000228882  -0.0153018 -0.0616351 1.66893e-06  -0.0105286 -0.0615888 -0.000157595  -0.0152915 -0.0615909 -0.00024271  -0.0175195 -0.0783232 2.14577e-06  -0.0122348 -0.0783399 -0.00014019  -0.0116709 -0.0726396 2.38419e-07  -0.0175104 -0.0782803 -0.000207901  -0.0167875 -0.0725986 -3.09944e-06  -0.0116677 -0.0725968 -0.000146151  -0.0167798 -0.0725589 -0.000217438  -0.0189531 -0.0901833 1.43051e-06  -0.0133677 -0.0902433 -0.000124931  -0.0128031 -0.0842542 -2.14577e-06  -0.0189478 -0.0901432 -0.000187397  -0.0182397 -0.0841713 -7.15256e-07  -0.0128018 -0.0842228 -0.000133276  -0.0182358 -0.0841437 -0.000199556  -0.0203602 -0.102567 0  -0.0144967 -0.10267 -0.000112057  -0.0139363 -0.096429 0  -0.0203525 -0.102534 -0.000170946  -0.0196594 -0.0963095 4.76837e-07  -0.01393 -0.0963961 -0.000118017  -0.0196532 -0.096276 -0.000179768  -0.0217308 -0.115421 -2.38419e-07  -0.0156246 -0.115565 -9.98974e-05  -0.0150694 -0.109094 2.6226e-06  -0.0217251 -0.11539 -0.000147343  -0.0210482 -0.108937 -1.66893e-06  -0.015059 -0.109063 -0.000101089  -0.0210428 -0.108906 -0.000159502  -0.0230749 -0.128699 4.76837e-07  -0.0167462 -0.128876 -8.72612e-05  -0.0161932 -0.122201 -2.14577e-06  -0.0230665 -0.128668 -0.000130177  -0.0224041 -0.122006 -9.53674e-07  -0.0161878 -0.122172 -9.32217e-05  -0.0224004 -0.12198 -0.000143766  -0.0243825 -0.142341 2.6226e-06  -0.017864 -0.142556 -8.2016e-05  -0.0173107 -0.135694 -9.53674e-07  -0.0243791 -0.142316 -0.000117064  -0.0237303 -0.135468 9.53674e-07  -0.0173041 -0.135673 -7.93934e-05  -0.0237261 -0.135448 -0.000124216  -0.0256631 -0.156305 -2.14577e-06  -0.0189726 -0.156547 -6.46114e-05  -0.018424 -0.149536 -4.76837e-06  -0.0256603 -0.15628 -0.000102282  -0.0250268 -0.149276 3.09944e-06  -0.0184176 -0.149514 -7.31945e-05  -0.0250232 -0.149257 -0.000108242  -0.0269167 -0.17054 -2.38419e-07  -0.0200701 -0.170821 -5.65052e-05  -0.0195277 -0.16367 -2.14577e-06  -0.0269129 -0.170521 -8.96454e-05  -0.026293 -0.163384 7.15256e-07  -0.0195222 -0.163652 -6.7234e-05  -0.0262916 -0.163366 -9.44138e-05  -0.0281365 -0.185018 -4.76837e-07  -0.0211604 -0.185322 -4.64916e-05  -0.0206196 -0.178061 1.90735e-06  -0.0281312 -0.185001 -7.7486e-05  -0.0275304 -0.177746 -7.15256e-07  -0.0206172 -0.178044 -5.38826e-05  -0.0275271 -0.177734 -8.10623e-05  -0.0293233 -0.199693 -4.76837e-07  -0.0222392 -0.200022 -4.17233e-05  -0.0217044 -0.192665 -2.38419e-06  -0.0293238 -0.199679 -6.36578e-05  -0.028733 -0.19233 2.38419e-06  -0.0217013 -0.192651 -4.62532e-05  -0.0287328 -0.192317 -6.86646e-05  -0.0304844 -0.214532 -2.6226e-06  -0.0232997 -0.21488 -3.8147e-05  -0.0227699 -0.207445 -1.66893e-06  -0.0304813 -0.214515 -5.53131e-05  -0.0299067 -0.207092 4.76837e-07  -0.0227692 -0.207429 -4.02927e-05  -0.0299053 -0.207076 -5.81741e-05  -0.0316114 -0.229494 -3.33786e-06  -0.0243466 -0.229866 -3.38554e-05  -0.0238273 -0.222369 -3.09944e-06  -0.0316103 -0.229482 -4.33922e-05  -0.03105 -0.221996 -2.14577e-06  -0.0238252 -0.222358 -3.24249e-05  -0.0310504 -0.221985 -5.17368e-05  -0.0327096 -0.24456 1.66893e-06  -0.025382 -0.244948 -2.31266e-05  -0.0248685 -0.237404 -7.15256e-07  -0.0327058 -0.24455 -3.38554e-05  -0.0321643 -0.237014 -1.66893e-06  -0.0248647 -0.237395 -2.24113e-05  -0.0321598 -0.237006 -3.79086e-05  -0.0337827 -0.259699 -1.90735e-06  -0.0264032 -0.260098 -1.5974e-05  -0.025893 -0.252523 9.53674e-07  -0.0337846 -0.259691 -2.7895e-05  -0.0332491 -0.252123 2.38419e-06  -0.0258951 -0.252513 -1.95503e-05  -0.0332479 -0.252109 -2.69413e-05  -0.0348291 -0.274881 2.14577e-06  -0.0274076 -0.275293 -1.64509e-05  -0.0269082 -0.267695 1.66893e-06  -0.0348296 -0.274871 -1.95503e-05  -0.0343111 -0.267283 1.66893e-06  -0.0269094 -0.267691 -1.14441e-05  -0.0343087 -0.267278 -2.19345e-05  -0.0358472 -0.29009 4.76837e-07  -0.0283911 -0.290511 -4.29153e-06  -0.0279045 -0.282902 3.09944e-06  -0.0358462 -0.290082 -1.23978e-05  -0.0353382 -0.282477 3.33786e-06  -0.0278997 -0.282903 -8.10623e-06  -0.0353415 -0.282475 -1.71661e-05  -0.0368474 -0.305304 2.86102e-06  -0.0293689 -0.305738 4.76837e-07  -0.0288849 -0.298126 3.57628e-06  -0.0368443 -0.3053 -5.24521e-06  -0.036351 -0.297691 4.76837e-06  -0.0288832 -0.298123 -3.57628e-06  -0.0363464 -0.297691 -1.14441e-05  -0.0378203 -0.320513 2.38419e-07  -0.0303273 -0.320945 -3.57628e-06  -0.0298479 -0.313346 0  -0.0378203 -0.320504 -3.8147e-06  -0.0373333 -0.312905 2.86102e-06  -0.0298483 -0.313342 -4.76837e-06  -0.0373352 -0.312906 -7.15256e-06  -0.03878 -0.335698 1.19209e-06  -0.0312715 -0.336135 2.86102e-06  -0.0307987 -0.328546 3.33786e-06  -0.0387788 -0.335692 -1.90735e-06  -0.038301 -0.328101 -4.76837e-07  -0.0308008 -0.328543 2.6226e-06  -0.0383022 -0.328102 -6.4373e-06  -0.0397193 -0.350845 2.86102e-06  -0.0322099 -0.35129 2.86102e-06  -0.0317373 -0.343719 4.52995e-06  -0.0397213 -0.350841 -9.53674e-07  -0.0392501 -0.343271 2.14577e-06  -0.0317402 -0.343713 9.53674e-07  -0.0392499 -0.343267 -7.15256e-07  -0.0406487 -0.365959 -4.76837e-07  -0.0331309 -0.3664 -1.90735e-06  -0.0326736 -0.358853 3.8147e-06  -0.0406489 -0.365952 -4.76837e-07  -0.0401859 -0.358402 -9.53674e-07  -0.0326724 -0.35885 3.09944e-06  -0.0401862 -0.358401 -4.76837e-07  -0.0415716 -0.381027 -4.05312e-06  -0.0340502 -0.381469 -2.14577e-06  -0.0335906 -0.373942 1.90735e-06  -0.0415671 -0.38102 9.53674e-07  -0.0411072 -0.373495 -9.53674e-07  -0.0335913 -0.373939 -2.38419e-07  -0.0411096 -0.37349 4.76837e-07  -0.000265382 -0.00113246 4.76837e-07  0 0 0  3.49283e-05 -0.00109407 9.53674e-07  1.69501e-05 -0.000253558 -2.6226e-06  0 0 0  -0.000268921 -0.00111327 -6.00815e-05  -0.000104588 -0.000263184 1.43051e-06  0 0 0  1.07512e-05 -0.000249237 -2.86102e-06  -0.000104114 -0.000258058 -3.09944e-05  -0.000738844 -0.00428492 3.33786e-06  9.04202e-05 -0.004233 1.90735e-06  6.38664e-05 -0.0024789 4.76837e-07  -0.000739872 -0.0042603 -9.84669e-05  -0.000482604 -0.00250182 0  6.37025e-05 -0.00246155 -2.38419e-07  -0.000483334 -0.00248423 -8.10623e-05  -0.00133216 -0.00885493 2.86102e-06  0.00011456 -0.00879994 -2.14577e-06  0.000106007 -0.00639898 -4.05312e-06  -0.00133032 -0.00881428 -0.000123024  -0.00102684 -0.00641835 -4.76837e-07  0.00010711 -0.00636622 -2.86102e-06  -0.00102621 -0.00638646 -0.00011158  -0.00197169 -0.0145188 -2.38419e-07  0.000104606 -0.0144811 -4.76837e-07  0.000111759 -0.0115529 -1.19209e-06  -0.00196958 -0.0144694 -0.000124693  -0.00164804 -0.0115522 1.90735e-06  0.000113547 -0.0115129 -7.15256e-06  -0.0016467 -0.0115125 -0.00012517  -0.00262386 -0.0211592 -2.38419e-07  2.21729e-05 -0.0211493 0  6.32405e-05 -0.017741 2.14577e-06  -0.00262195 -0.0211115 -0.000118971  -0.00229466 -0.0177169 9.53674e-07  7.21812e-05 -0.0176965 -4.29153e-06  -0.00229537 -0.0176728 -0.000122547  -0.0032891 -0.0287265 4.76837e-07  -0.000116765 -0.0287372 -1.43051e-06  -4.20213e-05 -0.0248786 -2.38419e-07  -0.00328875 -0.0286748 -0.000111818  -0.00295311 -0.0248305 7.15256e-07  -3.96371e-05 -0.0248298 -3.33786e-06  -0.00295317 -0.0247789 -0.00011611  -0.00397992 -0.0371618 -1.66893e-06  -0.000319481 -0.0372056 -4.76837e-06  -0.000211775 -0.0329095 7.15256e-07  -0.00397587 -0.0371124 -0.000104904  -0.00363237 -0.0328327 3.33786e-06  -0.00020957 -0.0328634 -4.76837e-06  -0.00362873 -0.032787 -0.000105858  -0.00469273 -0.046422 9.53674e-07  -0.000589192 -0.0464904 -1.66893e-06  -0.000447869 -0.0417956 -9.53674e-07  -0.00468695 -0.0463713 -8.9407e-05  -0.00433373 -0.0416888 1.19209e-06  -0.000447989 -0.041747 7.15256e-07  -0.00432831 -0.0416422 -9.9659e-05  -0.00543284 -0.0564378 4.76837e-07  -0.000922799 -0.0565378 3.33786e-06  -0.00074935 -0.0514635 1.66893e-06  -0.00542927 -0.0563918 -8.15392e-05  -0.00505984 -0.0513353 2.14577e-06  -0.000747561 -0.0514209 2.38419e-06  -0.00505328 -0.0512877 -8.60691e-05  -0.00620568 -0.0671536 -1.66893e-06  -0.00132644 -0.0672783 4.05312e-06  -0.00111806 -0.0618615 3.09944e-06  -0.00620019 -0.0671064 -7.55787e-05  -0.00581634 -0.0616999 -7.15256e-07  -0.00112247 -0.0618249 5.24521e-06  -0.0058111 -0.0616662 -7.9155e-05  -0.00700116 -0.0785092 -7.15256e-06  -0.00178719 -0.0786664 7.15256e-07  -0.00155127 -0.0729359 -2.38419e-06  -0.00699997 -0.0784672 -7.05719e-05  -0.00659871 -0.0727483 7.15256e-07  -0.00154984 -0.0728994 2.6226e-06  -0.00659585 -0.0727112 -7.22408e-05  -0.00783074 -0.0904431 -3.57628e-06  -0.00231051 -0.0906339 6.91414e-06  -0.00204587 -0.0846177 -1.19209e-06  -0.00782657 -0.0904049 -6.17504e-05  -0.00741434 -0.0844015 -6.19888e-06  -0.00204158 -0.0845807 2.38419e-07  -0.00740981 -0.0843681 -6.98566e-05  -0.00868523 -0.102901 1.90735e-06  -0.0028913 -0.103117 4.29153e-06  -0.00259614 -0.0968471 0  -0.00867987 -0.102865 -4.93526e-05  -0.00825405 -0.0966083 -4.76837e-07  -0.00259316 -0.096813 2.14577e-06  -0.0082494 -0.0965744 -5.67436e-05  -0.00956559 -0.115828 -1.43051e-06  -0.00351548 -0.11607 5.00679e-06  -0.0031991 -0.109566 -2.38419e-06  -0.00956237 -0.115792 -4.79221e-05  -0.00912356 -0.1093 -2.38419e-06  -0.00319517 -0.109541 1.19209e-06  -0.00911891 -0.109273 -4.79221e-05  -0.0104655 -0.129161 7.15256e-07  -0.00419724 -0.129431 9.77516e-06  -0.00385463 -0.122728 -2.38419e-06  -0.0104594 -0.129134 -4.05312e-05  -0.0100121 -0.12244 -1.66893e-06  -0.00384867 -0.122704 1.90735e-06  -0.010007 -0.122413 -4.1008e-05  -0.0113832 -0.142862 -4.76837e-07  -0.00491285 -0.143156 7.62939e-06  -0.00454879 -0.136279 -3.33786e-06  -0.0113764 -0.142835 -3.74317e-05  -0.0109216 -0.135966 0  -0.00454724 -0.136253 7.39098e-06  -0.0109159 -0.13594 -3.8147e-05  -0.0123129 -0.156881 -1.19209e-06  -0.00567174 -0.157199 5.48363e-06  -0.00528383 -0.150163 1.66893e-06  -0.0123134 -0.156856 -3.29018e-05  -0.0118473 -0.149832 2.6226e-06  -0.00528669 -0.150141 7.62939e-06  -0.0118444 -0.149806 -3.09944e-05  -0.0132604 -0.171169 -2.6226e-06  -0.00645852 -0.171512 2.86102e-06  -0.00606322 -0.16434 -3.33786e-06  -0.0132565 -0.171151 -2.5034e-05  -0.0127873 -0.163987 0  -0.00606132 -0.164321 4.52995e-06  -0.0127831 -0.163968 -2.95639e-05  -0.0142167 -0.185691 4.52995e-06  -0.00727749 -0.186052 5.00679e-06  -0.00686598 -0.178769 -4.52995e-06  -0.0142131 -0.185673 -1.85966e-05  -0.0137367 -0.178402 3.33786e-06  -0.00686693 -0.178755 5.24521e-06  -0.0137317 -0.178386 -2.40803e-05  -0.0151763 -0.200408 -7.15256e-07  -0.00812364 -0.200782 1.90735e-06  -0.0076983 -0.193407 4.76837e-06  -0.0151725 -0.200389 -1.43051e-05  -0.0146914 -0.193022 -2.38419e-07  -0.00769877 -0.193395 5.24521e-06  -0.0146952 -0.193009 -2.16961e-05  -0.0161452 -0.215284 -4.52995e-06  -0.00899196 -0.215668 3.33786e-06  -0.00856042 -0.208219 -1.19209e-06  -0.0161366 -0.215263 -1.4782e-05  -0.0156589 -0.20782 2.86102e-06  -0.00855589 -0.208209 2.14577e-06  -0.0156555 -0.207809 -1.74046e-05  -0.0171082 -0.230275 -1.66893e-06  -0.00987482 -0.230676 -7.15256e-07  -0.00943422 -0.223168 2.14577e-06  -0.0171058 -0.230261 -1.21593e-05  -0.0166259 -0.222758 -4.76837e-07  -0.00943208 -0.223157 4.76837e-06  -0.0166211 -0.222749 -1.71661e-05  -0.018074 -0.245368 -4.76837e-07  -0.0107725 -0.245776 2.6226e-06  -0.0103216 -0.238226 -3.8147e-06  -0.0180719 -0.245357 -8.58307e-06  -0.0175889 -0.237806 -2.6226e-06  -0.0103214 -0.238216 2.38419e-06  -0.01759 -0.237797 -1.12057e-05  -0.0190365 -0.260524 -2.38419e-07  -0.0116796 -0.260945 5.00679e-06  -0.0112219 -0.25336 -1.66893e-06  -0.0190375 -0.260516 -7.15256e-06  -0.0185537 -0.252932 2.86102e-06  -0.0112255 -0.253355 3.8147e-06  -0.0185556 -0.252928 -6.91414e-06  -0.0199988 -0.275732 0  -0.0125904 -0.276156 1.66893e-06  -0.0121374 -0.268553 -7.15256e-07  -0.0199959 -0.27572 4.76837e-07  -0.0195212 -0.268118 -1.19209e-06  -0.0121336 -0.268548 3.8147e-06  -0.0195169 -0.268112 -5.72205e-06  -0.0209537 -0.290953 2.6226e-06  -0.0135083 -0.291388 -3.33786e-06  -0.0130496 -0.283775 -2.38419e-07  -0.0209482 -0.290945 -1.43051e-06  -0.0204751 -0.283333 1.43051e-06  -0.0130498 -0.283772 1.66893e-06  -0.0204732 -0.283333 -2.6226e-06  -0.0218964 -0.306181 7.15256e-07  -0.0144336 -0.30662 1.43051e-06  -0.0139749 -0.299008 5.48363e-06  -0.0218978 -0.306174 -4.76837e-06  -0.0214236 -0.298563 9.53674e-07  -0.0139713 -0.299004 2.38419e-06  -0.0214229 -0.298561 -2.38419e-07  -0.022841 -0.321397 9.53674e-07  -0.0153563 -0.321841 5.96046e-06  -0.0148928 -0.314234 3.09944e-06  -0.0228391 -0.321392 -2.86102e-06  -0.0223689 -0.313791 2.38419e-06  -0.0148952 -0.314233 -7.15256e-07  -0.0223694 -0.313783 -2.14577e-06  -0.0237706 -0.336588 2.86102e-06  -0.0162778 -0.337033 1.19209e-06  -0.0158155 -0.329442 0  -0.0237722 -0.336583 0  -0.0233076 -0.328992 1.19209e-06  -0.015816 -0.329437 5.00679e-06  -0.0233059 -0.328989 9.53674e-07  -0.0247021 -0.351743 2.14577e-06  -0.017195 -0.352188 -2.38419e-07  -0.0167372 -0.344615 4.76837e-07  -0.0247002 -0.351739 3.09944e-06  -0.0242386 -0.344164 4.05312e-06  -0.0167356 -0.344613 7.15256e-07  -0.0242345 -0.344163 2.38419e-06  -0.025615 -0.366858 1.90735e-06  -0.0181048 -0.367308 2.14577e-06  -0.0176518 -0.359754 -2.38419e-07  -0.0256193 -0.366853 3.57628e-06  -0.0251591 -0.359302 1.43051e-06  -0.0176511 -0.359755 9.53674e-07  -0.0251617 -0.359302 4.52995e-06  -0.0265307 -0.381914 -4.76837e-07  -0.0190144 -0.382367 -3.57628e-06  -0.0185585 -0.37484 2.14577e-06  -0.0265322 -0.381918 7.86781e-06  -0.0260713 -0.374392 4.76837e-07  -0.0185602 -0.374843 3.09944e-06  -0.0260763 -0.374389 1.90735e-06  0.000337511 -0.0011875 1.19209e-06  0 0 0  0.000651389 -0.00133866 0.000121832  0.000252977 -0.000380218 1.19209e-06  0 0 0  0.000339627 -0.00116915 5.72205e-05  0.000129856 -0.000290513 -2.14577e-06  0 0 0  0.00025256 -0.000374794 6.62804e-05  0.000131682 -0.000286281 3.00407e-05  0.000914097 -0.004381 -7.15256e-07  0.00176725 -0.00462461 0.000198841  0.00117102 -0.0028078 -3.57628e-06  0.000915498 -0.00435257 9.58443e-05  0.000605613 -0.00257611 -1.66893e-06  0.00117148 -0.00278926 0.000161409  0.000608325 -0.00256151 8.2016e-05  0.00155723 -0.00898188 9.53674e-07  0.00303644 -0.00924295 0.000231504  0.00239205 -0.00681931 -2.6226e-06  0.00156316 -0.0089429 0.000115156  0.00123525 -0.00652987 -1.19209e-06  0.00239658 -0.00678861 0.000216246  0.00123921 -0.00649905 0.000109434  0.00215781 -0.0146812 -7.15256e-07  0.00425065 -0.0149351 0.000237703  0.00364873 -0.0120006 7.15256e-07  0.00216091 -0.0146362 0.000119448  0.00186962 -0.0117017 -1.66893e-06  0.00365895 -0.011961 0.000241041  0.00187144 -0.0116642 0.000115871  0.00265586 -0.0213654 1.90735e-06  0.00531781 -0.0216051 0.000237226  0.0047965 -0.0181971 3.57628e-06  0.00265962 -0.0213137 0.000110388  0.00242144 -0.0179036 -2.38419e-07  0.00480479 -0.0181482 0.000237703  0.00242394 -0.0178555 0.000117302  0.00304812 -0.0289654 1.66893e-06  0.00623125 -0.0292115 0.00021863  0.00579137 -0.0253401 2.86102e-06  0.00304908 -0.028918 0.00010848  0.00286758 -0.0250491 1.19209e-06  0.00579375 -0.0252937 0.000225067  0.00286674 -0.0250003 0.000111103  0.00332594 -0.03745 -2.14577e-06  0.00699186 -0.0376955 0.000206232  0.00662875 -0.0333902 1.43051e-06  0.00332749 -0.0373985 0.000102282  0.00320172 -0.0330965 2.38419e-06  0.00663161 -0.0333445 0.000212193  0.00320399 -0.0330504 0.000105619  0.00349545 -0.0467482 -2.38419e-06  0.0076071 -0.0470098 0.000183344  0.0073176 -0.0422999 -2.6226e-06  0.00350189 -0.0467022 9.2268e-05  0.00342649 -0.0419971 2.38419e-07  0.00731778 -0.0422532 0.000197411  0.00342846 -0.0419509 9.77516e-05  0.00356519 -0.0568132 4.76837e-07  0.00807548 -0.057089 0.00016427  0.00786018 -0.0519999 -2.86102e-06  0.00356865 -0.0567682 8.9407e-05  0.00354528 -0.0516868 1.19209e-06  0.0078572 -0.0519564 0.00017786  0.00354707 -0.0516447 9.08375e-05  0.0035336 -0.0675773 3.57628e-06  0.0084132 -0.067871 0.000156879  0.00825703 -0.0624335 -9.53674e-07  0.0035373 -0.0675353 8.29697e-05  0.00356221 -0.0621061 0  0.00826025 -0.062392 0.000164747  0.00356638 -0.0620672 8.2016e-05  0.00341284 -0.0789849 3.8147e-06  0.0086236 -0.0792911 0.000143766  0.00853288 -0.0735381 2.86102e-06  0.00341392 -0.0789431 7.4625e-05  0.00348663 -0.0732007 0  0.0085336 -0.0735022 0.000154734  0.00348532 -0.0731619 7.60555e-05  0.00319457 -0.0909686 -2.38419e-07  0.00871766 -0.0912866 0.000134706  0.00868428 -0.0852562 -3.09944e-06  0.00319672 -0.0909271 6.77109e-05  0.00331342 -0.0849025 -2.38419e-07  0.00869024 -0.0852188 0.00013566  0.00331712 -0.0848634 6.81877e-05  0.002895 -0.103469 -2.38419e-06  0.0086962 -0.103807 0.000121832  0.00872147 -0.0975174 1.66893e-06  0.00289679 -0.103432 6.31809e-05  0.00305617 -0.0971508 1.90735e-06  0.00872064 -0.0974846 0.000124693  0.00305784 -0.0971155 7.03335e-05  0.00251591 -0.116436 1.90735e-06  0.0085665 -0.116789 0.000106096  0.00864089 -0.110273 2.14577e-06  0.00251961 -0.116401 5.72205e-05  0.00271654 -0.109894 -1.90735e-06  0.00864482 -0.110242 0.000115871  0.00271666 -0.109862 6.10352e-05  0.00206292 -0.129814 1.19209e-06  0.00833464 -0.130183 9.82285e-05  0.00845921 -0.123463 -7.15256e-07  0.00206804 -0.129781 5.24521e-05  0.00229871 -0.123072 2.6226e-06  0.00846064 -0.123435 0.000105143  0.00230062 -0.123042 5.24521e-05  0.00154495 -0.143549 0  0.00801587 -0.143935 9.13143e-05  0.00818443 -0.137037 7.15256e-07  0.00155163 -0.143524 4.52995e-05  0.00181377 -0.136637 -2.6226e-06  0.00818717 -0.137015 9.15527e-05  0.00181711 -0.13661 4.74453e-05  0.000970602 -0.157601 -2.38419e-07  0.00761414 -0.157998 6.74725e-05  0.00783038 -0.150951 2.38419e-06  0.000967503 -0.157581 4.31538e-05  0.00126219 -0.150534 4.76837e-07  0.00782681 -0.150931 8.34465e-05  0.00126839 -0.150515 4.55379e-05  0.000332832 -0.171929 0  0.00713015 -0.172333 7.15256e-05  0.00738025 -0.165153 7.15256e-07  0.000334978 -0.171906 3.57628e-05  0.000659943 -0.164729 2.38419e-07  0.00738144 -0.165135 7.1764e-05  0.000658512 -0.164711 3.50475e-05  -0.000353575 -0.186476 -2.86102e-06  0.00658464 -0.186893 5.6982e-05  0.00686479 -0.179601 -2.6226e-06  -0.00034976 -0.186457 3.31402e-05  -3.33786e-06 -0.179168 -2.14577e-06  0.00686836 -0.179586 6.41346e-05  -3.57628e-06 -0.179154 3.43323e-05  -0.00108099 -0.201219 3.57628e-06  0.0059731 -0.201643 5.03063e-05  0.00628519 -0.194261 4.76837e-07  -0.00108194 -0.201198 2.90871e-05  -0.000708342 -0.193819 -1.19209e-06  0.00628734 -0.194246 5.34058e-05  -0.000708818 -0.193807 2.7895e-05  -0.0018518 -0.216109 3.09944e-06  0.00530171 -0.21654 4.3869e-05  0.00564337 -0.209086 3.09944e-06  -0.00185037 -0.216092 2.5034e-05  -0.0014627 -0.208643 3.33786e-06  0.0056448 -0.209074 5.05447e-05  -0.00145936 -0.208628 2.38419e-05  -0.00264573 -0.231127 -2.38419e-07  0.0045886 -0.231562 3.74317e-05  0.004951 -0.224048 -1.43051e-06  -0.00264597 -0.23111 1.5974e-05  -0.00224257 -0.223597 3.09944e-06  0.00495052 -0.224038 3.74317e-05  -0.00224352 -0.223587 2.55108e-05  -0.003474 -0.246229 2.38419e-07  0.00382686 -0.246674 2.45571e-05  0.00421333 -0.239115 3.33786e-06  -0.00347352 -0.246215 1.66893e-05  -0.00305843 -0.23866 2.14577e-06  0.00421381 -0.239106 3.19481e-05  -0.00305653 -0.238653 1.95503e-05  -0.00432515 -0.261395 -2.38419e-06  0.00303555 -0.261846 2.43187e-05  0.00343227 -0.254262 2.6226e-06  -0.00432396 -0.26139 1.43051e-05  -0.00389504 -0.253805 -3.09944e-06  0.00343513 -0.25425 2.6226e-05  -0.003896 -0.253795 1.16825e-05  -0.00519037 -0.276614 2.38419e-06  0.00221062 -0.277065 2.02656e-05  0.00262785 -0.269461 -7.15256e-07  -0.00519228 -0.276609 1.04904e-05  -0.00475287 -0.269 2.14577e-06  0.00262761 -0.269453 2.19345e-05  -0.0047555 -0.268995 1.07288e-05  -0.006078 -0.291854 3.57628e-06  0.00136495 -0.292301 1.62125e-05  0.00178957 -0.284686 5.48363e-06  -0.00607443 -0.291839 1.07288e-05  -0.00563478 -0.284226 9.53674e-07  0.001791 -0.284677 1.81198e-05  -0.00563169 -0.284218 1.07288e-05  -0.00697112 -0.307076 2.38419e-06  0.000496387 -0.307534 1.14441e-05  0.00093174 -0.299922 3.33786e-06  -0.00696898 -0.307073 3.57628e-06  -0.00652242 -0.299462 3.33786e-06  0.000930548 -0.299915 1.62125e-05  -0.00652003 -0.299456 1.0252e-05  -0.0078721 -0.322303 0  -0.000387669 -0.322751 5.96046e-06  5.8651e-05 -0.315149 -3.33786e-06  -0.0078733 -0.322293 1.43051e-06  -0.00742197 -0.314691 -2.38419e-06  5.62668e-05 -0.315145 8.82149e-06  -0.00742173 -0.314687 5.48363e-06  -0.00878 -0.337489 -9.53674e-07  -0.00128102 -0.337944 -2.14577e-06  -0.00083065 -0.33035 9.53674e-07  -0.00878048 -0.337485 3.57628e-06  -0.00832272 -0.329893 2.6226e-06  -0.000830889 -0.330352 5.24521e-06  -0.00832534 -0.329891 3.57628e-06  -0.00968719 -0.352652 1.43051e-06  -0.00218058 -0.353102 2.86102e-06  -0.00173092 -0.345526 9.53674e-07  -0.00968838 -0.352644 2.6226e-06  -0.00923419 -0.34507 2.38419e-07  -0.0017283 -0.345528 3.33786e-06  -0.00923562 -0.34507 2.6226e-06  -0.0105984 -0.367766 -2.14577e-06  -0.00308347 -0.368216 4.52995e-06  -0.00263262 -0.360665 -3.33786e-06  -0.0105989 -0.367762 9.53674e-07  -0.010143 -0.360207 -3.57628e-06  -0.00263262 -0.360663 -1.19209e-06  -0.010144 -0.360207 -4.76837e-07  -0.0115018 -0.382823 -1.66893e-06  -0.00398636 -0.383282 -4.76837e-07  -0.00353813 -0.375756 1.66893e-06  -0.0115035 -0.382823 2.38419e-07  -0.0110488 -0.375299 4.76837e-07  -0.00353861 -0.375752 9.53674e-07  -0.0110524 -0.375295 4.76837e-07  0.000992328 -0.00162888 4.52995e-06  0 0 0  0.00137255 -0.00201952 0.000232458  0.000526741 -0.000767231 -1.19209e-06  0 0 0  0.000991419 -0.00161242 0.000180483  0.000381157 -0.000530481 0  0 0 0  0.000529274 -0.000757456 0.00012517  0.000379786 -0.000526786 9.5129e-05  0.00266871 -0.00508034 1.90735e-06  0.00366527 -0.0056445 0.000383854  0.00244851 -0.00371975 1.90735e-06  0.00267553 -0.00504631 0.000295877  0.00177254 -0.00318074 -9.53674e-07  0.0024502 -0.00369513 0.000321865  0.00177731 -0.00315946 0.000242233  0.0045678 -0.00973672 1.43051e-06  0.00620258 -0.0103039 0.000457048  0.00492752 -0.00788873 2.14577e-06  0.00457352 -0.00969422 0.000346422  0.00361317 -0.00727212 -1.19209e-06  0.00493559 -0.00785285 0.000433207  0.00362182 -0.00723696 0.000323534  0.00638258 -0.0154183 1.43051e-06  0.00861406 -0.0159401 0.000475883  0.00742179 -0.0130414 2.14577e-06  0.00639123 -0.0153702 0.000360012  0.00549564 -0.0124509 2.38419e-07  0.00743395 -0.0129968 0.000473499  0.00550103 -0.0124052 0.000356674  0.00801492 -0.022076 3.33786e-06  0.0107939 -0.0225589 0.000466347  0.0097239 -0.0191738 2.86102e-06  0.00802541 -0.0220233 0.000347853  0.00722575 -0.0186219 -1.19209e-06  0.00973535 -0.0191265 0.000470638  0.00723279 -0.0185728 0.000357866  0.00945115 -0.0296664 2.6226e-06  0.0127299 -0.0301294 0.000436068  0.0117883 -0.0262768 4.76837e-07  0.009453 -0.029617 0.000324488  0.00875992 -0.0257503 4.05312e-06  0.0117958 -0.0262284 0.000445604  0.00876284 -0.0257034 0.000338078  0.0106855 -0.0381478 2.38419e-07  0.0144433 -0.0385977 0.000402689  0.0136136 -0.0343067 -1.43051e-06  0.0106878 -0.0380945 0.000304937  0.0100907 -0.033794 3.33786e-06  0.0136129 -0.0342581 0.000419378  0.0100924 -0.0337492 0.000313997  0.0117334 -0.0474609 4.29153e-06  0.0159233 -0.0479077 0.000372171  0.015213 -0.0431985 2.38419e-07  0.011737 -0.0474139 0.00028491  0.0112321 -0.0427023 9.53674e-07  0.0152097 -0.043152 0.000389814  0.0112358 -0.0426533 0.000290394  0.0126107 -0.0575396 4.76837e-07  0.0171956 -0.0579847 0.000342369  0.0165814 -0.0528992 -2.38419e-07  0.0126106 -0.0574925 0.000262022  0.0121922 -0.0524024 -1.43051e-06  0.0165846 -0.0528538 0.000354767  0.0121971 -0.0523593 0.000268936  0.0133145 -0.0683252 -1.43051e-06  0.0182685 -0.068773 0.000311375  0.0177517 -0.0633377 -4.52995e-06  0.0133166 -0.0682828 0.000236511  0.0129862 -0.0628436 -9.53674e-07  0.0177592 -0.063296 0.000326872  0.0129852 -0.0628024 0.000242949  0.0138633 -0.0797521 2.38419e-06  0.0191448 -0.0802029 0.000286341  0.0187299 -0.0744479 -1.43051e-06  0.0138625 -0.0797088 0.000219822  0.0136085 -0.0739579 4.76837e-07  0.0187289 -0.0744122 0.0002985  0.0136099 -0.073921 0.000226259  0.0142581 -0.0917538 0  0.0198479 -0.0922099 0.000260115  0.0195171 -0.0861693 -3.8147e-06  0.0142615 -0.0917168 0.000193834  0.014081 -0.0856782 -1.19209e-06  0.0195178 -0.0861394 0.000270128  0.0140811 -0.0856436 0.00020504  0.0145116 -0.104276 -3.57628e-06  0.0203742 -0.104737 0.000235558  0.0201266 -0.098446 3.57628e-06  0.0145125 -0.104242 0.000175953  0.0143999 -0.0979489 9.53674e-07  0.0201317 -0.0984142 0.000247478  0.0144031 -0.0979159 0.000183821  0.0146323 -0.117269 -4.76837e-07  0.0207394 -0.117731 0.000211  0.0205773 -0.111205 1.66893e-06  0.0146337 -0.117233 0.000161886  0.0145904 -0.110708 2.38419e-07  0.020574 -0.111178 0.000222921  0.014591 -0.110681 0.000170708  0.0146247 -0.13066 -7.15256e-07  0.020956 -0.131132 0.00019598  0.0208704 -0.124408 -9.53674e-07  0.0146294 -0.13063 0.000144005  0.0146455 -0.123908 9.53674e-07  0.0208676 -0.124381 0.000202417  0.0146449 -0.123882 0.000150442  0.0145099 -0.144417 3.33786e-06  0.0210311 -0.144891 0.000167608  0.0210069 -0.137994 2.14577e-06  0.0145078 -0.144394 0.000127316  0.0145818 -0.137491 2.86102e-06  0.0210117 -0.137968 0.000182629  0.0145831 -0.137469 0.000136375  0.0142777 -0.158482 1.19209e-06  0.0209751 -0.158962 0.000146151  0.0210159 -0.151907 1.19209e-06  0.0142772 -0.158459 0.00011158  0.0144062 -0.15141 2.14577e-06  0.0210202 -0.15189 0.000157118  0.0144031 -0.151387 0.000120163  0.0139513 -0.172817 4.29153e-06  0.0208023 -0.173297 0.00013113  0.0209014 -0.166118 -4.76837e-07  0.013953 -0.172795 9.98974e-05  0.0141244 -0.165618 -2.38419e-06  0.0209041 -0.166095 0.000142097  0.0141299 -0.165597 0.000101805  0.0135374 -0.187379 7.15256e-07  0.0205147 -0.187861 0.000113487  0.0206714 -0.180569 -2.38419e-06  0.0135362 -0.187363 8.70228e-05  0.0137568 -0.180068 -2.38419e-07  0.0206745 -0.180551 0.000123262  0.0137553 -0.18005 9.20296e-05  0.0130382 -0.20213 -9.53674e-07  0.0201306 -0.202609 9.65595e-05  0.0203414 -0.195226 -4.05312e-06  0.0130408 -0.202115 6.93798e-05  0.013299 -0.19473 -2.14577e-06  0.0203359 -0.195212 0.000104189  0.0132999 -0.194717 8.03471e-05  0.0124712 -0.217026 -1.43051e-06  0.0196567 -0.217504 8.03471e-05  0.0199075 -0.210051 -4.76837e-07  0.0124695 -0.217012 5.91278e-05  0.0127649 -0.209557 1.90735e-06  0.0199058 -0.210041 8.96454e-05  0.0127628 -0.209545 6.91414e-05  0.011832 -0.232049 -9.53674e-07  0.0191052 -0.232523 6.74725e-05  0.0193915 -0.225009 -1.66893e-06  0.0118334 -0.232034 5.22137e-05  0.0121601 -0.224519 2.38419e-07  0.0193913 -0.225 7.08103e-05  0.0121591 -0.224509 5.50747e-05  0.0111451 -0.247159 2.86102e-06  0.0184815 -0.247633 5.67436e-05  0.0188036 -0.240077 7.15256e-07  0.0111446 -0.247143 4.52995e-05  0.0114963 -0.239585 -2.38419e-07  0.0188 -0.240067 6.17504e-05  0.0114949 -0.239578 4.79221e-05  0.0104032 -0.262334 1.66893e-06  0.0177984 -0.262805 4.60148e-05  0.0181441 -0.255216 -1.43051e-06  0.0104086 -0.262319 3.19481e-05  0.0107801 -0.254732 -2.14577e-06  0.0181472 -0.255212 4.72069e-05  0.0107808 -0.254725 3.91006e-05  0.00962543 -0.277542 3.8147e-06  0.0170569 -0.278012 3.79086e-05  0.0174332 -0.27041 7.15256e-07  0.00962687 -0.277535 2.88486e-05  0.0100234 -0.269928 -4.76837e-07  0.0174351 -0.270405 3.69549e-05  0.0100219 -0.269924 2.98023e-05  0.00881338 -0.292774 2.38419e-07  0.0162742 -0.293244 3.3617e-05  0.0166659 -0.285633 1.19209e-06  0.00881386 -0.292768 2.14577e-05  0.0092268 -0.285154 1.19209e-06  0.0166707 -0.285627 3.14713e-05  0.00922203 -0.285148 2.57492e-05  0.007972 -0.308007 9.53674e-07  0.0154562 -0.308474 1.88351e-05  0.0158703 -0.300862 3.09944e-06  0.00796962 -0.308 1.62125e-05  0.00839424 -0.300388 4.29153e-06  0.0158677 -0.300856 2.81334e-05  0.008394 -0.30038 2.0504e-05  0.00710511 -0.323225 -7.15256e-07  0.0146077 -0.32368 1.71661e-05  0.0150342 -0.316081 -1.90735e-06  0.00710249 -0.323216 7.62939e-06  0.00753856 -0.315613 -1.19209e-06  0.0150366 -0.316076 1.4782e-05  0.00754023 -0.315605 1.28746e-05  0.00622034 -0.338412 2.38419e-06  0.0137336 -0.338873 1.0252e-05  0.0141716 -0.331285 1.90735e-06  0.00622082 -0.338409 6.91414e-06  0.00666165 -0.330814 -2.38419e-07  0.0141723 -0.331279 1.07288e-05  0.0066669 -0.330813 6.67572e-06  0.00532818 -0.353569 -2.38419e-06  0.012846 -0.354021 1.43051e-06  0.0132935 -0.346453 3.09944e-06  0.00532818 -0.353563 4.76837e-07  0.00577807 -0.345992 9.53674e-07  0.0132911 -0.346451 7.15256e-06  0.00577569 -0.345987 6.67572e-06  0.00442886 -0.368684 5.48363e-06  0.011951 -0.369135 3.8147e-06  0.0124018 -0.361589 9.53674e-07  0.00442815 -0.368673 0  0.00487852 -0.361125 -2.38419e-07  0.0123968 -0.361584 7.15256e-07  0.00487876 -0.361121 2.86102e-06  0.00353003 -0.38375 9.53674e-07  0.0110502 -0.384207 1.90735e-06  0.0115023 -0.376677 1.90735e-06  0.00352716 -0.383739 -3.09944e-06  0.00398207 -0.376216 3.8147e-06  0.0115027 -0.376679 -4.29153e-06  0.00397444 -0.376213 3.33786e-06  0.00183976 -0.00263095 1.90735e-06  0 0 0  0.00241657 -0.0034458 0.000341654  0.000940114 -0.00164807 9.53674e-07  0 0 0  0.0018428 -0.00261104 0.000286579  0.000696689 -0.00111669 1.66893e-06  0 0 0  0.000938021 -0.00163978 0.000183105  0.000696227 -0.00110722 0.000152826  0.00480393 -0.00647444 4.05312e-06  0.00613379 -0.00741124 0.000568628  0.00423563 -0.00542468 -2.38419e-07  0.00481087 -0.00643611 0.000476837  0.00325032 -0.00445062 -1.90735e-06  0.00424182 -0.00539297 0.000466108  0.00325675 -0.0044257 0.000392437  0.00794831 -0.0111122 3.33786e-06  0.00986341 -0.0119634 0.000673771  0.00801188 -0.00961977 2.86102e-06  0.00795791 -0.0110627 0.000567436  0.00638542 -0.008672 1.43051e-06  0.00801659 -0.00957847 0.000631094  0.00639403 -0.00863677 0.000531673  0.0109239 -0.0166911 2.86102e-06  0.0133784 -0.0174633 0.000708342  0.0116442 -0.0146363 3.8147e-06  0.0109368 -0.0166392 0.000588894  0.00946569 -0.013773 4.76837e-07  0.0116529 -0.014586 0.00069356  0.0094755 -0.0137281 0.000586033  0.0136455 -0.0232627 2.14577e-06  0.016616 -0.0239804 0.000679731  0.0150266 -0.0206436 -2.38419e-07  0.0136505 -0.0232131 0.000575781  0.012316 -0.019847 1.43051e-06  0.0150337 -0.0205945 0.000694513  0.0123271 -0.0198022 0.000584841  0.0160898 -0.0308051 2.86102e-06  0.0195493 -0.0314835 0.000644922  0.0181153 -0.0276594 2.6226e-06  0.0160927 -0.0307552 0.000541925  0.014902 -0.0269125 -2.38419e-07  0.0181213 -0.0276107 0.000668526  0.014906 -0.0268652 0.000557661  0.0182631 -0.0392547 -7.15256e-07  0.0221822 -0.0399051 0.000604153  0.0208997 -0.0356332 4.76837e-07  0.0182657 -0.039202 0.000506163  0.0172112 -0.0349178 2.14577e-06  0.0209012 -0.0355803 0.000627041  0.0172116 -0.0348679 0.000522852  0.0201807 -0.0485486 3.09944e-06  0.0245216 -0.0491782 0.000558138  0.0233872 -0.0444859 7.15256e-06  0.0201805 -0.0484956 0.000465631  0.0192524 -0.043794 -2.38419e-07  0.0233873 -0.0444379 0.000579834  0.0192555 -0.0437467 0.000483274  0.0218457 -0.0586179 4.76837e-07  0.0265784 -0.0592354 0.000510931  0.0255824 -0.0541537 -1.66893e-06  0.0218467 -0.0585671 0.000426531  0.0210458 -0.0534803 -1.66893e-06  0.0255849 -0.054111 0.000530481  0.0210415 -0.0534393 0.000445127  0.0232788 -0.0693934 2.14577e-06  0.0283705 -0.070002 0.000471354  0.0275065 -0.0645723 -2.38419e-07  0.0232794 -0.0693485 0.000388384  0.0225903 -0.0639113 -2.38419e-07  0.0275072 -0.0645307 0.000488758  0.0225905 -0.0638726 0.000409842  0.0244894 -0.0808117 2.38419e-07  0.0299071 -0.0814095 0.000432253  0.0291669 -0.0756677 -1.19209e-06  0.0244884 -0.0807723 0.000356197  0.0239084 -0.0750182 -1.43051e-06  0.0291729 -0.0756279 0.000447035  0.0239136 -0.074982 0.000373363  0.0254865 -0.0928143 -3.57628e-06  0.0312004 -0.0934031 0.000383615  0.0305861 -0.0873742 -2.38419e-07  0.025488 -0.092774 0.000321865  0.0250131 -0.0867388 -7.15256e-07  0.0305828 -0.0873383 0.000408173  0.0250143 -0.0867041 0.000338316  0.0262879 -0.105339 3.09944e-06  0.0322697 -0.105917 0.000349998  0.0317589 -0.0996279 -3.09944e-06  0.0262865 -0.105296 0.000292063  0.0259116 -0.099006 9.53674e-07  0.031762 -0.0995992 0.000368595  0.0259118 -0.0989743 0.000312567  0.0268943 -0.118317 -2.6226e-06  0.0331197 -0.118892 0.00031805  0.0327179 -0.112382 -2.6226e-06  0.0268979 -0.118284 0.000263453  0.0266168 -0.111766 -7.15256e-07  0.0327199 -0.112349 0.000328779  0.0266144 -0.111735 0.000278234  0.0273286 -0.131708 -2.38419e-06  0.0337701 -0.132277 0.000285387  0.0334698 -0.125565 9.53674e-07  0.0273315 -0.13168 0.000234365  0.0271322 -0.12496 -1.66893e-06  0.0334697 -0.125538 0.000300407  0.0271341 -0.124931 0.000250816  0.027596 -0.145464 4.52995e-06  0.0342274 -0.146028 0.000248909  0.0340198 -0.139136 2.38419e-06  0.0276003 -0.145436 0.000209808  0.0274869 -0.138542 2.38419e-07  0.0340207 -0.139111 0.000267982  0.0274851 -0.138515 0.000223875  0.0277171 -0.159525 1.90735e-06  0.0345111 -0.160083 0.000221491  0.0343883 -0.153041 4.05312e-06  0.0277147 -0.159504 0.000184774  0.0276763 -0.152453 3.57628e-06  0.0343907 -0.153017 0.000236273  0.0276754 -0.152432 0.000196695  0.0276906 -0.173857 -1.19209e-06  0.0346301 -0.174403 0.000195503  0.0345962 -0.167229 3.8147e-06  0.0276895 -0.173835 0.000156879  0.0277152 -0.166653 -1.90735e-06  0.0345898 -0.167211 0.000205517  0.0277183 -0.166633 0.000172377  0.0275333 -0.188409 -1.43051e-06  0.0346 -0.188953 0.000166655  0.034631 -0.181667 4.76837e-07  0.0275364 -0.188389 0.000138283  0.027627 -0.181102 1.90735e-06  0.0346351 -0.181652 0.000176191  0.0276299 -0.181085 0.000146866  0.0272603 -0.203146 0  0.0344338 -0.203684 0.000145912  0.0345337 -0.196309 1.43051e-06  0.0272617 -0.203133 0.000120401  0.0274117 -0.195751 -2.14577e-06  0.0345352 -0.196293 0.000152111  0.0274143 -0.195738 0.000128984  0.0268829 -0.218036 5.48363e-06  0.0341442 -0.218562 0.000120878  0.0343034 -0.211116 3.57628e-06  0.0268805 -0.218021 0.000102997  0.0270865 -0.21057 -1.19209e-06  0.034301 -0.211104 0.000131607  0.0270844 -0.210562 0.00010848  0.0264101 -0.233052 -3.09944e-06  0.0337472 -0.233565 9.94205e-05  0.0339599 -0.226066 4.76837e-07  0.0264065 -0.233035 8.24928e-05  0.0266571 -0.225528 -2.6226e-06  0.0339606 -0.226052 0.000107288  0.0266554 -0.225514 8.86917e-05  0.025847 -0.248148 -2.6226e-06  0.0332439 -0.248656 8.17776e-05  0.033509 -0.241113 0  0.0258458 -0.248138 7.05719e-05  0.0261359 -0.240585 -2.38419e-07  0.0335062 -0.241101 9.08375e-05  0.0261385 -0.240578 7.58171e-05  0.0252075 -0.263311 -3.09944e-06  0.0326552 -0.263806 6.7234e-05  0.0329614 -0.256234 4.76837e-07  0.0252113 -0.263301 5.67436e-05  0.0255373 -0.255719 2.6226e-06  0.0329599 -0.256225 7.79629e-05  0.025538 -0.255711 5.98431e-05  0.0245113 -0.278508 -2.6226e-06  0.0319884 -0.279002 5.29289e-05  0.0323336 -0.271411 -1.66893e-06  0.0245087 -0.278503 3.98159e-05  0.0248663 -0.270906 4.76837e-07  0.0323315 -0.2714 5.53131e-05  0.0248668 -0.270897 4.64916e-05  0.0237563 -0.293733 4.76837e-07  0.0312586 -0.294216 3.95775e-05  0.0316315 -0.286613 7.15256e-07  0.0237544 -0.293725 3.31402e-05  0.0241389 -0.28612 3.57628e-06  0.0316348 -0.286608 4.50611e-05  0.0241375 -0.286114 4.22001e-05  0.022958 -0.308956 1.43051e-06  0.0304735 -0.309425 2.52724e-05  0.0308707 -0.301825 -2.6226e-06  0.0229554 -0.308947 2.26498e-05  0.0233634 -0.301339 2.38419e-07  0.0308721 -0.301822 3.17097e-05  0.0233612 -0.301339 2.98023e-05  0.0221212 -0.324157 1.66893e-06  0.0296509 -0.324631 1.85966e-05  0.0300653 -0.317033 -4.76837e-07  0.0221195 -0.324153 1.88351e-05  0.0225441 -0.316555 -1.66893e-06  0.0300703 -0.317033 2.07424e-05  0.0225394 -0.316551 1.64509e-05  0.0212555 -0.339344 2.86102e-06  0.0287907 -0.339808 1.12057e-05  0.0292211 -0.332224 -1.43051e-06  0.0212553 -0.339342 1.09673e-05  0.0216918 -0.331754 3.09944e-06  0.0292275 -0.332223 1.19209e-05  0.0216908 -0.331751 1.50204e-05  0.0203736 -0.354496 7.15256e-07  0.02791 -0.354953 5.00679e-06  0.0283518 -0.347386 -1.66893e-06  0.0203733 -0.354486 2.6226e-06  0.0208178 -0.346922 -2.38419e-07  0.0283508 -0.347384 8.34465e-06  0.0208135 -0.346915 5.24521e-06  0.0194805 -0.369605 3.57628e-06  0.027014 -0.370058 6.19888e-06  0.0274596 -0.36251 5.72205e-06  0.0194752 -0.369598 3.33786e-06  0.0199256 -0.362052 2.38419e-07  0.0274632 -0.362508 8.82149e-06  0.0199294 -0.362046 5.72205e-06  0.0185761 -0.384685 3.09944e-06  0.0261073 -0.385142 3.8147e-06  0.0265598 -0.377603 -4.76837e-07  0.0185781 -0.384671 -5.72205e-06  0.019031 -0.377143 -2.6226e-06  0.026561 -0.377604 3.09944e-06  0.0190237 -0.377141 -2.86102e-06  0.00338756 -0.00471318 -4.29153e-06  0 0 0  0.004889 -0.00609028 0.000445843  0.00234916 -0.004017 9.53674e-07  0 0 0  0.00338782 -0.00468427 0.000394106  0.00128762 -0.00248402 4.76837e-07  0 0 0  0.00234605 -0.00399429 0.000244617  0.00128752 -0.00247109 0.0002141  0.0076789 -0.00859743 -3.09944e-06  0.00947163 -0.00978732 0.000736713  0.00716066 -0.00795287 1.43051e-06  0.00768727 -0.00855106 0.000650167  0.00553586 -0.0066219 -2.86102e-06  0.00715807 -0.00790912 0.000612974  0.00553617 -0.00658768 0.000542402  0.0119103 -0.0130398 1.43051e-06  0.014134 -0.0141179 0.000881672  0.0117984 -0.0118863 1.43051e-06  0.011921 -0.0129848 0.000776529  0.00980884 -0.0107025 2.38419e-07  0.0118024 -0.0118336 0.000828028  0.00982165 -0.0106563 0.000729322  0.0159442 -0.0184564 1.19209e-06  0.0186691 -0.0194527 0.000923395  0.0164199 -0.0167007 4.52995e-06  0.0159549 -0.0184011 0.000810862  0.0139591 -0.0156109 4.76837e-07  0.0164296 -0.0166461 0.000910997  0.0139696 -0.0155623 0.000804663  0.0196925 -0.0249119 -1.19209e-06  0.0229212 -0.0258426 0.000905514  0.0208216 -0.0225635 -5.00679e-06  0.0197001 -0.024857 0.000788689  0.0178605 -0.0215512 9.53674e-07  0.020835 -0.022509 0.000911713  0.0178673 -0.0214983 0.000806808  0.0231137 -0.0323681 2.6226e-06  0.0268237 -0.0332456 0.0008564  0.0249032 -0.0294715 -9.53674e-07  0.0231197 -0.0323142 0.000751972  0.0214456 -0.0285141 2.6226e-06  0.0249192 -0.0294183 0.00088048  0.0214536 -0.028463 0.000775814  0.0262057 -0.0407585 2.6226e-06  0.0303581 -0.0415933 0.000797272  0.028635 -0.0373607 -5.24521e-06  0.0262082 -0.0407007 0.000699759  0.0246981 -0.036446 2.38419e-07  0.028635 -0.0373079 0.000826359  0.0247061 -0.0363944 0.000728607  0.0289623 -0.0500001 -1.19209e-06  0.0335345 -0.0508123 0.000733376  0.0319874 -0.0461494 2.14577e-06  0.0289696 -0.0499489 0.000645876  0.0276236 -0.0452697 7.15256e-07  0.0319898 -0.0461002 0.000767231  0.0276276 -0.0452233 0.000675917  0.0314128 -0.0600292 -2.14577e-06  0.0363663 -0.0608152 0.000677347  0.0349845 -0.0557635 -9.53674e-07  0.0314149 -0.0599853 0.000592947  0.0302273 -0.0549173 2.38419e-07  0.0349938 -0.0557184 0.000710011  0.0302324 -0.0548717 0.000622988  0.0335537 -0.0707739 -4.76837e-07  0.0388498 -0.0715355 0.000621557  0.0376465 -0.0661307 1.66893e-06  0.0335584 -0.0707336 0.000543594  0.0325208 -0.0653112 9.53674e-07  0.0376482 -0.0660881 0.000648499  0.032524 -0.0652704 0.00056839  0.0354172 -0.0821648 2.38419e-07  0.0410286 -0.0829042 0.000566483  0.0399742 -0.0771838 -1.66893e-06  0.0354165 -0.0821225 0.000496149  0.0345211 -0.0763893 3.57628e-06  0.0399823 -0.0771449 0.000595808  0.0345201 -0.0763494 0.00052166  0.037004 -0.0941356 -1.43051e-06  0.0429018 -0.0948551 0.000509024  0.0420033 -0.088848 -4.76837e-07  0.0370027 -0.0940992 0.000453711  0.036244 -0.0880769 3.33786e-06  0.0420028 -0.0888107 0.000540733  0.0362425 -0.0880401 0.000473499  0.0383306 -0.106635 -1.19209e-06  0.0444887 -0.107332 0.000464678  0.0437263 -0.101065 -5.96046e-06  0.0383301 -0.106596 0.000406504  0.0376996 -0.100315 0  0.0437274 -0.101032 0.000488281  0.0376981 -0.100286 0.000430107  0.0394169 -0.119589 -2.86102e-06  0.0458071 -0.120275 0.000413179  0.0451804 -0.113774 -9.53674e-07  0.0394167 -0.119558 0.000364304  0.0389035 -0.113051 -2.6226e-06  0.0451796 -0.113751 0.000441074  0.0389028 -0.113021 0.000383139  0.0402778 -0.132957 2.86102e-06  0.0468751 -0.133624 0.000374794  0.0463752 -0.126931 -4.76837e-07  0.0402811 -0.132928 0.000326872  0.0398755 -0.126219 -7.15256e-07  0.0463738 -0.1269 0.000389099  0.0398773 -0.126193 0.00034523  0.0409181 -0.14669 -5.00679e-06  0.0477028 -0.14733 0.00033474  0.0473131 -0.140463 2.14577e-06  0.0409229 -0.14666 0.000288486  0.0406263 -0.139777 1.43051e-06  0.0473163 -0.14044 0.000349283  0.0406275 -0.139753 0.000308275  0.0413702 -0.160725 -2.38419e-06  0.0483043 -0.16135 0.000289202  0.048023 -0.154336 2.38419e-07  0.0413706 -0.160699 0.000253677  0.0411675 -0.153666 -1.66893e-06  0.0480287 -0.154312 0.000317335  0.0411716 -0.153645 0.000272036  0.0416336 -0.175026 -4.05312e-06  0.0487063 -0.175643 0.000251055  0.0485332 -0.168488 -5.72205e-06  0.0416329 -0.175007 0.000222206  0.041523 -0.16784 2.38419e-07  0.0485313 -0.168469 0.000266552  0.0415213 -0.167823 0.000241756  0.0417271 -0.18956 -3.8147e-06  0.0489142 -0.190159 0.000218153  0.0488293 -0.182889 -4.05312e-06  0.0417261 -0.189543 0.000188589  0.0416987 -0.182263 -4.29153e-06  0.0488307 -0.182872 0.000239372  0.0417004 -0.182248 0.000203609  0.041662 -0.204272 -4.76837e-07  0.0489509 -0.204858 0.000189543  0.0489597 -0.197498 -7.15256e-07  0.0416617 -0.204258 0.000163317  0.0417149 -0.196891 -4.76837e-07  0.0489535 -0.197485 0.000203609  0.0417135 -0.196877 0.00017786  0.0414584 -0.219144 5.48363e-06  0.048825 -0.21971 0.000159979  0.0489075 -0.212276 -2.38419e-07  0.0414567 -0.219125 0.000137091  0.0415781 -0.211684 9.53674e-07  0.0489066 -0.212261 0.000172138  0.0415797 -0.211673 0.000150681  0.0411248 -0.234127 7.15256e-07  0.0485611 -0.234678 0.000126839  0.048713 -0.22719 -2.6226e-06  0.0411255 -0.234116 0.00011611  0.041306 -0.226618 7.15256e-07  0.0487103 -0.227175 0.000140667  0.0413079 -0.226606 0.000125408  0.0406783 -0.249198 2.14577e-06  0.0481594 -0.249732 0.000107288  0.0483725 -0.242202 -3.8147e-06  0.0406806 -0.249189 9.27448e-05  0.040916 -0.241652 -1.43051e-06  0.0483773 -0.242195 0.000112057  0.0409172 -0.241641 0.000102043  0.040132 -0.26434 -4.76837e-07  0.0476522 -0.264856 8.05855e-05  0.0479245 -0.257293 -1.66893e-06  0.0401323 -0.264325 7.41482e-05  0.0404172 -0.256761 7.15256e-07  0.0479221 -0.257286 8.86917e-05  0.0404172 -0.256749 8.72612e-05  0.0394995 -0.279524 -2.38419e-07  0.0470471 -0.280025 6.86646e-05  0.0473623 -0.272438 -4.76837e-07  0.0395002 -0.27951 5.60284e-05  0.0398264 -0.271918 -9.53674e-07  0.0473619 -0.272435 7.24792e-05  0.0398262 -0.271912 6.58035e-05  0.0387917 -0.294721 1.19209e-06  0.0463555 -0.295207 5.00679e-05  0.0467122 -0.287623 -2.86102e-06  0.0387917 -0.294711 4.02927e-05  0.0391562 -0.287116 3.8147e-06  0.0467122 -0.28761 5.6982e-05  0.0391567 -0.287107 5.00679e-05  0.0380228 -0.309923 7.15256e-07  0.0455928 -0.310404 3.83854e-05  0.0459778 -0.302809 3.8147e-06  0.0380201 -0.309918 3.57628e-05  0.0384142 -0.30232 9.53674e-07  0.0459816 -0.302805 4.64916e-05  0.038414 -0.302312 3.6478e-05  0.0371974 -0.325114 0  0.0447719 -0.325582 2.19345e-05  0.045188 -0.317997 2.38419e-07  0.0371985 -0.325107 2.02656e-05  0.0376172 -0.317518 1.19209e-06  0.0451887 -0.317995 2.90871e-05  0.037617 -0.317515 2.57492e-05  0.0363369 -0.340284 0  0.0438988 -0.340737 1.90735e-05  0.0443349 -0.333172 1.43051e-06  0.0363379 -0.340278 1.40667e-05  0.0367701 -0.332699 -9.53674e-07  0.0443423 -0.333165 1.85966e-05  0.0367742 -0.332695 1.26362e-05  0.0354524 -0.355425 4.76837e-07  0.0430086 -0.355876 1.16825e-05  0.0434549 -0.348314 -2.6226e-06  0.0354545 -0.355413 5.48363e-06  0.0358982 -0.347853 1.43051e-06  0.0434535 -0.348312 1.0252e-05  0.0358982 -0.34785 1.09673e-05  0.0345507 -0.370526 4.29153e-06  0.0421014 -0.370981 1.43051e-06  0.0425508 -0.36343 6.19888e-06  0.0345528 -0.37052 2.38419e-06  0.0350008 -0.362972 1.66893e-06  0.0425556 -0.36343 1.26362e-05  0.0350032 -0.362971 7.39098e-06  0.0336442 -0.38561 5.24521e-06  0.0411921 -0.386066 -3.8147e-06  0.0416403 -0.378522 -2.14577e-06  0.0336485 -0.385606 -1.90735e-06  0.0341005 -0.378064 1.90735e-06  0.041646 -0.378518 -2.38419e-07  0.0341012 -0.378062 1.90735e-06  -0.0049381 -0.00573843 0.000463247  -0.00239848 -0.0037243 0.00052309  0 0 0  -0.00335858 -0.00428788 0.000828743  0 0 0  -0.00235457 -0.00312983 0.000344276  -0.000922341 -0.0014267 0.000386238  0 0 0  -0.00242434 -0.00376246 0.000257492  -0.00336094 -0.00435558 0.000404358  -0.00128148 -0.00222713 0.000448704  0 0 0  -0.000918962 -0.00145404 0.000187874  -0.00128241 -0.00225567 0.000217199  -0.0095091 -0.00919994 0.000769377  -0.00717443 -0.00732756 0.00129461  -0.00764771 -0.00787463 0.00135994  -0.00602527 -0.00690599 0.000580311  -0.00416228 -0.00489676 0.000975609  -0.00720073 -0.00743709 0.000633717  -0.00763635 -0.00800225 0.000669479  -0.00549668 -0.00604642 0.00113106  -0.00415169 -0.00498463 0.000478745  -0.00549464 -0.00614579 0.000555992  -0.0142118 -0.0132529 0.000915527  -0.0118618 -0.010964 0.00172949  -0.0119211 -0.0120369 0.00161934  -0.00976762 -0.0112527 0.000689745  -0.00792471 -0.00883776 0.00131083  -0.0118529 -0.0111171 0.000853539  -0.0119032 -0.012191 0.000803947  -0.00979125 -0.00984326 0.00152063  -0.00790563 -0.00897249 0.000652313  -0.0097771 -0.00998617 0.000753403  -0.0188784 -0.0182718 0.000951767  -0.0165786 -0.0154631 0.0019002  -0.0160621 -0.0171769 0.00168133  -0.013379 -0.0165289 0.000725985  -0.0116099 -0.0136153 0.00143671  -0.0165617 -0.0156329 0.000945091  -0.0160446 -0.0173358 0.000840187  -0.0140133 -0.0144753 0.00166607  -0.0115923 -0.0137644 0.000717402  -0.0139956 -0.0146369 0.00082922  -0.0233507 -0.0243137 0.00092864  -0.0211555 -0.020994 0.0019021  -0.0200096 -0.0233399 0.00163221  -0.0168116 -0.022806 0.000701904  -0.0151252 -0.0193857 0.00143433  -0.021144 -0.0211643 0.000951052  -0.0199997 -0.0235038 0.000812292  -0.018062 -0.0201332 0.00166607  -0.0151173 -0.0195438 0.000712633  -0.0180476 -0.0202951 0.000831604  -0.0275819 -0.0313482 0.000868082  -0.0255017 -0.0275474 0.00181055  -0.0237353 -0.0304899 0.00153494  -0.0200526 -0.0300433 0.000659704  -0.0184528 -0.0261486 0.00136423  -0.0254993 -0.0277129 0.000902653  -0.023736 -0.0306461 0.000767469  -0.0218998 -0.0267925 0.00158644  -0.0184556 -0.0263063 0.000681639  -0.0218956 -0.0269537 0.00079155  -0.0315449 -0.0393018 0.000808239  -0.0295922 -0.0350535 0.00168705  -0.0272448 -0.0385528 0.00141954  -0.0231093 -0.0381862 0.000611544  -0.0215982 -0.0338564 0.00127411  -0.0295952 -0.0352127 0.000846624  -0.0272546 -0.0386982 0.000711679  -0.0255167 -0.0344046 0.00147724  -0.0216052 -0.0340054 0.000636578  -0.0255223 -0.0345597 0.00074172  -0.0352616 -0.0481009 0.000751257  -0.03343 -0.043451 0.00155926  -0.0305507 -0.0474596 0.00130701  -0.026002 -0.0471747 0.000556707  -0.0245619 -0.0424358 0.00116968  -0.0334341 -0.0435966 0.000781059  -0.0305629 -0.0475961 0.000654936  -0.0289224 -0.0429012 0.00136471  -0.0245745 -0.0425769 0.000584602  -0.0289353 -0.0430438 0.000681162  -0.0387557 -0.057688 0.000685215  -0.0370268 -0.0526662 0.00142622  -0.0336567 -0.0571517 0.00119114  -0.0287298 -0.056927 0.000512362  -0.0273654 -0.0518245 0.00106716  -0.0370369 -0.0527966 0.000710964  -0.0336761 -0.0572697 0.000596046  -0.0321271 -0.0522053 0.00125122  -0.0273812 -0.0519547 0.000533581  -0.0321426 -0.0523363 0.000627041  -0.0420322 -0.0679858 0.000625372  -0.0404046 -0.0626314 0.00130892  -0.0365914 -0.067545 0.00108242  -0.0313152 -0.0673856 0.000463247  -0.0300199 -0.0619501 0.000973701  -0.0404186 -0.0627517 0.000655174  -0.0366081 -0.0676565 0.000542879  -0.0351467 -0.0622589 0.00113487  -0.0300419 -0.0620691 0.000491619  -0.0351651 -0.0623762 0.000569582  -0.0451044 -0.0789519 0.000564337  -0.0435694 -0.0732818 0.00117683  -0.039359 -0.0785913 0.000984192  -0.0337652 -0.0784981 0.000416756  -0.0325333 -0.0727561 0.00088501  -0.0435921 -0.0733909 0.000589132  -0.0393783 -0.0786972 0.00048995  -0.0379955 -0.0729874 0.0010314  -0.0325581 -0.0728639 0.000441074  -0.0380105 -0.0730976 0.000514507  -0.0479962 -0.0905012 0.000512123  -0.0465583 -0.0845538 0.00106382  -0.0419705 -0.0902343 0.000889778  -0.0360875 -0.0902003 0.00038147  -0.0349238 -0.0841807 0.000800133  -0.046576 -0.0846537 0.000532389  -0.0419871 -0.0903261 0.000440359  -0.0406821 -0.0843422 0.000936031  -0.0349425 -0.0842786 0.00040102  -0.0407017 -0.084439 0.000467062  -0.0507078 -0.102601 0.000459671  -0.0493594 -0.0963998 0.000965595  -0.0444323 -0.102414 0.000795841  -0.0382934 -0.102434 0.000337839  -0.0371864 -0.0961634 0.000722408  -0.049372 -0.0964908 0.000486135  -0.0444463 -0.1025 0.000396252  -0.0432204 -0.0962588 0.000841141  -0.0372044 -0.0962522 0.00035882  -0.0432348 -0.096348 0.000424147  -0.0532516 -0.115184 0.00041008  -0.051988 -0.108752 0.000863075  -0.0467494 -0.115075 0.000718117  -0.0403824 -0.115149 0.000312328  -0.0393312 -0.108651 0.000648499  -0.0519986 -0.108838 0.000429869  -0.0467643 -0.115148 0.000357866  -0.0456072 -0.108682 0.000758648  -0.039353 -0.108734 0.000324488  -0.0456229 -0.108767 0.00037837  -0.0556353 -0.128208 0.000365257  -0.0544493 -0.121575 0.000771046  -0.0489335 -0.128164 0.000632286  -0.0423665 -0.128284 0.000274181  -0.0413646 -0.121591 0.000573635  -0.0544655 -0.121647 0.000388145  -0.0489498 -0.128232 0.000316381  -0.0478622 -0.121565 0.000677109  -0.0413883 -0.121666 0.000287294  -0.0478756 -0.12164 0.000338793  -0.0578592 -0.141612 0.000321865  -0.0567557 -0.134802 0.000684261  -0.0509909 -0.141641 0.000556469  -0.0442417 -0.141802 0.000243187  -0.0433006 -0.134931 0.000511169  -0.0567645 -0.134864 0.000342369  -0.0510069 -0.141697 0.000279665  -0.0499759 -0.134852 0.000596523  -0.0433166 -0.135 0.000255585  -0.0499929 -0.134919 0.000298262  -0.0599492 -0.155357 0.000285387  -0.0589149 -0.14839 0.000607014  -0.0529275 -0.155441 0.000489712  -0.0460188 -0.155651 0.000208616  -0.0451298 -0.14863 0.000450134  -0.0589209 -0.148441 0.000303507  -0.052943 -0.155494 0.000243425  -0.0519738 -0.148498 0.000526428  -0.0451422 -0.148687 0.000225544  -0.0519884 -0.148552 0.000264883  -0.0618932 -0.169402 0.000249863  -0.0609272 -0.162294 0.000525475  -0.0547476 -0.169541 0.000422955  -0.0477011 -0.169786 0.00018096  -0.046855 -0.162632 0.00039196  -0.0609398 -0.162342 0.000259876  -0.0547581 -0.169584 0.000212193  -0.0538485 -0.162454 0.000455856  -0.0468745 -0.162683 0.000194788  -0.053865 -0.162503 0.000231028  -0.0637083 -0.183696 0.000211477  -0.0628099 -0.176469 0.000449657  -0.0564566 -0.183889 0.000366688  -0.0492952 -0.184168 0.000158548  -0.0484986 -0.176905 0.000340462  -0.0628176 -0.176519 0.000221968  -0.0564666 -0.183926 0.00018239  -0.0556164 -0.176681 0.000397682  -0.0485113 -0.176947 0.000166416  -0.0556254 -0.176726 0.000197887  -0.0654023 -0.198201 0.000182867  -0.0645659 -0.19089 0.000389099  -0.0580664 -0.198448 0.000313759  -0.0508046 -0.198756 0.000133514  -0.0500467 -0.191397 0.000286102  -0.0645695 -0.190924 0.000192165  -0.0580702 -0.198477 0.000152588  -0.0572748 -0.191138 0.000338078  -0.0500574 -0.191439 0.000143528  -0.057282 -0.191175 0.000165701  -0.0669878 -0.2129 0.000148296  -0.0662014 -0.205502 0.000332832  -0.0595686 -0.213178 0.000261307  -0.0522344 -0.213513 0.00011158  -0.0515165 -0.206085 0.000247002  -0.0662074 -0.205531 0.000161648  -0.0595791 -0.213204 0.000130415  -0.0588293 -0.20579 0.000284672  -0.0515323 -0.206115 0.000126839  -0.0588357 -0.205818 0.000139713  -0.0684609 -0.227731 0.000119209  -0.0677345 -0.220277 0.000266552  -0.0609887 -0.228057 0.000217915  -0.053582 -0.228416 9.17912e-05  -0.0529051 -0.22092 0.000203133  -0.0677385 -0.220297 0.000130892  -0.0609956 -0.228073 0.000109911  -0.0602894 -0.220597 0.000231743  -0.0529172 -0.220949 0.000105381  -0.060298 -0.22062 0.000114441  -0.0698261 -0.242683 9.77516e-05  -0.0691545 -0.235177 0.000226974  -0.0623162 -0.243035 0.00017643  -0.0548611 -0.243418 7.53403e-05  -0.0542226 -0.235883 0.0001688  -0.0691571 -0.235199 0.000113487  -0.0623214 -0.243052 8.58307e-05  -0.0616622 -0.23553 0.000192642  -0.0542316 -0.235903 8.34465e-05  -0.0616701 -0.23555 0.000100136  -0.071111 -0.257723 7.31945e-05  -0.0704782 -0.250181 0.000180244  -0.0635681 -0.258101 0.000132561  -0.0560734 -0.258502 5.79357e-05  -0.0554676 -0.250937 0.000133514  -0.0704799 -0.250195 9.05991e-05  -0.0635705 -0.258114 6.50883e-05  -0.0629511 -0.250557 0.00014925  -0.055476 -0.25095 6.55651e-05  -0.0629568 -0.250573 7.39098e-05  -0.072319 -0.272822 5.48363e-05  -0.0717163 -0.265259 0.000135899  -0.064748 -0.273234 0.000104427  -0.0572238 -0.273642 4.88758e-05  -0.0566461 -0.266056 0.000104427  -0.0717258 -0.265269 7.00951e-05  -0.0647531 -0.273232 5.19753e-05  -0.0641692 -0.265657 0.000121593  -0.0566595 -0.266066 5.14984e-05  -0.0641708 -0.265667 5.74589e-05  -0.0734417 -0.287969 3.93391e-05  -0.0728791 -0.280388 9.44138e-05  -0.0658634 -0.288395 7.77245e-05  -0.058321 -0.288819 3.26633e-05  -0.0577748 -0.281218 7.43866e-05  -0.0728905 -0.280393 4.88758e-05  -0.0658674 -0.288397 3.43323e-05  -0.0653093 -0.280806 8.7738e-05  -0.0577786 -0.281225 3.83854e-05  -0.0653162 -0.280812 4.29153e-05  -0.0745032 -0.30313 3.09944e-05  -0.0739746 -0.295546 7.67708e-05  -0.0669248 -0.303563 4.95911e-05  -0.0593734 -0.304005 2.69413e-05  -0.0588489 -0.296403 5.81741e-05  -0.0739825 -0.295547 3.69549e-05  -0.0669246 -0.303571 2.6226e-05  -0.0664001 -0.295976 6.4373e-05  -0.0588546 -0.296409 3.02792e-05  -0.0664034 -0.295982 3.19481e-05  -0.0755169 -0.318296 2.47955e-05  -0.0750179 -0.310709 4.86374e-05  -0.067939 -0.31875 3.57628e-05  -0.0603817 -0.31919 1.71661e-05  -0.0598831 -0.311593 3.48091e-05  -0.0750146 -0.310711 2.26498e-05  -0.0679359 -0.318748 2.12193e-05  -0.0674362 -0.311157 4.24385e-05  -0.0598803 -0.311598 1.74046e-05  -0.0674365 -0.311158 2.3365e-05  -0.0764813 -0.333452 1.16825e-05  -0.0759966 -0.325877 3.43323e-05  -0.0689113 -0.333906 2.28882e-05  -0.0613585 -0.334355 7.39098e-06  -0.0608699 -0.326774 2.14577e-05  -0.0760031 -0.325878 1.71661e-05  -0.0689137 -0.333911 9.05991e-06  -0.0684292 -0.326325 2.47955e-05  -0.0608764 -0.326776 9.77516e-06  -0.0684307 -0.326332 1.52588e-05  -0.0774128 -0.348588 4.29153e-06  -0.0769403 -0.341019 2.09808e-05  -0.0698569 -0.349049 1.28746e-05  -0.0623114 -0.349494 3.33786e-06  -0.061831 -0.341927 1.43051e-05  -0.076946 -0.34102 1.09673e-05  -0.0698574 -0.349044 6.4373e-06  -0.0693879 -0.341474 1.4782e-05  -0.0618393 -0.34193 5.00679e-06  -0.0693882 -0.341478 9.77516e-06  -0.0783277 -0.363687 8.10623e-06  -0.0778708 -0.356137 3.8147e-06  -0.0707824 -0.364151 4.76837e-07  -0.0632398 -0.364602 -4.76837e-07  -0.062773 -0.357053 1.90735e-06  -0.0778739 -0.356142 -1.66893e-06  -0.070785 -0.364149 -3.33786e-06  -0.0703168 -0.356598 9.05991e-06  -0.0627799 -0.357053 1.90735e-06  -0.0703225 -0.3566 4.05312e-06  -0.0792432 -0.378782 -9.05991e-06  -0.0787914 -0.371237 -4.76837e-06  -0.0717008 -0.379242 -9.05991e-06  -0.064152 -0.379687 -2.86102e-06  -0.0636973 -0.372148 -2.86102e-06  -0.0787838 -0.371235 -5.96046e-06  -0.0717003 -0.379238 -1.16825e-05  -0.0712416 -0.371691 -3.33786e-06  -0.0636954 -0.372147 -2.38419e-06  -0.0712409 -0.371692 -4.76837e-06  -0.00178078 -0.00229304 0.000597  0 0 0  -0.00130006 -0.00180577 0.000237703  -0.000506744 -0.000616759 0.000261784  0 0 0  -0.00177366 -0.00234291 0.000294209  -0.000674084 -0.000932157 0.00031662  0 0 0  -0.00050639 -0.000638127 0.000125408  -0.000673644 -0.000955239 0.000155926  -0.00469063 -0.00589001 0.00098896  -0.00350735 -0.00527459 0.000392914  -0.00234501 -0.0033289 0.000663757  -0.00467019 -0.00599308 0.000490189  -0.00316073 -0.00398554 0.000819683  -0.00233278 -0.00340158 0.000326157  -0.00314422 -0.00406529 0.000404835  -0.00782722 -0.0103171 0.0011735  -0.0060133 -0.00979812 0.000472784  -0.00477171 -0.0073033 0.000892639  -0.0078097 -0.0104536 0.000581741  -0.00626242 -0.00798741 0.00110245  -0.00475082 -0.00741498 0.000442743  -0.0062393 -0.00810754 0.000547409  -0.0108738 -0.015695 0.0012145  -0.00848871 -0.0152911 0.000486135  -0.00727949 -0.0122876 0.000973225  -0.0108611 -0.0158462 0.000605822  -0.00937015 -0.0128807 0.00120544  -0.00726223 -0.0124246 0.000487328  -0.00935227 -0.0130251 0.000600576  -0.0137689 -0.0220736 0.00117588  -0.0108428 -0.0217578 0.000467062  -0.00968993 -0.0182583 0.000961781  -0.0137636 -0.0222228 0.000587225  -0.0123424 -0.0187602 0.00119829  -0.00968057 -0.018404 0.000483036  -0.012333 -0.0189127 0.000599146  -0.0164994 -0.0294016 0.00110245  -0.0130779 -0.0291658 0.000446081  -0.0119711 -0.0251991 0.000915051  -0.0165065 -0.0295484 0.000552177  -0.015154 -0.0256141 0.00113964  -0.0119766 -0.0253446 0.000457048  -0.0151545 -0.0257707 0.000567913  -0.0190877 -0.0376351 0.00101709  -0.0152036 -0.0374623 0.000403166  -0.0141394 -0.0330568 0.000851631  -0.0191002 -0.0377784 0.000509024  -0.0178112 -0.0334019 0.00106049  -0.0141546 -0.0332057 0.000428438  -0.0178227 -0.0335554 0.000529289  -0.021543 -0.0467017 0.000933647  -0.0172294 -0.0465818 0.000371695  -0.0162113 -0.0417759 0.000780106  -0.0215623 -0.0468324 0.0004673  -0.0203297 -0.0420618 0.000977516  -0.0162256 -0.0419195 0.000390053  -0.020346 -0.0422004 0.000488758  -0.0238808 -0.056534 0.000853539  -0.0191754 -0.0564646 0.000342846  -0.018189 -0.0512986 0.000710011  -0.0239031 -0.0566538 0.000430346  -0.0227289 -0.0515204 0.000891209  -0.0182134 -0.0514288 0.000355721  -0.0227461 -0.0516521 0.00044775  -0.0261106 -0.067079 0.000771523  -0.0210475 -0.0670535 0.000309944  -0.0200962 -0.0615527 0.000645638  -0.0261326 -0.0671812 0.000385046  -0.0250047 -0.0617148 0.000812531  -0.0201188 -0.0616735 0.000322819  -0.0250335 -0.0618356 0.000407219  -0.0282415 -0.0782627 0.000697136  -0.022851 -0.078289 0.000279903  -0.0219336 -0.0724836 0.000585079  -0.0282617 -0.0783618 0.00034833  -0.027186 -0.0725871 0.000732422  -0.0219578 -0.0725938 0.000291109  -0.0272114 -0.072697 0.00036478  -0.030275 -0.090033 0.000631809  -0.0245855 -0.090108 0.000250101  -0.023705 -0.084024 0.000531197  -0.030292 -0.0901256 0.00031805  -0.0292672 -0.0840707 0.00066328  -0.0237265 -0.0841276 0.000267029  -0.0292889 -0.0841756 0.000334024  -0.0322133 -0.102339 0.000566959  -0.0262613 -0.102451 0.000227213  -0.0254102 -0.0961245 0.000478268  -0.0322341 -0.102416 0.000282764  -0.0312573 -0.096118 0.000601768  -0.0254288 -0.0962139 0.000240088  -0.0312747 -0.0962075 0.0003016  -0.0340735 -0.115109 0.000507355  -0.0278776 -0.115266 0.00020051  -0.0270525 -0.108719 0.000424385  -0.0340896 -0.115185 0.000253916  -0.0331552 -0.108661 0.000537872  -0.0270759 -0.1088 0.000211716  -0.0331719 -0.108746 0.000267029  -0.0358462 -0.128307 0.000447273  -0.0294354 -0.128502 0.000179291  -0.0286514 -0.121758 0.000378132  -0.0358638 -0.128372 0.000226736  -0.0349673 -0.121653 0.000479221  -0.0286611 -0.121832 0.000187635  -0.0349902 -0.121729 0.000240088  -0.0375371 -0.141883 0.000399113  -0.0309377 -0.142107 0.000162125  -0.030178 -0.135194 0.000338554  -0.0375563 -0.141936 0.000195742  -0.0367019 -0.135044 0.00042057  -0.0301915 -0.13526 0.000168085  -0.0367177 -0.135112 0.000212431  -0.0391598 -0.155782 0.000349522  -0.0323887 -0.156041 0.000139236  -0.0316527 -0.148975 0.000297546  -0.0391724 -0.155832 0.000174284  -0.0383587 -0.148788 0.00037241  -0.0316718 -0.149037 0.000146389  -0.0383744 -0.148847 0.000185728  -0.0407 -0.169959 0.000298977  -0.0337875 -0.170249 0.000114679  -0.033083 -0.163066 0.000259399  -0.040719 -0.170007 0.000147581  -0.0399396 -0.162839 0.000324249  -0.0330932 -0.163115 0.000130177  -0.039953 -0.162887 0.000164032  -0.0421777 -0.184389 0.000258923  -0.0351386 -0.184703 0.000108957  -0.0344584 -0.177406 0.000222683  -0.0421886 -0.184427 0.000129223  -0.0414476 -0.177145 0.000279427  -0.0344703 -0.177448 0.000109911  -0.0414634 -0.177187 0.000139236  -0.0435836 -0.199021 0.000222683  -0.0364361 -0.199354 8.55923e-05  -0.0357831 -0.191965 0.000188828  -0.0435987 -0.199045 0.000113964  -0.042887 -0.191672 0.000240803  -0.0357912 -0.192003 9.91821e-05  -0.0429006 -0.191713 0.00012064  -0.0449281 -0.213814 0.000180244  -0.0376909 -0.214169 7.53403e-05  -0.0370603 -0.206708 0.000161648  -0.0449378 -0.213835 9.03606e-05  -0.0442641 -0.206389 0.000203133  -0.0370677 -0.206741 8.29697e-05  -0.0442755 -0.206422 0.000102043  -0.0462093 -0.228737 0.000148773  -0.038897 -0.229113 5.67436e-05  -0.0382857 -0.221603 0.00013113  -0.0462198 -0.228759 7.31945e-05  -0.0455751 -0.221257 0.000165939  -0.0383003 -0.221628 6.48499e-05  -0.0455844 -0.221283 8.51154e-05  -0.0474379 -0.243771 0.000121593  -0.0400617 -0.244165 4.86374e-05  -0.0394785 -0.236608 0.000106812  -0.0474427 -0.243788 6.24657e-05  -0.0468314 -0.236241 0.000133038  -0.0394847 -0.236628 5.34058e-05  -0.0468378 -0.236262 6.41346e-05  -0.0486057 -0.258881 9.72748e-05  -0.0411849 -0.259286 4.00543e-05  -0.0406225 -0.251703 8.53539e-05  -0.0486114 -0.25889 5.126e-05  -0.0480301 -0.251316 0.000107765  -0.0406277 -0.251717 4.26769e-05  -0.0480351 -0.251332 5.8651e-05  -0.0497272 -0.274045 7.53403e-05  -0.0422697 -0.274456 3.21865e-05  -0.041723 -0.266851 6.38962e-05  -0.0497301 -0.274047 4.3869e-05  -0.0491714 -0.266455 8.4877e-05  -0.0417342 -0.266865 3.3617e-05  -0.0491767 -0.266466 4.673e-05  -0.0508072 -0.289234 5.48363e-05  -0.0433128 -0.289662 2.38419e-05  -0.0427895 -0.282046 5.14984e-05  -0.0508056 -0.28924 2.93255e-05  -0.0502689 -0.28163 6.29425e-05  -0.0427976 -0.282056 2.45571e-05  -0.0502732 -0.28164 3.40939e-05  -0.0518372 -0.304436 3.91006e-05  -0.044332 -0.304866 2.00272e-05  -0.0438247 -0.297253 3.57628e-05  -0.0518465 -0.304435 2.40803e-05  -0.0513282 -0.296826 4.72069e-05  -0.0438287 -0.297261 1.45435e-05  -0.0513284 -0.296835 2.6226e-05  -0.0528462 -0.319629 2.28882e-05  -0.0453267 -0.320063 9.53674e-06  -0.0448263 -0.31246 2.43187e-05  -0.0528443 -0.31963 1.16825e-05  -0.0523438 -0.312023 2.6226e-05  -0.0448329 -0.312466 1.14441e-05  -0.0523486 -0.312034 1.35899e-05  -0.0538201 -0.334805 1.52588e-05  -0.0462921 -0.335245 3.09944e-06  -0.0458069 -0.327655 1.28746e-05  -0.0538216 -0.334803 5.72205e-06  -0.0533373 -0.327215 1.90735e-05  -0.0458126 -0.327659 7.15256e-06  -0.0533352 -0.327216 1.00136e-05  -0.054769 -0.349949 4.29153e-06  -0.0472414 -0.350396 6.4373e-06  -0.0467656 -0.34282 7.62939e-06  -0.0547705 -0.349946 -2.38419e-07  -0.0542953 -0.342373 1.00136e-05  -0.0467699 -0.342822 4.76837e-06  -0.0542996 -0.342379 2.6226e-06  -0.0557027 -0.365056 2.86102e-06  -0.0481708 -0.365502 1.19209e-06  -0.0477023 -0.357952 1.43051e-06  -0.0557024 -0.365056 0  -0.0552356 -0.357505 4.29153e-06  -0.0477073 -0.357953 7.15256e-07  -0.0552361 -0.357505 4.52995e-06  -0.0566227 -0.380134 -3.33786e-06  -0.0490928 -0.380579 -3.33786e-06  -0.048631 -0.373042 4.76837e-07  -0.0566247 -0.380136 1.66893e-06  -0.0561616 -0.372596 -4.76837e-06  -0.0486324 -0.373048 -2.38419e-07  -0.056164 -0.3726 -3.09944e-06  -0.000923485 -0.00141382 0.000362873  0 0 0  -0.00058008 -0.00123021 0.000117302  -0.000225492 -0.000297874 0.000132084  0 0 0  -0.000921741 -0.00145295 0.000176907  -0.00035635 -0.000416994 0.000195503  0 0 0  -0.00022627 -0.000316381 6.53267e-05  -0.000354651 -0.000438362 9.56059e-05  -0.00252211 -0.00468639 0.000604153  -0.00159512 -0.00442997 0.000197411  -0.0010519 -0.00257811 0.000340462  -0.00250691 -0.00476295 0.0002985  -0.00166474 -0.00286847 0.000498295  -0.00104846 -0.00263739 0.000167608  -0.00165537 -0.00293481 0.000244141  -0.00438175 -0.00919437 0.00071764  -0.00281301 -0.00897893 0.000239372  -0.00220305 -0.00646245 0.000454426  -0.00436392 -0.00930384 0.000355721  -0.00344062 -0.00679553 0.000675201  -0.00219354 -0.00655821 0.000227451  -0.00342169 -0.00690031 0.000334978  -0.00623772 -0.0147427 0.000734329  -0.00406894 -0.014598 0.000245571  -0.00345176 -0.0115391 0.000491619  -0.00623113 -0.0148742 0.000367641  -0.00531912 -0.0118383 0.000734329  -0.00344133 -0.011665 0.000244379  -0.00530416 -0.0119687 0.00036788  -0.00802588 -0.0212753 0.000710011  -0.00529635 -0.0212007 0.000232458  -0.00468415 -0.0176449 0.000489712  -0.00802791 -0.0214172 0.000356913  -0.00714159 -0.0178836 0.000729561  -0.00468695 -0.0177824 0.000244379  -0.00714028 -0.0180266 0.000363588  -0.00973952 -0.02875 0.000665665  -0.00649339 -0.0287259 0.00022912  -0.00588888 -0.0247034 0.000463009  -0.00974888 -0.02889 0.000335217  -0.00889051 -0.0248913 0.000692844  -0.00589871 -0.0248508 0.000230789  -0.00889641 -0.0250397 0.000348806  -0.0113822 -0.037107 0.000609875  -0.0076614 -0.0371252 0.000205755  -0.00706357 -0.0326761 0.000425816  -0.0113973 -0.0372447 0.000308752  -0.0105684 -0.0328125 0.000638008  -0.0070793 -0.0328184 0.000213623  -0.01058 -0.0329593 0.000316858  -0.0129719 -0.0462887 0.000556469  -0.00881588 -0.0463483 0.000190496  -0.0082227 -0.0415007 0.000389576  -0.0129882 -0.0464166 0.00027895  -0.0121793 -0.0415918 0.000586033  -0.00824052 -0.0416386 0.000194311  -0.0121988 -0.0417319 0.000293732  -0.0145173 -0.0562362 0.000512123  -0.00995982 -0.0563279 0.000171185  -0.00937593 -0.0511151 0.000356197  -0.0145327 -0.0563538 0.000257015  -0.0137507 -0.0511662 0.000531673  -0.00938702 -0.0512479 0.000177622  -0.0137675 -0.0512938 0.000269413  -0.0160218 -0.066886 0.000461102  -0.011098 -0.0670155 0.00015378  -0.0105121 -0.061466 0.000328064  -0.0160422 -0.0669973 0.000230074  -0.0152719 -0.0614668 0.00048399  -0.0105312 -0.0615873 0.000162125  -0.015293 -0.0615902 0.000241518  -0.0174907 -0.0781773 0.000418663  -0.0122346 -0.0783408 0.000130892  -0.0116488 -0.0724893 0.000290394  -0.0175104 -0.0782781 0.000210047  -0.0167633 -0.0724538 0.00043869  -0.0116658 -0.0726011 0.000142097  -0.0167804 -0.0725603 0.000217915  -0.0189317 -0.0900509 0.000375271  -0.0133677 -0.0902438 0.00012207  -0.0127885 -0.0841202 0.000259876  -0.0189487 -0.0901441 0.000185013  -0.0182136 -0.0840409 0.000396252  -0.0128014 -0.0842196 0.000132322  -0.0182321 -0.0841414 0.000197887  -0.020335 -0.102449 0.000332355  -0.0144992 -0.102668 0.000108957  -0.0139196 -0.0963058 0.000236034  -0.0203518 -0.102531 0.000166655  -0.0196366 -0.0961827 0.000356674  -0.0139349 -0.0963941 0.000118732  -0.0196564 -0.0962758 0.000176191  -0.0217068 -0.11532 0.000302315  -0.0156237 -0.115569 0.000101805  -0.0150487 -0.10898 0.000208855  -0.0217257 -0.11539 0.000148773  -0.0210252 -0.108827 0.000312328  -0.015064 -0.10906 0.000103712  -0.0210426 -0.108905 0.000157595  -0.0230531 -0.128603 0.000265121  -0.0167472 -0.128877 8.65459e-05  -0.0161762 -0.122098 0.000187397  -0.0230687 -0.128668 0.000129461  -0.022382 -0.121905 0.000282764  -0.0161867 -0.122172 9.13143e-05  -0.022402 -0.121979 0.000140667  -0.0243629 -0.142255 0.000234127  -0.0178623 -0.142555 7.20024e-05  -0.0172895 -0.135605 0.000164509  -0.0243789 -0.142312 0.000119925  -0.0237125 -0.135381 0.000247478  -0.0173047 -0.13567 8.2016e-05  -0.0237278 -0.135445 0.000123262  -0.0256476 -0.15623 0.000205517  -0.0189712 -0.156555 6.60419e-05  -0.0184035 -0.149456 0.000145435  -0.0256617 -0.156282 0.000102758  -0.025008 -0.149198 0.000219345  -0.0184169 -0.149513 7.36713e-05  -0.0250239 -0.149258 0.000109911  -0.026902 -0.170482 0.000177383  -0.0200732 -0.170821 6.22272e-05  -0.0195062 -0.163602 0.000121117  -0.026911 -0.170521 9.17912e-05  -0.0262792 -0.163319 0.000190258  -0.0195229 -0.163654 6.12736e-05  -0.0262887 -0.16337 9.46522e-05  -0.0281224 -0.184962 0.000153065  -0.0211592 -0.185322 4.79221e-05  -0.020607 -0.178001 0.000105858  -0.0281324 -0.184999 7.53403e-05  -0.0275145 -0.17769 0.000163078  -0.0206175 -0.178041 5.38826e-05  -0.0275261 -0.177731 8.15392e-05  -0.0293071 -0.199648 0.000130177  -0.0222356 -0.200024 4.1008e-05  -0.0216877 -0.192614 9.01222e-05  -0.0293205 -0.199676 6.48499e-05  -0.0287178 -0.192278 0.000138283  -0.0216982 -0.192649 4.3869e-05  -0.0287297 -0.192313 6.91414e-05  -0.0304663 -0.21449 0.000107288  -0.0233006 -0.214885 3.38554e-05  -0.0227597 -0.2074 7.34329e-05  -0.0304792 -0.214517 5.38826e-05  -0.029892 -0.207048 0.000117779  -0.0227695 -0.207433 3.50475e-05  -0.029906 -0.207078 5.98431e-05  -0.0316062 -0.229463 8.91685e-05  -0.024348 -0.229868 2.0504e-05  -0.0238168 -0.222333 5.62668e-05  -0.0316105 -0.229482 4.43459e-05  -0.0310397 -0.221957 9.53674e-05  -0.0238261 -0.222357 2.57492e-05  -0.0310466 -0.221985 4.26769e-05  -0.0327017 -0.244533 7.24792e-05  -0.0253863 -0.244947 2.09808e-05  -0.0248599 -0.237376 5.24521e-05  -0.0327089 -0.244552 3.52859e-05  -0.0321579 -0.236987 7.53403e-05  -0.024868 -0.237394 2.71797e-05  -0.032161 -0.237006 4.12464e-05  -0.0337777 -0.259675 5.24521e-05  -0.0264003 -0.260098 1.38283e-05  -0.0258889 -0.252492 3.76701e-05  -0.033783 -0.259689 2.7895e-05  -0.0332401 -0.252092 6.34193e-05  -0.0258934 -0.252515 1.85966e-05  -0.0332472 -0.252112 3.02792e-05  -0.0348237 -0.274867 4.1008e-05  -0.0274067 -0.275292 1.50204e-05  -0.0268984 -0.267677 2.81334e-05  -0.0348282 -0.274871 2.16961e-05  -0.0343053 -0.267258 5.19753e-05  -0.0269046 -0.26769 1.16825e-05  -0.0343091 -0.267275 2.43187e-05  -0.035845 -0.290075 2.90871e-05  -0.0283892 -0.290511 1.50204e-05  -0.0278964 -0.282887 2.28882e-05  -0.0358477 -0.290087 1.5974e-05  -0.0353394 -0.282461 3.48091e-05  -0.0278995 -0.2829 1.0252e-05  -0.0353377 -0.282474 2.19345e-05  -0.0368392 -0.305292 2.19345e-05  -0.0293651 -0.305734 8.10623e-06  -0.0288761 -0.298114 1.66893e-05  -0.036844 -0.305297 9.05991e-06  -0.036345 -0.297684 3.00407e-05  -0.0288818 -0.298123 1.19209e-05  -0.0363491 -0.29769 1.54972e-05  -0.0378177 -0.320506 1.43051e-05  -0.030323 -0.320947 2.14577e-06  -0.0298414 -0.313337 1.33514e-05  -0.0378237 -0.320503 4.52995e-06  -0.0373299 -0.312896 1.81198e-05  -0.0298448 -0.31334 4.76837e-06  -0.0373352 -0.312901 9.05991e-06  -0.03878 -0.335691 2.38419e-06  -0.0312681 -0.336134 -7.15256e-07  -0.0307937 -0.32854 5.24521e-06  -0.0387802 -0.335688 3.33786e-06  -0.0383012 -0.328095 8.10623e-06  -0.0307965 -0.328541 3.09944e-06  -0.0383027 -0.328099 1.19209e-06  -0.0397162 -0.350843 6.19888e-06  -0.0322096 -0.351287 4.05312e-06  -0.0317395 -0.343715 9.53674e-07  -0.0397177 -0.35084 5.72205e-06  -0.0392501 -0.343268 6.19888e-06  -0.0317395 -0.343714 2.6226e-06  -0.0392497 -0.343269 6.19888e-06  -0.0406466 -0.365955 0  -0.0331292 -0.366403 -2.6226e-06  -0.0326636 -0.358847 1.43051e-06  -0.0406451 -0.365953 -4.05312e-06  -0.0401835 -0.358399 1.90735e-06  -0.03267 -0.358851 7.15256e-07  -0.0401852 -0.358401 -7.15256e-07  -0.0415697 -0.381025 -3.8147e-06  -0.0340466 -0.381465 -7.62939e-06  -0.0335889 -0.373938 -2.38419e-06  -0.0415709 -0.381025 -1.43051e-06  -0.0411086 -0.373493 -5.24521e-06  -0.0335877 -0.37394 1.19209e-06  -0.0411086 -0.373494 -9.53674e-07  -0.00026457 -0.00108424 0.000122547  0 0 0  3.59416e-05 -0.00109869 1.90735e-06  1.49459e-05 -0.000228971 0  0 0 0  -0.000264093 -0.00111604 6.22272e-05  -0.000102557 -0.000236064 6.4373e-05  0 0 0  1.34632e-05 -0.000246644 -3.09944e-06  -0.000102207 -0.000255495 3.17097e-05  -0.000745833 -0.00418955 0.00020504  9.06289e-05 -0.00422871 -2.6226e-06  6.88434e-05 -0.00240502 0  -0.000739619 -0.00425389 0.000101328  -0.000484049 -0.00242588 0.000170708  6.26445e-05 -0.00245973 7.15256e-07  -0.000480086 -0.00248468 8.51154e-05  -0.0013338 -0.00870633 0.00024128  0.00011602 -0.00879815 6.67572e-06  0.00010848 -0.00627217 6.67572e-06  -0.00133339 -0.00880802 0.000121355  -0.00103396 -0.00628978 0.000227451  0.000107378 -0.00636458 4.29153e-06  -0.00102797 -0.0063833 0.000113726  -0.00196579 -0.0143453 0.00025034  9.57251e-05 -0.0144816 -2.38419e-07  0.000119895 -0.011395 3.8147e-06  -0.00196761 -0.0144691 0.000122309  -0.00164616 -0.0113921 0.000249386  0.000110686 -0.0115123 -1.66893e-06  -0.00164893 -0.0115123 0.000127792  -0.00261635 -0.0209754 0.000238419  2.46763e-05 -0.0211456 5.72205e-06  7.54595e-05 -0.0175638 8.58307e-06  -0.00262135 -0.0211093 0.000121832  -0.00229001 -0.0175386 0.000246525  6.80089e-05 -0.0176962 4.76837e-06  -0.00229096 -0.0176709 0.000121832  -0.00327718 -0.0285357 0.000223637  -0.000117779 -0.0287407 -9.53674e-07  -2.79546e-05 -0.0246891 5.72205e-06  -0.00328791 -0.0286765 0.00011301  -0.00294691 -0.0246362 0.000230312  -4.00543e-05 -0.0248312 3.8147e-06  -0.00295234 -0.0247815 0.00011611  -0.00396347 -0.0369782 0.000210285  -0.000319362 -0.0372044 1.90735e-06  -0.000197589 -0.0327219 -4.76837e-07  -0.0039745 -0.0371125 0.000104189  -0.00361693 -0.0326476 0.000213623  -0.000212431 -0.0328647 2.86102e-06  -0.00362879 -0.0327882 0.000108004  -0.00467646 -0.0462466 0.000190735  -0.000588894 -0.0464837 -1.66893e-06  -0.000436842 -0.0416106 1.90735e-06  -0.00468886 -0.046368 9.44138e-05  -0.00431782 -0.0415047 0.000195503  -0.000446975 -0.041746 -1.66893e-06  -0.004327 -0.0416424 9.89437e-05  -0.00541723 -0.0562689 0.000168324  -0.000924706 -0.0565345 -4.76837e-07  -0.000738621 -0.051291 -9.53674e-07  -0.00542879 -0.0563909 8.53539e-05  -0.00503993 -0.0511568 0.000175953  -0.000747919 -0.0514184 -7.15256e-07  -0.00505626 -0.0512885 8.79765e-05  -0.0061841 -0.0670002 0.000144482  -0.00132513 -0.0672804 -2.6226e-06  -0.00110841 -0.0617036 -5.24521e-06  -0.00619972 -0.0671075 7.43866e-05  -0.00579858 -0.0615436 0.000159264  -0.00111938 -0.0618226 -1.90735e-06  -0.00580943 -0.0616633 7.84397e-05  -0.00698781 -0.0783678 0.000130177  -0.00178897 -0.0786681 -6.91414e-06  -0.00154245 -0.0727866 -1.00136e-05  -0.00699866 -0.0784667 6.41346e-05  -0.00658202 -0.0726001 0.000140667  -0.00154805 -0.0728991 -5.00679e-06  -0.00659561 -0.0727131 6.93798e-05  -0.00781846 -0.0903141 0.00012064  -0.0023123 -0.0906349 -1.90735e-06  -0.00203109 -0.0844828 -8.10623e-06  -0.00783014 -0.0904085 5.88894e-05  -0.00740051 -0.0842643 0.000129223  -0.00204277 -0.0845805 -4.76837e-06  -0.0074091 -0.0843672 6.4373e-05  -0.00867081 -0.10278 0.000110149  -0.00289023 -0.103122 -4.76837e-06  -0.00258887 -0.0967214 -1.19209e-05  -0.00868428 -0.102866 5.62668e-05  -0.00824094 -0.0964802 0.000111103  -0.00259387 -0.0968141 -5.72205e-06  -0.00825369 -0.0965731 5.67436e-05  -0.00954795 -0.115719 9.20296e-05  -0.00351703 -0.116072 -7.62939e-06  -0.00319123 -0.109457 -7.62939e-06  -0.0095607 -0.115793 4.72069e-05  -0.00910676 -0.109191 0.000100136  -0.00319707 -0.10954 -5.24521e-06  -0.00911617 -0.109272 4.91142e-05  -0.0104519 -0.129066 8.05855e-05  -0.00418937 -0.129433 -5.00679e-06  -0.00384533 -0.122629 -5.72205e-06  -0.0104607 -0.129131 4.05312e-05  -0.00999975 -0.12234 8.63075e-05  -0.00384867 -0.122705 -3.8147e-06  -0.0100079 -0.122413 4.02927e-05  -0.011368 -0.142778 7.00951e-05  -0.0049119 -0.143156 -4.29153e-06  -0.00454068 -0.136185 -1.04904e-05  -0.011376 -0.142834 3.60012e-05  -0.0109071 -0.135871 7.48634e-05  -0.00454581 -0.136251 -5.96046e-06  -0.010916 -0.13594 3.71933e-05  -0.012301 -0.156805 6.48499e-05  -0.00566554 -0.157197 -6.4373e-06  -0.00527334 -0.150087 -9.53674e-06  -0.0123127 -0.156859 3.19481e-05  -0.0118287 -0.149751 6.38962e-05  -0.00528502 -0.150142 -4.76837e-06  -0.0118403 -0.149808 3.05176e-05  -0.0132525 -0.171105 5.00679e-05  -0.00646019 -0.17151 -8.10623e-06  -0.00605106 -0.16427 -1.23978e-05  -0.0132577 -0.171148 2.14577e-05  -0.0127733 -0.163918 5.72205e-05  -0.00605798 -0.164322 -9.05991e-06  -0.0127828 -0.163969 2.74181e-05  -0.0142064 -0.185639 4.86374e-05  -0.0072813 -0.186047 -6.4373e-06  -0.00686359 -0.178709 -9.05991e-06  -0.0142128 -0.185671 2.57492e-05  -0.0137269 -0.178341 5.19753e-05  -0.00686431 -0.178754 -6.91414e-06  -0.0137336 -0.178382 2.64645e-05  -0.0151706 -0.200356 3.67165e-05  -0.00812435 -0.20078 -2.14577e-06  -0.0076983 -0.193354 -6.19888e-06  -0.0151761 -0.200391 1.97887e-05  -0.0146871 -0.192971 4.3869e-05  -0.00770044 -0.193394 -2.14577e-06  -0.0146952 -0.193008 2.26498e-05  -0.016134 -0.215235 2.71797e-05  -0.0089941 -0.215668 -9.05991e-06  -0.0085547 -0.208176 -6.67572e-06  -0.0161419 -0.215265 1.33514e-05  -0.0156517 -0.207778 3.38554e-05  -0.00855803 -0.208206 -3.8147e-06  -0.0156569 -0.207808 1.62125e-05  -0.0171003 -0.230247 2.14577e-05  -0.00987577 -0.230677 -6.91414e-06  -0.00942969 -0.223133 -6.67572e-06  -0.0171061 -0.230264 1.43051e-05  -0.0166187 -0.222724 3.05176e-05  -0.00943255 -0.223159 -2.86102e-06  -0.0166242 -0.222749 1.19209e-05  -0.0180681 -0.245343 1.85966e-05  -0.0107737 -0.245782 -4.52995e-06  -0.0103171 -0.238195 -1.00136e-05  -0.0180717 -0.245357 7.86781e-06  -0.0175838 -0.237778 2.28882e-05  -0.0103221 -0.238217 -7.39098e-06  -0.0175858 -0.237797 1.07288e-05  -0.0190296 -0.260505 1.43051e-05  -0.0116775 -0.260945 -1.90735e-06  -0.0112205 -0.253337 -7.62939e-06  -0.0190353 -0.260516 8.34465e-06  -0.0185494 -0.25291 1.52588e-05  -0.0112233 -0.253355 -3.8147e-06  -0.0185554 -0.252929 5.48363e-06  -0.0199964 -0.275713 1.09673e-05  -0.0125895 -0.276156 -2.86102e-06  -0.0121305 -0.268534 -4.29153e-06  -0.0199955 -0.27572 3.8147e-06  -0.0195127 -0.268101 1.04904e-05  -0.0121331 -0.268547 -4.05312e-06  -0.0195146 -0.268114 3.09944e-06  -0.0209465 -0.290938 7.15256e-06  -0.0135152 -0.291387 1.43051e-06  -0.0130532 -0.283761 -1.90735e-06  -0.0209503 -0.290947 5.00679e-06  -0.0204716 -0.28332 8.10623e-06  -0.0130529 -0.283772 -1.90735e-06  -0.0204751 -0.283331 3.57628e-06  -0.0218966 -0.30617 7.15256e-06  -0.0144341 -0.306618 -4.05312e-06  -0.0139718 -0.299 -1.90735e-06  -0.0218964 -0.306175 7.62939e-06  -0.0214231 -0.298552 5.72205e-06  -0.0139742 -0.299005 3.33786e-06  -0.0214255 -0.29856 2.86102e-06  -0.0228345 -0.321388 4.29153e-06  -0.0153537 -0.321836 4.76837e-06  -0.0148909 -0.314229 -4.29153e-06  -0.0228386 -0.32139 -7.15256e-07  -0.0223656 -0.313779 4.76837e-06  -0.0148954 -0.314232 -1.19209e-06  -0.0223699 -0.313784 3.57628e-06  -0.0237699 -0.336579 1.43051e-06  -0.0162735 -0.337029 1.19209e-06  -0.0158148 -0.329437 -4.76837e-07  -0.0237696 -0.336578 5.00679e-06  -0.0233052 -0.328989 1.43051e-06  -0.0158162 -0.329438 2.14577e-06  -0.0233066 -0.328988 2.6226e-06  -0.0246966 -0.351743 9.53674e-07  -0.0171871 -0.352188 2.86102e-06  -0.0167315 -0.344613 -2.86102e-06  -0.0246964 -0.351737 9.53674e-07  -0.0242362 -0.344167 9.53674e-07  -0.0167291 -0.344616 -7.15256e-07  -0.0242326 -0.344162 3.57628e-06  -0.0256195 -0.366854 -9.53674e-07  -0.0181096 -0.367303 -3.57628e-06  -0.0176475 -0.359755 -1.90735e-06  -0.0256155 -0.366851 -7.15256e-07  -0.0251606 -0.359299 -1.43051e-06  -0.0176473 -0.359751 -2.38419e-06  -0.0251565 -0.359302 -1.19209e-06  -0.0265293 -0.381915 -4.76837e-07  -0.0190084 -0.382362 2.86102e-06  -0.0185611 -0.37484 -2.38419e-06  -0.0265286 -0.381913 -1.66893e-06  -0.026077 -0.374389 -1.90735e-06  -0.0185599 -0.374842 3.8147e-06  -0.0260727 -0.374388 -1.90735e-06  0.000342727 -0.00114197 -0.00012064  0 0 0  0.000649855 -0.00133419 -0.000114679  0.000253431 -0.000359356 -0.00013113  0 0 0  0.000339285 -0.00116885 -5.74589e-05  0.000130087 -0.000271559 -6.67572e-05  0 0 0  0.000250272 -0.000374675 -6.4373e-05  0.000130028 -0.000286341 -3.24249e-05  0.000923425 -0.00428241 -0.000200272  0.00176263 -0.00461841 -0.000194073  0.0011811 -0.00273401 -0.000330925  0.000916511 -0.00434822 -9.91821e-05  0.000614807 -0.0025034 -0.000170231  0.00116709 -0.00278687 -0.000164986  0.000606805 -0.00255847 -8.67844e-05  0.00157234 -0.00884151 -0.000229836  0.00303632 -0.00924116 -0.000231743  0.00241631 -0.00669199 -0.000442505  0.00156537 -0.00894469 -0.000117779  0.00124833 -0.00640917 -0.000219822  0.00240022 -0.00678992 -0.000219107  0.00123969 -0.00649953 -0.000108719  0.00217122 -0.014516 -0.000237465  0.00424761 -0.0149331 -0.000233412  0.00367391 -0.0118412 -0.000479698  0.00216222 -0.0146398 -0.000121117  0.00188473 -0.0115446 -0.000235558  0.00365523 -0.0119623 -0.000238657  0.00187349 -0.0116627 -0.000119686  0.0026719 -0.0211782 -0.000227928  0.00531983 -0.0216057 -0.000231504  0.00481516 -0.0180115 -0.000471592  0.00266039 -0.0213124 -0.000115156  0.00243503 -0.017719 -0.000233173  0.00480288 -0.0181476 -0.000237465  0.00242335 -0.0178555 -0.000115871  0.0030604 -0.0287809 -0.00021553  0.00623065 -0.0292085 -0.000217915  0.00580972 -0.0251521 -0.000450611  0.00304765 -0.0289187 -0.000107765  0.00287908 -0.024861 -0.00022459  0.00579578 -0.0252908 -0.00022459  0.00287026 -0.0250029 -0.00011158  0.00333786 -0.0372625 -0.000201702  0.00699341 -0.0376953 -0.000206709  0.00664055 -0.0332042 -0.000419617  0.00332952 -0.0373994 -9.94205e-05  0.00321168 -0.03291 -0.000209808  0.00662917 -0.0333448 -0.000208855  0.00320274 -0.0330496 -0.000105143  0.00350893 -0.0465755 -0.000184536  0.0076071 -0.0470104 -0.000190258  0.00732225 -0.0421164 -0.000389576  0.00350046 -0.0467008 -9.29832e-05  0.00343579 -0.0418136 -0.000195503  0.00731772 -0.0422536 -0.000196218  0.00342834 -0.0419501 -9.72748e-05  0.0035764 -0.0566462 -0.000174046  0.00807881 -0.0570879 -0.000176191  0.00786006 -0.0518286 -0.000360966  0.00356877 -0.0567675 -8.53539e-05  0.00355709 -0.0515168 -0.000182629  0.00785828 -0.0519556 -0.000181913  0.00354922 -0.0516411 -9.17912e-05  0.00354755 -0.0674247 -0.000162125  0.00841451 -0.0678659 -0.000157118  0.00826526 -0.0622717 -0.000327587  0.00353944 -0.0675327 -7.70092e-05  0.00357533 -0.0619454 -0.000168324  0.00826252 -0.06239 -0.000163555  0.00356674 -0.0620631 -8.29697e-05  0.00341797 -0.0788422 -0.00014782  0.00862455 -0.07929 -0.000143528  0.00853825 -0.0733902 -0.000300884  0.00341415 -0.0789424 -7.15256e-05  0.00349414 -0.073051 -0.000152111  0.00853658 -0.0735008 -0.00014782  0.00348866 -0.0731612 -7.82013e-05  0.0032053 -0.0908321 -0.000136375  0.00871491 -0.0912852 -0.000132561  0.00868797 -0.0851181 -0.000276089  0.00319564 -0.090929 -6.84261e-05  0.00332057 -0.0847659 -0.000140667  0.00868583 -0.0852207 -0.00014329  0.00331926 -0.0848661 -7.10487e-05  0.00290263 -0.103349 -0.000128746  0.00869119 -0.103807 -0.000115156  0.00871933 -0.0973933 -0.000252247  0.00289619 -0.103435 -6.55651e-05  0.00306404 -0.0970265 -0.000133991  0.00871682 -0.0974833 -0.000126362  0.00305545 -0.0971156 -6.79493e-05  0.00252676 -0.11633 -0.000112534  0.00856316 -0.116792 -0.00010848  0.0086416 -0.11016 -0.000226021  0.00251865 -0.116404 -5.65052e-05  0.00272369 -0.109778 -0.000119686  0.00863945 -0.110244 -0.000112534  0.00271547 -0.109863 -6.12736e-05  0.00207186 -0.129724 -0.000101089  0.00833523 -0.130185 -9.34601e-05  0.00846779 -0.123364 -0.000206947  0.00206733 -0.129785 -5.07832e-05  0.00230885 -0.12297 -0.000110149  0.00846136 -0.123439 -0.000102043  0.00230145 -0.123048 -5.67436e-05  0.0015564 -0.143469 -9.01222e-05  0.00801587 -0.143933 -8.70228e-05  0.00818574 -0.136951 -0.000180721  0.00155044 -0.143523 -4.31538e-05  0.00182092 -0.136544 -9.72748e-05  0.00818467 -0.137017 -9.2268e-05  0.00181818 -0.136612 -5.17368e-05  0.000972033 -0.157533 -7.96318e-05  0.00761271 -0.157999 -7.4625e-05  0.00782752 -0.150869 -0.000165939  0.000971317 -0.157576 -4.07696e-05  0.00127149 -0.150458 -8.67844e-05  0.00782776 -0.15093 -8.10623e-05  0.00126886 -0.150517 -4.24385e-05  0.000337601 -0.171864 -7.20024e-05  0.00713253 -0.172331 -6.58035e-05  0.00738478 -0.165082 -0.000141144  0.00033617 -0.171903 -3.67165e-05  0.000664949 -0.164658 -7.77245e-05  0.00738096 -0.165132 -6.98566e-05  0.000657558 -0.16471 -3.71933e-05  -0.000351906 -0.18642 -6.29425e-05  0.00658178 -0.186895 -5.93662e-05  0.00686884 -0.179543 -0.000126362  -0.000353336 -0.186456 -3.45707e-05  0 -0.17911 -6.77109e-05  0.00686765 -0.179585 -6.65188e-05  -4.52995e-06 -0.179153 -3.52859e-05  -0.00108027 -0.201164 -5.48363e-05  0.00596881 -0.201638 -4.91142e-05  0.00628281 -0.194208 -0.000106335  -0.00108147 -0.201198 -2.45571e-05  -0.000713348 -0.193765 -6.24657e-05  0.00628233 -0.194244 -5.00679e-05  -0.000710249 -0.193806 -3.26633e-05  -0.00184536 -0.216069 -4.43459e-05  0.00530648 -0.21654 -4.17233e-05  0.00564694 -0.20904 -8.72612e-05  -0.00184488 -0.216092 -2.26498e-05  -0.00145626 -0.208594 -5.19753e-05  0.00564361 -0.209073 -4.33922e-05  -0.00145745 -0.208627 -2.19345e-05  -0.00264478 -0.231093 -3.71933e-05  0.00459194 -0.231561 -3.0756e-05  0.00495505 -0.224011 -8.01086e-05  -0.00264692 -0.231108 -1.90735e-05  -0.00224304 -0.223563 -4.52995e-05  0.00495529 -0.224038 -3.69549e-05  -0.00224328 -0.223589 -2.3365e-05  -0.00347042 -0.2462 -3.43323e-05  0.00383139 -0.24667 -2.88486e-05  0.00421953 -0.239084 -6.53267e-05  -0.0034709 -0.246219 -1.5974e-05  -0.00305772 -0.238633 -4.1008e-05  0.00421643 -0.239106 -3.21865e-05  -0.00305533 -0.238655 -1.90735e-05  -0.00432467 -0.261384 -2.19345e-05  0.00303507 -0.261851 -2.74181e-05  0.00344038 -0.254235 -5.24521e-05  -0.0043242 -0.261391 -1.54972e-05  -0.00389409 -0.253776 -2.90871e-05  0.00343657 -0.254254 -2.7895e-05  -0.00389695 -0.253797 -1.33514e-05  -0.00519419 -0.276597 -2.47955e-05  0.00221205 -0.277064 -1.50204e-05  0.0026288 -0.269437 -4.24385e-05  -0.00519323 -0.276605 -1.09673e-05  -0.00475669 -0.268978 -2.52724e-05  0.00262904 -0.269451 -2.02656e-05  -0.0047586 -0.268992 -1.28746e-05  -0.00607777 -0.291837 -1.62125e-05  0.00136161 -0.292299 -1.21593e-05  0.00179148 -0.28467 -2.6226e-05  -0.00607562 -0.291839 -6.67572e-06  -0.00563478 -0.284211 -1.90735e-05  0.00178981 -0.284679 -1.16825e-05  -0.00562978 -0.28422 -6.91414e-06  -0.00697184 -0.307072 -6.19888e-06  0.000492811 -0.30753 -1.07288e-05  0.000932693 -0.299907 -2.38419e-05  -0.00697064 -0.307073 -2.14577e-06  -0.00652266 -0.299447 -1.23978e-05  0.000928402 -0.299916 -1.04904e-05  -0.00652075 -0.299457 -4.52995e-06  -0.00787425 -0.322289 -5.72205e-06  -0.000390053 -0.322751 -9.05991e-06  5.65052e-05 -0.315135 -1.52588e-05  -0.00787306 -0.322293 -9.53674e-07  -0.00742221 -0.314678 -9.53674e-06  5.24521e-05 -0.315145 -8.10623e-06  -0.00741959 -0.314684 -7.15256e-06  -0.00877833 -0.337485 -5.24521e-06  -0.00128126 -0.337942 -2.86102e-06  -0.000830889 -0.330348 -9.05991e-06  -0.00877833 -0.337486 -1.66893e-06  -0.00832653 -0.329887 -6.19888e-06  -0.000833988 -0.33035 -5.24521e-06  -0.00832486 -0.329892 -2.38419e-06  -0.00968814 -0.352649 2.86102e-06  -0.00218153 -0.353102 2.38419e-07  -0.00172973 -0.345522 -1.09673e-05  -0.00968719 -0.352645 2.38419e-06  -0.00923252 -0.345067 -1.90735e-06  -0.00172973 -0.345526 -4.05312e-06  -0.00923419 -0.345069 -2.86102e-06  -0.0105975 -0.367764 -1.43051e-06  -0.00308871 -0.368218 1.43051e-06  -0.00263166 -0.36066 -3.8147e-06  -0.0105975 -0.367759 -7.15256e-07  -0.0101418 -0.360207 9.53674e-07  -0.00263214 -0.360664 -4.05312e-06  -0.0101414 -0.360207 -4.76837e-07  -0.011498 -0.382824 4.76837e-07  -0.00399113 -0.383278 1.66893e-06  -0.00353575 -0.375752 1.43051e-06  -0.0115023 -0.382821 6.4373e-06  -0.0110505 -0.375294 0  -0.00353694 -0.375753 7.15256e-07  -0.0110481 -0.375298 -1.43051e-06  0.00100031 -0.00157636 -0.000357151  0 0 0  0.00137188 -0.00202054 -0.000231981  0.000537224 -0.000735044 -0.000251293  0 0 0  0.00099057 -0.00161326 -0.000172853  0.000383474 -0.000505447 -0.000191689  0 0 0  0.000529297 -0.000757694 -0.000124454  0.000380784 -0.000524104 -9.2268e-05  0.00269175 -0.00496984 -0.000592709  0.00367168 -0.0056476 -0.000385046  0.00246859 -0.00362635 -0.000652313  0.00267342 -0.00504768 -0.000292063  0.00178994 -0.00309908 -0.000495434  0.00245145 -0.00369698 -0.000318527  0.00177652 -0.00315827 -0.00024128  0.00459591 -0.00958884 -0.000694752  0.00620469 -0.0103052 -0.000454664  0.00496206 -0.00774992 -0.00086689  0.004576 -0.00969535 -0.000345945  0.00364053 -0.00713778 -0.000659466  0.00494015 -0.00785458 -0.000428438  0.00362167 -0.00723886 -0.000327826  0.00640863 -0.0152414 -0.00071907  0.00860882 -0.0159394 -0.000476837  0.0074603 -0.0128679 -0.000944138  0.00639063 -0.0153677 -0.000362158  0.00552273 -0.0122822 -0.00071764  0.00743109 -0.0129979 -0.000469446  0.00550175 -0.0124075 -0.000358105  0.00803626 -0.0218848 -0.000693321  0.0107919 -0.0225561 -0.000458002  0.00975215 -0.0189818 -0.000940323  0.00802022 -0.0220196 -0.000346899  0.00724864 -0.0184304 -0.000710011  0.00973332 -0.0191248 -0.000469923  0.0072301 -0.0185731 -0.000354528  0.00946432 -0.0294749 -0.000650406  0.0127355 -0.0301309 -0.000432491  0.0118098 -0.0260774 -0.000897884  0.00945067 -0.0296134 -0.000324249  0.00877744 -0.0255564 -0.000673294  0.011793 -0.0262247 -0.000449896  0.00876069 -0.0256994 -0.000335217  0.010695 -0.0379581 -0.000605583  0.0144411 -0.0386021 -0.000403166  0.0136217 -0.0341108 -0.000840187  0.0106879 -0.0380965 -0.000302553  0.0101027 -0.0336073 -0.000628948  0.0136172 -0.0342534 -0.000418663  0.0100938 -0.0337474 -0.000312328  0.0117441 -0.0472834 -0.000559807  0.0159236 -0.0479097 -0.000371933  0.0152115 -0.0430169 -0.000771523  0.0117407 -0.0474143 -0.000277042  0.0112423 -0.0425175 -0.000580788  0.015209 -0.0431537 -0.000382185  0.011237 -0.0426559 -0.000290871  0.0126137 -0.0573733 -0.000516891  0.0171987 -0.057988 -0.000344515  0.0165879 -0.0527236 -0.000716686  0.0126132 -0.0574967 -0.000260592  0.0122002 -0.0522325 -0.000537872  0.0165883 -0.0528564 -0.000359297  0.012198 -0.052361 -0.00027132  0.0133229 -0.0681684 -0.000473022  0.0182682 -0.0687754 -0.000315189  0.0177578 -0.0631761 -0.000655174  0.0133175 -0.0682815 -0.000235319  0.0129876 -0.0626847 -0.000490665  0.0177572 -0.0632969 -0.000328302  0.0129851 -0.0628018 -0.000246048  0.0138646 -0.0796035 -0.000433445  0.0191472 -0.0802012 -0.000284433  0.0187315 -0.0742981 -0.000600815  0.0138639 -0.0797098 -0.000218153  0.0136129 -0.0738073 -0.000450134  0.0187315 -0.0744108 -0.000301838  0.013612 -0.073917 -0.000224829  0.0142584 -0.0916211 -0.000389099  0.0198412 -0.0922123 -0.000260592  0.0195172 -0.0860376 -0.000544548  0.0142585 -0.0917162 -0.000195026  0.0140778 -0.0855439 -0.00041151  0.0195158 -0.086138 -0.000273228  0.01408 -0.0856445 -0.00020504  0.0145122 -0.104161 -0.000356674  0.0203702 -0.104739 -0.000236273  0.0201285 -0.098321 -0.000488758  0.0145106 -0.104244 -0.000175953  0.0144013 -0.0978254 -0.000369549  0.020125 -0.0984152 -0.000241041  0.0144011 -0.097916 -0.000183105  0.0146306 -0.11716 -0.000319004  0.0207391 -0.117733 -0.000214815  0.0205746 -0.111101 -0.000447273  0.0146312 -0.117233 -0.000162363  0.0145887 -0.110602 -0.000337601  0.0205731 -0.111181 -0.000223398  0.0145864 -0.110684 -0.000170469  0.0146284 -0.130563 -0.000286579  0.0209585 -0.131132 -0.000183344  0.020859 -0.124309 -0.000398636  0.0146258 -0.130631 -0.000142813  0.0146469 -0.123812 -0.000304699  0.020867 -0.124383 -0.000200272  0.0146453 -0.123883 -0.000150919  0.0145078 -0.144331 -0.000253677  0.0210299 -0.144892 -0.000166655  0.021004 -0.1379 -0.000354767  0.0145066 -0.144391 -0.000125647  0.0145816 -0.137407 -0.000267982  0.0210097 -0.13797 -0.00017643  0.0145795 -0.13747 -0.000128746  0.0142796 -0.158409 -0.000226021  0.0209777 -0.158962 -0.000148773  0.0210197 -0.151829 -0.000315189  0.0142787 -0.158459 -0.00011158  0.0144043 -0.151329 -0.000239849  0.0210171 -0.15189 -0.000156879  0.0144095 -0.151388 -0.000119686  0.0139515 -0.172754 -0.000202179  0.0208039 -0.173299 -0.000129461  0.0209031 -0.166045 -0.000275612  0.0139527 -0.172795 -0.00010252  0.0141313 -0.165546 -0.000210762  0.0209053 -0.166098 -0.000139475  0.0141263 -0.165597 -0.000103951  0.0135369 -0.187326 -0.000174046  0.0205176 -0.187859 -0.000114441  0.0206723 -0.180505 -0.000243664  0.01354 -0.187361 -8.53539e-05  0.0137541 -0.180004 -0.000181198  0.0206769 -0.180553 -0.000124216  0.0137565 -0.180052 -9.2268e-05  0.0130355 -0.20208 -0.000144958  0.0201354 -0.202606 -9.799e-05  0.0203331 -0.195172 -0.000210762  0.0130382 -0.202108 -7.10487e-05  0.0132959 -0.194672 -0.000153065  0.0203364 -0.195214 -0.000106096  0.0132966 -0.194714 -8.01086e-05  0.0124664 -0.216984 -0.00012207  0.0196564 -0.217509 -8.72612e-05  0.0199049 -0.210008 -0.000174999  0.012466 -0.217013 -5.96046e-05  0.012763 -0.209512 -0.000132084  0.0199049 -0.21004 -8.98838e-05  0.0127609 -0.209545 -6.38962e-05  0.0118361 -0.232009 -0.000102043  0.0191095 -0.232524 -6.93798e-05  0.0193918 -0.224975 -0.000152111  0.0118337 -0.232034 -4.91142e-05  0.0121615 -0.224482 -0.000113487  0.019392 -0.225002 -7.41482e-05  0.0121593 -0.224509 -5.79357e-05  0.0111454 -0.247128 -8.91685e-05  0.0184848 -0.24763 -5.50747e-05  0.0188005 -0.240048 -0.000120163  0.0111489 -0.247142 -4.43459e-05  0.011497 -0.23956 -9.20296e-05  0.0188055 -0.240069 -6.03199e-05  0.0114961 -0.239577 -4.43459e-05  0.0104039 -0.262308 -6.67572e-05  0.0177944 -0.262804 -4.93526e-05  0.0181465 -0.255194 -9.67979e-05  0.0104041 -0.262324 -3.6478e-05  0.0107822 -0.254705 -7.48634e-05  0.0181484 -0.255213 -4.91142e-05  0.0107839 -0.254726 -3.88622e-05  0.00962234 -0.277522 -5.57899e-05  0.0170591 -0.278014 -3.79086e-05  0.0174272 -0.270391 -8.10623e-05  0.00962377 -0.277534 -2.21729e-05  0.0100183 -0.26991 -5.53131e-05  0.017431 -0.270406 -3.98159e-05  0.0100193 -0.269922 -3.12328e-05  0.00880671 -0.292761 -3.95775e-05  0.0162749 -0.293243 -2.19345e-05  0.0166688 -0.285616 -6.1512e-05  0.00881195 -0.292767 -2.14577e-05  0.00921941 -0.285138 -4.52995e-05  0.0166707 -0.285628 -2.98023e-05  0.0092237 -0.28515 -2.14577e-05  0.00796342 -0.307998 -2.81334e-05  0.0154524 -0.308473 -1.33514e-05  0.0158644 -0.300847 -4.29153e-05  0.00796866 -0.307993 -1.40667e-05  0.00839305 -0.300375 -3.09944e-05  0.0158684 -0.300853 -2.24113e-05  0.00839233 -0.300381 -1.50204e-05  0.00709915 -0.323212 -1.81198e-05  0.0146091 -0.323686 -1.64509e-05  0.015033 -0.316073 -3.24249e-05  0.0071044 -0.323218 -8.82149e-06  0.0075376 -0.315604 -2.90871e-05  0.0150337 -0.316078 -1.71661e-05  0.00753856 -0.315609 -1.33514e-05  0.00621986 -0.338401 -8.10623e-06  0.0137367 -0.338874 -6.91414e-06  0.0141671 -0.331276 -1.7643e-05  0.00622106 -0.338405 -2.14577e-06  0.00666308 -0.330808 -1.14441e-05  0.0141749 -0.331281 -1.09673e-05  0.00666356 -0.330814 -2.38419e-06  0.00533032 -0.353563 -4.76837e-06  0.012845 -0.354022 -2.14577e-06  0.0132897 -0.346449 -6.19888e-06  0.00532889 -0.353563 -4.52995e-06  0.00577641 -0.345986 -6.67572e-06  0.0132928 -0.346451 -4.52995e-06  0.00577664 -0.345987 -3.57628e-06  0.00442553 -0.368674 -1.43051e-06  0.0119495 -0.369136 -1.43051e-06  0.0123963 -0.361581 -9.05991e-06  0.00442791 -0.368677 4.76837e-07  0.00487638 -0.361123 -9.53674e-07  0.0123985 -0.361583 -3.09944e-06  0.00487876 -0.361122 -4.76837e-07  0.00353193 -0.38374 2.38419e-06  0.0110555 -0.384209 -1.43051e-06  0.0114999 -0.376672 0  0.00352955 -0.383741 7.15256e-07  0.00397491 -0.376213 1.90735e-06  0.0115016 -0.376676 3.33786e-06  0.00397968 -0.376214 2.6226e-06  0.00185396 -0.00256687 -0.000579834  0 0 0  0.00241746 -0.00344169 -0.000340939  0.000939809 -0.00161451 -0.000372887  0 0 0  0.00184332 -0.00260842 -0.000286341  0.00069961 -0.00108498 -0.000311375  0 0 0  0.000938207 -0.00163776 -0.000184059  0.000697665 -0.00110722 -0.000151396  0.00483543 -0.00634331 -0.000965595  0.00613743 -0.00741386 -0.000561714  0.00425936 -0.00531137 -0.000953197  0.00481001 -0.0064413 -0.000477314  0.00327358 -0.00434875 -0.000803947  0.0042416 -0.00539351 -0.000467062  0.00325491 -0.00442535 -0.000395536  0.00798896 -0.0109429 -0.0011363  0.00986376 -0.0119638 -0.000674009  0.0080452 -0.00945532 -0.0012722  0.00795847 -0.0110661 -0.000564337  0.00642303 -0.00852591 -0.00107431  0.00801855 -0.00957787 -0.000627279  0.00639501 -0.00863755 -0.000528336  0.0109597 -0.0165028 -0.00118065  0.0133758 -0.0174617 -0.000697374  0.011685 -0.0144406 -0.00139713  0.0109327 -0.0166409 -0.00058794  0.00950372 -0.0135893 -0.00117064  0.0116505 -0.0145832 -0.000693321  0.00947505 -0.0137279 -0.00057888  0.0136719 -0.023071 -0.00114679  0.0166166 -0.0239767 -0.000682354  0.0150603 -0.0204455 -0.00139189  0.0136511 -0.0232101 -0.000575781  0.012351 -0.0196568 -0.00116777  0.015034 -0.0205926 -0.000694513  0.0123268 -0.0198001 -0.000582695  0.0161086 -0.0306085 -0.00107718  0.0195492 -0.0314836 -0.000641823  0.018142 -0.0274596 -0.0013299  0.0160938 -0.0307529 -0.000540257  0.0149231 -0.0267144 -0.00111675  0.0181208 -0.0276096 -0.000663519  0.0149062 -0.026864 -0.000556707  0.0182751 -0.039065 -0.0010047  0.0221802 -0.0399058 -0.000598192  0.0209154 -0.0354347 -0.00125027  0.0182664 -0.0392046 -0.000501871  0.0172222 -0.034723 -0.00104189  0.0209049 -0.0355824 -0.000625134  0.0172139 -0.0348684 -0.000519753  0.0201803 -0.048367 -0.000929356  0.0245212 -0.0491809 -0.000555992  0.0233943 -0.044299 -0.00115347  0.0201799 -0.0484981 -0.00046587  0.0192614 -0.0436115 -0.000964165  0.023385 -0.0444369 -0.000577211  0.0192531 -0.0437471 -0.000482559  0.0218465 -0.0584433 -0.000854969  0.0265806 -0.0592307 -0.000510216  0.0255861 -0.0539805 -0.00106668  0.0218478 -0.0585637 -0.0004251  0.0210423 -0.0533077 -0.000893116  0.0255861 -0.054112 -0.000535727  0.0210439 -0.0534392 -0.000445366  0.0232764 -0.0692422 -0.000780106  0.02837 -0.0699998 -0.0004673  0.0275112 -0.0644103 -0.000976562  0.0232778 -0.0693454 -0.000386477  0.022591 -0.0637507 -0.000815392  0.0275071 -0.06453 -0.000489235  0.022591 -0.0638745 -0.000411272  0.0244857 -0.080667 -0.000711918  0.0299069 -0.081411 -0.0004251  0.0291704 -0.0755172 -0.000890255  0.0244892 -0.0807699 -0.000356674  0.0239098 -0.0748712 -0.000745296  0.0291697 -0.0756285 -0.000443697  0.0239108 -0.074981 -0.000374317  0.0254834 -0.0926827 -0.000646591  0.0312009 -0.0934088 -0.000389576  0.0305848 -0.0872366 -0.0008111  0.0254854 -0.0927789 -0.000323296  0.0250106 -0.0866034 -0.000678539  0.0305849 -0.0873406 -0.000408173  0.0250119 -0.0867041 -0.000336409  0.0262873 -0.105219 -0.00058651  0.0322695 -0.105919 -0.000354052  0.0317631 -0.099508 -0.000738621  0.026284 -0.1053 -0.000290394  0.0259081 -0.0988833 -0.000615597  0.0317628 -0.0996 -0.000370026  0.0259097 -0.0989753 -0.000308514  0.0268941 -0.118212 -0.000525475  0.0331168 -0.118896 -0.000320435  0.0327204 -0.112271 -0.000665188  0.0268973 -0.118287 -0.000263929  0.0266119 -0.111659 -0.000551224  0.0327216 -0.112352 -0.000334978  0.0266142 -0.111738 -0.000276089  0.0273278 -0.13161 -0.000469208  0.0337656 -0.13228 -0.000279903  0.0334618 -0.125468 -0.000591278  0.0273299 -0.13168 -0.000236511  0.0271325 -0.124862 -0.000495911  0.0334665 -0.125539 -0.000295401  0.0271343 -0.124935 -0.000250816  0.0275979 -0.145377 -0.000416756  0.0342274 -0.146029 -0.000249386  0.0340129 -0.139046 -0.000527859  0.0275996 -0.14544 -0.000207663  0.0274807 -0.138452 -0.00044632  0.0340179 -0.139112 -0.00026226  0.027482 -0.138516 -0.000220537  0.0277131 -0.159451 -0.000368595  0.0345135 -0.16008 -0.000219822  0.0343919 -0.152959 -0.000461578  0.0277143 -0.159503 -0.000184774  0.027674 -0.152375 -0.00039053  0.034389 -0.15302 -0.000229359  0.0276756 -0.152433 -0.000194788  0.0276883 -0.173788 -0.000321388  0.0346303 -0.174403 -0.000184774  0.0345898 -0.167159 -0.000406742  0.0276883 -0.173833 -0.000161648  0.0277157 -0.166584 -0.000346661  0.0345912 -0.167208 -0.00020504  0.02772 -0.166634 -0.000172138  0.0275331 -0.188351 -0.000278473  0.0346038 -0.188951 -0.000164986  0.034637 -0.181603 -0.000358582  0.0275352 -0.188388 -0.000136375  0.0276275 -0.181036 -0.000301361  0.0346327 -0.181648 -0.000179529  0.0276265 -0.181084 -0.000149727  0.0272579 -0.203105 -0.000236511  0.0344377 -0.203683 -0.000141144  0.0345383 -0.196254 -0.000303745  0.0272591 -0.20313 -0.000119686  0.0274143 -0.195703 -0.000257969  0.0345371 -0.196292 -0.000149727  0.0274088 -0.195739 -0.000127554  0.0268784 -0.217997 -0.000204563  0.0341463 -0.218566 -0.000121832  0.0343013 -0.211073 -0.000261784  0.0268786 -0.218027 -0.000101328  0.0270832 -0.210527 -0.000218868  0.0343072 -0.211105 -0.000129938  0.0270815 -0.210561 -0.00010705  0.0264041 -0.233014 -0.000167847  0.0337455 -0.233569 -0.00010252  0.0339539 -0.226025 -0.000219822  0.0264044 -0.23304 -8.51154e-05  0.0266502 -0.225493 -0.000187397  0.0339563 -0.226052 -0.00010848  0.0266564 -0.225517 -9.5129e-05  0.0258429 -0.248126 -0.000134468  0.0332379 -0.248657 -7.77245e-05  0.0335009 -0.241076 -0.00017643  0.0258462 -0.248138 -6.91414e-05  0.0261331 -0.240552 -0.000148773  0.0335042 -0.241098 -8.55923e-05  0.0261378 -0.240578 -7.4625e-05  0.0252063 -0.263289 -0.000107765  0.0326505 -0.263812 -6.24657e-05  0.0329566 -0.256208 -0.000144005  0.0252075 -0.263303 -5.72205e-05  0.0255322 -0.255696 -0.00012207  0.0329547 -0.256225 -7.36713e-05  0.0255358 -0.255711 -6.05583e-05  0.0245051 -0.278497 -8.29697e-05  0.0319891 -0.279003 -5.126e-05  0.0323269 -0.271388 -0.000113964  0.0245085 -0.278504 -4.14848e-05  0.0248611 -0.270883 -9.44138e-05  0.0323274 -0.2714 -5.93662e-05  0.0248663 -0.270895 -5.07832e-05  0.0237544 -0.293718 -6.29425e-05  0.0312603 -0.294216 -3.3617e-05  0.0316257 -0.286596 -8.67844e-05  0.0237548 -0.293723 -3.05176e-05  0.0241392 -0.286102 -7.77245e-05  0.0316308 -0.286606 -4.26769e-05  0.0241382 -0.286112 -3.79086e-05  0.0229502 -0.308944 -4.62532e-05  0.0304742 -0.309432 -2.81334e-05  0.0308709 -0.301814 -6.4373e-05  0.0229549 -0.308948 -2.00272e-05  0.0233569 -0.301329 -5.38826e-05  0.0308731 -0.301823 -3.17097e-05  0.0233624 -0.301337 -2.86102e-05  0.0221155 -0.324156 -3.48091e-05  0.0296502 -0.324629 -1.26362e-05  0.0300632 -0.317028 -4.33922e-05  0.0221198 -0.324155 -1.7643e-05  0.0225396 -0.316546 -3.67165e-05  0.0300665 -0.317032 -1.81198e-05  0.0225425 -0.316554 -1.85966e-05  0.0212524 -0.339341 -1.62125e-05  0.0287912 -0.339805 -8.10623e-06  0.0292213 -0.332222 -2.38419e-05  0.021256 -0.339338 -4.76837e-06  0.0216877 -0.331749 -2.47955e-05  0.0292227 -0.332221 -1.4782e-05  0.0216913 -0.33175 -1.23978e-05  0.0203676 -0.354489 -8.58307e-06  0.0279045 -0.354949 -3.09944e-06  0.0283442 -0.347378 -1.90735e-05  0.0203731 -0.354486 -5.96046e-06  0.020813 -0.346914 -1.19209e-05  0.0283525 -0.347381 -9.77516e-06  0.0208182 -0.346916 -7.39098e-06  0.0194745 -0.369601 -1.43051e-06  0.0270126 -0.370063 -2.38419e-07  0.0274596 -0.362508 -5.24521e-06  0.0194774 -0.3696 -1.19209e-06  0.0199192 -0.362044 -6.19888e-06  0.0274606 -0.362507 -2.86102e-06  0.0199254 -0.362043 -2.38419e-07  0.0185742 -0.384678 6.19888e-06  0.0261121 -0.385142 1.04904e-05  0.0265591 -0.377595 4.76837e-07  0.0185785 -0.384675 3.33786e-06  0.0190198 -0.377136 1.90735e-06  0.0265601 -0.377597 -1.19209e-06  0.0190287 -0.377137 2.6226e-06  0.00338924 -0.00462162 -0.000806808  0 0 0  0.00488754 -0.00609577 -0.000451326  0.00232954 -0.0039503 -0.000501156  0 0 0  0.00338803 -0.00468624 -0.00039959  0.0012875 -0.00244093 -0.000436783  0 0 0  0.00234023 -0.00399607 -0.00024581  0.0012869 -0.00247186 -0.000211716  0.00770253 -0.00844193 -0.00131845  0.00947082 -0.00978971 -0.00073719  0.00715488 -0.00781 -0.00125027  0.00768581 -0.00855339 -0.000652552  0.00554432 -0.00649703 -0.00110435  0.0071584 -0.00791317 -0.000614882  0.00553681 -0.00659156 -0.000545025  0.0119483 -0.0128459 -0.00156593  0.0141308 -0.0141132 -0.000878811  0.0118124 -0.0116907 -0.00167036  0.011919 -0.012984 -0.000777721  0.00984704 -0.0105237 -0.00147057  0.0118026 -0.0118347 -0.000828505  0.00981784 -0.0106551 -0.000729799  0.0159844 -0.0182479 -0.00162649  0.0186674 -0.0194476 -0.000916719  0.0164535 -0.0164877 -0.0018301  0.015957 -0.0183991 -0.000811338  0.0140014 -0.0154101 -0.001616  0.016426 -0.0166433 -0.000910759  0.0139694 -0.0155575 -0.000801802  0.0197242 -0.0247054 -0.00159025  0.0229224 -0.0258344 -0.000899315  0.0208679 -0.022348 -0.0018363  0.0197017 -0.0248523 -0.000791788  0.0178951 -0.0213404 -0.00161362  0.0208373 -0.0225095 -0.000914335  0.0178691 -0.0214971 -0.000805378  0.0231397 -0.0321648 -0.00150156  0.026823 -0.0332437 -0.000863552  0.0249433 -0.0292593 -0.00176144  0.0231203 -0.0323095 -0.000753164  0.0214751 -0.0283061 -0.00154829  0.0249162 -0.0294169 -0.000883579  0.0214539 -0.028462 -0.000770807  0.026217 -0.0405645 -0.00139809  0.0303609 -0.0415994 -0.000792742  0.0286531 -0.0371621 -0.00165558  0.0262093 -0.0407048 -0.000698566  0.0247193 -0.0362473 -0.00145483  0.0286385 -0.0373091 -0.000828028  0.0247062 -0.0363955 -0.000728846  0.0289764 -0.0498211 -0.00129318  0.0335369 -0.0508093 -0.000739336  0.0320044 -0.0459629 -0.00152922  0.028968 -0.0499487 -0.000649929  0.0276371 -0.0450874 -0.00134611  0.03199 -0.0461014 -0.000769138  0.0276293 -0.0452228 -0.00067234  0.0314152 -0.0598601 -0.00118637  0.0363619 -0.0608186 -0.000675201  0.0349971 -0.05559 -0.00140762  0.0314144 -0.0599827 -0.000594616  0.0302335 -0.0547416 -0.00124311  0.0349933 -0.0557143 -0.000707626  0.0302292 -0.0548711 -0.000618935  0.0335579 -0.0706193 -0.00108624  0.0388515 -0.0715362 -0.000619173  0.0376512 -0.0659688 -0.001297  0.0335577 -0.0707306 -0.000542879  0.0325234 -0.0651495 -0.00113726  0.0376499 -0.0660907 -0.000644684  0.0325223 -0.0652708 -0.000566721  0.0354123 -0.0820243 -0.000991821  0.0410329 -0.0829071 -0.000566959  0.0399847 -0.0770354 -0.00118399  0.0354167 -0.0821221 -0.000497818  0.0345231 -0.0762411 -0.0010376  0.0399806 -0.0771449 -0.000590324  0.0345204 -0.0763495 -0.000518322  0.0370015 -0.0940111 -0.000900269  0.0429038 -0.094862 -0.000515938  0.0420132 -0.0887157 -0.0010767  0.0370015 -0.0941036 -0.000451088  0.0362408 -0.0879413 -0.000945091  0.0420096 -0.0888138 -0.000537157  0.0362417 -0.0880424 -0.000469685  0.0383319 -0.106515 -0.000817776  0.0444887 -0.107333 -0.0004673  0.0437378 -0.100944 -0.000977516  0.0383309 -0.106597 -0.00041008  0.0376959 -0.100195 -0.000854492  0.0437291 -0.101035 -0.000491858  0.0377002 -0.100287 -0.00043273  0.0394152 -0.119484 -0.000736237  0.0458084 -0.120275 -0.000417233  0.0451782 -0.113668 -0.000876427  0.0394183 -0.119557 -0.000370264  0.0389026 -0.112942 -0.00077343  0.0451831 -0.113751 -0.000437737  0.0389054 -0.113022 -0.000387907  0.0402746 -0.132862 -0.000650406  0.0468732 -0.133625 -0.000370979  0.0463777 -0.126831 -0.000787735  0.0402738 -0.13293 -0.000324011  0.0398759 -0.126125 -0.000692844  0.0463698 -0.126902 -0.000395775  0.0398748 -0.126196 -0.000347376  0.0409188 -0.146602 -0.000579357  0.047699 -0.147341 -0.000329971  0.0473121 -0.140373 -0.000704288  0.0409224 -0.146665 -0.000289917  0.0406234 -0.139687 -0.00061655  0.0473148 -0.14044 -0.000351667  0.0406253 -0.139754 -0.00030756  0.0413702 -0.160656 -0.000510693  0.0483105 -0.161358 -0.000299692  0.0480297 -0.154257 -0.000629425  0.0413699 -0.160699 -0.000257254  0.0411704 -0.153589 -0.000546455  0.0480289 -0.154311 -0.000314236  0.0411692 -0.153646 -0.00027442  0.0416331 -0.174964 -0.000448227  0.0487046 -0.175642 -0.000249624  0.0485349 -0.168419 -0.000546932  0.0416367 -0.175008 -0.00022769  0.0415268 -0.167771 -0.000475883  0.0485327 -0.16847 -0.000277281  0.0415263 -0.167822 -0.000241041  0.0417278 -0.189498 -0.000388145  0.0489163 -0.190155 -0.000221252  0.0488346 -0.182833 -0.000471592  0.0417278 -0.189537 -0.000195026  0.0416954 -0.182202 -0.000416756  0.0488353 -0.182874 -0.000240088  0.0417025 -0.182246 -0.000209808  0.0416627 -0.204223 -0.000326633  0.0489545 -0.204861 -0.000185966  0.04896 -0.197446 -0.000411034  0.0416639 -0.204259 -0.000163555  0.0417185 -0.196836 -0.000357628  0.0489554 -0.197485 -0.000212431  0.0417154 -0.196877 -0.000177383  0.0414562 -0.219099 -0.000275135  0.0488281 -0.219707 -0.000157356  0.0489087 -0.212226 -0.000343323  0.0414586 -0.219125 -0.00013423  0.0415761 -0.211642 -0.000300407  0.0489087 -0.212261 -0.000168085  0.0415812 -0.211671 -0.000147581  0.0411232 -0.234092 -0.00023222  0.0485611 -0.234672 -0.000136614  0.0487142 -0.227151 -0.00028944  0.0411272 -0.234111 -0.000114679  0.0413065 -0.226579 -0.00025177  0.0487106 -0.227177 -0.00014329  0.0413089 -0.226605 -0.000127792  0.0406764 -0.249171 -0.000188351  0.0481629 -0.249731 -0.000104427  0.0483744 -0.242169 -0.000234604  0.0406783 -0.249188 -9.10759e-05  0.040915 -0.241617 -0.000207901  0.0483768 -0.242194 -0.00012064  0.0409164 -0.241637 -0.000103712  0.0401306 -0.264317 -0.000149727  0.0476544 -0.264857 -8.41618e-05  0.0479174 -0.257274 -0.000192165  0.0401313 -0.26433 -7.48634e-05  0.040416 -0.256736 -0.000169754  0.0479226 -0.257289 -9.48906e-05  0.0404193 -0.256752 -8.60691e-05  0.0394964 -0.279502 -0.000116348  0.0470483 -0.280022 -6.12736e-05  0.0473583 -0.272427 -0.000154972  0.0394976 -0.279512 -5.91278e-05  0.0398276 -0.271904 -0.000130653  0.0473619 -0.27244 -7.79629e-05  0.0398235 -0.271918 -6.84261e-05  0.0387893 -0.294705 -8.44002e-05  0.0463572 -0.295218 -5.53131e-05  0.0467091 -0.287605 -0.000115395  0.0387909 -0.294716 -4.12464e-05  0.0391505 -0.287099 -9.9659e-05  0.0467112 -0.287616 -5.98431e-05  0.0391541 -0.287108 -4.79221e-05  0.0380142 -0.309914 -6.29425e-05  0.0455914 -0.310397 -3.79086e-05  0.0459774 -0.302797 -7.9155e-05  0.0380232 -0.309915 -3.05176e-05  0.0384107 -0.302306 -7.15256e-05  0.0459828 -0.302809 -4.14848e-05  0.0384142 -0.302314 -3.26633e-05  0.0371969 -0.325109 -4.00543e-05  0.0447674 -0.325581 -2.55108e-05  0.0451829 -0.31799 -5.43594e-05  0.0372002 -0.325104 -2.0504e-05  0.0376136 -0.317507 -5.10216e-05  0.045188 -0.317991 -3.19481e-05  0.037616 -0.31751 -2.55108e-05  0.0363348 -0.340276 -2.0504e-05  0.0439017 -0.340744 -1.33514e-05  0.0443373 -0.333161 -4.05312e-05  0.0363333 -0.340278 -1.21593e-05  0.0367708 -0.332692 -3.14713e-05  0.0443397 -0.333163 -2.07424e-05  0.0367718 -0.332695 -1.57356e-05  0.0354452 -0.355418 -1.4782e-05  0.0430045 -0.355872 -6.19888e-06  0.0434504 -0.348306 -2.14577e-05  0.0354505 -0.355413 -5.96046e-06  0.0358925 -0.347844 -1.81198e-05  0.0434544 -0.348309 -8.58307e-06  0.0358946 -0.347846 -1.0252e-05  0.0345452 -0.370522 -2.86102e-06  0.0420978 -0.370981 -4.76837e-06  0.0425494 -0.363427 -9.05991e-06  0.0345495 -0.370521 1.66893e-06  0.0349972 -0.362971 -8.10623e-06  0.0425501 -0.363432 -1.19209e-06  0.0350008 -0.362971 -3.8147e-06  0.0336423 -0.385605 -9.53674e-07  0.0411878 -0.38606 -9.53674e-07  0.0416338 -0.378516 -2.38419e-06  0.033649 -0.385602 3.57628e-06  0.0340955 -0.378057 0  0.04164 -0.378519 -4.76837e-06  0.0340993 -0.378061 -1.66893e-06  -0.00486098 -0.00549586 0.00146246  -0.00232081 -0.00350701 0.00113058  0 0 0  -0.00335723 -0.00397602 0.00177336  0 0 0  -0.00237001 -0.00296808 0.00109243  -0.000930618 -0.0012959 0.000831127  0 0 0  -0.00236809 -0.00362415 0.000810623  -0.00335341 -0.00415829 0.00127983  -0.00127664 -0.00207153 0.000968456  0 0 0  -0.000922967 -0.00137435 0.000591755  -0.00127536 -0.00216173 0.000694752  -0.00949371 -0.00882321 0.0023756  -0.00712816 -0.0068314 0.00274944  -0.00771248 -0.00733603 0.00285244  -0.00607903 -0.00659279 0.00179672  -0.0042329 -0.00450382 0.00207472  -0.00715184 -0.00712101 0.0019865  -0.007669 -0.00765525 0.00208187  -0.00552827 -0.00560293 0.00240374  -0.00418787 -0.00473716 0.00150013  -0.0055003 -0.00586344 0.00174046  -0.0142536 -0.0128058 0.00279236  -0.0118993 -0.0102992 0.00359058  -0.0120109 -0.0113891 0.00330973  -0.00982812 -0.01086 0.0021143  -0.00802752 -0.00827862 0.00270939  -0.0118693 -0.0106901 0.002635  -0.0119553 -0.0117688 0.00245285  -0.00987881 -0.00922958 0.00314236  -0.00796694 -0.00860821 0.00199509  -0.00982448 -0.00959169 0.00231171  -0.0189238 -0.0178072 0.00287533  -0.0166487 -0.0147496 0.00384998  -0.0161211 -0.0164929 0.00337934  -0.013419 -0.0161046 0.00217724  -0.0116988 -0.0129763 0.00290537  -0.0166102 -0.0151693 0.00286818  -0.0160888 -0.0168963 0.00252342  -0.0140915 -0.013803 0.00337648  -0.0116445 -0.0133512 0.00216579  -0.0140474 -0.0141978 0.00251579  -0.0233769 -0.0238607 0.0027914  -0.0212048 -0.0202926 0.00381279  -0.0200204 -0.0226726 0.00326347  -0.0168205 -0.022376 0.00210142  -0.0151615 -0.0187309 0.00287056  -0.0211825 -0.0207052 0.00285673  -0.0200183 -0.023063 0.00244856  -0.0180999 -0.01945 0.00333786  -0.0151421 -0.0191119 0.00215387  -0.0180799 -0.019849 0.00250435  -0.0275738 -0.0309132 0.00262499  -0.0255139 -0.026878 0.00361586  -0.0237086 -0.0298561 0.00306273  -0.0200388 -0.0296285 0.00197744  -0.0184368 -0.0255106 0.00271845  -0.0255047 -0.0272649 0.00271702  -0.0237277 -0.0302195 0.00230169  -0.02189 -0.026138 0.00317097  -0.0184516 -0.0258832 0.00204229  -0.0219017 -0.0265223 0.00237894  -0.031534 -0.0388945 0.00242805  -0.029569 -0.0344242 0.00336933  -0.0271913 -0.0379565 0.00283527  -0.0230753 -0.0377962 0.00182819  -0.0215433 -0.0332463 0.00253201  -0.0295854 -0.0347926 0.00252819  -0.0272272 -0.0382994 0.00213337  -0.0254728 -0.0337877 0.00295115  -0.0215788 -0.0336007 0.00190496  -0.025502 -0.0341474 0.00221443  -0.0352406 -0.0477254 0.00223541  -0.0333852 -0.0428709 0.00311279  -0.030472 -0.0469087 0.00260639  -0.0259507 -0.0468057 0.00168133  -0.024484 -0.0418629 0.00233126  -0.0334171 -0.0432082 0.00233603  -0.0305203 -0.0472267 0.00195789  -0.0288544 -0.0423222 0.00271893  -0.0245323 -0.0421964 0.0017519  -0.0289007 -0.0426594 0.00204468  -0.0387179 -0.0573431 0.00204325  -0.0369608 -0.0521346 0.00284195  -0.0335737 -0.0566377 0.00237513  -0.0286738 -0.0565853 0.00152874  -0.0272715 -0.0512908 0.00213194  -0.0370045 -0.0524432 0.00213623  -0.0336264 -0.0569289 0.00178242  -0.0320462 -0.0516754 0.00248623  -0.0273306 -0.0515986 0.00160265  -0.0320971 -0.0519822 0.00186825  -0.0419914 -0.0676743 0.00186157  -0.0403397 -0.0621445 0.00260067  -0.0365067 -0.0670774 0.00216246  -0.0312577 -0.0670802 0.00138855  -0.0299222 -0.0614619 0.00194645  -0.0403801 -0.0624264 0.00195456  -0.0365589 -0.0673447 0.00162315  -0.035062 -0.0617632 0.00226974  -0.0299832 -0.0617457 0.00146246  -0.0351124 -0.0620518 0.00170469  -0.0450674 -0.0786673 0.00169134  -0.0435138 -0.0728323 0.00236177  -0.039273 -0.0781682 0.00196171  -0.0337061 -0.0782183 0.00126123  -0.0324432 -0.0723118 0.00176382  -0.0435525 -0.0730888 0.00176954  -0.0393245 -0.0784123 0.00147152  -0.0379094 -0.0725434 0.00206375  -0.0324987 -0.072569 0.0013237  -0.0379614 -0.0728001 0.00154638  -0.0479574 -0.0902461 0.0015254  -0.0464948 -0.0841552 0.00214195  -0.0418847 -0.0898542 0.00177383  -0.0360358 -0.0899422 0.0011363  -0.0348325 -0.083776 0.0015974  -0.0465361 -0.0843868 0.00160599  -0.0419347 -0.0900723 0.00133324  -0.0405988 -0.08394 0.00186682  -0.0348868 -0.0840103 0.00119877  -0.0406499 -0.084174 0.00140238  -0.0506737 -0.102377 0.00137091  -0.0492952 -0.0960356 0.0019269  -0.0443491 -0.102072 0.00159216  -0.0382377 -0.102208 0.00101805  -0.0370994 -0.0957965 0.00143862  -0.0493348 -0.0962453 0.0014472  -0.0443974 -0.102271 0.00119543  -0.0431342 -0.0958934 0.00168085  -0.0371509 -0.09601 0.00108337  -0.0431826 -0.0961042 0.00126362  -0.0532112 -0.114985 0.00122833  -0.0519249 -0.108431 0.00173187  -0.0466735 -0.114768 0.00142479  -0.0403305 -0.114936 0.000915051  -0.0392488 -0.108325 0.00129223  -0.0519593 -0.10862 0.00129795  -0.0467198 -0.114941 0.00107384  -0.0455302 -0.108359 0.00150967  -0.0392978 -0.108516 0.000967503  -0.0455762 -0.108551 0.00113249  -0.0555961 -0.128025 0.00109339  -0.0543905 -0.121276 0.00154305  -0.0488651 -0.127897 0.00127077  -0.042318 -0.128104 0.000817299  -0.0412872 -0.121302 0.00115108  -0.0544225 -0.121448 0.00115442  -0.0489093 -0.128048 0.000949383  -0.0477856 -0.121273 0.00134754  -0.0413364 -0.121467 0.000863075  -0.0478284 -0.12144 0.00101042  -0.0578325 -0.141448 0.000965595  -0.0566964 -0.13454 0.00137234  -0.0509292 -0.141394 0.00112152  -0.0441995 -0.141639 0.000718117  -0.0432254 -0.134677 0.00101662  -0.0567324 -0.134692 0.00102615  -0.0509685 -0.141531 0.000840664  -0.0499151 -0.134596 0.00119305  -0.0432714 -0.134826 0.000763416  -0.0499543 -0.134745 0.000892162  -0.0599189 -0.155215 0.000841141  -0.0588644 -0.148167 0.00120211  -0.0528681 -0.155236 0.00097847  -0.0459802 -0.155511 0.000631332  -0.0450568 -0.148403 0.000895977  -0.0588894 -0.148296 0.000903606  -0.052902 -0.155354 0.000735283  -0.0519125 -0.148272 0.00104427  -0.0450988 -0.148535 0.000671864  -0.0519516 -0.148404 0.000786304  -0.0618646 -0.169274 0.000732422  -0.0608804 -0.162095 0.00104523  -0.0546942 -0.169363 0.000847816  -0.0476649 -0.169662 0.000547409  -0.0467944 -0.162437 0.000780106  -0.0609097 -0.162214 0.000790596  -0.0547261 -0.169461 0.000638485  -0.0537939 -0.162258 0.000914097  -0.0468321 -0.162551 0.000583172  -0.0538287 -0.162374 0.000682831  -0.0636859 -0.183589 0.000632763  -0.0627658 -0.176304 0.000902653  -0.0564127 -0.183724 0.000734329  -0.0492585 -0.184059 0.000468731  -0.0484438 -0.176732 0.000674248  -0.0627925 -0.176402 0.00067997  -0.056437 -0.183817 0.00054884  -0.0555642 -0.17651 0.00079155  -0.0484717 -0.176831 0.000506878  -0.0555947 -0.176609 0.000594616  -0.065387 -0.19812 0.000537395  -0.0645337 -0.190741 0.000771046  -0.0580189 -0.198309 0.000623703  -0.0507736 -0.198664 0.000397682  -0.0499985 -0.191252 0.000577927  -0.0645506 -0.190825 0.000581741  -0.0580492 -0.198386 0.000468254  -0.0572269 -0.190987 0.000676155  -0.0500312 -0.191337 0.000433922  -0.0572538 -0.191076 0.000504971  -0.0669672 -0.212819 0.000440598  -0.0661733 -0.205376 0.000658035  -0.0595324 -0.213068 0.000519276  -0.0522103 -0.213437 0.000335693  -0.0514746 -0.205961 0.000492096  -0.0661881 -0.205445 0.000495911  -0.0595572 -0.213125 0.00039196  -0.0587866 -0.205666 0.000571251  -0.0515018 -0.206031 0.000368595  -0.0588155 -0.205734 0.000426292  -0.0684435 -0.22767 0.000367641  -0.0677056 -0.220168 0.000533104  -0.0609565 -0.227956 0.000426769  -0.0535643 -0.228347 0.000275135  -0.0528715 -0.220814 0.000403881  -0.0677159 -0.220227 0.000402451  -0.0609746 -0.228008 0.000320435  -0.0602539 -0.22049 0.000468731  -0.052897 -0.220875 0.000304222  -0.0602765 -0.220547 0.000352383  -0.0698204 -0.242638 0.000295162  -0.0691249 -0.235093 0.000442982  -0.0622835 -0.242962 0.000337601  -0.0548439 -0.243362 0.000221729  -0.0541847 -0.235794 0.00032711  -0.0691407 -0.235139 0.00033474  -0.0623019 -0.243 0.000257015  -0.0616286 -0.235441 0.00038147  -0.0542116 -0.235845 0.000246525  -0.0616469 -0.235492 0.000293255  -0.0711064 -0.257684 0.000228882  -0.070457 -0.250114 0.000346661  -0.0635426 -0.258045 0.000268459  -0.0560627 -0.258463 0.000172138  -0.0554366 -0.250864 0.00026083  -0.0704737 -0.25015 0.000258446  -0.0635583 -0.258073 0.00020504  -0.062923 -0.250491 0.000303268  -0.0554593 -0.250903 0.00019598  -0.0629396 -0.250528 0.000228882  -0.0723064 -0.272799 0.000176907  -0.0716999 -0.265204 0.000270367  -0.0647235 -0.273185 0.000203609  -0.0572069 -0.273613 0.000130653  -0.056623 -0.265998 0.000202656  -0.071722 -0.265234 0.00020647  -0.0647392 -0.273207 0.000153542  -0.0641437 -0.265599 0.000235558  -0.0566423 -0.26603 0.000154018  -0.0641558 -0.265634 0.000176907  -0.0734346 -0.287952 0.000135899  -0.0728669 -0.280349 0.000199318  -0.0658488 -0.288359 0.000151157  -0.05831 -0.288794 9.91821e-05  -0.057754 -0.281175 0.000152111  -0.0728831 -0.280367 0.000147343  -0.0658565 -0.288375 0.000114918  -0.0652926 -0.280763 0.000176907  -0.0577657 -0.281199 0.000113964  -0.0653045 -0.280786 0.000133038  -0.0745001 -0.303119 8.63075e-05  -0.0739594 -0.295517 0.000149727  -0.0669088 -0.303545 0.000102997  -0.0593646 -0.303987 7.10487e-05  -0.0588319 -0.296371 0.000110149  -0.0739729 -0.295531 0.000116348  -0.0669181 -0.303554 7.77245e-05  -0.0663829 -0.295945 0.000126362  -0.0588458 -0.29639 8.24928e-05  -0.0663946 -0.295962 9.29832e-05  -0.0755062 -0.318292 5.72205e-05  -0.0749989 -0.310693 0.000100613  -0.0679262 -0.318733 6.48499e-05  -0.0603759 -0.319179 4.1008e-05  -0.0598657 -0.311571 6.91414e-05  -0.0750086 -0.310698 7.58171e-05  -0.0679307 -0.318739 4.95911e-05  -0.0674217 -0.311132 8.44002e-05  -0.0598741 -0.311583 5.00679e-05  -0.0674291 -0.311145 6.34193e-05  -0.0764749 -0.33345 3.43323e-05  -0.0759861 -0.32586 5.62668e-05  -0.0689032 -0.333902 3.8147e-05  -0.0613573 -0.334349 3.14713e-05  -0.0608604 -0.326757 4.48227e-05  -0.0759966 -0.32587 4.3869e-05  -0.0689034 -0.333903 2.90871e-05  -0.0684168 -0.326313 4.86374e-05  -0.0608702 -0.326765 3.48091e-05  -0.0684199 -0.326318 3.52859e-05  -0.0774136 -0.34858 1.7643e-05  -0.0769408 -0.341016 2.57492e-05  -0.0698423 -0.349036 1.71661e-05  -0.0623024 -0.349487 9.53674e-06  -0.0618203 -0.341918 2.14577e-05  -0.0769472 -0.34102 2.28882e-05  -0.0698488 -0.349036 1.7643e-05  -0.0693755 -0.341471 2.71797e-05  -0.0618339 -0.341919 2.00272e-05  -0.0693791 -0.341471 2.14577e-05  -0.0783243 -0.363692 5.24521e-06  -0.0778613 -0.356142 1.19209e-05  -0.0707722 -0.364144 4.29153e-06  -0.063236 -0.364601 -1.90735e-06  -0.062762 -0.357041 7.62939e-06  -0.0778623 -0.356134 1.52588e-05  -0.0707765 -0.364148 -2.86102e-06  -0.0703046 -0.356594 9.53674e-06  -0.0627687 -0.357046 6.67572e-06  -0.0703166 -0.356594 9.05991e-06  -0.0792377 -0.378776 0  -0.0787704 -0.371235 -9.53674e-07  -0.0716884 -0.379228 -1.00136e-05  -0.0641558 -0.379688 -1.00136e-05  -0.0636923 -0.372139 -6.67572e-06  -0.0787787 -0.371237 -4.76837e-06  -0.0716958 -0.379232 -6.67572e-06  -0.0712328 -0.37169 -5.24521e-06  -0.063694 -0.372141 -8.58307e-06  -0.0712373 -0.371691 -4.29153e-06  -0.00182326 -0.00206126 0.00128555  0 0 0  -0.00132517 -0.00167443 0.000744343  -0.000521414 -0.00051409 0.000558853  0 0 0  -0.00179645 -0.00219788 0.000919819  -0.000688918 -0.000818178 0.000694275  0 0 0  -0.000511929 -0.000575915 0.000397682  -0.00067699 -0.000888363 0.000494957  -0.00478674 -0.00545189 0.00206995  -0.0035646 -0.00502212 0.00122118  -0.00241677 -0.00301348 0.0014143  -0.00472818 -0.00571081 0.0015111  -0.00323413 -0.0036353 0.00174522  -0.00237615 -0.00320244 0.00102043  -0.00318511 -0.00384538 0.00126076  -0.00792813 -0.00975706 0.00239325  -0.00607193 -0.00945085 0.0014348  -0.00486761 -0.00683109 0.00184011  -0.00786886 -0.0100844 0.00177574  -0.00636831 -0.00746931 0.00227928  -0.00481337 -0.00711216 0.00135565  -0.00630021 -0.00777577 0.00167513  -0.0109311 -0.0150777 0.00243807  -0.00851923 -0.0149059 0.00147009  -0.00735021 -0.0117186 0.00196505  -0.0108997 -0.0154433 0.00182533  -0.00945008 -0.0122787 0.00243998  -0.00730711 -0.0120525 0.00146437  -0.00940567 -0.0126343 0.00181818  -0.0137681 -0.0214428 0.0023427  -0.0108484 -0.0213518 0.00141573  -0.00970536 -0.0176476 0.0019269  -0.0137711 -0.0218049 0.00175858  -0.012368 -0.0181269 0.0024004  -0.00969958 -0.0180052 0.00144529  -0.0123544 -0.0184971 0.00180244  -0.0164574 -0.0287886 0.00219297  -0.0130526 -0.0287635 0.00132704  -0.0119473 -0.0245837 0.00182772  -0.0164847 -0.029143 0.00165033  -0.0151323 -0.0249911 0.00227451  -0.0119653 -0.0249435 0.00137472  -0.0151459 -0.0253545 0.00170851  -0.0190199 -0.0370496 0.0020299  -0.0151625 -0.0370746 0.00122166  -0.0140852 -0.0324616 0.00169182  -0.019062 -0.037387 0.00152493  -0.0177537 -0.0328033 0.00211191  -0.0141184 -0.0328097 0.00127172  -0.0177888 -0.0331546 0.00158787  -0.021458 -0.0461524 0.00185442  -0.0171792 -0.0462218 0.00111723  -0.0161324 -0.0412147 0.00154877  -0.0215086 -0.0464676 0.00139618  -0.0202549 -0.0414963 0.00194359  -0.0161815 -0.0415458 0.00116825  -0.0203016 -0.041824 0.00146198  -0.023788 -0.056027 0.00169516  -0.0191213 -0.0561307 0.00102043  -0.0181099 -0.0507734 0.00141954  -0.0238464 -0.0563192 0.0012722  -0.0226356 -0.050991 0.0017786  -0.0181597 -0.0510804 0.00106812  -0.0226901 -0.0512985 0.00133705  -0.0260189 -0.0666091 0.00153732  -0.02099 -0.066743 0.000920773  -0.0200107 -0.061069 0.00129128  -0.0260727 -0.0668794 0.00115585  -0.0249153 -0.0612269 0.00161982  -0.0200636 -0.0613509 0.00096941  -0.024972 -0.0615114 0.0012145  -0.0281484 -0.0778371 0.00139856  -0.0227902 -0.0780054 0.000831127  -0.0218447 -0.0720379 0.00117159  -0.028203 -0.0780793 0.00104952  -0.0270948 -0.0721417 0.00146723  -0.0219011 -0.0722972 0.000879765  -0.0271482 -0.0723997 0.00110388  -0.0301834 -0.0896494 0.00126362  -0.0245323 -0.0898476 0.000751495  -0.023614 -0.0836237 0.00105619  -0.0302373 -0.0898656 0.000944614  -0.0291765 -0.0836692 0.00132656  -0.0236704 -0.0838556 0.000792503  -0.0292325 -0.0839024 0.000995636  -0.0321263 -0.101993 0.00113201  -0.026204 -0.102214 0.000673294  -0.025326 -0.0957597 0.000953197  -0.0321808 -0.102186 0.000849724  -0.0311667 -0.0957531 0.00119209  -0.0253752 -0.0959695 0.000713348  -0.03122 -0.095964 0.000897884  -0.0339875 -0.114798 0.00101376  -0.0278271 -0.115054 0.000607014  -0.0269715 -0.108391 0.000855446  -0.0340393 -0.114974 0.000759125  -0.0330683 -0.108334 0.00107098  -0.0270221 -0.108581 0.000638485  -0.0331193 -0.108524 0.000804424  -0.0357666 -0.128032 0.000897408  -0.0293868 -0.128313 0.000532627  -0.0285671 -0.121468 0.00075531  -0.035812 -0.128191 0.000674248  -0.0348879 -0.121367 0.000952244  -0.0286106 -0.121633 0.000567913  -0.0349326 -0.121531 0.000715733  -0.0374693 -0.141641 0.000790596  -0.0308976 -0.14194 0.000473022  -0.0301071 -0.134934 0.000675201  -0.0375125 -0.141775 0.00059557  -0.0366281 -0.134786 0.000844002  -0.030148 -0.135085 0.000505447  -0.0366732 -0.134937 0.000630856  -0.0390954 -0.155569 0.000691414  -0.0323536 -0.155895 0.000413418  -0.0315907 -0.148745 0.000593185  -0.0391333 -0.15569 0.000520706  -0.0382965 -0.148558 0.000744343  -0.0316305 -0.148881 0.000441551  -0.0383337 -0.148692 0.000557423  -0.0406482 -0.169777 0.00060463  -0.0337524 -0.170127 0.000362396  -0.0330236 -0.162858 0.000514984  -0.0406783 -0.169884 0.000452518  -0.0398808 -0.162638 0.000647545  -0.0330596 -0.162976 0.000389099  -0.0399148 -0.16275 0.000486374  -0.0421224 -0.184225 0.000524998  -0.0351019 -0.184592 0.00030899  -0.034404 -0.17723 0.000445843  -0.0421569 -0.184314 0.000391006  -0.041394 -0.176969 0.000562191  -0.0344334 -0.177332 0.00033474  -0.0414238 -0.17707 0.000423431  -0.0435407 -0.198884 0.000443459  -0.0364118 -0.199259 0.000264645  -0.0357344 -0.191815 0.000380039  -0.0435619 -0.198953 0.000329971  -0.0428357 -0.191527 0.000477314  -0.0357645 -0.191902 0.000285625  -0.0428705 -0.191611 0.000360012  -0.0448847 -0.213697 0.000364304  -0.0376637 -0.214092 0.000210285  -0.0370138 -0.206583 0.000316143  -0.0449109 -0.213758 0.000272751  -0.0442176 -0.206262 0.000405312  -0.0370464 -0.206656 0.000237942  -0.044245 -0.206336 0.000302792  -0.0461726 -0.228643 0.000298023  -0.0388725 -0.229054 0.000182152  -0.0382521 -0.221492 0.000262737  -0.0461967 -0.228695 0.000225067  -0.045536 -0.221146 0.000334263  -0.0382731 -0.221555 0.000200748  -0.0455613 -0.22121 0.000253677  -0.0474045 -0.243689 0.000242233  -0.0400412 -0.244109 0.000146866  -0.0394456 -0.236519 0.000216961  -0.0474217 -0.243733 0.000182629  -0.0467973 -0.236153 0.000271797  -0.0394635 -0.236571 0.000159264  -0.0468156 -0.236205 0.000201225  -0.0485766 -0.258818 0.000187874  -0.0411687 -0.259243 0.000116348  -0.0405953 -0.251624 0.000169754  -0.0485966 -0.258855 0.000139236  -0.0479956 -0.251243 0.000214577  -0.0406051 -0.251669 0.000125408  -0.0480149 -0.251283 0.000163555  -0.0497048 -0.273993 0.000145435  -0.0422518 -0.274423 8.7738e-05  -0.0416999 -0.266798 0.000131607  -0.0497179 -0.274017 0.000109673  -0.0491481 -0.266397 0.000164509  -0.0417163 -0.266829 9.77516e-05  -0.04916 -0.266427 0.000124454  -0.0507886 -0.289197 0.000107765  -0.043308 -0.289632 6.48499e-05  -0.0427754 -0.282 9.91821e-05  -0.0507956 -0.289213 7.86781e-05  -0.0502508 -0.281584 0.000123501  -0.0427847 -0.282027 7.39098e-05  -0.0502601 -0.281613 9.29832e-05  -0.0518281 -0.304408 7.43866e-05  -0.0443256 -0.304847 4.57764e-05  -0.043812 -0.297222 7.43866e-05  -0.0518336 -0.304419 5.62668e-05  -0.051311 -0.296794 8.86917e-05  -0.0438249 -0.297238 5.24521e-05  -0.0513182 -0.296813 6.62804e-05  -0.0528336 -0.319613 4.48227e-05  -0.0453165 -0.320052 2.71797e-05  -0.0448165 -0.312438 4.76837e-05  -0.0528405 -0.319615 3.43323e-05  -0.0523334 -0.312002 5.53131e-05  -0.0448194 -0.312451 3.29018e-05  -0.0523405 -0.312018 4.57764e-05  -0.0538082 -0.33479 2.86102e-05  -0.0462892 -0.335235 1.33514e-05  -0.0458 -0.32764 3.09944e-05  -0.0538132 -0.334792 2.00272e-05  -0.0533252 -0.327199 3.43323e-05  -0.0458069 -0.327645 2.28882e-05  -0.0533309 -0.327207 2.71797e-05  -0.054759 -0.349936 1.33514e-05  -0.0472331 -0.350386 1.43051e-06  -0.0467608 -0.342813 1.33514e-05  -0.0547657 -0.349939 9.05991e-06  -0.0542862 -0.342366 1.81198e-05  -0.0467653 -0.342813 1.23978e-05  -0.0542915 -0.342366 1.19209e-05  -0.0556896 -0.365048 2.38419e-06  -0.0481715 -0.365499 -2.38419e-06  -0.0477004 -0.357943 4.76837e-06  -0.0556953 -0.365051 2.38419e-06  -0.0552261 -0.357493 5.24521e-06  -0.0477035 -0.357947 3.8147e-06  -0.055233 -0.357498 5.72205e-06  -0.0566158 -0.380125 -1.14441e-05  -0.0490954 -0.38057 -4.76837e-07  -0.0486248 -0.373035 -6.19888e-06  -0.0566199 -0.380128 -7.15256e-06  -0.056154 -0.372588 -4.29153e-06  -0.0486319 -0.373038 -2.38419e-06  -0.0561581 -0.372593 -5.24521e-06  -0.0009593 -0.00122359 0.00078249  0 0 0  -0.00058873 -0.00111949 0.00037241  -0.000234023 -0.000214338 0.000283241  0 0 0  -0.000935264 -0.001333 0.000561714  -0.000368614 -0.000325054 0.000421524  0 0 0  -0.00022788 -0.00026539 0.000202179  -0.000358451 -0.000380248 0.000299931  -0.00258969 -0.00431529 0.00126886  -0.00161745 -0.0042125 0.000622272  -0.00108747 -0.00231507 0.000715733  -0.00254871 -0.00453168 0.000927925  -0.00172266 -0.00258744 0.00106955  -0.00106344 -0.00247347 0.000518799  -0.00168402 -0.00275457 0.000768185  -0.00444633 -0.00869825 0.00146198  -0.00284019 -0.008674 0.000727177  -0.00224343 -0.00604707 0.000934124  -0.00440663 -0.00898379 0.00108385  -0.00350931 -0.00635919 0.00139093  -0.00222111 -0.00629708 0.000688076  -0.0034689 -0.00662169 0.00102282  -0.00627375 -0.0141717 0.00147915  -0.00407833 -0.0142409 0.000741482  -0.00347784 -0.0110168 0.000997543  -0.00625265 -0.014503 0.00110626  -0.00536895 -0.0112945 0.00147772  -0.00345898 -0.0113247 0.000742912  -0.00533688 -0.0116154 0.0011034  -0.00801742 -0.0206751 0.00141954  -0.00528902 -0.0208154 0.000713825  -0.00468278 -0.0170631 0.000976562  -0.00802499 -0.0210232 0.00106621  -0.00715333 -0.0172916 0.00145435  -0.00468713 -0.0174043 0.000736237  -0.00715011 -0.0176394 0.00109434  -0.00969493 -0.0281491 0.00132608  -0.00646824 -0.0283347 0.000666618  -0.00585943 -0.0241115 0.000914097  -0.00972039 -0.0284933 0.00099802  -0.00886077 -0.0242906 0.00137138  -0.00588065 -0.0244576 0.000689507  -0.00888103 -0.0246428 0.0010376  -0.0113198 -0.0365296 0.00122166  -0.00762367 -0.0367486 0.000610828  -0.00701624 -0.032094 0.000846386  -0.0113572 -0.0368601 0.000916004  -0.0105125 -0.0322267 0.00127125  -0.00704712 -0.0324328 0.000636101  -0.0105456 -0.032569 0.000953197  -0.0128958 -0.0457435 0.00111055  -0.00876951 -0.0459891 0.000557423  -0.00816238 -0.0409403 0.000776291  -0.0129399 -0.0460605 0.000832558  -0.0121131 -0.041032 0.00116539  -0.00819826 -0.0412662 0.000586987  -0.0121563 -0.0413586 0.000878334  -0.0144386 -0.0557292 0.00101089  -0.00991464 -0.0559949 0.000506401  -0.0093044 -0.0505933 0.000703335  -0.0144852 -0.0560225 0.000761986  -0.0136694 -0.0506399 0.00106239  -0.00934267 -0.0508989 0.00053072  -0.0137193 -0.0509463 0.000796318  -0.0159432 -0.0664231 0.000922203  -0.011052 -0.0667037 0.000455856  -0.010444 -0.0609846 0.00064373  -0.0159873 -0.0666845 0.00069046  -0.0151957 -0.0609902 0.000966549  -0.0104831 -0.0612674 0.000483513  -0.0152392 -0.0612692 0.000727654  -0.0174134 -0.0777573 0.000831604  -0.0121933 -0.0780562 0.000415325  -0.0115825 -0.0720453 0.000581264  -0.0174637 -0.0779976 0.00062418  -0.0166796 -0.0720027 0.000879765  -0.0116239 -0.0723025 0.000435829  -0.0167302 -0.0722652 0.000657082  -0.0188552 -0.0896675 0.000749111  -0.0133258 -0.0899884 0.000370502  -0.0127238 -0.083717 0.00052166  -0.0188994 -0.0898854 0.00056076  -0.0181406 -0.0836393 0.00079298  -0.0127586 -0.0839505 0.000391483  -0.0181845 -0.0838701 0.000592709  -0.0202657 -0.102103 0.000674725  -0.0144588 -0.102442 0.00032568  -0.0138525 -0.0959381 0.000468731  -0.0203063 -0.102301 0.000505447  -0.019562 -0.09582 0.000713348  -0.0138934 -0.0961494 0.000351429  -0.0196038 -0.0960312 0.000534058  -0.0216362 -0.115006 0.000598431  -0.0155905 -0.115359 0.000291348  -0.014991 -0.108649 0.00042057  -0.0216808 -0.115182 0.000453472  -0.0209579 -0.108493 0.00063324  -0.0150267 -0.108843 0.000313282  -0.0209988 -0.108686 0.00047493  -0.0229902 -0.128321 0.000533104  -0.0167134 -0.128688 0.000255585  -0.0161138 -0.121804 0.000368595  -0.0230254 -0.128478 0.000398159  -0.0223181 -0.121611 0.000567436  -0.0161501 -0.121971 0.00028038  -0.0223545 -0.121781 0.000423908  -0.0243088 -0.142005 0.000469208  -0.0178335 -0.142389 0.000226021  -0.0172368 -0.135346 0.000329494  -0.0243387 -0.142143 0.000352859  -0.0236512 -0.135117 0.000498772  -0.0172729 -0.135493 0.000244141  -0.0236864 -0.135269 0.000377178  -0.0255904 -0.156011 0.000408173  -0.0189412 -0.156403 0.000198364  -0.0183547 -0.149222 0.000283718  -0.0256255 -0.156132 0.000305176  -0.0249546 -0.148965 0.000436783  -0.0183895 -0.149355 0.000212193  -0.0249848 -0.149102 0.000330448  -0.0268495 -0.170285 0.00035429  -0.0200436 -0.170693 0.000175476  -0.0194685 -0.163397 0.000249863  -0.0268769 -0.170398 0.000267506  -0.0262251 -0.16311 0.000382423  -0.0194902 -0.163516 0.000186443  -0.0262554 -0.163232 0.000284195  -0.0280786 -0.184801 0.000301838  -0.0211358 -0.185214 0.000145435  -0.020565 -0.177822 0.000213146  -0.0281007 -0.184892 0.000228405  -0.0274658 -0.177514 0.000329018  -0.0205927 -0.177925 0.00015974  -0.0274937 -0.177616 0.000245094  -0.0292704 -0.199506 0.000256062  -0.0222123 -0.199924 0.000119209  -0.021657 -0.192461 0.000179291  -0.0292962 -0.199582 0.00019455  -0.0286775 -0.19213 0.00027895  -0.0216763 -0.192545 0.000133514  -0.0286984 -0.192214 0.000209808  -0.0304387 -0.214371 0.000211716  -0.0232756 -0.214801 0.00010252  -0.0227301 -0.207267 0.000148773  -0.0304561 -0.214438 0.000160217  -0.0298576 -0.206915 0.000234127  -0.0227494 -0.207345 0.000111103  -0.0298786 -0.206991 0.000175953  -0.0315666 -0.229365 0.000179291  -0.0243323 -0.229797 8.29697e-05  -0.0237918 -0.222226 0.000128269  -0.0315883 -0.22942 0.000132561  -0.0310068 -0.221852 0.000196457  -0.0238059 -0.222287 9.10759e-05  -0.0310261 -0.221913 0.000145912  -0.0326784 -0.244449 0.000143528  -0.0253689 -0.244893 6.48499e-05  -0.0248387 -0.23728 0.000100136  -0.0326929 -0.244496 0.000110149  -0.0321255 -0.236892 0.000158787  -0.0248544 -0.237334 7.58171e-05  -0.0321474 -0.236945 0.000116348  -0.0337529 -0.259612 0.000106812  -0.0263896 -0.260045 5.24521e-05  -0.0258739 -0.252421 7.96318e-05  -0.033767 -0.25964 8.10623e-05  -0.0332191 -0.252019 0.000124931  -0.0258813 -0.252466 5.91278e-05  -0.0332305 -0.252061 8.91685e-05  -0.0348024 -0.274817 8.44002e-05  -0.0273948 -0.275259 4.24385e-05  -0.0268865 -0.267614 6.38962e-05  -0.0348151 -0.274838 6.48499e-05  -0.0342822 -0.267204 9.72748e-05  -0.0268936 -0.267649 4.43459e-05  -0.034296 -0.267234 7.39098e-05  -0.0358315 -0.290039 6.53267e-05  -0.0283842 -0.290488 3.29018e-05  -0.0278835 -0.282844 4.33922e-05  -0.035836 -0.290057 4.72069e-05  -0.0353189 -0.282418 7.05719e-05  -0.0278938 -0.282867 3.57628e-05  -0.0353277 -0.282444 5.29289e-05  -0.0368295 -0.305268 4.43459e-05  -0.0293596 -0.305709 2.19345e-05  -0.028868 -0.29808 3.57628e-05  -0.0368371 -0.305279 3.05176e-05  -0.0363314 -0.297649 5.24521e-05  -0.0288756 -0.298098 2.67029e-05  -0.0363386 -0.297668 4.24385e-05  -0.0378079 -0.320484 2.47955e-05  -0.0303214 -0.320929 9.05991e-06  -0.0298345 -0.313309 2.24113e-05  -0.0378168 -0.320489 1.71661e-05  -0.0373237 -0.312872 3.14713e-05  -0.0298426 -0.313326 1.23978e-05  -0.0373304 -0.312886 2.52724e-05  -0.0387709 -0.335675 1.38283e-05  -0.0312681 -0.336125 7.15256e-06  -0.0307894 -0.328519 1.62125e-05  -0.0387762 -0.335678 9.05991e-06  -0.0382929 -0.328076 1.85966e-05  -0.0307989 -0.328531 1.00136e-05  -0.0382972 -0.328086 1.38283e-05  -0.0397143 -0.350835 9.53674e-06  -0.0322034 -0.351281 5.72205e-06  -0.0317328 -0.343701 8.10623e-06  -0.0397151 -0.350833 3.8147e-06  -0.0392463 -0.343256 9.53674e-06  -0.0317366 -0.343709 3.8147e-06  -0.0392439 -0.343261 8.58307e-06  -0.0406427 -0.36595 -3.33786e-06  -0.0331259 -0.366395 -3.33786e-06  -0.032666 -0.358837 1.90735e-06  -0.0406449 -0.365947 -1.43051e-06  -0.04018 -0.358389 -4.76837e-07  -0.0326657 -0.358846 -1.43051e-06  -0.0401814 -0.358395 2.38419e-06  -0.0415626 -0.38101 -7.15256e-06  -0.0340436 -0.381456 -9.05991e-06  -0.0335786 -0.373931 -6.19888e-06  -0.0415647 -0.381012 -9.53674e-06  -0.0411029 -0.37348 -8.10623e-06  -0.0335877 -0.373931 -4.76837e-06  -0.0411034 -0.373484 -4.29153e-06  -0.000273302 -0.000917673 0.000258446  0 0 0  4.2513e-05 -0.000994146 1.43051e-06  1.38581e-05 -0.000157416 -5.24521e-06  0 0 0  -0.000271223 -0.00101236 0.000185966  -0.000107575 -0.000164717 0.00013876  0 0 0  1.5974e-05 -0.000198662 -9.53674e-07  -0.000104696 -0.000207663 9.9659e-05  -0.000757799 -0.00385442 0.000429153  9.55462e-05 -0.00402668 -2.38419e-06  7.29412e-05 -0.00216082 -1.90735e-06  -0.000749394 -0.00404963 0.000313759  -0.000493094 -0.00217676 0.000357151  7.02292e-05 -0.00230816 -5.24521e-06  -0.000489563 -0.00232735 0.000259399  -0.00134686 -0.00824773 0.000494957  0.000127554 -0.00850952 1.14441e-05  0.000126451 -0.00587904 4.29153e-06  -0.00134057 -0.00851518 0.000365734  -0.00104591 -0.00588998 0.000469208  0.000113696 -0.00611421 6.19888e-06  -0.00103784 -0.00612971 0.00034523  -0.0019626 -0.0138003 0.000503063  0.000113785 -0.0141341 1.19209e-05  0.000138313 -0.0108922 1.00136e-05  -0.00196499 -0.0141174 0.000380039  -0.00165346 -0.0108856 0.000504017  0.000129104 -0.0111884 8.10623e-06  -0.00165206 -0.0111827 0.000373363  -0.00259048 -0.0203928 0.000481606  4.51207e-05 -0.0207697 8.58307e-06  9.97186e-05 -0.016997 8.58307e-06  -0.00260669 -0.0207315 0.000358105  -0.00227207 -0.0169668 0.000493526  8.75592e-05 -0.0173298 7.62939e-06  -0.00228333 -0.017301 0.000370502  -0.00324154 -0.0279497 0.000446796  -9.37581e-05 -0.0283544 3.8147e-06  -2.5034e-06 -0.0241036 6.67572e-06  -0.0032627 -0.0282885 0.000337124  -0.00291419 -0.0240499 0.000461102  -1.66893e-05 -0.0244453 5.24521e-06  -0.00293249 -0.0243927 0.000348091  -0.00391585 -0.0364091 0.000406265  -0.000292957 -0.0368274 3.8147e-06  -0.000156939 -0.0321445 2.38419e-06  -0.00394505 -0.0367367 0.000307083  -0.00357461 -0.0320652 0.000423431  -0.000181496 -0.032482 1.90735e-06  -0.00360161 -0.0324015 0.000319004  -0.00462097 -0.0457012 0.000368118  -0.000560641 -0.0461348 -4.29153e-06  -0.000389457 -0.0410551 -1.90735e-06  -0.00464964 -0.0460137 0.000277996  -0.00426501 -0.040948 0.000385284  -0.000419676 -0.0413791 -9.53674e-07  -0.00429237 -0.0412738 0.000291824  -0.00536215 -0.0557671 0.00033617  -0.000895739 -0.0562022 -6.67572e-06  -0.000697613 -0.0507697 -1.04904e-05  -0.00538993 -0.0560561 0.000252724  -0.00498617 -0.050635 0.000348091  -0.000718236 -0.0510756 -3.33786e-06  -0.00501478 -0.0509433 0.000264645  -0.00612938 -0.0665369 0.000296116  -0.00129843 -0.066975 -1.09673e-05  -0.00106716 -0.0612229 -9.53674e-06  -0.0061605 -0.0667978 0.000221729  -0.00574422 -0.0610654 0.000315189  -0.00108898 -0.0615023 -7.15256e-06  -0.00577402 -0.0613434 0.000236511  -0.00693333 -0.0779412 0.000267982  -0.00176382 -0.0783855 -1.23978e-05  -0.00149596 -0.0723444 -1.62125e-05  -0.00696826 -0.0781846 0.00019598  -0.00652492 -0.0721573 0.000284195  -0.0015229 -0.0726012 -1.4782e-05  -0.00655997 -0.0724144 0.000209332  -0.00776398 -0.0899309 0.00023365  -0.00228786 -0.0903757 -1.43051e-05  -0.00199199 -0.0840729 -1.62125e-05  -0.0077945 -0.0901497 0.000177383  -0.00734532 -0.083861 0.000253201  -0.00201941 -0.084312 -1.23978e-05  -0.00737929 -0.0840985 0.000189781  -0.00862432 -0.102433 0.000210285  -0.00286758 -0.102885 -1.71661e-05  -0.00254476 -0.096356 -2.24113e-05  -0.0086509 -0.102633 0.000160217  -0.00819027 -0.096117 0.000219822  -0.00257123 -0.0965685 -1.66893e-05  -0.0082196 -0.0963306 0.000164509  -0.00950527 -0.115405 0.000189304  -0.00349522 -0.115862 -1.71661e-05  -0.00315118 -0.109128 -1.81198e-05  -0.009534 -0.115586 0.000142097  -0.00906122 -0.10886 0.000198364  -0.00317538 -0.109317 -1.52588e-05  -0.00908828 -0.109052 0.000148773  -0.0104072 -0.128784 0.000162601  -0.00416982 -0.129245 -1.85966e-05  -0.00380945 -0.122333 -2.3365e-05  -0.0104321 -0.128943 0.000118256  -0.00995374 -0.12204 0.000175476  -0.00382817 -0.122505 -1.71661e-05  -0.00997984 -0.122214 0.000130653  -0.0113292 -0.142529 0.000141144  -0.00489318 -0.142991 -1.81198e-05  -0.00451279 -0.135924 -1.95503e-05  -0.0113529 -0.142668 0.000100613  -0.0108654 -0.135613 0.000149727  -0.00452805 -0.136073 -1.38283e-05  -0.0108913 -0.135762 0.000114441  -0.0122674 -0.156587 0.000122547  -0.00564861 -0.157051 -1.4782e-05  -0.00525045 -0.149847 -2.09808e-05  -0.0122859 -0.15671 9.39369e-05  -0.0117953 -0.149514 0.00013113  -0.00526643 -0.149984 -1.43051e-05  -0.0118189 -0.149651 9.87053e-05  -0.0132203 -0.170917 0.000105858  -0.00644779 -0.171378 -1.7643e-05  -0.0060277 -0.164065 -1.62125e-05  -0.0132363 -0.171019 7.96318e-05  -0.0127392 -0.163716 0.000114441  -0.00604439 -0.164185 -1.62125e-05  -0.0127592 -0.163834 8.72612e-05  -0.0141773 -0.185468 8.58307e-05  -0.00726938 -0.185938 -1.43051e-05  -0.0068469 -0.178528 -2.28882e-05  -0.0141931 -0.18556 6.58035e-05  -0.0136974 -0.178158 9.87053e-05  -0.00685382 -0.178632 -1.66893e-05  -0.0137167 -0.178265 7.15256e-05  -0.0151434 -0.200217 7.29561e-05  -0.00811672 -0.200684 -1.4782e-05  -0.00768042 -0.193198 -1.62125e-05  -0.0151584 -0.200291 5.43594e-05  -0.0146565 -0.192818 7.82013e-05  -0.00768995 -0.193286 -1.43051e-05  -0.0146756 -0.192903 6.10352e-05  -0.0161119 -0.21512 6.24657e-05  -0.00898671 -0.215588 -8.10623e-06  -0.00853395 -0.208042 -1.57356e-05  -0.0161264 -0.215187 5.00679e-05  -0.0156324 -0.207646 6.96182e-05  -0.00854731 -0.208116 -1.33514e-05  -0.0156429 -0.20772 5.43594e-05  -0.0170865 -0.230143 4.72069e-05  -0.00986814 -0.230612 -1.23978e-05  -0.00941324 -0.223018 -1.33514e-05  -0.0170965 -0.230196 3.33786e-05  -0.0165958 -0.222612 5.57899e-05  -0.00942659 -0.223083 -1.04904e-05  -0.0166116 -0.222676 4.33922e-05  -0.0180545 -0.245259 3.8147e-05  -0.0107625 -0.245723 -1.00136e-05  -0.0103102 -0.238106 -1.4782e-05  -0.01806 -0.245302 2.47955e-05  -0.0175698 -0.237683 4.29153e-05  -0.0103128 -0.238158 -1.28746e-05  -0.0175796 -0.237736 3.00407e-05  -0.0190179 -0.260434 2.81334e-05  -0.0116711 -0.260901 -1.04904e-05  -0.0112107 -0.253259 -1.38283e-05  -0.0190263 -0.260467 2.24113e-05  -0.0185351 -0.252832 3.38554e-05  -0.0112152 -0.253306 -1.09673e-05  -0.0185435 -0.25288 2.3365e-05  -0.0199871 -0.275663 1.85966e-05  -0.0125904 -0.276121 -8.58307e-06  -0.0121212 -0.268471 -1.43051e-05  -0.0199912 -0.275685 1.38283e-05  -0.0195014 -0.268036 2.43187e-05  -0.0121305 -0.268505 -1.14441e-05  -0.0195074 -0.268073 1.81198e-05  -0.0209434 -0.290902 1.23978e-05  -0.0135119 -0.29136 -5.24521e-06  -0.0130477 -0.283711 -1.19209e-05  -0.020947 -0.290923 1.04904e-05  -0.0204644 -0.283273 1.52588e-05  -0.0130506 -0.283739 -6.19888e-06  -0.0204673 -0.283298 1.19209e-05  -0.0218892 -0.30614 7.15256e-06  -0.014431 -0.306599 -3.8147e-06  -0.0139706 -0.298958 -9.53674e-06  -0.0218942 -0.306154 8.10623e-06  -0.0214174 -0.298516 1.14441e-05  -0.013973 -0.298978 -7.62939e-06  -0.0214233 -0.298533 7.62939e-06  -0.0228279 -0.321367 5.72205e-06  -0.0153568 -0.321825 -4.29153e-06  -0.0148876 -0.3142 -2.38419e-06  -0.0228345 -0.321379 4.76837e-06  -0.0223587 -0.313752 4.76837e-06  -0.0148916 -0.314214 -2.86102e-06  -0.0223634 -0.313767 5.24521e-06  -0.023766 -0.336564 0  -0.0162737 -0.337021 -3.33786e-06  -0.0158124 -0.329417 -2.38419e-06  -0.0237725 -0.336573 -1.43051e-06  -0.0233004 -0.328968 4.29153e-06  -0.0158145 -0.329426 -3.33786e-06  -0.0233033 -0.328976 1.90735e-06  -0.0246978 -0.351726 4.76837e-07  -0.0171945 -0.352182 -4.76837e-07  -0.0167313 -0.344598 -5.72205e-06  -0.0246987 -0.351731 -1.90735e-06  -0.0242355 -0.344147 -1.90735e-06  -0.0167372 -0.344606 -4.76837e-06  -0.0242364 -0.344156 9.53674e-07  -0.0256157 -0.366848 -2.38419e-06  -0.0181062 -0.367299 -2.86102e-06  -0.0176489 -0.359742 -1.43051e-06  -0.0256169 -0.366847 -1.90735e-06  -0.0251586 -0.35929 -1.43051e-06  -0.0176506 -0.359747 -1.43051e-06  -0.0251586 -0.359295 -4.76837e-07  -0.0265272 -0.381901 -7.15256e-06  -0.0190139 -0.382356 2.86102e-06  -0.0185575 -0.37483 -1.43051e-06  -0.0265281 -0.381905 -7.15256e-06  -0.0260737 -0.374377 0  -0.0185592 -0.374836 -2.38419e-06  -0.0260708 -0.374382 -5.24521e-06  0.000357509 -0.000978112 -0.000265121  0 0 0  0.000666946 -0.00123578 -0.000370026  0.000264302 -0.000274777 -0.000287533  0 0 0  0.000348806 -0.00106788 -0.000189304  0.00013651 -0.000190616 -0.000146389  0 0 0  0.00025855 -0.00032413 -0.000203609  0.000133753 -0.000236154 -0.000101566  0.000963926 -0.00396103 -0.000423431  0.00180581 -0.00441027 -0.000609875  0.00123063 -0.00247771 -0.000712395  0.000939459 -0.00414681 -0.00030899  0.000642017 -0.00226057 -0.000360966  0.00119962 -0.00263023 -0.00051403  0.00062497 -0.00240678 -0.000259399  0.00162768 -0.00838262 -0.000478268  0.00308862 -0.00894302 -0.000710011  0.00249359 -0.00629139 -0.000920773  0.00159132 -0.0086506 -0.000351906  0.0012981 -0.00601381 -0.000459194  0.002444 -0.00653285 -0.000674725  0.00126907 -0.00624698 -0.000336647  0.00221729 -0.013976 -0.000481129  0.00429165 -0.0145823 -0.00071907  0.00375092 -0.0113294 -0.000969887  0.00219333 -0.0142899 -0.000360966  0.00193301 -0.0110403 -0.00048399  0.00370485 -0.0116336 -0.00071907  0.00190309 -0.0113391 -0.000357151  0.00270778 -0.0206037 -0.000458241  0.00535291 -0.0212235 -0.000696182  0.00487131 -0.0174466 -0.000947952  0.00268835 -0.020934 -0.000342369  0.00247532 -0.0171574 -0.000473499  0.00484169 -0.0177804 -0.000712872  0.00245404 -0.0174887 -0.000356674  0.00309545 -0.0282018 -0.000434399  0.00625765 -0.0288246 -0.00065136  0.00584638 -0.0245646 -0.000901222  0.00307423 -0.0285335 -0.000324249  0.00291574 -0.0242772 -0.00044775  0.00582284 -0.0249087 -0.000676632  0.0028944 -0.0246174 -0.000337601  0.00336838 -0.0366949 -0.000404835  0.00700915 -0.0373186 -0.000610828  0.00667095 -0.0326235 -0.000836372  0.00335282 -0.0370214 -0.000301361  0.00324714 -0.0323277 -0.000419617  0.00665355 -0.0329643 -0.000626564  0.00322795 -0.03267 -0.000314236  0.0035392 -0.0460361 -0.000375748  0.00761724 -0.0466512 -0.000561237  0.00734621 -0.0415604 -0.00078249  0.00352359 -0.0463474 -0.000281334  0.00346577 -0.0412611 -0.000391006  0.00733185 -0.0418837 -0.000584602  0.00345147 -0.0415825 -0.000293255  0.00360382 -0.056146 -0.000351906  0.00808883 -0.0567518 -0.000517845  0.0078789 -0.0513058 -0.00071907  0.00359082 -0.0564343 -0.000261307  0.00358415 -0.050993 -0.00036335  0.00786972 -0.0516092 -0.000537395  0.00356877 -0.0512944 -0.000270367  0.00357175 -0.0669632 -0.000324249  0.00842512 -0.0675569 -0.000469685  0.00827873 -0.0617901 -0.000661373  0.00355697 -0.0672263 -0.000244141  0.00360119 -0.0614651 -0.000338554  0.00827372 -0.0620714 -0.000493526  0.00358653 -0.0617451 -0.000255585  0.00344801 -0.0784125 -0.000299454  0.00863504 -0.0790027 -0.000438213  0.00855434 -0.072947 -0.000601768  0.00343049 -0.0786552 -0.00022459  0.00351989 -0.0726081 -0.000312805  0.00854588 -0.0732036 -0.000453949  0.00350583 -0.0728645 -0.000230312  0.00322914 -0.0904494 -0.000273228  0.00872254 -0.0910298 -0.000398159  0.00870168 -0.0847092 -0.000553608  0.00321209 -0.0906686 -0.000205994  0.00334811 -0.0843576 -0.000284672  0.00869513 -0.084946 -0.000414371  0.00333226 -0.0845947 -0.000210762  0.00292504 -0.102997 -0.000254154  0.00869906 -0.103574 -0.000360012  0.00873005 -0.0970265 -0.000505924  0.00291383 -0.103199 -0.000190735  0.00308764 -0.0966583 -0.000263691  0.00872529 -0.0972376 -0.000380993  0.00307202 -0.0968711 -0.000198841  0.00254512 -0.116011 -0.000227928  0.00857341 -0.116581 -0.000328541  0.00865459 -0.109827 -0.000454903  0.0025332 -0.116195 -0.000172138  0.00274503 -0.109449 -0.000239372  0.00864995 -0.110022 -0.000341892  0.00273216 -0.109641 -0.000179291  0.00209057 -0.129437 -0.000204086  0.00834441 -0.129991 -0.000291824  0.0084734 -0.123063 -0.000412941  0.00208056 -0.129595 -0.000153542  0.00232542 -0.122672 -0.000217438  0.0084672 -0.123238 -0.000312328  0.00231779 -0.122844 -0.000162125  0.00157309 -0.143217 -0.000181198  0.0080204 -0.143769 -0.000259876  0.00819576 -0.136683 -0.000365734  0.00156045 -0.143357 -0.000136852  0.00183845 -0.136279 -0.000193596  0.00819552 -0.136838 -0.000270844  0.00182796 -0.136432 -0.000144958  0.000988722 -0.1573 -0.000162601  0.007617 -0.15785 -0.000228882  0.00783062 -0.150635 -0.000329971  0.000981092 -0.157431 -0.000123024  0.00128794 -0.150221 -0.000174999  0.0078299 -0.150774 -0.000246048  0.00128007 -0.150358 -0.0001297  0.000347614 -0.171663 -0.000144482  0.00713658 -0.172204 -0.000205517  0.00738692 -0.164874 -0.000289917  0.000342607 -0.171774 -0.000108242  0.000677109 -0.164451 -0.000154495  0.00738645 -0.164995 -0.000216484  0.000666857 -0.164572 -0.000118256  -0.000342846 -0.186249 -0.000128269  0.0065856 -0.186782 -0.000179768  0.00686622 -0.179356 -0.000253677  -0.00034523 -0.186344 -9.67979e-05  9.77516e-06 -0.178928 -0.000136375  0.00687146 -0.179466 -0.000189781  4.05312e-06 -0.179031 -0.000102043  -0.00106978 -0.201022 -0.000110149  0.00597119 -0.201546 -0.000149727  0.00629044 -0.194047 -0.00021553  -0.0010736 -0.201099 -8.4877e-05  -0.000701427 -0.19361 -0.000120163  0.00628448 -0.194138 -0.00015974  -0.000705481 -0.193699 -8.7738e-05  -0.00183702 -0.215947 -9.39369e-05  0.00530887 -0.21646 -0.000127792  0.00565028 -0.208906 -0.000186443  -0.00184059 -0.216013 -6.62804e-05  -0.00144982 -0.20846 -0.000103474  0.00564694 -0.208984 -0.000137806  -0.00145197 -0.20854 -7.72476e-05  -0.00263572 -0.230986 -8.01086e-05  0.00458813 -0.231492 -0.000112534  0.00495434 -0.223902 -0.000155449  -0.00264335 -0.231041 -5.53131e-05  -0.00223756 -0.22345 -8.4877e-05  0.00495219 -0.223963 -0.000115395  -0.00223637 -0.223512 -6.77109e-05  -0.00347304 -0.246119 -6.38962e-05  0.00382996 -0.246619 -8.53539e-05  0.00421381 -0.23899 -0.000133038  -0.00347209 -0.246161 -4.95911e-05  -0.00305033 -0.238541 -7.48634e-05  0.0042119 -0.239047 -9.87053e-05  -0.00305414 -0.238594 -5.38826e-05  -0.0043242 -0.261314 -5.29289e-05  0.00303316 -0.261808 -6.96182e-05  0.00343728 -0.254161 -0.000104427  -0.00432348 -0.261348 -3.67165e-05  -0.00389123 -0.253701 -6.00815e-05  0.00343609 -0.254201 -7.77245e-05  -0.00389695 -0.253746 -4.19617e-05  -0.0051918 -0.276544 -4.43459e-05  0.0022099 -0.277028 -5.43594e-05  0.00262237 -0.269379 -8.01086e-05  -0.00519133 -0.27657 -3.24249e-05  -0.00475407 -0.268919 -5.05447e-05  0.00262523 -0.26941 -6.34193e-05  -0.00475454 -0.268951 -3.57628e-05  -0.00607681 -0.291786 -2.95639e-05  0.00135541 -0.292271 -4.673e-05  0.00178552 -0.284615 -6.34193e-05  -0.00607753 -0.291812 -2.38419e-05  -0.00563216 -0.284157 -3.48091e-05  0.00178528 -0.284647 -4.81606e-05  -0.0056324 -0.284189 -2.71797e-05  -0.00697279 -0.307037 -2.00272e-05  0.000489712 -0.307511 -3.14713e-05  0.000924349 -0.299867 -4.72069e-05  -0.00696898 -0.30705 -1.33514e-05  -0.00652695 -0.29941 -2.76566e-05  0.000926971 -0.299891 -3.52859e-05  -0.00652504 -0.29943 -2.19345e-05  -0.00787425 -0.322267 -1.66893e-05  -0.000393391 -0.322734 -2.19345e-05  4.8399e-05 -0.315111 -3.48091e-05  -0.0078733 -0.322277 -1.62125e-05  -0.00741863 -0.314653 -2.19345e-05  5.17368e-05 -0.315124 -2.52724e-05  -0.00742197 -0.314667 -1.43051e-05  -0.00878048 -0.337471 -1.43051e-05  -0.00127983 -0.337932 -9.53674e-06  -0.000842333 -0.330329 -2.14577e-05  -0.00877929 -0.337473 -9.05991e-06  -0.00832844 -0.329871 -1.09673e-05  -0.000836134 -0.33034 -1.28746e-05  -0.00832438 -0.329883 -1.04904e-05  -0.00969005 -0.352634 -9.05991e-06  -0.0021832 -0.353093 -6.67572e-06  -0.00173283 -0.345511 -1.14441e-05  -0.00968719 -0.352635 -5.24521e-06  -0.00923276 -0.345052 -7.62939e-06  -0.00173187 -0.345517 -1.09673e-05  -0.00923514 -0.345059 -5.24521e-06  -0.0105999 -0.367757 -1.43051e-06  -0.00308728 -0.368211 -1.43051e-06  -0.00263143 -0.360654 -6.67572e-06  -0.0105984 -0.367754 9.53674e-07  -0.0101411 -0.360199 -4.76837e-06  -0.00263262 -0.360657 -2.38419e-06  -0.0101416 -0.3602 -5.72205e-06  -0.011512 -0.382813 1.90735e-06  -0.00399327 -0.383269 4.76837e-06  -0.00354385 -0.37574 -4.76837e-07  -0.0115039 -0.382809 0  -0.0110543 -0.375285 -9.53674e-07  -0.00353861 -0.375743 4.76837e-07  -0.0110521 -0.375291 4.76837e-07  0.00103752 -0.00139135 -0.000785351  0 0 0  0.00140215 -0.00189602 -0.000733376  0.000550568 -0.000637591 -0.000562668  0 0 0  0.00101253 -0.00150102 -0.000557899  0.000393741 -0.000419497 -0.000429153  0 0 0  0.000539064 -0.000696421 -0.000395775  0.000386238 -0.0004704 -0.0002985  0.00279087 -0.00461972 -0.00125456  0.00373268 -0.00540429 -0.001194  0.00255395 -0.00332934 -0.0013938  0.00272816 -0.00482213 -0.000911236  0.0018627 -0.0028252 -0.00106478  0.00250182 -0.00350982 -0.00100327  0.00181495 -0.00299084 -0.000764847  0.00470558 -0.00910604 -0.00143194  0.00628319 -0.00998002 -0.00139904  0.00509375 -0.00729603 -0.00180483  0.00464016 -0.00938803 -0.00105762  0.00375202 -0.00671601 -0.00137043  0.00501478 -0.00756556 -0.00132418  0.00368491 -0.00696802 -0.00100517  0.00649178 -0.0146871 -0.00144434  0.00867307 -0.0155647 -0.00143099  0.00757691 -0.0123263 -0.00192261  0.00644779 -0.0150078 -0.00108147  0.00562263 -0.0117615 -0.00145054  0.00750574 -0.0126449 -0.00142813  0.00556767 -0.0120717 -0.00107908  0.00808764 -0.0212998 -0.00139141  0.0108389 -0.0221673 -0.00138664  0.00983012 -0.0183991 -0.0018878  0.00806189 -0.0216357 -0.00104141  0.00731283 -0.0178638 -0.00142431  0.00978595 -0.0187411 -0.00141382  0.00727719 -0.0181995 -0.00106716  0.00949258 -0.0288885 -0.00130558  0.0127624 -0.0297362 -0.00129843  0.0118548 -0.0254861 -0.00179338  0.00947779 -0.0292274 -0.000979424  0.00881159 -0.0249678 -0.00134802  0.0118269 -0.0258338 -0.00134516  0.00879359 -0.0253147 -0.0010128  0.0107126 -0.0373991 -0.00120831  0.0144547 -0.0382251 -0.00120592  0.0136427 -0.0335261 -0.00167227  0.0107019 -0.0377223 -0.000914097  0.0101269 -0.0330254 -0.00125742  0.0136335 -0.0338692 -0.00125551  0.010112 -0.0333635 -0.00094223  0.0117568 -0.0467435 -0.00111628  0.015928 -0.04755 -0.00111818  0.0152208 -0.0424615 -0.00154829  0.0117483 -0.0470515 -0.000837326  0.0112552 -0.0419614 -0.00116491  0.0152167 -0.0427833 -0.00115967  0.011248 -0.0422844 -0.000872612  0.0126208 -0.0568683 -0.00103235  0.0171992 -0.0576514 -0.00103283  0.016592 -0.0522015 -0.00143051  0.0126203 -0.0571591 -0.000777245  0.0122097 -0.051708 -0.00107527  0.0165893 -0.0525077 -0.00107384  0.0122068 -0.0520145 -0.000806808  0.0133226 -0.0677051 -0.000944614  0.0182656 -0.0684636 -0.000937462  0.0177485 -0.0626899 -0.00130796  0.0133209 -0.0679719 -0.00070715  0.0129893 -0.0621982 -0.000986099  0.0177586 -0.0629727 -0.000983238  0.0129915 -0.0624783 -0.000738621  0.0138705 -0.0791811 -0.000862122  0.0191418 -0.0799176 -0.000860691  0.0187224 -0.0738584 -0.00119829  0.0138686 -0.0794256 -0.000647068  0.0136154 -0.0733634 -0.000902653  0.0187281 -0.0741156 -0.000899792  0.0136131 -0.0736212 -0.000678539  0.014258 -0.0912367 -0.00078249  0.0198407 -0.0919522 -0.000775814  0.0195112 -0.0856304 -0.001091  0.014259 -0.0914596 -0.000585556  0.0140829 -0.0851351 -0.000823498  0.0195128 -0.0858666 -0.000813484  0.0140823 -0.0853701 -0.000614166  0.0145133 -0.103811 -0.000710964  0.0203713 -0.104505 -0.000702858  0.0201221 -0.0979502 -0.000988483  0.0145116 -0.10401 -0.00053215  0.0144062 -0.0974562 -0.000745296  0.0201243 -0.0981684 -0.000740051  0.0144032 -0.0976699 -0.000557423  0.014629 -0.116844 -0.000645638  0.0207298 -0.11752 -0.000637054  0.0205607 -0.110762 -0.000889301  0.014632 -0.117025 -0.000483036  0.014589 -0.110266 -0.000678539  0.0205691 -0.110958 -0.000668526  0.0145873 -0.11046 -0.000507355  0.0146245 -0.13028 -0.000575542  0.0209476 -0.130943 -0.000569344  0.0208527 -0.124008 -0.000802994  0.0146273 -0.130443 -0.00042963  0.0146394 -0.123505 -0.000608921  0.0208564 -0.124186 -0.000602245  0.0146456 -0.123685 -0.000459671  0.0145009 -0.144079 -0.0005126  0.0210261 -0.144722 -0.000505924  0.0209949 -0.137632 -0.000711441  0.0145051 -0.144225 -0.000382423  0.0145793 -0.137136 -0.000542641  0.0210034 -0.13779 -0.000538349  0.0145824 -0.137288 -0.000405312  0.0142736 -0.158188 -0.000452995  0.0209713 -0.158808 -0.000447273  0.021009 -0.151593 -0.000636101  0.0142756 -0.15831 -0.000338078  0.014401 -0.151092 -0.000479221  0.0210142 -0.151729 -0.000473499  0.0144033 -0.151231 -0.000360966  0.0139482 -0.172553 -0.000398636  0.0207906 -0.17317 -0.000394344  0.0208869 -0.165834 -0.000554085  0.0139496 -0.17267 -0.000297546  0.0141232 -0.165335 -0.000423431  0.0208957 -0.165957 -0.000414848  0.0141251 -0.165457 -0.000314236  0.0135267 -0.187153 -0.000343323  0.0205104 -0.187744 -0.000336647  0.0206542 -0.180326 -0.000482559  0.0135312 -0.187247 -0.000258923  0.0137508 -0.179826 -0.000370026  0.0206628 -0.180428 -0.000361919  0.0137546 -0.179931 -0.000276566  0.0130312 -0.201938 -0.000292778  0.020124 -0.202512 -0.000285625  0.0203187 -0.195017 -0.000408649  0.0130332 -0.202014 -0.000216007  0.013288 -0.194516 -0.000313282  0.0203292 -0.195106 -0.000306606  0.0132904 -0.194607 -0.000234127  0.0124588 -0.216866 -0.000250816  0.0196571 -0.217423 -0.000247955  0.0198953 -0.209875 -0.000357151  0.0124667 -0.216928 -0.000185966  0.012754 -0.209377 -0.000268459  0.0198984 -0.20995 -0.000265598  0.0127599 -0.209455 -0.000203133  0.0118239 -0.231911 -0.000205994  0.0190983 -0.232457 -0.000205517  0.0193768 -0.224861 -0.000297546  0.011833 -0.231969 -0.000151634  0.0121517 -0.224371 -0.000228882  0.0193851 -0.224929 -0.000222683  0.0121589 -0.224435 -0.000171185  0.0111358 -0.247044 -0.00016737  0.0184748 -0.247576 -0.000165462  0.018785 -0.239954 -0.000246048  0.0111392 -0.24709 -0.000127316  0.0114892 -0.239463 -0.000186443  0.0187943 -0.240007 -0.000184536  0.0114939 -0.239517 -0.00014019  0.010396 -0.262236 -0.000135899  0.0177865 -0.262754 -0.000135899  0.0181365 -0.255117 -0.000202656  0.0104039 -0.262277 -9.77516e-05  0.0107729 -0.254633 -0.000153065  0.0181398 -0.25516 -0.000147343  0.010778 -0.254673 -0.000112057  0.00961685 -0.277473 -0.000107765  0.01705 -0.277976 -0.000107288  0.0174191 -0.270329 -0.000154495  0.00962043 -0.277498 -8.05855e-05  0.010015 -0.269847 -0.000114918  0.0174229 -0.270364 -0.000119686  0.0100191 -0.26988 -8.53539e-05  0.00880408 -0.292719 -8.10623e-05  0.0162668 -0.293213 -7.82013e-05  0.0166547 -0.285564 -0.000124931  0.00880408 -0.292737 -5.96046e-05  0.00921488 -0.285088 -9.34601e-05  0.0166659 -0.285592 -9.29832e-05  0.00921726 -0.285113 -6.96182e-05  0.0079577 -0.307965 -5.57899e-05  0.0154483 -0.30845 -5.96046e-05  0.0158606 -0.300814 -8.58307e-05  0.0079639 -0.307975 -4.1008e-05  0.00838685 -0.300335 -6.77109e-05  0.0158632 -0.300834 -6.29425e-05  0.00838614 -0.30036 -5.24521e-05  0.00709462 -0.32319 -4.14848e-05  0.0145988 -0.323664 -3.76701e-05  0.0150199 -0.316049 -6.1512e-05  0.0070982 -0.323197 -2.95639e-05  0.00752878 -0.315576 -4.81606e-05  0.0150254 -0.316062 -4.673e-05  0.00753164 -0.315588 -3.71933e-05  0.00620985 -0.338389 -2.14577e-05  0.0137322 -0.338861 -2.00272e-05  0.0141625 -0.33126 -4.05312e-05  0.00621414 -0.338395 -1.62125e-05  0.00665569 -0.330793 -3.09944e-05  0.0141683 -0.331267 -2.76566e-05  0.00665641 -0.330801 -2.09808e-05  0.00531888 -0.353548 -8.10623e-06  0.0128436 -0.354014 -8.58307e-06  0.0132785 -0.346434 -2.00272e-05  0.00532627 -0.353553 -5.72205e-06  0.00577116 -0.34597 -2.00272e-05  0.0132885 -0.346438 -1.23978e-05  0.00577211 -0.345977 -1.28746e-05  0.00442314 -0.368666 -4.29153e-06  0.0119464 -0.369128 0  0.0123851 -0.361566 -6.67572e-06  0.00442767 -0.368668 -9.53674e-07  0.00487137 -0.36111 -3.8147e-06  0.0123899 -0.361577 -5.24521e-06  0.00487494 -0.361114 -3.33786e-06  0.00351954 -0.383731 1.23978e-05  0.0110393 -0.384199 7.15256e-06  0.0114822 -0.376663 5.24521e-06  0.00352669 -0.383737 4.29153e-06  0.00397182 -0.3762 3.8147e-06  0.0114939 -0.376667 3.8147e-06  0.0039773 -0.376202 2.86102e-06  0.00190669 -0.0023368 -0.00125885  0 0 0  0.00243948 -0.00328416 -0.00106859  0.000950813 -0.0014872 -0.000812054  0 0 0  0.0018734 -0.00246853 -0.000901699  0.000716306 -0.000974596 -0.000688553  0 0 0  0.000939466 -0.00156242 -0.000580788  0.000705712 -0.00104028 -0.000486374  0.00495923 -0.00593054 -0.00202608  0.00620595 -0.00711948 -0.00174427  0.00435139 -0.00493681 -0.0020256  0.0048852 -0.00617105 -0.00147724  0.00336677 -0.00402093 -0.00171137  0.00429082 -0.00516003 -0.0014677  0.00330916 -0.00421584 -0.00123405  0.00812769 -0.0104063 -0.00233793  0.0099524 -0.0115926 -0.00204945  0.00818697 -0.00892544 -0.00263882  0.00804371 -0.0107203 -0.00172901  0.00656617 -0.00803822 -0.00222588  0.00810441 -0.00924146 -0.00194073  0.0064761 -0.00832677 -0.00163794  0.0110642 -0.0159125 -0.00237179  0.0134577 -0.0170583 -0.0021162  0.0118147 -0.013842 -0.00282621  0.0110077 -0.0162537 -0.00177431  0.00963026 -0.0130211 -0.00237942  0.0117383 -0.0141946 -0.00210619  0.00955731 -0.0133542 -0.00177097  0.0137361 -0.0224591 -0.00229263  0.0166706 -0.0235713 -0.00205564  0.0151519 -0.0198228 -0.00279713  0.0137022 -0.022813 -0.00171995  0.0124348 -0.0190523 -0.00234318  0.0151024 -0.0201882 -0.00209475  0.0123883 -0.0194067 -0.00175571  0.0161383 -0.0300105 -0.00215721  0.0195787 -0.0310799 -0.00193596  0.018194 -0.0268452 -0.00266123  0.0161206 -0.0303552 -0.001616  0.0149676 -0.0261092 -0.00222778  0.0181599 -0.0272033 -0.00199795  0.0149468 -0.0264651 -0.00167418  0.0182869 -0.0384969 -0.00201321  0.0222002 -0.0395206 -0.00180292  0.0209391 -0.0348434 -0.00249815  0.0182778 -0.0388234 -0.00150633  0.0172465 -0.0341341 -0.00208616  0.0209263 -0.035189 -0.00187206  0.0172317 -0.0344774 -0.0015645  0.0201787 -0.047828 -0.00185347  0.0245312 -0.0488229 -0.00166464  0.0233979 -0.0437413 -0.00231028  0.0201837 -0.0481393 -0.00139046  0.0192658 -0.0430565 -0.00193357  0.0234019 -0.0440699 -0.00173569  0.0192608 -0.0433781 -0.00145102  0.0218369 -0.0579434 -0.00170755  0.0265819 -0.0589013 -0.00153303  0.0255834 -0.0534624 -0.00213289  0.0218458 -0.0582328 -0.00128269  0.0210395 -0.0527905 -0.00178051  0.0255857 -0.0537651 -0.00159979  0.0210439 -0.0530913 -0.00133657  0.023268 -0.0687696 -0.00156164  0.0283684 -0.0696914 -0.00140095  0.0275052 -0.0639281 -0.00195265  0.0232759 -0.06904 -0.00117302  0.0225824 -0.0632693 -0.00163174  0.0275077 -0.0642091 -0.00146294  0.0225881 -0.063549 -0.00122309  0.0244738 -0.0802449 -0.00142431  0.0298973 -0.0811293 -0.00128031  0.0291603 -0.0750752 -0.00178623  0.0244796 -0.0804894 -0.0010643  0.0238961 -0.0744282 -0.00149107  0.0291636 -0.075332 -0.00133896  0.0239059 -0.0746849 -0.00111818  0.0254735 -0.0922931 -0.00129318  0.0311947 -0.0931449 -0.00116158  0.030569 -0.0868331 -0.00162554  0.0254805 -0.0925154 -0.00097084  0.0250039 -0.0861979 -0.00136185  0.0305772 -0.0870661 -0.00121832  0.0250055 -0.0864319 -0.00102139  0.0262678 -0.104863 -0.00117302  0.0322615 -0.105684 -0.00105095  0.0317484 -0.0991395 -0.00147247  0.0262793 -0.105064 -0.000879288  0.025894 -0.098509 -0.00123501  0.0317563 -0.099353 -0.00110722  0.0259036 -0.098727 -0.000925064  0.026876 -0.117898 -0.00105381  0.0331095 -0.118685 -0.000946999  0.0327032 -0.111935 -0.00132418  0.0268849 -0.118075 -0.000787258  0.026597 -0.11132 -0.00111055  0.0327127 -0.112129 -0.000994682  0.0266049 -0.111513 -0.000828266  0.0273093 -0.131334 -0.00094223  0.0337574 -0.132093 -0.000844955  0.0334458 -0.12517 -0.00119114  0.0273216 -0.131497 -0.000705242  0.0271121 -0.124561 -0.000998497  0.0334544 -0.125343 -0.000891209  0.0271266 -0.124739 -0.000750065  0.0275826 -0.145126 -0.00083828  0.0342202 -0.145861 -0.000746727  0.033998 -0.138781 -0.00105762  0.0275922 -0.145271 -0.000628948  0.0274659 -0.138184 -0.000888348  0.0340135 -0.138937 -0.000795364  0.0274748 -0.138339 -0.000667095  0.0276983 -0.15923 -0.000738144  0.0345023 -0.159933 -0.000659943  0.0343745 -0.152722 -0.000938416  0.0277097 -0.159351 -0.000550747  0.0276558 -0.152133 -0.000785828  0.0343823 -0.152858 -0.000703335  0.0276682 -0.152272 -0.00058651  0.0276725 -0.173589 -0.0006423  0.0346258 -0.174273 -0.000576973  0.034574 -0.166953 -0.000821114  0.0276837 -0.173703 -0.000483513  0.0277047 -0.166376 -0.000690937  0.0345826 -0.167071 -0.000612259  0.0277135 -0.166496 -0.000516891  0.027513 -0.188182 -0.000555038  0.0345941 -0.188836 -0.000504017  0.0346227 -0.181423 -0.00071764  0.027528 -0.188276 -0.000417709  0.0276093 -0.180859 -0.000601292  0.0346255 -0.181527 -0.000538349  0.0276201 -0.180962 -0.000453949  0.0272434 -0.202955 -0.000472546  0.0344312 -0.203587 -0.000424862  0.0345132 -0.196099 -0.000614643  0.0272498 -0.203038 -0.000352859  0.0273926 -0.195543 -0.00051403  0.0345266 -0.196189 -0.000460148  0.0274067 -0.195634 -0.000383854  0.0268624 -0.217881 -0.000398159  0.0341387 -0.218483 -0.000362873  0.0342908 -0.210943 -0.000524044  0.026876 -0.217942 -0.000301838  0.0270658 -0.210395 -0.00043869  0.0342982 -0.211018 -0.000391483  0.0270779 -0.210471 -0.000328541  0.0263908 -0.232914 -0.000329494  0.0337341 -0.233498 -0.000299454  0.0339425 -0.225912 -0.000435829  0.0264001 -0.23297 -0.000247478  0.0266378 -0.225378 -0.000367165  0.0339506 -0.225978 -0.00032568  0.0266507 -0.225444 -0.000274181  0.0258291 -0.248033 -0.00027132  0.0332279 -0.248599 -0.00024271  0.0334878 -0.240984 -0.000358105  0.025831 -0.24808 -0.000204086  0.0261192 -0.24046 -0.000304699  0.0334923 -0.241038 -0.00027132  0.0261252 -0.240513 -0.000227451  0.0251946 -0.263222 -0.000218868  0.0326428 -0.263765 -0.000189304  0.0329454 -0.256131 -0.000291824  0.0252042 -0.263255 -0.000163078  0.0255225 -0.255617 -0.000244617  0.0329475 -0.256174 -0.000216007  0.0255268 -0.255657 -0.000183105  0.0244925 -0.278443 -0.00016737  0.031981 -0.278967 -0.000148296  0.0323143 -0.271324 -0.000227451  0.0244989 -0.278468 -0.000126839  0.024853 -0.270822 -0.000191689  0.032321 -0.271362 -0.000170708  0.024859 -0.27086 -0.000145912  0.0237396 -0.293679 -0.000126362  0.031251 -0.294188 -0.00011158  0.0316114 -0.286549 -0.000171185  0.0237424 -0.293697 -9.44138e-05  0.0241225 -0.286055 -0.000146389  0.0316219 -0.286575 -0.000128746  0.0241294 -0.28608 -0.000115395  0.0229402 -0.308911 -9.20296e-05  0.0304673 -0.309413 -8.34465e-05  0.0308583 -0.30178 -0.000126839  0.0229471 -0.308929 -6.58035e-05  0.0233469 -0.301294 -0.000105381  0.0308619 -0.301801 -9.53674e-05  0.023351 -0.301315 -8.2016e-05  0.0221055 -0.324134 -6.05583e-05  0.0296421 -0.324617 -5.62668e-05  0.0300546 -0.317002 -8.91685e-05  0.0221131 -0.324138 -4.72069e-05  0.0225286 -0.31652 -7.34329e-05  0.0300608 -0.317013 -6.67572e-05  0.0225356 -0.316537 -5.48363e-05  0.0212443 -0.339322 -3.8147e-05  0.028779 -0.339796 -3.76701e-05  0.0292075 -0.3322 -5.53131e-05  0.021251 -0.33933 -2.52724e-05  0.0216787 -0.331725 -5.10216e-05  0.029217 -0.33221 -4.1008e-05  0.0216832 -0.331738 -3.76701e-05  0.0203574 -0.354478 -2.00272e-05  0.0279002 -0.354942 -1.38283e-05  0.0283432 -0.347364 -3.14713e-05  0.0203669 -0.354479 -1.38283e-05  0.0208032 -0.3469 -2.86102e-05  0.0283434 -0.347373 -2.76566e-05  0.0208097 -0.346905 -2.3365e-05  0.0194597 -0.369589 -5.72205e-06  0.0270019 -0.370051 -7.15256e-06  0.0274508 -0.362493 -1.14441e-05  0.0194683 -0.369589 -2.86102e-06  0.0199068 -0.36203 -9.05991e-06  0.0274525 -0.362501 -1.4782e-05  0.019918 -0.362038 -1.04904e-05  0.0185633 -0.384662 1.00136e-05  0.0261045 -0.385131 1.04904e-05  0.0265398 -0.377591 -4.76837e-07  0.0185714 -0.384666 8.58307e-06  0.0190165 -0.377129 2.38419e-06  0.0265532 -0.377596 -9.53674e-07  0.0190196 -0.377131 3.33786e-06  0.00341043 -0.0043214 -0.00173044  0 0 0  0.0048376 -0.00587022 -0.00141811  0.00227101 -0.00373989 -0.00109291  0 0 0  0.00339441 -0.00449651 -0.00124741  0.00129015 -0.00229299 -0.000943661  0 0 0  0.00229964 -0.00386268 -0.000781536  0.00128422 -0.00238252 -0.000674248  0.00780609 -0.00793093 -0.00276709  0.0094828 -0.00943238 -0.00229073  0.00714199 -0.00733435 -0.00265455  0.00773916 -0.00822747 -0.00202036  0.00560763 -0.00607622 -0.00233603  0.00713643 -0.00760716 -0.00192308  0.00556341 -0.00632501 -0.00169134  0.0120846 -0.0122352 -0.00320435  0.0141997 -0.0137035 -0.00269604  0.011916 -0.0110738 -0.00346708  0.0120067 -0.0125933 -0.00237608  0.00997326 -0.00994873 -0.00304842  0.0118462 -0.0114363 -0.00255251  0.00989318 -0.0102865 -0.00224113  0.0160992 -0.0176054 -0.00327873  0.0187527 -0.019015 -0.00279093  0.0165834 -0.0158222 -0.0037241  0.0160344 -0.0179818 -0.00244951  0.0141296 -0.0147793 -0.00327682  0.0165122 -0.0162137 -0.00276566  0.0140559 -0.0151507 -0.00243711  0.0198042 -0.0240794 -0.0031848  0.0229907 -0.0254112 -0.00271082  0.0209723 -0.0216901 -0.00369358  0.0197634 -0.024439 -0.00238657  0.0179913 -0.0207018 -0.00324726  0.0209142 -0.0220781 -0.00275707  0.0179391 -0.0210783 -0.00243139  0.0231863 -0.0315527 -0.00299883  0.0268742 -0.0328377 -0.00256443  0.0250166 -0.0286335 -0.00352097  0.0231628 -0.0319111 -0.00224876  0.0215362 -0.0276867 -0.00309706  0.0249774 -0.0290021 -0.00264263  0.0215045 -0.0280491 -0.0023241  0.0262417 -0.0399843 -0.00279713  0.0303952 -0.0412108 -0.00238991  0.0287024 -0.0365636 -0.00330782  0.0262294 -0.0403193 -0.00210094  0.0247536 -0.0356519 -0.00290203  0.0286801 -0.0369088 -0.00248051  0.0247357 -0.0359998 -0.00217962  0.0289845 -0.0492797 -0.00258636  0.0335581 -0.0504542 -0.00221062  0.0320296 -0.045399 -0.00306177  0.0289799 -0.0495925 -0.0019412  0.0276529 -0.0445268 -0.00269318  0.0320204 -0.0457263 -0.00229549  0.0276466 -0.0448506 -0.00201893  0.0314165 -0.0593653 -0.00237703  0.0363787 -0.0604835 -0.00203228  0.0350236 -0.0550732 -0.00282335  0.0314205 -0.059652 -0.00178194  0.0302383 -0.0542259 -0.00248003  0.0350106 -0.0553748 -0.00211716  0.0302386 -0.0545268 -0.00186062  0.0335541 -0.0701591 -0.00217009  0.0388651 -0.0712299 -0.00185728  0.0376657 -0.0654966 -0.00259018  0.0335603 -0.0704207 -0.0016284  0.0325223 -0.0646704 -0.00227118  0.0376652 -0.0657683 -0.00194216  0.032526 -0.0649485 -0.00170612  0.0354061 -0.0816033 -0.00198555  0.0410345 -0.0826243 -0.0017004  0.0399954 -0.0765947 -0.00236607  0.0354165 -0.0818416 -0.00148869  0.0345156 -0.0757955 -0.00207615  0.0399902 -0.0768487 -0.00177622  0.0345215 -0.0760526 -0.00155687  0.036994 -0.0936259 -0.00180531  0.0429064 -0.0946016 -0.00154257  0.0420055 -0.0883086 -0.00215387  0.0369989 -0.0938392 -0.00135374  0.0362285 -0.0875376 -0.00189352  0.0420063 -0.0885468 -0.00162029  0.0362401 -0.0877737 -0.00141811  0.0383242 -0.106169 -0.00162506  0.0444961 -0.107108 -0.00139236  0.0437372 -0.100586 -0.00195694  0.0383296 -0.106366 -0.0012207  0.0376884 -0.0998317 -0.00171471  0.0437372 -0.100793 -0.00146484  0.0376967 -0.100041 -0.00128222  0.0394094 -0.119175 -0.00146341  0.0458124 -0.120071 -0.0012598  0.0451899 -0.113345 -0.00175428  0.0394121 -0.119352 -0.00110054  0.0388966 -0.11261 -0.00154114  0.0451881 -0.113533 -0.00131941  0.0389007 -0.112804 -0.00116062  0.0402626 -0.13259 -0.00130701  0.0468774 -0.133447 -0.00111485  0.0463727 -0.126537 -0.00157833  0.0402712 -0.132745 -0.000982761  0.0398661 -0.125829 -0.0013833  0.0463729 -0.126708 -0.00118542  0.0398672 -0.125999 -0.00103712  0.0409153 -0.146359 -0.0011611  0.0477052 -0.147175 -0.000993252  0.0473183 -0.140118 -0.00140953  0.0409207 -0.146496 -0.000872612  0.0406114 -0.139425 -0.00123453  0.0473194 -0.140267 -0.00105667  0.0406216 -0.13958 -0.000925064  0.0413589 -0.16043 -0.00102234  0.0483108 -0.161211 -0.000871658  0.0480385 -0.154024 -0.00124264  0.0413687 -0.160554 -0.0007658  0.0411584 -0.153352 -0.00108862  0.0480368 -0.154156 -0.00093317  0.0411689 -0.153486 -0.000818253  0.0416248 -0.174772 -0.000889778  0.0487044 -0.175519 -0.000766754  0.0485389 -0.168217 -0.00108719  0.0416296 -0.174878 -0.000665665  0.0415139 -0.167565 -0.000954151  0.0485301 -0.168331 -0.000818253  0.0415206 -0.167684 -0.00071764  0.0417159 -0.189337 -0.000775337  0.0489187 -0.190046 -0.000662804  0.0488353 -0.182656 -0.000943661  0.0417225 -0.189425 -0.000581741  0.041692 -0.182024 -0.000833035  0.0488324 -0.182754 -0.000709534  0.041698 -0.182126 -0.000625134  0.0416505 -0.204088 -0.000654697  0.0489521 -0.204755 -0.000556469  0.0489507 -0.19729 -0.000813961  0.0416613 -0.20416 -0.000490189  0.0417027 -0.196685 -0.00071764  0.048955 -0.197382 -0.000615597  0.0417097 -0.196773 -0.000534534  0.0414429 -0.218979 -0.000552177  0.0488269 -0.219622 -0.000470161  0.0488992 -0.212102 -0.000688076  0.0414553 -0.219043 -0.000412941  0.0415666 -0.211512 -0.000607491  0.0489061 -0.212174 -0.000516891  0.0415726 -0.211584 -0.000457287  0.0411124 -0.233991 -0.000457764  0.0485637 -0.234609 -0.000393867  0.0487092 -0.227042 -0.000576496  0.0411205 -0.234047 -0.00034523  0.0412929 -0.226467 -0.000504971  0.0487151 -0.227105 -0.000436306  0.0413008 -0.22653 -0.00038147  0.0406632 -0.249089 -0.00037384  0.048162 -0.249675 -0.000312328  0.0483639 -0.242077 -0.000469208  0.0406718 -0.249135 -0.000281334  0.0409014 -0.241527 -0.000417233  0.0483792 -0.242131 -0.00035429  0.0409069 -0.241577 -0.000310898  0.0401199 -0.264251 -0.000294685  0.0476501 -0.264815 -0.00025177  0.0479143 -0.257205 -0.000378609  0.0401247 -0.264287 -0.000223637  0.0404022 -0.256662 -0.000330925  0.0479167 -0.25724 -0.000285149  0.0404129 -0.256702 -0.000252247  0.0394821 -0.279446 -0.000230312  0.0470417 -0.279987 -0.000198364  0.0473585 -0.272364 -0.000298977  0.0394893 -0.279473 -0.000173092  0.0398118 -0.271838 -0.00026226  0.047358 -0.272397 -0.000228405  0.0398173 -0.271876 -0.000198841  0.0387738 -0.294672 -0.000170708  0.0463526 -0.295183 -0.000145435  0.0467076 -0.287567 -0.000227451  0.0387824 -0.294682 -0.000126362  0.0391343 -0.287054 -0.000201702  0.046705 -0.287585 -0.000169277  0.0391445 -0.287078 -0.000152111  0.0380073 -0.309888 -0.000121117  0.0455773 -0.310383 -0.00010252  0.0459723 -0.30277 -0.00016737  0.0380123 -0.309899 -9.15527e-05  0.0383987 -0.302275 -0.000144482  0.0459728 -0.302782 -0.000123978  0.0384064 -0.302292 -0.000107765  0.0371778 -0.325085 -8.2016e-05  0.044764 -0.325568 -7.15256e-05  0.0451672 -0.317963 -0.000114918  0.0371926 -0.325091 -6.10352e-05  0.0376008 -0.317482 -9.87053e-05  0.0451763 -0.317979 -8.67844e-05  0.0376067 -0.317496 -7.82013e-05  0.0363238 -0.340265 -5.34058e-05  0.0438926 -0.340732 -4.29153e-05  0.0443206 -0.33315 -7.05719e-05  0.03633 -0.340265 -3.33786e-05  0.0367563 -0.332675 -5.96046e-05  0.0443332 -0.333153 -5.43594e-05  0.0367658 -0.332683 -4.76837e-05  0.0354352 -0.355407 -2.67029e-05  0.0430021 -0.35587 -3.29018e-05  0.043442 -0.348297 -4.57764e-05  0.0354426 -0.355407 -2.00272e-05  0.0358801 -0.347832 -3.48091e-05  0.0434496 -0.348302 -3.05176e-05  0.0358899 -0.347839 -2.71797e-05  0.0345397 -0.370514 -6.19888e-06  0.0420916 -0.37097 -5.72205e-06  0.0425377 -0.36342 -2.24113e-05  0.0345416 -0.370514 -5.24521e-06  0.0349855 -0.362959 -1.71661e-05  0.0425479 -0.363421 -1.81198e-05  0.0349939 -0.362962 -1.33514e-05  0.0336232 -0.385595 9.53674e-06  0.0411744 -0.386055 2.38419e-06  0.041625 -0.378514 -3.8147e-06  0.0336356 -0.385593 3.8147e-06  0.034081 -0.378052 -2.38419e-06  0.0416307 -0.378515 -4.76837e-06  0.0340929 -0.378058 -9.53674e-07  -0.0047696 -0.0049772 0.00269413  -0.00225103 -0.00309791 0.00197411  0 0 0  -0.00348799 -0.00332623 0.00304461  0 0 0  -0.0024683 -0.00258062 0.00201607  -0.000999987 -0.00100923 0.00148582  0 0 0  -0.00226716 -0.00330493 0.00151014  -0.00339951 -0.00370374 0.00234699  -0.00133982 -0.00174558 0.00170135  0 0 0  -0.000947364 -0.00117556 0.00111818  -0.00127811 -0.00193438 0.00129223  -0.00955655 -0.00798189 0.00421667  -0.00722998 -0.00583651 0.00456905  -0.00798734 -0.00628857 0.00458431  -0.00625636 -0.00589736 0.0031786  -0.00452195 -0.00373095 0.00345182  -0.00713666 -0.00640056 0.00359678  -0.00781094 -0.00687908 0.00368929  -0.00576827 -0.00471857 0.0039916  -0.00433379 -0.00417244 0.00271225  -0.00560334 -0.00522289 0.00313997  -0.0143671 -0.0118422 0.00478649  -0.0120979 -0.00908903 0.00562906  -0.0122002 -0.0102203 0.00507784  -0.00997531 -0.0100166 0.00360775  -0.00829348 -0.00724134 0.00422907  -0.0119787 -0.0097737 0.00458574  -0.0120904 -0.0108657 0.0041914  -0.0101256 -0.00810551 0.00491476  -0.00814262 -0.00782497 0.00345755  -0.00997904 -0.00873731 0.00401211  -0.0189996 -0.0168396 0.00484514  -0.0167706 -0.013511 0.00585556  -0.0161784 -0.0153157 0.00509071  -0.013484 -0.0152189 0.0036397  -0.0118102 -0.0118508 0.00439835  -0.0167086 -0.0142031 0.00485182  -0.0161557 -0.015968 0.0042367  -0.014212 -0.0126177 0.00512409  -0.0117518 -0.0124771 0.0036521  -0.0141495 -0.0132761 0.00424957  -0.0233921 -0.0229374 0.00465107  -0.0212213 -0.0190933 0.00571489  -0.019973 -0.0215398 0.00487614  -0.0168055 -0.0215004 0.00349522  -0.0151517 -0.0176035 0.00429153  -0.0212237 -0.0197578 0.00476408  -0.0200109 -0.0221623 0.0040741  -0.0180997 -0.0182891 0.00499821  -0.0151637 -0.0182273 0.00358391  -0.0181091 -0.0189313 0.00416994  -0.0275458 -0.0300537 0.00436115  -0.0254523 -0.0257473 0.0054059  -0.0235897 -0.0287816 0.00456619  -0.0199641 -0.0287931 0.00327444  -0.0183393 -0.0244221 0.00405121  -0.025498 -0.0263719 0.00451517  -0.0236699 -0.0293699 0.00381708  -0.0218039 -0.0250309 0.00472498  -0.018405 -0.0250241 0.00338888  -0.0218641 -0.0256443 0.00394917  -0.0314574 -0.03809 0.00403118  -0.0294538 -0.0333814 0.00502491  -0.0270278 -0.0369569 0.00422668  -0.0229692 -0.0370055 0.00302887  -0.0213899 -0.0322224 0.00376797  -0.0295305 -0.0339593 0.00420094  -0.0271284 -0.0375009 0.00353527  -0.0253314 -0.0327543 0.00439501  -0.0214882 -0.0327847 0.00314951  -0.0254238 -0.0333245 0.00367594  -0.0351425 -0.0469889 0.00370264  -0.0332352 -0.0419062 0.00463247  -0.0302929 -0.0459866 0.00387955  -0.0258179 -0.0460667 0.00278139  -0.0243003 -0.0409129 0.00347137  -0.033327 -0.0424339 0.00387335  -0.0304017 -0.0464865 0.0032444  -0.0286833 -0.0413644 0.0040493  -0.024413 -0.0414374 0.00290537  -0.0287893 -0.0418926 0.0033865  -0.0386152 -0.0566653 0.00338888  -0.0368059 -0.0512476 0.00424242  -0.0333889 -0.0557932 0.00355387  -0.0285375 -0.0559106 0.00253773  -0.0270795 -0.0504177 0.00318241  -0.0369047 -0.0517291 0.00354576  -0.0334967 -0.056253 0.00296354  -0.0318592 -0.0507962 0.00371552  -0.0271944 -0.0508974 0.00266171  -0.0319707 -0.051276 0.0031023  -0.0418787 -0.0670547 0.00308895  -0.0401716 -0.0613357 0.00387621  -0.0363153 -0.0663102 0.00323486  -0.0311174 -0.0664571 0.00231171  -0.0297301 -0.0606586 0.00290489  -0.0402709 -0.0617741 0.00323963  -0.0364288 -0.0667258 0.00270319  -0.0348742 -0.0609627 0.00339174  -0.0298412 -0.0611 0.0024271  -0.0349833 -0.0614036 0.00283623  -0.044962 -0.0781034 0.00279808  -0.043342 -0.0720992 0.00352573  -0.0390868 -0.0774731 0.0029335  -0.0335695 -0.077654 0.00209236  -0.0322453 -0.0715799 0.00263786  -0.0434422 -0.0725025 0.00294542  -0.0391949 -0.07785 0.00244999  -0.037719 -0.0718088 0.0030818  -0.0323598 -0.0719781 0.00220585  -0.0378296 -0.0722089 0.00256968  -0.0478492 -0.0897382 0.00253439  -0.0463297 -0.0834921 0.00318861  -0.0417062 -0.0892284 0.00264978  -0.0358977 -0.0894376 0.00189447  -0.034642 -0.0831155 0.00238895  -0.0464307 -0.0838523 0.00266504  -0.0418116 -0.0895653 0.00221348  -0.0404162 -0.0832778 0.00279188  -0.0347453 -0.0834754 0.0019927  -0.0405233 -0.0836368 0.00232935  -0.0505663 -0.101913 0.00227165  -0.0491401 -0.0954356 0.00287914  -0.0441793 -0.101506 0.00238705  -0.0381104 -0.101743 0.00169945  -0.0369179 -0.0951998 0.0021553  -0.0492319 -0.095763 0.00240517  -0.0442801 -0.101804 0.00198841  -0.0429592 -0.0952961 0.0025177  -0.0370208 -0.0955267 0.00179958  -0.0430603 -0.0956223 0.00209665  -0.0531186 -0.114567 0.00203896  -0.0517826 -0.10789 0.00258541  -0.0465169 -0.114262 0.00213766  -0.0402132 -0.11453 0.00151777  -0.0390769 -0.107785 0.00193214  -0.0518636 -0.108184 0.00215912  -0.0466064 -0.114532 0.00178003  -0.0453619 -0.107822 0.00226164  -0.0391773 -0.108081 0.00161266  -0.0454599 -0.108113 0.00188589  -0.0555123 -0.12766 0.0018096  -0.0542526 -0.120804 0.00230312  -0.0487142 -0.127443 0.00189829  -0.0422025 -0.127737 0.00135469  -0.0411317 -0.120824 0.00172329  -0.0543333 -0.121068 0.00192642  -0.0488013 -0.127682 0.00158787  -0.0476331 -0.120799 0.00201368  -0.0412199 -0.121083 0.00143862  -0.0477223 -0.121058 0.00168037  -0.0577524 -0.141129 0.00160217  -0.056574 -0.134119 0.00204754  -0.0507909 -0.140997 0.00167465  -0.0440947 -0.141318 0.00119305  -0.0430776 -0.134251 0.00152302  -0.0566519 -0.134348 0.00170612  -0.0508709 -0.14121 0.00139475  -0.0497676 -0.134171 0.00178576  -0.0431617 -0.134484 0.00126982  -0.0498532 -0.134402 0.0014863  -0.0598407 -0.154934 0.00139666  -0.0587487 -0.147785 0.00179815  -0.052742 -0.154883 0.00147057  -0.0458841 -0.155226 0.00104952  -0.0449212 -0.148029 0.00134182  -0.0588164 -0.147991 0.00150156  -0.0528195 -0.155066 0.00122261  -0.0517809 -0.147895 0.00156927  -0.0449998 -0.148234 0.00111771  -0.0518601 -0.148101 0.00130701  -0.0617983 -0.169035 0.00121021  -0.0607822 -0.161771 0.00156021  -0.0545788 -0.169052 0.00127554  -0.0475817 -0.169413 0.000908375  -0.0466769 -0.16211 0.00117016  -0.0608389 -0.161952 0.0013032  -0.0546443 -0.169217 0.00106382  -0.0536737 -0.161934 0.00136852  -0.0467439 -0.162287 0.000977039  -0.053746 -0.162108 0.00114346  -0.0636256 -0.183372 0.00104761  -0.0626817 -0.176025 0.00135994  -0.0563061 -0.183467 0.00110006  -0.0491889 -0.183844 0.000779629  -0.048332 -0.176446 0.00101089  -0.0627289 -0.176174 0.00112867  -0.0563664 -0.183605 0.000918865  -0.0554526 -0.176226 0.00118351  -0.0483968 -0.176601 0.000841618  -0.0555224 -0.176381 0.000986576  -0.0653355 -0.197938 0.000879288  -0.0644481 -0.190502 0.00115919  -0.0579267 -0.198093 0.000930786  -0.0507061 -0.198486 0.000666618  -0.0498972 -0.191008 0.000864029  -0.0644953 -0.190631 0.00096035  -0.0579817 -0.198208 0.000777245  -0.0571277 -0.190754 0.00101042  -0.049957 -0.191141 0.000722408  -0.0571873 -0.190882 0.000843525  -0.0669172 -0.212669 0.000745773  -0.0660944 -0.205178 0.000970364  -0.0594478 -0.212881 0.000772953  -0.0521379 -0.213289 0.000556469  -0.0513847 -0.205752 0.000729561  -0.0661402 -0.205286 0.000817776  -0.0594969 -0.212976 0.000645638  -0.0586998 -0.20546 0.000850677  -0.0514317 -0.205864 0.000612259  -0.0587518 -0.205572 0.000710011  -0.0683968 -0.227546 0.000609875  -0.0676279 -0.220001 0.000800133  -0.0608809 -0.227807 0.000638962  -0.0535004 -0.228221 0.000456333  -0.0527844 -0.220646 0.000604153  -0.0676708 -0.22009 0.00067091  -0.0609195 -0.227881 0.000531673  -0.060174 -0.220323 0.000704765  -0.0528302 -0.220737 0.00050211  -0.0602174 -0.220412 0.000586033  -0.0697792 -0.242531 0.000495434  -0.069067 -0.234951 0.000656605  -0.0622213 -0.24283 0.000513077  -0.0547934 -0.243267 0.000363827  -0.0541096 -0.235655 0.000491142  -0.069103 -0.235031 0.000549793  -0.0622604 -0.242899 0.000428677  -0.0615599 -0.235304 0.000576973  -0.0541573 -0.235731 0.00041008  -0.0616016 -0.235379 0.000477791  -0.0710731 -0.257603 0.000380993  -0.0704129 -0.249999 0.000520706  -0.0634847 -0.257945 0.000403404  -0.0560143 -0.258376 0.000287056  -0.0553763 -0.250755 0.000389099  -0.0704408 -0.250064 0.000434875  -0.0635209 -0.257994 0.000338078  -0.0628648 -0.250379 0.000456333  -0.0554116 -0.25081 0.000321865  -0.0628986 -0.250438 0.000382423  -0.0722761 -0.272735 0.000289917  -0.071665 -0.265129 0.000399113  -0.0646782 -0.273114 0.000308514  -0.0571783 -0.27355 0.000212669  -0.056571 -0.265911 0.000301361  -0.0716834 -0.265166 0.000339508  -0.0647058 -0.273145 0.000256538  -0.0640907 -0.265521 0.000349998  -0.0566015 -0.265959 0.000253677  -0.064121 -0.265564 0.000295639  -0.0734172 -0.287905 0.000216007  -0.072834 -0.280283 0.000299454  -0.0658095 -0.288305 0.000223637  -0.0582881 -0.288748 0.00015974  -0.0577142 -0.281108 0.000229359  -0.072855 -0.280317 0.000252724  -0.0658247 -0.288329 0.000187397  -0.0652475 -0.280701 0.000259876  -0.0577393 -0.281147 0.000191689  -0.0652761 -0.280734 0.000217438  -0.0744791 -0.303088 0.000148773  -0.0739329 -0.295474 0.000208855  -0.0668747 -0.303508 0.000155926  -0.0593395 -0.303957 0.000108242  -0.0587945 -0.296326 0.000163078  -0.0739512 -0.295492 0.000180721  -0.0668988 -0.303523 0.00013113  -0.0663486 -0.295901 0.000189781  -0.0588179 -0.296349 0.000134945  -0.0663681 -0.295923 0.000157833  -0.0754921 -0.318268 9.29832e-05  -0.074981 -0.310667 0.000136852  -0.0679007 -0.318707 9.67979e-05  -0.0603595 -0.319152 7.20024e-05  -0.0598359 -0.311537 0.000106812  -0.0749905 -0.310677 0.000118256  -0.0679116 -0.318712 7.77245e-05  -0.0673907 -0.311104 0.000119686  -0.0598516 -0.311554 9.01222e-05  -0.0674093 -0.311117 0.000102997  -0.0764627 -0.333428 5.67436e-05  -0.0759706 -0.325847 9.05991e-05  -0.0688787 -0.333883 5.29289e-05  -0.0613368 -0.334333 3.71933e-05  -0.0608342 -0.326736 5.96046e-05  -0.0759852 -0.325849 7.62939e-05  -0.068893 -0.333886 4.673e-05  -0.0683911 -0.326293 7.10487e-05  -0.0608509 -0.326744 5.24521e-05  -0.0684049 -0.3263 6.38962e-05  -0.0773931 -0.348569 2.14577e-05  -0.0769215 -0.340998 3.95775e-05  -0.0698268 -0.349029 2.14577e-05  -0.0622857 -0.349478 2.0504e-05  -0.061799 -0.341905 3.33786e-05  -0.0769279 -0.341002 3.76701e-05  -0.0698342 -0.349028 1.90735e-05  -0.0693576 -0.341454 3.8147e-05  -0.0618138 -0.34191 3.05176e-05  -0.0693638 -0.341459 3.00407e-05  -0.0783107 -0.363687 3.8147e-06  -0.0778463 -0.356132 2.09808e-05  -0.0707529 -0.364142 4.29153e-06  -0.0632164 -0.364593 4.76837e-07  -0.0627406 -0.357036 1.28746e-05  -0.0778522 -0.356126 1.66893e-05  -0.0707626 -0.364143 6.67572e-06  -0.0702899 -0.356589 1.33514e-05  -0.0627534 -0.357042 1.00136e-05  -0.0703018 -0.356587 1.14441e-05  -0.0792222 -0.378773 -1.62125e-05  -0.0787451 -0.371224 4.29153e-06  -0.0716667 -0.37923 -1.85966e-05  -0.0641394 -0.37967 -1.43051e-05  -0.0636654 -0.372131 -8.10623e-06  -0.0787671 -0.371227 1.43051e-06  -0.071676 -0.379223 -1.38283e-05  -0.071209 -0.37168 -7.62939e-06  -0.0636799 -0.372134 -6.19888e-06  -0.0712206 -0.371683 -7.15256e-06  -0.00198581 -0.00157742 0.00222683  0 0 0  -0.00140232 -0.00136566 0.00138187  -0.000575759 -0.000285417 0.00101805  0 0 0  -0.00188731 -0.00185347 0.00170374  -0.000757281 -0.000562444 0.0012536  0 0 0  -0.000532873 -0.000422627 0.000758171  -0.000702035 -0.000711441 0.000939369  -0.00507669 -0.00460887 0.00333738  -0.00371455 -0.00445248 0.00216913  -0.0026422 -0.00239229 0.00236559  -0.00490633 -0.00508495 0.00268173  -0.00350444 -0.00295264 0.00291729  -0.00249512 -0.00275381 0.00185823  -0.00333463 -0.00334606 0.00228643  -0.00811085 -0.00872542 0.00365686  -0.00619048 -0.00872429 0.0024395  -0.00508237 -0.0059441 0.00287294  -0.00801179 -0.00929891 0.00302649  -0.00661615 -0.0065203 0.00355816  -0.00496182 -0.00644685 0.00235367  -0.00647718 -0.00705735 0.00290537  -0.0109737 -0.0139866 0.00365019  -0.00856933 -0.0140912 0.0024538  -0.0074425 -0.0106909 0.00296259  -0.01096 -0.0145922 0.0030489  -0.00956061 -0.0112075 0.00368595  -0.00739735 -0.0112647 0.00246906  -0.00950569 -0.0118068 0.00306416  -0.0137087 -0.0203529 0.00348711  -0.0108246 -0.0205192 0.00234556  -0.00969166 -0.0165815 0.00287008  -0.0137497 -0.020951 0.0029211  -0.0123564 -0.0170324 0.00357914  -0.00970888 -0.0171743 0.00240517  -0.0123724 -0.0176417 0.00299644  -0.016332 -0.0277452 0.00326443  -0.0129832 -0.0279471 0.00219059  -0.0118541 -0.023532 0.00270653  -0.0164092 -0.0283169 0.00273228  -0.0150328 -0.0239237 0.00337982  -0.0119141 -0.0241115 0.00227261  -0.0150939 -0.0245139 0.00283241  -0.0188557 -0.0360681 0.00302076  -0.0150563 -0.0362942 0.00202131  -0.0139495 -0.0314565 0.00251675  -0.0189528 -0.0366015 0.0025301  -0.0176061 -0.0317926 0.00314569  -0.0140279 -0.0320101 0.00210571  -0.0176969 -0.0323465 0.00263262  -0.0212716 -0.0452422 0.00277328  -0.0170588 -0.0454891 0.00185204  -0.0159745 -0.0402702 0.00230694  -0.021383 -0.0457369 0.00231743  -0.020075 -0.040549 0.00289202  -0.0160665 -0.0407905 0.00193214  -0.0201813 -0.0410699 0.00241756  -0.0235972 -0.055186 0.00253248  -0.0189917 -0.0554541 0.00168991  -0.0179356 -0.049898 0.00211716  -0.0237075 -0.0556438 0.00212002  -0.0224481 -0.0501132 0.00265217  -0.0180343 -0.0503786 0.00177097  -0.0225571 -0.0505948 0.00221586  -0.0258268 -0.0658427 0.00230694  -0.0208615 -0.0661296 0.00153732  -0.0198326 -0.0602679 0.00193024  -0.0259337 -0.0662573 0.00192165  -0.0247239 -0.0604269 0.00241852  -0.0199333 -0.0607055 0.00161505  -0.0248313 -0.0608641 0.00201797  -0.0279574 -0.0771413 0.00209093  -0.022664 -0.0774435 0.00139236  -0.0216742 -0.0713017 0.00175095  -0.0280644 -0.077519 0.00174713  -0.0269051 -0.0714133 0.00219536  -0.0217699 -0.0717077 0.00146294  -0.0270114 -0.0718083 0.00182962  -0.0300037 -0.0890204 0.00188971  -0.0244087 -0.0893384 0.0012536  -0.0234516 -0.0829579 0.00158405  -0.0301044 -0.0893599 0.00157642  -0.0289901 -0.0830074 0.00198746  -0.023542 -0.0833202 0.00132036  -0.0290958 -0.0833693 0.00165653  -0.0319622 -0.10142 0.00169039  -0.0260946 -0.101757 0.00112629  -0.0251701 -0.0951558 0.00142813  -0.0320593 -0.101725 0.00140953  -0.0309941 -0.0951512 0.00179148  -0.0252595 -0.0954844 0.00119114  -0.0310959 -0.095481 0.00148821  -0.0338304 -0.114286 0.0015111  -0.0277179 -0.114642 0.00100088  -0.0268273 -0.107846 0.00127554  -0.0339209 -0.114567 0.00126362  -0.032904 -0.107796 0.00159788  -0.026914 -0.108142 0.00106287  -0.0329996 -0.108088 0.00133276  -0.0356219 -0.12758 0.0013485  -0.0292854 -0.127949 0.000895023  -0.0284283 -0.12098 0.00113726  -0.035706 -0.127822 0.00112057  -0.0347346 -0.12088 0.00143194  -0.028509 -0.121246 0.000946999  -0.0348204 -0.121144 0.00119257  -0.0373322 -0.141236 0.00118876  -0.0308058 -0.141618 0.000782967  -0.0299795 -0.134506 0.00100422  -0.0374101 -0.141452 0.000991821  -0.0364875 -0.134364 0.00126791  -0.0300514 -0.13474 0.000841141  -0.0365691 -0.134596 0.00105715  -0.0389707 -0.15521 0.00104141  -0.0322654 -0.155609 0.000691891  -0.0314777 -0.148365 0.00088501  -0.0390406 -0.155402 0.000865936  -0.0381653 -0.148183 0.0011158  -0.0315423 -0.148575 0.000739098  -0.0382345 -0.148391 0.000926971  -0.0405347 -0.169469 0.000905037  -0.0336761 -0.169876 0.000598431  -0.0329182 -0.162529 0.000768661  -0.0405953 -0.169632 0.00075531  -0.0397587 -0.162306 0.000972748  -0.0329797 -0.162709 0.000638485  -0.0398269 -0.162486 0.000809193  -0.0420184 -0.183965 0.000779629  -0.0350347 -0.184378 0.000517368  -0.0343041 -0.176945 0.000668049  -0.0420754 -0.1841 0.000651836  -0.041286 -0.176687 0.000838757  -0.0343616 -0.177096 0.000558376  -0.0413463 -0.176839 0.000700474  -0.0434456 -0.198656 0.000665665  -0.0363414 -0.199075 0.000433445  -0.0356433 -0.191569 0.000567436  -0.0434961 -0.198776 0.000550747  -0.0427432 -0.191279 0.00071907  -0.0356927 -0.191704 0.00047493  -0.0427945 -0.191414 0.000598907  -0.0448034 -0.213509 0.000555515  -0.0376077 -0.213933 0.000356197  -0.0369365 -0.206371 0.00047636  -0.0448496 -0.213602 0.000460148  -0.0441301 -0.206055 0.000606537  -0.0369813 -0.206486 0.00039959  -0.0441833 -0.206167 0.00050354  -0.0460992 -0.228486 0.000456333  -0.0388253 -0.22892 0.000301361  -0.0381837 -0.221312 0.000398159  -0.0461426 -0.228565 0.000379086  -0.045459 -0.220974 0.000500679  -0.0382221 -0.221413 0.000328064  -0.045505 -0.22107 0.00041914  -0.0473356 -0.243566 0.000368118  -0.0400023 -0.244008 0.000241756  -0.0393779 -0.236374 0.000326157  -0.047375 -0.243632 0.000303268  -0.0467234 -0.23601 0.000410557  -0.0394154 -0.236451 0.00027132  -0.0467651 -0.236088 0.000339031  -0.0485253 -0.258714 0.00028944  -0.0411291 -0.259157 0.000184536  -0.040535 -0.251514 0.000257015  -0.0485554 -0.258767 0.000239372  -0.0479367 -0.251135 0.000323772  -0.0405691 -0.251573 0.000210762  -0.0479715 -0.251187 0.000270844  -0.0496604 -0.273919 0.000218391  -0.0422211 -0.274359 0.000145435  -0.0416536 -0.266704 0.000201702  -0.0496852 -0.273952 0.000181675  -0.0490937 -0.266308 0.000253677  -0.0416784 -0.266752 0.000167847  -0.0491261 -0.266352 0.000207424  -0.0507462 -0.289139 0.000163078  -0.0432825 -0.289581 0.000104904  -0.0427334 -0.281933 0.00014925  -0.0507684 -0.289163 0.000135899  -0.0502081 -0.281518 0.000185013  -0.0427551 -0.281967 0.000123978  -0.0502317 -0.281556 0.000156403  -0.0517926 -0.304364 0.000106335  -0.0443048 -0.304809 6.86646e-05  -0.0437787 -0.297169 0.000104904  -0.0518112 -0.304381 8.96454e-05  -0.0512733 -0.296747 0.000133991  -0.0438001 -0.297198 9.05991e-05  -0.0512955 -0.296774 0.00011158  -0.0528104 -0.319581 7.05719e-05  -0.0453072 -0.320027 4.48227e-05  -0.0447936 -0.312403 7.15256e-05  -0.0528188 -0.31959 5.67436e-05  -0.0523062 -0.31197 8.86917e-05  -0.0448103 -0.31242 5.8651e-05  -0.0523219 -0.311987 7.05719e-05  -0.0537872 -0.334769 3.95775e-05  -0.046273 -0.335218 2.38419e-05  -0.0457838 -0.327614 3.76701e-05  -0.0537977 -0.334778 3.19481e-05  -0.0533001 -0.327176 5.29289e-05  -0.0457921 -0.327624 3.67165e-05  -0.0533135 -0.327186 4.52995e-05  -0.054744 -0.34993 1.66893e-05  -0.0472226 -0.350375 1.04904e-05  -0.0467443 -0.342796 2.14577e-05  -0.0547488 -0.349928 1.23978e-05  -0.0542643 -0.342349 2.76566e-05  -0.0467513 -0.3428 1.71661e-05  -0.0542746 -0.342357 2.00272e-05  -0.0556769 -0.365044 -9.53674e-07  -0.0481567 -0.365489 -1.43051e-06  -0.0476823 -0.357932 5.24521e-06  -0.0556846 -0.365042 -1.90735e-06  -0.0552127 -0.357484 5.24521e-06  -0.0476921 -0.357935 4.76837e-06  -0.0552177 -0.357491 7.62939e-06  -0.0565979 -0.38012 -1.90735e-05  -0.0490794 -0.380558 -1.71661e-05  -0.0486085 -0.373027 -8.58307e-06  -0.0566044 -0.380116 -1.66893e-05  -0.0561407 -0.372581 -1.09673e-05  -0.0486193 -0.373028 -5.24521e-06  -0.056144 -0.372583 -8.58307e-06  -0.00105506 -0.000816911 0.00136566  0 0 0  -0.00062786 -0.000858277 0.000700951  -0.000262398 -1.19209e-05 0.000516891  0 0 0  -0.000994042 -0.00104955 0.00104523  -0.000406276 -0.000113875 0.0007658  0 0 0  -0.000236992 -0.000137329 0.000384331  -0.000374731 -0.000240535 0.000572681  -0.0027757 -0.00359029 0.00204468  -0.00169598 -0.00371414 0.00110388  -0.00119524 -0.00176048 0.00119734  -0.00266591 -0.00400326 0.00164175  -0.00188568 -0.00200009 0.00178719  -0.00112936 -0.00208527 0.000941753  -0.0017799 -0.00234297 0.00140285  -0.00456071 -0.00777072 0.0022254  -0.00289178 -0.00800076 0.00123596  -0.00234297 -0.00523898 0.0014534  -0.00449806 -0.00828993 0.00184584  -0.00367245 -0.00551814 0.00217009  -0.00228927 -0.00570086 0.00119305  -0.0035823 -0.00599563 0.00177717  -0.00629348 -0.0131451 0.00220919  -0.0040876 -0.0134729 0.00123739  -0.00351122 -0.0100573 0.00149584  -0.00628799 -0.013714 0.00184774  -0.00543344 -0.0103073 0.00223351  -0.00349373 -0.0105994 0.00124979  -0.00540194 -0.0108632 0.00185776  -0.00796455 -0.019626 0.00210142  -0.00525802 -0.020007 0.00118017  -0.0046621 -0.0160365 0.00144958  -0.00800312 -0.020204 0.00176477  -0.00713378 -0.0162483 0.00216389  -0.00467694 -0.0166137 0.00121546  -0.00715339 -0.0168312 0.00181198  -0.00959074 -0.0271253 0.00196028  -0.006405 -0.0275342 0.00109148  -0.00579011 -0.0230825 0.00135136  -0.00965184 -0.0276861 0.00164318  -0.00878119 -0.0232496 0.00203419  -0.0058338 -0.023653 0.00113726  -0.00883418 -0.0238248 0.00170708  -0.0111867 -0.0355571 0.00181246  -0.00754285 -0.0359784 0.00100994  -0.00691557 -0.031095 0.00126028  -0.0112612 -0.0360886 0.0015173  -0.010394 -0.0312259 0.00188351  -0.00697231 -0.031645 0.00105572  -0.0104623 -0.0317745 0.00157976  -0.0127494 -0.044838 0.00165319  -0.00867862 -0.0452653 0.000921249  -0.00804222 -0.0400002 0.00115252  -0.0128343 -0.0453325 0.0013833  -0.0119736 -0.0400889 0.00172853  -0.0081107 -0.040517 0.000966072  -0.0120522 -0.0406044 0.00144863  -0.0142833 -0.0548925 0.00151491  -0.00982141 -0.0553228 0.000841141  -0.00918055 -0.0497221 0.00105429  -0.0143701 -0.0553482 0.00126171  -0.0135174 -0.0497656 0.00158358  -0.00924885 -0.0502008 0.000877857  -0.0136062 -0.0502464 0.00132418  -0.0157908 -0.0656532 0.00137854  -0.0109588 -0.06609 0.000758648  -0.0103161 -0.0601749 0.000957489  -0.0158731 -0.0660739 0.00115204  -0.0150425 -0.0601829 0.00144386  -0.0103894 -0.0606189 0.000799179  -0.0151254 -0.0606239 0.00120783  -0.0172644 -0.0770527 0.00124311  -0.0120952 -0.0774942 0.000685215  -0.0114565 -0.0713073 0.000865459  -0.0173485 -0.0774337 0.00103903  -0.0165325 -0.0712671 0.0013113  -0.011529 -0.0717105 0.000722885  -0.0166143 -0.0716742 0.00109005  -0.0187136 -0.0890292 0.00112486  -0.0132339 -0.0894761 0.000615597  -0.0125955 -0.0830417 0.000781059  -0.0187926 -0.0893768 0.000937939  -0.0179939 -0.0829657 0.00118637  -0.012665 -0.0834134 0.000649929  -0.0180725 -0.0833335 0.000987053  -0.0201303 -0.101529 0.00100756  -0.0143746 -0.101976 0.00054884  -0.013741 -0.0953272 0.000698566  -0.0202054 -0.101838 0.000840187  -0.0194242 -0.0952137 0.00106621  -0.0138067 -0.095661 0.000584602  -0.0195035 -0.0955427 0.000887871  -0.0215131 -0.11449 0.000897884  -0.0155092 -0.114941 0.000490189  -0.0148801 -0.108102 0.00062418  -0.0215843 -0.114767 0.000749588  -0.0208254 -0.107949 0.000951767  -0.0149398 -0.108404 0.000520229  -0.020897 -0.108248 0.000792503  -0.0228702 -0.127864 0.000798702  -0.0166397 -0.128321 0.000435352  -0.0160156 -0.121315 0.000553131  -0.022936 -0.128115 0.00066185  -0.0221952 -0.121125 0.000852585  -0.0160744 -0.121581 0.000463009  -0.0222645 -0.121389 0.000709057  -0.0241984 -0.141603 0.000701904  -0.0177587 -0.142056 0.000386715  -0.0171486 -0.134908 0.000490189  -0.0242606 -0.141817 0.00058794  -0.023538 -0.134684 0.000750065  -0.0172 -0.135146 0.000409126  -0.023603 -0.13492 0.000625134  -0.0254934 -0.155655 0.000615597  -0.0188782 -0.156113 0.000338554  -0.018275 -0.148835 0.00042963  -0.0255508 -0.155845 0.000515461  -0.0248492 -0.148583 0.000657558  -0.0183172 -0.149048 0.000357151  -0.0249088 -0.148793 0.000545979  -0.0267615 -0.169977 0.000533104  -0.0199921 -0.170437 0.000289917  -0.0193937 -0.163058 0.000377178  -0.0268106 -0.170144 0.000442505  -0.0261304 -0.16278 0.000574589  -0.0194364 -0.163242 0.000315666  -0.0261831 -0.162961 0.000477791  -0.0279939 -0.184535 0.000452042  -0.0210845 -0.184996 0.000243664  -0.0204992 -0.177529 0.000319004  -0.0280371 -0.184675 0.00037384  -0.0273819 -0.177223 0.000494003  -0.0205395 -0.177688 0.000267982  -0.0274289 -0.177377 0.000412941  -0.0292006 -0.199277 0.000385284  -0.0221682 -0.199739 0.000205517  -0.0215962 -0.192208 0.000270367  -0.0292385 -0.199397 0.000321388  -0.0286016 -0.191877 0.00041914  -0.0216279 -0.192347 0.000225544  -0.028641 -0.192014 0.000346661  -0.0303781 -0.214182 0.000326633  -0.0232441 -0.214641 0.0001688  -0.0226772 -0.207058 0.000226974  -0.0304098 -0.21428 0.000269413  -0.0297921 -0.206704 0.000353813  -0.0227091 -0.207173 0.000187397  -0.0298274 -0.20682 0.000288963  -0.0315146 -0.229205 0.000265598  -0.0242977 -0.229664 0.000139713  -0.0237412 -0.222045 0.000183582  -0.0315478 -0.229286 0.000222683  -0.0309505 -0.221672 0.000292301  -0.0237732 -0.222141 0.000156879  -0.0309825 -0.22177 0.00024128  -0.0326295 -0.244323 0.000213623  -0.0253413 -0.244778 0.000112534  -0.0247958 -0.237127 0.000153065  -0.032654 -0.244388 0.000178337  -0.0320737 -0.236745 0.000237942  -0.0248215 -0.237211 0.000127792  -0.0321026 -0.236824 0.000199318  -0.0337119 -0.259511 0.000167847  -0.0263646 -0.259965 8.86917e-05  -0.0258293 -0.252299 0.000115871  -0.0337374 -0.259557 0.000134945  -0.0331728 -0.251904 0.000187874  -0.0258539 -0.252364 9.72748e-05  -0.0331986 -0.251964 0.00015831  -0.0347679 -0.274734 0.000127316  -0.02738 -0.275185 6.48499e-05  -0.0268524 -0.267517 9.01222e-05  -0.0347881 -0.274768 0.000106812  -0.0342417 -0.267109 0.00014782  -0.0268743 -0.267573 7.53403e-05  -0.0342662 -0.26716 0.000121593  -0.0358045 -0.289974 9.63211e-05  -0.0283685 -0.290431 5.43594e-05  -0.0278611 -0.282771 6.77109e-05  -0.0358162 -0.29 8.01086e-05  -0.0352881 -0.282345 0.000110149  -0.0278738 -0.282803 5.53131e-05  -0.0353045 -0.282381 9.15527e-05  -0.0368068 -0.305221 5.96046e-05  -0.029345 -0.305674 3.14713e-05  -0.0288477 -0.298022 4.48227e-05  -0.0368187 -0.30524 5.14984e-05  -0.0363057 -0.297594 7.72476e-05  -0.0288551 -0.298052 4.29153e-05  -0.0363212 -0.297623 6.67572e-05  -0.0377941 -0.320453 3.62396e-05  -0.0303135 -0.320904 1.71661e-05  -0.0298243 -0.313274 2.71797e-05  -0.0378029 -0.320465 2.95639e-05  -0.0373018 -0.312838 5.05447e-05  -0.0298319 -0.31329 2.47955e-05  -0.0373132 -0.312856 4.1008e-05  -0.0387571 -0.335655 2.00272e-05  -0.0312583 -0.336102 9.05991e-06  -0.030782 -0.328493 1.85966e-05  -0.0387635 -0.335661 2.24113e-05  -0.0382771 -0.328051 3.05176e-05  -0.0307875 -0.328509 1.90735e-05  -0.0382853 -0.328066 2.52724e-05  -0.0397003 -0.350824 5.24521e-06  -0.0321958 -0.351269 3.33786e-06  -0.0317295 -0.343683 1.00136e-05  -0.0397105 -0.35082 7.15256e-06  -0.0392287 -0.343241 1.23978e-05  -0.0317304 -0.343693 9.05991e-06  -0.0392396 -0.343245 1.09673e-05  -0.0406284 -0.365939 -2.38419e-06  -0.0331264 -0.366386 -3.8147e-06  -0.0326533 -0.358824 -2.86102e-06  -0.0406363 -0.365936 -5.24521e-06  -0.0401654 -0.358378 3.33786e-06  -0.032661 -0.358833 9.53674e-07  -0.0401738 -0.358385 2.38419e-06  -0.0415475 -0.381005 -1.95503e-05  -0.0340428 -0.381443 -8.58307e-06  -0.0335734 -0.37392 -1.09673e-05  -0.0415556 -0.380998 -1.43051e-05  -0.0410898 -0.373468 -1.04904e-05  -0.0335829 -0.373923 -7.15256e-06  -0.0410945 -0.373477 -7.62939e-06  -0.000302091 -0.000543714 0.000450134  0 0 0  4.60893e-05 -0.000755101 -7.62939e-06  1.59666e-05 3.59416e-05 -1.38283e-05  0 0 0  -0.000285529 -0.000762761 0.000342369  -0.000115346 3.42131e-05 0.000253677  0 0 0  1.56835e-05 -8.40724e-05 -8.10623e-06  -0.00010917 -8.76188e-05 0.000190735  -0.000807405 -0.00318539 0.000682831  0.000110954 -0.00355595 1.90735e-06  8.78721e-05 -0.00163287 -1.00136e-05  -0.000778094 -0.00356597 0.000554085  -0.000547588 -0.00164407 0.000591278  8.04663e-05 -0.00194535 -2.38419e-06  -0.000512928 -0.00195813 0.000467777  -0.00136533 -0.00736064 0.00074625  0.000151157 -0.00786459 6.19888e-06  0.000155449 -0.00509807 -5.72205e-06  -0.00135368 -0.00786513 0.000621319  -0.00108182 -0.00509861 0.00072813  0.000137269 -0.00554824 -1.43051e-06  -0.00106233 -0.00555554 0.000601768  -0.00194091 -0.0128077 0.000743389  0.000149012 -0.0133853 1.19209e-05  0.000183553 -0.0099493 7.15256e-06  -0.00195315 -0.0133635 0.000627041  -0.00164801 -0.00993732 0.000751972  0.000157088 -0.0104828 8.10623e-06  -0.00165066 -0.0104708 0.000629425  -0.00253505 -0.0193657 0.000704765  8.86321e-05 -0.0199807 7.62939e-06  0.000153542 -0.0159893 4.76837e-06  -0.00257117 -0.019933 0.000596523  -0.00223339 -0.0159495 0.000727654  0.000127196 -0.0165536 8.58307e-06  -0.00225997 -0.0165187 0.000610352  -0.00316012 -0.0269367 0.000654697  -3.83258e-05 -0.0275628 -9.53674e-07  6.36578e-05 -0.0230879 -9.53674e-07  -0.00320566 -0.0274917 0.00055027  -0.00284123 -0.0230291 0.000677586  3.17693e-05 -0.0236504 5.24521e-06  -0.00288612 -0.0235943 0.00056982  -0.00383055 -0.0354427 0.000599861  -0.000238895 -0.0360657 3.33786e-06  -9.35793e-05 -0.0311543 0  -0.00387681 -0.0359713 0.00050354  -0.0034886 -0.0310724 0.000627518  -0.000128865 -0.031702 -4.76837e-07  -0.00353831 -0.0316213 0.000526905  -0.00452375 -0.0447949 0.000544071  -0.000503778 -0.0454119 -2.38419e-06  -0.000322402 -0.0401177 -1.33514e-05  -0.00457925 -0.0452904 0.000457764  -0.00417143 -0.040011 0.000570297  -0.000365794 -0.0406339 -7.15256e-06  -0.00422317 -0.0405265 0.000481606  -0.00525951 -0.0549267 0.00049305  -0.000840187 -0.055527 -9.05991e-06  -0.000624657 -0.0498955 -1.38283e-05  -0.00531781 -0.0553822 0.000416279  -0.00488806 -0.0497638 0.000518322  -0.000663996 -0.0503767 -6.67572e-06  -0.00494289 -0.0502433 0.000435352  -0.00603426 -0.0657611 0.00044632  -0.00124335 -0.0663539 -1.71661e-05  -0.000992298 -0.0604134 -1.81198e-05  -0.00608563 -0.0661855 0.000370979  -0.00563776 -0.0602553 0.000469208  -0.00103509 -0.0608545 -1.33514e-05  -0.00569725 -0.0606959 0.000393867  -0.00683117 -0.0772357 0.000401974  -0.00170696 -0.0778182 -2.38419e-05  -0.00143027 -0.0716025 -2.95639e-05  -0.00688803 -0.0776204 0.000335217  -0.00643313 -0.0714151 0.000423431  -0.0014689 -0.0720105 -2.3365e-05  -0.00648201 -0.0718231 0.000356674  -0.00767529 -0.0892866 0.000349045  -0.00223005 -0.0898612 -2.57492e-05  -0.00192893 -0.0833982 -2.57492e-05  -0.0077219 -0.0896362 0.000291824  -0.00724828 -0.0831884 0.00037384  -0.00196016 -0.083769 -2.0504e-05  -0.00730205 -0.083557 0.000311375  -0.00853622 -0.101859 0.000315666  -0.00282025 -0.102421 -3.19481e-05  -0.00248361 -0.0957419 -2.90871e-05  -0.00858557 -0.102171 0.000259876  -0.00810039 -0.0955037 0.000335693  -0.00252056 -0.0960787 -2.57492e-05  -0.00814974 -0.0958384 0.000278473  -0.00942421 -0.114883 0.000278473  -0.00345254 -0.115442 -2.71797e-05  -0.00309598 -0.108573 -3.91006e-05  -0.00946891 -0.115164 0.000230789  -0.00897825 -0.108308 0.000295162  -0.00313091 -0.108875 -2.86102e-05  -0.00902355 -0.108613 0.000247002  -0.0103351 -0.128321 0.00024271  -0.00413406 -0.128871 -2.86102e-05  -0.00375652 -0.121836 -3.71933e-05  -0.0103768 -0.128575 0.000203133  -0.00987673 -0.12155 0.000261307  -0.00378764 -0.122107 -2.47955e-05  -0.00991893 -0.121819 0.000217438  -0.0112635 -0.142114 0.000215054  -0.00485611 -0.142661 -2.6226e-05  -0.00445867 -0.13548 -3.48091e-05  -0.0113008 -0.142337 0.000175953  -0.0107949 -0.135175 0.000229359  -0.00448871 -0.135724 -2.71797e-05  -0.0108348 -0.135413 0.000189781  -0.0122113 -0.156217 0.000181198  -0.00562191 -0.156753 -3.00407e-05  -0.00521398 -0.149456 -2.95639e-05  -0.0122445 -0.156414 0.000149727  -0.0117362 -0.149125 0.000201702  -0.00523305 -0.149667 -2.47955e-05  -0.0117698 -0.149338 0.000165462  -0.0131645 -0.170595 0.00015974  -0.00641441 -0.171122 -2.19345e-05  -0.00599647 -0.163718 -3.24249e-05  -0.0131943 -0.170763 0.000133514  -0.0126863 -0.163371 0.000171661  -0.00601411 -0.163908 -2.6226e-05  -0.0127177 -0.163557 0.000144005  -0.014132 -0.185199 0.000130177  -0.00724316 -0.185714 -2.52724e-05  -0.00681257 -0.178226 -2.71797e-05  -0.0141582 -0.185342 0.000112534  -0.0136445 -0.177862 0.00014925  -0.00682425 -0.178391 -2.3365e-05  -0.0136759 -0.178025 0.00012207  -0.0151 -0.199987 0.00011158  -0.00809073 -0.200495 -2.76566e-05  -0.00764489 -0.192944 -3.29018e-05  -0.0151255 -0.200107 9.01222e-05  -0.014611 -0.192559 0.000120163  -0.00766373 -0.193081 -2.19345e-05  -0.0146432 -0.1927 0.000100613  -0.0160801 -0.214922 8.82149e-05  -0.00896382 -0.215423 -1.52588e-05  -0.0085144 -0.207825 -2.52724e-05  -0.0160995 -0.215023 7.39098e-05  -0.0155897 -0.207429 0.00010252  -0.00852346 -0.207941 -2.09808e-05  -0.0156124 -0.207545 8.44002e-05  -0.0170565 -0.229969 7.24792e-05  -0.00985312 -0.230473 -2.57492e-05  -0.00939441 -0.222836 -2.24113e-05  -0.0170741 -0.23006 6.24657e-05  -0.016566 -0.222429 8.10623e-05  -0.00940752 -0.222937 -1.81198e-05  -0.0165844 -0.222529 6.81877e-05  -0.0180295 -0.245118 5.72205e-05  -0.010757 -0.245611 -1.95503e-05  -0.0102937 -0.237952 -2.3365e-05  -0.0180392 -0.245187 4.673e-05  -0.0175409 -0.237533 6.48499e-05  -0.0102985 -0.238032 -1.81198e-05  -0.0175593 -0.237614 5.05447e-05  -0.019002 -0.260325 4.52995e-05  -0.0116646 -0.260812 -1.57356e-05  -0.011204 -0.253137 -2.00272e-05  -0.0190129 -0.260383 3.52859e-05  -0.0185144 -0.252711 5.05447e-05  -0.0112095 -0.253202 -1.62125e-05  -0.0185268 -0.252776 3.71933e-05  -0.0199664 -0.275569 3.33786e-05  -0.0125828 -0.276049 -1.81198e-05  -0.0121214 -0.268375 -1.90735e-05  -0.0199747 -0.275613 2.57492e-05  -0.019484 -0.26794 3.86238e-05  -0.0121231 -0.268429 -1.43051e-05  -0.0194962 -0.267993 3.00407e-05  -0.0209296 -0.290834 1.81198e-05  -0.0135078 -0.291305 -1.4782e-05  -0.013041 -0.283634 -1.38283e-05  -0.0209332 -0.290866 1.7643e-05  -0.0204499 -0.283199 2.71797e-05  -0.0130463 -0.283677 -1.14441e-05  -0.0204566 -0.283237 2.0504e-05  -0.0218797 -0.306094 1.09673e-05  -0.0144327 -0.306558 -1.19209e-05  -0.013962 -0.298905 -1.57356e-05  -0.0218861 -0.306114 1.00136e-05  -0.0214031 -0.298459 1.71661e-05  -0.0139687 -0.298929 -1.43051e-05  -0.0214102 -0.298486 1.14441e-05  -0.0228236 -0.321336 1.09673e-05  -0.0153501 -0.321796 -8.10623e-06  -0.0148878 -0.314158 -7.15256e-06  -0.0228288 -0.321348 9.53674e-06  -0.0223513 -0.313709 9.53674e-06  -0.0148902 -0.314177 -7.62939e-06  -0.0223572 -0.313731 6.19888e-06  -0.0237632 -0.336547 4.76837e-06  -0.0162756 -0.337005 -9.53674e-06  -0.0158119 -0.329387 -9.05991e-06  -0.0237665 -0.336552 1.90735e-06  -0.0232949 -0.32894 1.90735e-06  -0.0158124 -0.329403 -6.67572e-06  -0.0232997 -0.328953 3.33786e-06  -0.0246949 -0.351715 -5.72205e-06  -0.0171924 -0.352169 -5.72205e-06  -0.0167358 -0.344583 -9.05991e-06  -0.0246949 -0.351719 -2.38419e-06  -0.0242298 -0.344133 3.33786e-06  -0.0167365 -0.34459 -5.24521e-06  -0.0242302 -0.344139 -1.43051e-06  -0.0256107 -0.366836 -5.24521e-06  -0.0181077 -0.367287 -1.43051e-06  -0.0176504 -0.359732 -4.76837e-06  -0.0256155 -0.366835 -5.24521e-06  -0.0251498 -0.359274 -2.38419e-06  -0.0176482 -0.359732 -9.53674e-07  -0.0251567 -0.359279 -4.76837e-07  -0.026525 -0.381893 -6.67572e-06  -0.0190167 -0.382343 5.72205e-06  -0.0185626 -0.374815 0  -0.0265279 -0.381895 -4.29153e-06  -0.0260704 -0.374367 -6.19888e-06  -0.018563 -0.374822 -2.38419e-06  -0.0260718 -0.374373 -5.24521e-06  0.000408396 -0.000609815 -0.000473022  0 0 0  0.000719622 -0.000976861 -0.000708103  0.000292651 -8.69036e-05 -0.000531197  0 0 0  0.000378877 -0.000824749 -0.000359535  0.00015647 -2.38419e-07 -0.000272274  0 0 0  0.000272468 -0.000203073 -0.000395775  0.000141986 -0.00012064 -0.000198841  0.00105691 -0.00329447 -0.000692844  0.00191814 -0.00392568 -0.00110006  0.00137651 -0.00194222 -0.00120974  0.00100529 -0.00367582 -0.00055027  0.000723809 -0.00173205 -0.000614166  0.00128673 -0.0022586 -0.000944138  0.000676125 -0.0020442 -0.000475883  0.00170916 -0.00751138 -0.000739098  0.00319368 -0.00828767 -0.00121832  0.0026468 -0.00549674 -0.00144815  0.00166336 -0.00800771 -0.000607967  0.00139132 -0.00523168 -0.000724792  0.00256324 -0.00595015 -0.00118303  0.00133944 -0.00567925 -0.000589371  0.00228727 -0.012993 -0.000729084  0.00437397 -0.013826 -0.00121212  0.0038614 -0.0103793 -0.00147438  0.00224847 -0.0135432 -0.00060606  0.00200853 -0.0100972 -0.000738144  0.00379956 -0.0109156 -0.00122356  0.00196674 -0.0106321 -0.000609875  0.00276983 -0.019582 -0.000695705  0.00540835 -0.0204359 -0.00116062  0.00495082 -0.0164323 -0.00141907  0.0027374 -0.0201502 -0.000573635  0.00253981 -0.0161507 -0.00070715  0.00491107 -0.0169976 -0.00118446  0.00250626 -0.0167125 -0.000591755  0.00314653 -0.0271915 -0.000651836  0.00629675 -0.0280315 -0.00109053  0.00589406 -0.0235491 -0.00134945  0.00311893 -0.0277418 -0.000544548  0.00297195 -0.0232596 -0.000673294  0.00586873 -0.024112 -0.00112581  0.00294387 -0.0238241 -0.000563622  0.00341684 -0.0357327 -0.000609398  0.00704056 -0.0365577 -0.00101089  0.00670069 -0.0316402 -0.00126123  0.00339025 -0.0362605 -0.000507355  0.003295 -0.0313426 -0.000631809  0.00668657 -0.0321842 -0.00105  0.00326759 -0.0318903 -0.000526428  0.00358522 -0.0451273 -0.00056982  0.00764167 -0.0459307 -0.000934124  0.00737494 -0.0406234 -0.00117159  0.00356162 -0.045625 -0.000473976  0.00351399 -0.040321 -0.000590324  0.00735843 -0.0411428 -0.00097847  0.00348872 -0.0408396 -0.000491619  0.00365114 -0.0552986 -0.00053072  0.00810206 -0.0560781 -0.000867844  0.00789738 -0.0504277 -0.00108004  0.00362766 -0.05576 -0.000439167  0.00363302 -0.0501168 -0.000547409  0.00788713 -0.0509099 -0.000900745  0.00360703 -0.0506 -0.000455856  0.00361657 -0.0661858 -0.000489712  0.00844204 -0.0669387 -0.000795841  0.00829649 -0.0609779 -0.00099802  0.00359273 -0.0666072 -0.000406265  0.00364733 -0.0606519 -0.000506878  0.00828922 -0.0614262 -0.000832081  0.00362015 -0.0610986 -0.000420094  0.00348449 -0.0777061 -0.000453472  0.00864863 -0.0784329 -0.000727654  0.00857246 -0.0722021 -0.000915527  0.00346541 -0.0780895 -0.000371933  0.00356233 -0.0718639 -0.000471115  0.00856054 -0.0726119 -0.000762463  0.00354111 -0.0722738 -0.000389576  0.00326645 -0.0898063 -0.000413895  0.00873733 -0.0905095 -0.000658512  0.00871146 -0.0840307 -0.00082922  0.00324547 -0.0901501 -0.000342369  0.00339067 -0.0836791 -0.000431061  0.00870848 -0.0844053 -0.000691414  0.00336576 -0.0840519 -0.000357151  0.00295794 -0.10242 -0.000385284  0.0087142 -0.103106 -0.000601292  0.00874364 -0.0964098 -0.000761986  0.00294173 -0.102732 -0.000320911  0.00312638 -0.0960405 -0.000394821  0.00873947 -0.096746 -0.000630379  0.0031029 -0.0963815 -0.000329971  0.00257432 -0.115487 -0.000346661  0.00857747 -0.116156 -0.000540257  0.00866294 -0.109271 -0.000685692  0.00255775 -0.115772 -0.000285625  0.00277388 -0.108893 -0.000361919  0.00865865 -0.109577 -0.000571728  0.00276041 -0.109196 -0.000302315  0.00211906 -0.12897 -0.00030899  0.00834918 -0.129616 -0.000491142  0.00847936 -0.122565 -0.000621319  0.00210524 -0.129222 -0.000257015  0.00235593 -0.122174 -0.00032711  0.00847518 -0.122839 -0.000516415  0.00234127 -0.122446 -0.000272751  0.00159287 -0.1428 -0.000275135  0.00802851 -0.14343 -0.000434399  0.00820065 -0.13624 -0.000557423  0.00157905 -0.143024 -0.000231743  0.00186348 -0.135836 -0.000298977  0.00819707 -0.136482 -0.000463963  0.00185168 -0.13608 -0.000243664  0.00100517 -0.156939 -0.00024271  0.00762081 -0.157552 -0.000385761  0.00783515 -0.150242 -0.00049305  0.000997305 -0.157135 -0.000204086  0.0013082 -0.149828 -0.000261307  0.00783396 -0.150457 -0.00041008  0.0012958 -0.15004 -0.000218391  0.000366449 -0.171344 -0.00021553  0.00713706 -0.171945 -0.000341892  0.00738668 -0.164526 -0.000436783  0.000355005 -0.171515 -0.000182629  0.000694513 -0.164103 -0.000229836  0.0073936 -0.164717 -0.000361443  0.000681877 -0.164293 -0.000193596  -0.000326633 -0.185973 -0.000193596  0.00658226 -0.186555 -0.000296593  0.00686979 -0.179055 -0.000379086  -0.000332355 -0.18612 -0.000159264  2.52724e-05 -0.178624 -0.000202179  0.00686717 -0.179225 -0.00031662  1.78814e-05 -0.178792 -0.000170708  -0.00105977 -0.200783 -0.000166893  0.00597334 -0.201351 -0.000253677  0.00628138 -0.19379 -0.000327587  -0.00106192 -0.200909 -0.000134945  -0.000686407 -0.193352 -0.000180721  0.00628376 -0.193931 -0.000273228  -0.000692129 -0.193491 -0.00014925  -0.0018301 -0.215742 -0.000140667  0.00530481 -0.216298 -0.000217915  0.0056417 -0.208685 -0.000281334  -0.00183558 -0.215847 -0.000113487  -0.00143766 -0.208242 -0.000156879  0.0056448 -0.208803 -0.000234127  -0.00144386 -0.20836 -0.000127316  -0.00263643 -0.230822 -0.00012207  0.00458622 -0.231357 -0.000178814  0.00495148 -0.22371 -0.000237465  -0.00263643 -0.230907 -0.000104427  -0.00222659 -0.223265 -0.000129223  0.00494933 -0.223815 -0.000196457  -0.00223279 -0.223365 -0.000106335  -0.00347066 -0.245979 -9.77516e-05  0.00382423 -0.246506 -0.000144005  0.00420642 -0.238839 -0.000201225  -0.00346732 -0.246053 -8.15392e-05  -0.00305104 -0.238386 -0.000110626  0.00420737 -0.23892 -0.000165462  -0.0030489 -0.238468 -9.10759e-05  -0.00432229 -0.261198 -7.72476e-05  0.00302649 -0.261708 -0.000119209  0.00342417 -0.254032 -0.000162125  -0.00431943 -0.261256 -6.53267e-05  -0.00389147 -0.253576 -8.91685e-05  0.00343251 -0.254102 -0.000132561  -0.00389171 -0.253647 -7.62939e-05  -0.00519109 -0.276453 -5.72205e-05  0.00220013 -0.276955 -9.05991e-05  0.00261188 -0.269275 -0.000127316  -0.00519514 -0.2765 -5.05447e-05  -0.00475287 -0.26882 -7.05719e-05  0.0026176 -0.269332 -0.000101089  -0.00475836 -0.268873 -5.67436e-05  -0.00608039 -0.291729 -4.673e-05  0.00135303 -0.292215 -6.86646e-05  0.00177383 -0.284538 -9.63211e-05  -0.00608039 -0.291755 -3.71933e-05  -0.00563264 -0.284082 -5.48363e-05  0.00177979 -0.284582 -7.72476e-05  -0.00563383 -0.284124 -4.52995e-05  -0.00697684 -0.306992 -3.62396e-05  0.000483036 -0.307469 -5.00679e-05  0.000917673 -0.299812 -7.34329e-05  -0.00697255 -0.30701 -3.38554e-05  -0.00652456 -0.299348 -4.24385e-05  0.000919342 -0.299843 -6.05583e-05  -0.00652647 -0.299384 -3.62396e-05  -0.00787759 -0.322238 -2.43187e-05  -0.000394821 -0.322708 -2.95639e-05  4.1008e-05 -0.315063 -5.62668e-05  -0.00787544 -0.322248 -2.0504e-05  -0.00742412 -0.314608 -3.29018e-05  4.72069e-05 -0.315091 -4.81606e-05  -0.00742102 -0.314632 -2.57492e-05  -0.00878835 -0.33745 -2.09808e-05  -0.00128818 -0.337914 -2.14577e-05  -0.000844955 -0.330297 -3.38554e-05  -0.00878525 -0.337459 -1.7643e-05  -0.00832987 -0.329842 -1.90735e-05  -0.00083828 -0.330314 -2.67029e-05  -0.00832891 -0.329855 -1.52588e-05  -0.00969911 -0.352625 -1.43051e-05  -0.00218821 -0.353078 -1.4782e-05  -0.00174069 -0.345491 -1.66893e-05  -0.00969386 -0.352624 -1.23978e-05  -0.00924468 -0.345034 -1.38283e-05  -0.00173807 -0.3455 -1.38283e-05  -0.00923991 -0.345043 -6.67572e-06  -0.0106056 -0.367735 -6.67572e-06  -0.00309539 -0.368197 2.38419e-06  -0.00265121 -0.360639 -1.09673e-05  -0.0106018 -0.367742 -2.86102e-06  -0.01015 -0.360185 -7.62939e-06  -0.0026412 -0.360647 -7.15256e-06  -0.0101502 -0.360188 -5.72205e-06  -0.0115106 -0.382796 9.05991e-06  -0.00400186 -0.383254 7.62939e-06  -0.00355196 -0.375732 2.38419e-06  -0.0115085 -0.382799 2.38419e-06  -0.0110581 -0.375271 2.38419e-06  -0.00354934 -0.375737 4.76837e-07  -0.0110538 -0.375277 -9.53674e-07  0.00115578 -0.00101 -0.00137806  0 0 0  0.00149424 -0.00160646 -0.00137854  0.000607014 -0.000428617 -0.00103331  0 0 0  0.00108741 -0.00122714 -0.00105143  0.000441797 -0.000222623 -0.000787735  0 0 0  0.000564814 -0.000553846 -0.000767708  0.000406481 -0.000339746 -0.000584126  0.00301665 -0.00392222 -0.00202847  0.00392571 -0.00486565 -0.00213909  0.00281094 -0.00274128 -0.00234652  0.00288451 -0.0043202 -0.00162649  0.00206052 -0.00227362 -0.00178909  0.00265357 -0.00308502 -0.00183439  0.00193715 -0.00259656 -0.00140095  0.00488546 -0.00820738 -0.00220394  0.0064584 -0.0092715 -0.00239801  0.00535929 -0.00644571 -0.00282621  0.00478444 -0.0087083 -0.00181198  0.00396571 -0.00589931 -0.00214624  0.00520849 -0.00692874 -0.00230742  0.00384417 -0.00636572 -0.00175142  0.00660497 -0.013684 -0.00217628  0.00879633 -0.0147803 -0.00239849  0.00774661 -0.011335 -0.00290823  0.00654638 -0.0142399 -0.00180817  0.00576553 -0.0107931 -0.0022006  0.00765589 -0.0118903 -0.0024147  0.00568852 -0.0113348 -0.00182438  0.00814676 -0.0202698 -0.00207949  0.0109068 -0.0213555 -0.00230694  0.00992602 -0.0173598 -0.0028286  0.0081206 -0.0208358 -0.00173569  0.00739932 -0.0168385 -0.00212812  0.00987673 -0.01794 -0.00236225  0.00735807 -0.0174073 -0.00177956  0.00952131 -0.0278798 -0.00195026  0.0127898 -0.0289401 -0.0021596  0.0118907 -0.0244559 -0.00268269  0.00951403 -0.0284319 -0.00163174  0.00885254 -0.0239472 -0.00201893  0.0118743 -0.0250245 -0.00224018  0.00883937 -0.0245131 -0.0016861  0.0107226 -0.0364304 -0.00181103  0.0144585 -0.0374554 -0.00200939  0.0136486 -0.0325376 -0.00250387  0.0107213 -0.036958 -0.00151062  0.0101437 -0.0320367 -0.00188303  0.0136545 -0.0330848 -0.00208998  0.0101398 -0.0325822 -0.00157118  0.0117518 -0.0458372 -0.00167847  0.0159248 -0.0468287 -0.00186348  0.0152087 -0.0415169 -0.00232172  0.0117549 -0.0463308 -0.00139952  0.0112562 -0.0410225 -0.00174665  0.0152184 -0.0420378 -0.00193405  0.0112587 -0.0415401 -0.00145578  0.0126138 -0.0560291 -0.00154734  0.0171846 -0.0569792 -0.00170994  0.0165633 -0.051328 -0.00214148  0.0126191 -0.0564855 -0.00129032  0.0122025 -0.0508347 -0.00161552  0.0165828 -0.0518081 -0.00178528  0.0122088 -0.0513126 -0.00134706  0.0133121 -0.0669286 -0.00141764  0.0182481 -0.0678434 -0.00156927  0.0177232 -0.0618841 -0.00196362  0.0133207 -0.067349 -0.0011797  0.0129817 -0.0613914 -0.00148058  0.0177408 -0.0623309 -0.00163555  0.0129886 -0.0618355 -0.00123501  0.0138569 -0.0784682 -0.00129795  0.0191271 -0.0793502 -0.00143528  0.0186918 -0.0731146 -0.00180292  0.0138639 -0.0788531 -0.00107908  0.0136036 -0.0726198 -0.00135899  0.0187093 -0.0735183 -0.00149775  0.0136102 -0.0730247 -0.0011301  0.0142496 -0.0905862 -0.00117493  0.0198238 -0.0914346 -0.0013032  0.0194774 -0.0849466 -0.00164127  0.0142603 -0.0909383 -0.000978947  0.0140736 -0.084456 -0.00123882  0.0194981 -0.0853211 -0.00136566  0.0140802 -0.0848277 -0.00102711  0.0144998 -0.103219 -0.00107288  0.0203499 -0.104034 -0.0011735  0.0200841 -0.0973344 -0.00148726  0.0145113 -0.103538 -0.000889301  0.0143948 -0.0968381 -0.00111914  0.0201095 -0.0976729 -0.00123882  0.0144008 -0.0971775 -0.000932693  0.014617 -0.116316 -0.000961304  0.0207149 -0.117098 -0.00106144  0.0205364 -0.110207 -0.00133896  0.0146264 -0.116599 -0.000803947  0.0145756 -0.109709 -0.00101614  0.0205518 -0.110511 -0.00111485  0.0145857 -0.110014 -0.000846863  0.0146087 -0.129814 -0.000865459  0.0209262 -0.130566 -0.000947952  0.0208156 -0.123509 -0.00120497  0.0146176 -0.130065 -0.000719547  0.0146279 -0.123011 -0.000914097  0.0208367 -0.123781 -0.00100374  0.014635 -0.123285 -0.000760555  0.0144877 -0.143663 -0.000775337  0.0210059 -0.144387 -0.000842571  0.0209614 -0.13719 -0.00107622  0.0144978 -0.143883 -0.000641823  0.0145648 -0.136689 -0.000815392  0.0209839 -0.137434 -0.000895023  0.01457 -0.136932 -0.000680447  0.0142579 -0.157819 -0.000679016  0.0209494 -0.158516 -0.000743866  0.0209744 -0.151198 -0.000952721  0.0142684 -0.158015 -0.000564098  0.0143821 -0.1507 -0.000724792  0.0209935 -0.151412 -0.000793934  0.0143964 -0.150912 -0.000601768  0.0139306 -0.172235 -0.000597477  0.0207729 -0.172908 -0.000648499  0.0208533 -0.165492 -0.000835896  0.0139408 -0.172409 -0.000496387  0.0141063 -0.16499 -0.000637531  0.0208788 -0.165678 -0.000692844  0.0141168 -0.165179 -0.000529289  0.0135098 -0.186869 -0.000511169  0.0204885 -0.18752 -0.000559807  0.0206265 -0.180023 -0.000726223  0.0135207 -0.187023 -0.00042963  0.0137331 -0.179524 -0.000555992  0.0206447 -0.180187 -0.000603676  0.0137417 -0.179689 -0.000463009  0.0130093 -0.201694 -0.000445366  0.020108 -0.202312 -0.000482082  0.0202947 -0.194753 -0.000626087  0.0130234 -0.201819 -0.000368595  0.0132701 -0.194258 -0.000478268  0.0203106 -0.194897 -0.000514507  0.0132818 -0.1944 -0.000395775  0.0124388 -0.216659 -0.000378132  0.0196316 -0.217263 -0.000404835  0.0198562 -0.209649 -0.000531673  0.0124524 -0.216766 -0.000312328  0.0127354 -0.209152 -0.000409126  0.0198786 -0.209769 -0.000444889  0.0127447 -0.209272 -0.000337124  0.0118082 -0.231742 -0.000309467  0.0190825 -0.232323 -0.000338078  0.0193501 -0.224675 -0.000451565  0.0118201 -0.231829 -0.000259399  0.0121348 -0.224182 -0.000345707  0.0193689 -0.224776 -0.000374317  0.0121436 -0.224285 -0.000286579  0.0111177 -0.246899 -0.000256062  0.0184572 -0.247463 -0.00028038  0.0187635 -0.239799 -0.000366211  0.0111313 -0.246976 -0.000213623  0.0114686 -0.239309 -0.000281811  0.0187786 -0.239882 -0.000308037  0.0114846 -0.239392 -0.000236988  0.0103765 -0.262127 -0.000208855  0.0177691 -0.262664 -0.00022316  0.0181067 -0.25499 -0.000300407  0.0103898 -0.262178 -0.000170708  0.0107536 -0.254502 -0.000226974  0.0181208 -0.25506 -0.000247955  0.010766 -0.254572 -0.000192642  0.00959873 -0.277382 -0.00015831  0.0170331 -0.277904 -0.000174046  0.0173917 -0.270228 -0.000238419  0.00961065 -0.277424 -0.000133038  0.00999451 -0.269745 -0.000179291  0.0174072 -0.27028 -0.000197887  0.0100033 -0.2698 -0.00014925  0.00878501 -0.292648 -0.000120163  0.0162506 -0.293156 -0.000130177  0.0166383 -0.285486 -0.000182152  0.00879359 -0.292681 -0.000105858  0.00919819 -0.285006 -0.00013876  0.0166466 -0.285527 -0.000150681  0.00920558 -0.28505 -0.000116348  0.00794244 -0.307912 -8.58307e-05  0.0154371 -0.308409 -9.01222e-05  0.0158319 -0.300753 -0.000133514  0.00795221 -0.307934 -7.05719e-05  0.00836849 -0.300279 -0.000105381  0.0158467 -0.300784 -0.000105381  0.00837374 -0.300309 -8.34465e-05  0.00708199 -0.323154 -6.19888e-05  0.0145891 -0.323636 -6.62804e-05  0.0150087 -0.316005 -9.10759e-05  0.00708961 -0.32317 -4.95911e-05  0.00751448 -0.31553 -7.48634e-05  0.0150149 -0.316026 -7.96318e-05  0.00752401 -0.315557 -6.53267e-05  0.0062027 -0.338365 -3.76701e-05  0.0137119 -0.338839 -3.57628e-05  0.0141432 -0.331226 -6.38962e-05  0.00620961 -0.338377 -2.90871e-05  0.00664473 -0.330761 -4.72069e-05  0.0141551 -0.331242 -5.34058e-05  0.00665188 -0.330777 -4.00543e-05  0.0053072 -0.353539 -1.43051e-05  0.012831 -0.354 -1.43051e-05  0.0132682 -0.346418 -3.38554e-05  0.00531507 -0.353541 -1.28746e-05  0.00575662 -0.345952 -2.24113e-05  0.013273 -0.346423 -2.67029e-05  0.00576305 -0.345961 -2.3365e-05  0.00440502 -0.368659 -4.76837e-06  0.0119328 -0.369118 -4.76837e-07  0.0123727 -0.361558 -6.19888e-06  0.0044117 -0.36866 -4.29153e-06  0.00485682 -0.361099 -1.09673e-05  0.0123816 -0.361562 -9.05991e-06  0.00486541 -0.361102 -1.19209e-05  0.00350857 -0.383721 1.52588e-05  0.0110312 -0.384183 1.43051e-05  0.0114727 -0.376655 9.05991e-06  0.00351381 -0.383718 1.38283e-05  0.00395608 -0.376192 9.53674e-06  0.0114803 -0.376656 3.8147e-06  0.00396228 -0.376196 5.72205e-06  0.00208557 -0.00188679 -0.00221443  0 0 0  0.00254939 -0.00290805 -0.00198746  0.0010246 -0.00121129 -0.0014782  0 0 0  0.00197479 -0.0021444 -0.00168705  0.000787206 -0.000737429 -0.0012598  0 0 0  0.000968948 -0.00137496 -0.0011034  0.000732683 -0.000877619 -0.000937939  0.00528798 -0.00513393 -0.00327778  0.00641835 -0.00646484 -0.00310659  0.00466387 -0.00421727 -0.00338125  0.00509566 -0.00558168 -0.00263405  0.0036644 -0.00337762 -0.00287485  0.00446327 -0.00463128 -0.00265312  0.00347789 -0.0037486 -0.00224876  0.00837174 -0.00942779 -0.00358534  0.0101507 -0.010804 -0.00351048  0.00850278 -0.00795895 -0.00412655  0.00824034 -0.00997293 -0.00295877  0.00686109 -0.00713301 -0.00348616  0.00832117 -0.00850558 -0.00336742  0.00669286 -0.00764406 -0.00284672  0.0112058 -0.0148613 -0.00357866  0.0135937 -0.016224 -0.0035491  0.0120113 -0.0127786 -0.00429201  0.0111361 -0.0154446 -0.00297642  0.00982201 -0.0119979 -0.00360918  0.0119109 -0.0133722 -0.00355816  0.00971937 -0.0125706 -0.00299025  0.0137972 -0.0214099 -0.00343513  0.0167474 -0.022733 -0.00342369  0.0152566 -0.0187408 -0.00420046  0.013771 -0.0219912 -0.00286722  0.0125312 -0.0179964 -0.00352192  0.0152065 -0.0193417 -0.00350189  0.0124871 -0.0185838 -0.00293398  0.0161478 -0.0289919 -0.00323248  0.0196166 -0.0302675 -0.00322437  0.0182246 -0.0257917 -0.00399065  0.0161522 -0.0295509 -0.00269508  0.0150024 -0.025071 -0.00334072  0.0182149 -0.0263776 -0.00332975  0.0149941 -0.025646 -0.00278473  0.0182648 -0.0375206 -0.00301027  0.0222021 -0.0387492 -0.00300312  0.0209265 -0.0338395 -0.0037303  0.0182825 -0.038052 -0.00251293  0.0172332 -0.0331365 -0.00312281  0.0209466 -0.0343935 -0.0031209  0.0172473 -0.0336876 -0.00260544  0.0201508 -0.0469185 -0.00278091  0.0245157 -0.0480968 -0.00277567  0.0233704 -0.0428025 -0.00346661  0.0201701 -0.047417 -0.00231886  0.0192372 -0.0421121 -0.00289392  0.0233937 -0.043318 -0.00288963  0.0192553 -0.0426314 -0.00241709  0.0217947 -0.0570993 -0.00256395  0.0265582 -0.058229 -0.00255537  0.0255369 -0.0525836 -0.00319386  0.0218258 -0.0575632 -0.0021348  0.0209981 -0.0519094 -0.00266838  0.0255708 -0.0530687 -0.00266314  0.0210253 -0.0523923 -0.00222588  0.023219 -0.0679989 -0.00234127  0.02834 -0.0690736 -0.00233316  0.0274465 -0.0631237 -0.00293255  0.0232502 -0.0684209 -0.00195265  0.0225348 -0.0624631 -0.00245237  0.0274789 -0.0635656 -0.00244331  0.0225664 -0.0629053 -0.00203991  0.0244267 -0.0795378 -0.00213909  0.0298729 -0.0805627 -0.00213099  0.0291048 -0.0743344 -0.00267649  0.0244575 -0.0799211 -0.00178337  0.0238522 -0.0736894 -0.0022378  0.0291382 -0.0747405 -0.00223017  0.0238793 -0.0740913 -0.0018692  0.0254221 -0.0916502 -0.00194407  0.0311646 -0.0926304 -0.00193357  0.030515 -0.0861555 -0.0024395  0.0254548 -0.0919974 -0.00161552  0.0249519 -0.0855175 -0.00203991  0.0305476 -0.0865268 -0.00203323  0.0249838 -0.0858884 -0.00169897  0.026222 -0.104279 -0.00175428  0.0322316 -0.105217 -0.00174522  0.0316927 -0.0985283 -0.00221586  0.0262505 -0.104596 -0.00146198  0.0258477 -0.0978996 -0.00184822  0.0317277 -0.0988628 -0.00184155  0.0258781 -0.0982353 -0.00154066  0.026831 -0.117366 -0.00158501  0.0330817 -0.118262 -0.00157309  0.0326458 -0.111386 -0.00199461  0.0268611 -0.117653 -0.00131607  0.0265538 -0.110766 -0.00166416  0.0326816 -0.111687 -0.00165844  0.0265775 -0.11107 -0.00138712  0.0272655 -0.130864 -0.00141382  0.0337263 -0.131717 -0.00140429  0.0334014 -0.124671 -0.00178385  0.027293 -0.131115 -0.00117922  0.0270721 -0.124064 -0.00149918  0.0334276 -0.124943 -0.00148487  0.0270984 -0.124334 -0.00124502  0.027539 -0.144711 -0.0012579  0.0341926 -0.145527 -0.00124931  0.0339533 -0.138341 -0.00159311  0.0275633 -0.144936 -0.00104904  0.0274228 -0.137741 -0.00133801  0.0339813 -0.13858 -0.00132751  0.0274489 -0.137983 -0.00111294  0.0276599 -0.158856 -0.00110769  0.0344787 -0.159641 -0.00110149  0.0343275 -0.152333 -0.00141191  0.0276811 -0.159059 -0.000926971  0.0276148 -0.151746 -0.00118256  0.0343559 -0.152544 -0.00117445  0.0276418 -0.151958 -0.000984669  0.0276337 -0.173269 -0.000967503  0.0345955 -0.174016 -0.00095892  0.0345306 -0.166609 -0.00123215  0.0276577 -0.173443 -0.000803947  0.0276625 -0.16603 -0.00103474  0.0345564 -0.166794 -0.00102758  0.0276871 -0.166217 -0.000862122  0.0274756 -0.187899 -0.000837326  0.0345645 -0.188612 -0.000831604  0.0345743 -0.181122 -0.00107288  0.0275006 -0.188053 -0.000697613  0.0275683 -0.180556 -0.000899792  0.0345986 -0.181288 -0.00089407  0.0275941 -0.18072 -0.000748158  0.0272043 -0.202712 -0.000715733  0.0344036 -0.203392 -0.000707626  0.0344718 -0.195841 -0.000926971  0.0272269 -0.202837 -0.000597477  0.0273533 -0.19528 -0.000773907  0.0344992 -0.195982 -0.000771523  0.0273769 -0.195423 -0.000644684  0.0268235 -0.217672 -0.000605106  0.0341115 -0.218322 -0.000603676  0.0342445 -0.210718 -0.000784874  0.0268486 -0.217781 -0.000501156  0.0270276 -0.210169 -0.000657082  0.0342736 -0.210841 -0.000655174  0.0270474 -0.210294 -0.000545979  0.0263531 -0.232743 -0.000503063  0.0337095 -0.233365 -0.000497818  0.0338998 -0.225729 -0.000650883  0.026376 -0.232835 -0.00041914  0.0266011 -0.225191 -0.000553131  0.0339246 -0.225829 -0.000545502  0.0266213 -0.22529 -0.000460625  0.0257893 -0.247901 -0.000408649  0.0332115 -0.24849 -0.00040102  0.0334446 -0.240834 -0.000538349  0.025816 -0.247968 -0.000339985  0.0260782 -0.24031 -0.000453472  0.0334735 -0.240919 -0.000447273  0.0261052 -0.240391 -0.000380993  0.0251565 -0.263107 -0.000326633  0.0326195 -0.263677 -0.000320435  0.032903 -0.256009 -0.000432491  0.025178 -0.263165 -0.00027132  0.0254838 -0.255492 -0.000365734  0.0329266 -0.256076 -0.000360489  0.0255041 -0.255561 -0.000304699  0.0244646 -0.278355 -0.00025177  0.0319574 -0.278896 -0.000250816  0.0322833 -0.27123 -0.000342846  0.0244808 -0.278397 -0.000208855  0.0248206 -0.270723 -0.000283718  0.0322988 -0.271283 -0.000282764  0.024838 -0.270777 -0.000237942  0.0237081 -0.293608 -0.000190258  0.0312309 -0.294134 -0.000187397  0.0315855 -0.286475 -0.000258446  0.0237293 -0.293642 -0.000160217  0.0240934 -0.285974 -0.000222206  0.0316026 -0.286515 -0.000215054  0.0241098 -0.286015 -0.000185013  0.0229146 -0.308864 -0.000136375  0.0304508 -0.30937 -0.000130177  0.0308278 -0.301723 -0.000188828  0.0229328 -0.308887 -0.000113487  0.0233176 -0.301234 -0.000164032  0.0308464 -0.301753 -0.000157833  0.0233355 -0.301266 -0.000134945  0.022083 -0.324098 -9.20296e-05  0.0296247 -0.324588 -8.96454e-05  0.0300329 -0.31696 -0.000126839  0.0220971 -0.324111 -7.39098e-05  0.0225015 -0.316481 -0.000111103  0.0300417 -0.316982 -0.000108719  0.0225177 -0.3165 -9.20296e-05  0.0212207 -0.339297 -5.34058e-05  0.028764 -0.339778 -5.62668e-05  0.0291827 -0.332175 -8.2016e-05  0.0212338 -0.339307 -4.62532e-05  0.021656 -0.331701 -7.00951e-05  0.0292037 -0.332191 -6.58035e-05  0.0216677 -0.331714 -6.24657e-05  0.0203347 -0.35446 -2.09808e-05  0.0278852 -0.354928 -2.6226e-05  0.0283144 -0.347349 -4.3869e-05  0.02035 -0.354464 -1.81198e-05  0.0207825 -0.346882 -4.1008e-05  0.028326 -0.347358 -3.91006e-05  0.0207965 -0.34689 -3.62396e-05  0.019449 -0.36958 -9.53674e-07  0.0269885 -0.370042 -6.19888e-06  0.027426 -0.362488 -1.62125e-05  0.0194523 -0.369578 -4.76837e-06  0.0198944 -0.362024 -1.33514e-05  0.0274403 -0.362487 -1.43051e-05  0.0199025 -0.362025 -9.53674e-06  0.0185437 -0.384649 1.95503e-05  0.026082 -0.385118 9.53674e-06  0.026526 -0.377576 2.86102e-06  0.0185542 -0.384653 1.04904e-05  0.0189967 -0.377119 6.19888e-06  0.0265357 -0.377581 4.76837e-07  0.0190032 -0.377118 3.8147e-06  0.00356393 -0.00371128 -0.00298023  0 0 0  0.00478801 -0.00536442 -0.0026083  0.00222366 -0.00334007 -0.00193691  0 0 0  0.00346193 -0.00406379 -0.00228786  0.00135063 -0.00197792 -0.00168133  0 0 0  0.00222434 -0.0035404 -0.00147676  0.00129429 -0.00215393 -0.00127077  0.00812829 -0.00696146 -0.00445032  0.00961363 -0.00865144 -0.00407791  0.00731765 -0.00639629 -0.00442648  0.00792912 -0.00750828 -0.00357819  0.0058883 -0.00525105 -0.00388813  0.00718425 -0.00692147 -0.00348234  0.00570229 -0.00571775 -0.00305557  0.0123456 -0.0111489 -0.00492811  0.0143825 -0.0128101 -0.00462437  0.0121803 -0.00995845 -0.00543785  0.0122007 -0.0117514 -0.00405884  0.0102755 -0.00890809 -0.00476742  0.0120248 -0.0105867 -0.00443172  0.0101001 -0.00949395 -0.00389242  0.0162537 -0.016502 -0.00495434  0.0189038 -0.0181139 -0.00468588  0.0167907 -0.0146732 -0.00568056  0.0161778 -0.0171125 -0.0041194  0.0143401 -0.0136719 -0.00498104  0.0166828 -0.0153188 -0.00469923  0.0142272 -0.0142892 -0.0041256  0.0198739 -0.0229864 -0.00477362  0.0230898 -0.0245482 -0.00453901  0.0210995 -0.0205674 -0.00556946  0.0198473 -0.0235852 -0.00398064  0.0181012 -0.0196018 -0.00488329  0.0210407 -0.0211921 -0.00463009  0.0180514 -0.020213 -0.00406647  0.0232032 -0.0305237 -0.00449467  0.0269326 -0.0320131 -0.00427389  0.0250813 -0.0275587 -0.0052886  0.0232033 -0.03109 -0.00375128  0.0215763 -0.0266256 -0.00463915  0.0250578 -0.0281537 -0.00440073  0.0215634 -0.0272137 -0.00387049  0.0262255 -0.0390151 -0.00418568  0.0304279 -0.0404391 -0.0039773  0.0287241 -0.0355549 -0.00494909  0.026247 -0.039546 -0.00349474  0.0247534 -0.0346463 -0.00434303  0.0287241 -0.0361083 -0.00413179  0.0247645 -0.0352017 -0.00362253  0.0289478 -0.0483735 -0.00387192  0.0335709 -0.049733 -0.00368261  0.0320318 -0.0444625 -0.00459194  0.0289751 -0.0488713 -0.00322723  0.0276237 -0.043583 -0.00403118  0.0320414 -0.0449794 -0.00383139  0.0276495 -0.0441018 -0.00335693  0.0313743 -0.0585222 -0.00355911  0.0363849 -0.0598215 -0.00338602  0.0349979 -0.0542039 -0.00423479  0.0314016 -0.0589821 -0.00296736  0.0301964 -0.053351 -0.0037179  0.0350176 -0.0546764 -0.00353003  0.0302271 -0.0538278 -0.00309801  0.0335051 -0.0693889 -0.00326014  0.0388615 -0.070618 -0.00309944  0.0376421 -0.0646929 -0.00388575  0.0335371 -0.069806 -0.00271606  0.0324744 -0.0638672 -0.003407  0.0376658 -0.0651329 -0.00323868  0.0325059 -0.0643108 -0.00283813  0.0353588 -0.080896 -0.00297737  0.0410304 -0.0820646 -0.00283194  0.039968 -0.0758603 -0.00355005  0.0353938 -0.0812767 -0.00247908  0.0344691 -0.0750597 -0.00311565  0.0399871 -0.076266 -0.0029583  0.0344994 -0.0754671 -0.00259447  0.036943 -0.0929849 -0.00270033  0.0429045 -0.0941005 -0.00256824  0.0419831 -0.0876427 -0.00322962  0.0369759 -0.0933314 -0.00225306  0.0361836 -0.0868633 -0.00283957  0.0420039 -0.0880111 -0.00269413  0.0362159 -0.0872348 -0.00236511  0.0382725 -0.105587 -0.00243855  0.0444908 -0.10665 -0.00232077  0.0437057 -0.0999722 -0.00292206  0.0383068 -0.105902 -0.00203371  0.0376432 -0.0992181 -0.00256634  0.0437316 -0.100311 -0.00243711  0.0376726 -0.0995525 -0.00214243  0.039361 -0.118656 -0.00219393  0.0458056 -0.119665 -0.0020833  0.0451583 -0.112799 -0.00263739  0.039392 -0.118939 -0.00182724  0.0388457 -0.112061 -0.00231504  0.0451814 -0.113095 -0.00219536  0.0388768 -0.112362 -0.00192642  0.0402164 -0.13212 -0.00195599  0.0468657 -0.133072 -0.00185966  0.046347 -0.126047 -0.0023613  0.0402509 -0.132371 -0.00162888  0.0398204 -0.125331 -0.00207233  0.0463693 -0.126316 -0.00196791  0.0398486 -0.125604 -0.00173044  0.04087 -0.145943 -0.0017395  0.0476916 -0.146847 -0.00165319  0.0472884 -0.139682 -0.00210953  0.0408933 -0.146166 -0.00145006  0.0405709 -0.138986 -0.00184488  0.0473108 -0.139923 -0.00175762  0.0405953 -0.139229 -0.00154018  0.041312 -0.16007 -0.00153208  0.0482976 -0.160926 -0.00145578  0.0480046 -0.153639 -0.0018549  0.0413432 -0.160261 -0.00127459  0.0411181 -0.152963 -0.00163698  0.0480244 -0.15385 -0.00155067  0.0411453 -0.153176 -0.00136328  0.0415733 -0.174454 -0.00133896  0.0487001 -0.175267 -0.0012722  0.0484972 -0.167885 -0.00162745  0.0416057 -0.174622 -0.00111246  0.0414646 -0.167228 -0.00143003  0.0485225 -0.168064 -0.00135469  0.041496 -0.167409 -0.00119638  0.0416722 -0.189059 -0.00115156  0.0489023 -0.18983 -0.00110149  0.0488062 -0.182369 -0.00141191  0.0416977 -0.189208 -0.000963211  0.0416422 -0.181725 -0.00124025  0.0488226 -0.182524 -0.00117731  0.0416722 -0.18189 -0.00103569  0.0416102 -0.203848 -0.000987053  0.0489371 -0.204575 -0.000945091  0.0489247 -0.197039 -0.00121737  0.0416331 -0.203971 -0.000822067  0.041661 -0.196428 -0.00106907  0.0489407 -0.197181 -0.00101519  0.0416827 -0.196567 -0.000891685  0.0413997 -0.218781 -0.000831127  0.048816 -0.219468 -0.000790596  0.0488749 -0.211887 -0.00103092  0.041431 -0.218883 -0.000693321  0.041523 -0.211291 -0.000910282  0.0488937 -0.212005 -0.00086689  0.0415485 -0.21141 -0.000756264  0.0410676 -0.233824 -0.000689507  0.0485444 -0.234475 -0.000653744  0.048672 -0.226863 -0.000860214  0.0410993 -0.233915 -0.000573635  0.041254 -0.226287 -0.000757694  0.0486979 -0.226961 -0.00071907  0.0412798 -0.226386 -0.00063467  0.0406253 -0.248955 -0.000554562  0.0481517 -0.249578 -0.00053072  0.0483441 -0.241935 -0.000700474  0.0406487 -0.249029 -0.000463963  0.0408638 -0.241375 -0.000622749  0.0483608 -0.242022 -0.000582695  0.0408893 -0.241461 -0.000519753  0.0400872 -0.264153 -0.000445843  0.0476389 -0.264738 -0.000425339  0.0478959 -0.257084 -0.000560284  0.040107 -0.264203 -0.000368118  0.0403655 -0.256542 -0.000499725  0.0479088 -0.257149 -0.000468731  0.04039 -0.256605 -0.000414371  0.0394573 -0.279368 -0.000343323  0.0470324 -0.279924 -0.000325203  0.0473342 -0.272276 -0.000445366  0.0394742 -0.279407 -0.000285149  0.0397842 -0.271748 -0.000393867  0.0473473 -0.272321 -0.000370026  0.0398016 -0.271799 -0.000326633  0.0387511 -0.29461 -0.000256538  0.0463374 -0.295137 -0.00023365  0.0466855 -0.287491 -0.000333309  0.0387647 -0.294635 -0.000212193  0.0391114 -0.286982 -0.00029707  0.0466921 -0.287532 -0.000277519  0.0391283 -0.28702 -0.000248909  0.0379748 -0.309843 -0.000177383  0.0455704 -0.310344 -0.000170708  0.0459509 -0.302715 -0.000243187  0.0379965 -0.309856 -0.000150204  0.0383737 -0.302215 -0.000215054  0.0459583 -0.302745 -0.000201702  0.0383885 -0.302249 -0.000183582  0.0371547 -0.325058 -0.000112057  0.0447402 -0.32555 -0.000107288  0.0451548 -0.317931 -0.000161171  0.0371714 -0.325069 -9.67979e-05  0.0375724 -0.317443 -0.000145912  0.0451577 -0.317947 -0.000139713  0.0375891 -0.317465 -0.000123024  0.0362973 -0.340244 -7.05719e-05  0.0438786 -0.340719 -6.62804e-05  0.0443027 -0.333128 -9.82285e-05  0.0363147 -0.340251 -5.76973e-05  0.036732 -0.33265 -9.25064e-05  0.0443215 -0.333134 -8.01086e-05  0.0367465 -0.332661 -7.58171e-05  0.0354156 -0.355393 -3.33786e-05  0.0429862 -0.355858 -3.05176e-05  0.0434206 -0.34829 -5.19753e-05  0.03543 -0.355397 -2.86102e-05  0.0358617 -0.347821 -5.24521e-05  0.0434325 -0.348294 -5.53131e-05  0.0358746 -0.347825 -4.33922e-05  0.0345111 -0.370506 -1.00136e-05  0.0420668 -0.370958 -9.05991e-06  0.0425138 -0.363406 -2.24113e-05  0.0345273 -0.370503 -6.19888e-06  0.0349643 -0.362946 -2.14577e-05  0.0425258 -0.363415 -2.19345e-05  0.0349784 -0.362953 -2.19345e-05  0.033607 -0.385584 1.23978e-05  0.0411563 -0.386039 5.24521e-06  0.0416028 -0.378501 -1.90735e-06  0.0336156 -0.385581 1.85966e-05  0.0340621 -0.37804 4.76837e-06  0.0416145 -0.378499 -7.15256e-06  0.0340743 -0.378042 4.76837e-07  -0.00505419 -0.004014 0.00452852  -0.00316287 -0.00236662 0.00376081  0 0 0  -0.0048096 -0.00216573 0.00497818  0 0 0  -0.00296605 -0.00182051 0.00348139  -0.00185487 -0.000407405 0.0030098  0 0 0  -0.00227256 -0.00267558 0.00261354  -0.00388096 -0.00282203 0.00399017  -0.00232151 -0.00110212 0.00335836  0 0 0  -0.00113238 -0.00077261 0.0020256  -0.00145894 -0.00145892 0.00228786  -0.00993554 -0.00653528 0.00631857  -0.00819159 -0.00417182 0.00670099  -0.00867847 -0.00467154 0.00635433  -0.00672583 -0.00469439 0.00474739  -0.0054429 -0.00242254 0.00503111  -0.00754198 -0.00512797 0.00564814  -0.0082753 -0.00555443 0.00550079  -0.00679639 -0.00326689 0.00582647  -0.00489025 -0.00314961 0.00426769  -0.00615692 -0.00407053 0.00492954  -0.0145578 -0.0103171 0.0068326  -0.0124907 -0.00725222 0.00768375  -0.0123729 -0.00848347 0.00678921  -0.0101804 -0.00864851 0.00510931  -0.00867131 -0.00564659 0.00571346  -0.0122702 -0.00827026 0.00667906  -0.0123014 -0.0094181 0.0059557  -0.0105273 -0.00640518 0.00666285  -0.00848177 -0.00651576 0.00500154  -0.0103132 -0.00732631 0.00581741  -0.0190153 -0.0153514 0.00678396  -0.0167819 -0.0117007 0.00782347  -0.0160623 -0.0136186 0.00672722  -0.0134858 -0.0138256 0.00507832  -0.0118264 -0.0101907 0.00582504  -0.0168089 -0.0126824 0.00685453  -0.016159 -0.0145269 0.00592184  -0.0142227 -0.0108931 0.00679922  -0.011846 -0.0110847 0.00512791  -0.0142486 -0.0118216 0.00597668  -0.023279 -0.0215296 0.00648403  -0.0210176 -0.0173819 0.0075717  -0.0196931 -0.0199216 0.00643206  -0.0166683 -0.0201501 0.00484753  -0.0149543 -0.0159716 0.00564289  -0.0211708 -0.0183058 0.00665331  -0.019877 -0.0207847 0.00566053  -0.0178829 -0.0166227 0.00660086  -0.0150871 -0.016852 0.00497532  -0.0180347 -0.0175218 0.0058074  -0.0273533 -0.0287378 0.00605965  -0.0251306 -0.0241636 0.00715113  -0.0232227 -0.027282 0.0060277  -0.0197467 -0.0275141 0.00453901  -0.0180355 -0.0228787 0.00533533  -0.0253435 -0.025013 0.00628376  -0.0234486 -0.0280767 0.00529909  -0.0214702 -0.0234721 0.00623703  -0.0182219 -0.0237094 0.00470018  -0.0216842 -0.0243087 0.00548649  -0.0312333 -0.0368862 0.0056119  -0.0290853 -0.0319336 0.00665092  -0.0266272 -0.0355777 0.00558805  -0.0227095 -0.0358183 0.00420904  -0.021031 -0.0307851 0.00497913  -0.0293133 -0.0326978 0.0058403  -0.026866 -0.0363084 0.00490808  -0.0249407 -0.0313096 0.00581169  -0.0212411 -0.0315545 0.00437832  -0.0251777 -0.0320784 0.00510645  -0.0348951 -0.0458842 0.00516224  -0.0328395 -0.0405759 0.00612879  -0.0298911 -0.0447181 0.0051446  -0.0255484 -0.0449761 0.00387239  -0.0239239 -0.0395851 0.00459528  -0.0330859 -0.0412802 0.00538158  -0.0301267 -0.0453919 0.00451231  -0.0282786 -0.0400408 0.00536442  -0.0241432 -0.0402936 0.00403595  -0.0285162 -0.0407459 0.00470829  -0.0383656 -0.0556622 0.00472164  -0.0364099 -0.0500367 0.00563145  -0.0329847 -0.0546402 0.0047121  -0.0282598 -0.054904 0.00353909  -0.0267041 -0.0491993 0.0042181  -0.0366566 -0.0506781 0.00493956  -0.0332221 -0.0552495 0.00413799  -0.0314604 -0.0495798 0.00492764  -0.0269189 -0.0498487 0.0036993  -0.0316941 -0.0502275 0.00432158  -0.041634 -0.0661414 0.00430012  -0.0397874 -0.060237 0.00513649  -0.0359304 -0.0652579 0.00430107  -0.0308428 -0.0655449 0.00322723  -0.029357 -0.0595464 0.00385618  -0.0400251 -0.0608126 0.00450706  -0.036154 -0.0658127 0.00376606  -0.0344765 -0.0598592 0.00450039  -0.0295699 -0.0601415 0.00338268  -0.0347075 -0.0604427 0.00394583  -0.0447253 -0.0772782 0.00390911  -0.0429834 -0.0710981 0.00467968  -0.0387156 -0.0765247 0.00390291  -0.0333099 -0.0768242 0.00292778  -0.0318903 -0.0705724 0.00351334  -0.0432049 -0.0716346 0.00409985  -0.0389367 -0.0770231 0.00341702  -0.0373414 -0.0708086 0.0040946  -0.0320921 -0.0711078 0.00307608  -0.0375637 -0.0713396 0.00359011  -0.0476272 -0.0889948 0.00353146  -0.045983 -0.0825894 0.00423479  -0.0413605 -0.088363 0.00352573  -0.0356522 -0.0886862 0.00264406  -0.0343004 -0.0822074 0.00317907  -0.0461981 -0.0830629 0.00371075  -0.041559 -0.0888153 0.00308847  -0.0400559 -0.082375 0.00371313  -0.0344958 -0.0826871 0.00278616  -0.0402671 -0.0828507 0.00325203  -0.0503521 -0.101241 0.00318098  -0.0488166 -0.0946216 0.00382423  -0.0438519 -0.100728 0.00317764  -0.0378761 -0.10107 0.00237465  -0.0365956 -0.0943746 0.00286388  -0.0490067 -0.0950548 0.00335407  -0.0440422 -0.101135 0.00278091  -0.0426254 -0.0944746 0.00334883  -0.0367769 -0.0948148 0.00250816  -0.042818 -0.0949129 0.00293398  -0.0529209 -0.113968 0.00284672  -0.0514717 -0.107163 0.00344324  -0.0462052 -0.11357 0.00284481  -0.0399952 -0.113924 0.0021286  -0.0387857 -0.10705 0.00257492  -0.0516567 -0.107554 0.00301552  -0.0463858 -0.113932 0.002491  -0.0450457 -0.107089 0.00300455  -0.0389475 -0.107438 0.00225163  -0.0452331 -0.107476 0.00263214  -0.0553287 -0.127124 0.00252867  -0.0539659 -0.120145 0.00307083  -0.048427 -0.126831 0.0025301  -0.0419977 -0.127201 0.00189352  -0.0408483 -0.120167 0.00229549  -0.0541435 -0.120499 0.00268936  -0.0485977 -0.127151 0.00221205  -0.0473324 -0.12014 0.00268841  -0.0410093 -0.120511 0.00200701  -0.0475081 -0.12049 0.00234556  -0.0575773 -0.140659 0.00223303  -0.0563051 -0.13355 0.0027113  -0.0505306 -0.140462 0.00223255  -0.0439091 -0.140841 0.00167084  -0.0428246 -0.133671 0.00203609  -0.0564717 -0.133848 0.0023818  -0.0506787 -0.140742 0.00195551  -0.0494928 -0.133595 0.00237751  -0.0429643 -0.133975 0.00178099  -0.0496531 -0.1339 0.00208378  -0.0596824 -0.154521 0.00195789  -0.0584905 -0.147284 0.00238705  -0.0525005 -0.154419 0.00195646  -0.0457072 -0.154806 0.00146198  -0.0446832 -0.147517 0.00178957  -0.0586479 -0.147553 0.00209332  -0.0526412 -0.154655 0.0017128  -0.0515301 -0.147388 0.00209427  -0.0448191 -0.147784 0.00156546  -0.0516765 -0.147657 0.00182867  -0.0616574 -0.168669 0.00169659  -0.0605481 -0.161341 0.00208378  -0.0543628 -0.168648 0.0017004  -0.0474219 -0.169059 0.00126886  -0.0464518 -0.161661 0.00156307  -0.0606923 -0.161568 0.00182724  -0.0544875 -0.16886 0.00148916  -0.0534418 -0.161495 0.00182247  -0.0465794 -0.161899 0.00136805  -0.0535803 -0.161725 0.00159597  -0.0634942 -0.183068 0.0014677  -0.0624757 -0.175647 0.00179958  -0.056097 -0.18312 0.00146818  -0.0490391 -0.183542 0.00109148  -0.0481329 -0.176063 0.0013485  -0.0625896 -0.175847 0.00157881  -0.0562198 -0.183301 0.00128317  -0.0552394 -0.175849 0.00158167  -0.048243 -0.176271 0.00117779  -0.0553656 -0.176052 0.00138283  -0.0652132 -0.197684 0.00123835  -0.0642447 -0.190187 0.00153971  -0.0577364 -0.197793 0.00123692  -0.0505733 -0.198221 0.000927925  -0.0497179 -0.190684 0.00115347  -0.0643661 -0.19035 0.00135183  -0.0578465 -0.197952 0.00108528  -0.0569322 -0.19043 0.00135231  -0.049814 -0.190857 0.00101089  -0.0570447 -0.190598 0.00117683  -0.0668082 -0.212458 0.00103188  -0.0659285 -0.204916 0.00129366  -0.0592823 -0.212631 0.00103807  -0.0520236 -0.213062 0.00077343  -0.0512116 -0.205482 0.000971794  -0.0660276 -0.205048 0.00113392  -0.0593767 -0.212757 0.000902176  -0.0585194 -0.205192 0.00113297  -0.0513091 -0.205621 0.000852585  -0.0586216 -0.205332 0.000991821  -0.0683122 -0.227368 0.000858784  -0.0674875 -0.219782 0.0010705  -0.0607328 -0.227599 0.000853539  -0.0533972 -0.228043 0.00063324  -0.0526383 -0.220418 0.000803947  -0.067574 -0.219897 0.000942707  -0.0608182 -0.227708 0.00074625  -0.06002 -0.220098 0.000941753  -0.0527208 -0.220538 0.000700474  -0.0601096 -0.220214 0.000819206  -0.0697041 -0.242398 0.000691891  -0.0689394 -0.234783 0.000873566  -0.0620911 -0.242678 0.000687599  -0.0546989 -0.243117 0.000514984  -0.053987 -0.235472 0.000655174  -0.0690141 -0.234871 0.000766754  -0.0621665 -0.24276 0.000604153  -0.0614228 -0.235128 0.000766277  -0.0540552 -0.235566 0.000576496  -0.0615044 -0.235218 0.000672817  -0.071002 -0.2575 0.000536442  -0.0702879 -0.249876 0.000689983  -0.0633738 -0.257828 0.000540733  -0.0559356 -0.25827 0.000399113  -0.0552607 -0.250609 0.000522614  -0.0703635 -0.249937 0.000607014  -0.0634372 -0.257888 0.000468254  -0.0627379 -0.250244 0.000612259  -0.0553257 -0.250687 0.000455856  -0.0628128 -0.250314 0.000535488  -0.0722239 -0.272654 0.000409126  -0.0715566 -0.265018 0.000536919  -0.064579 -0.273019 0.000407219  -0.0571091 -0.273463 0.000305653  -0.0564699 -0.265808 0.00041008  -0.0716238 -0.265071 0.000465393  -0.064641 -0.273061 0.000355721  -0.0639846 -0.265414 0.000469685  -0.0565267 -0.265861 0.000352383  -0.0640492 -0.265466 0.000408649  -0.0733654 -0.287842 0.000286102  -0.0727432 -0.280207 0.000408649  -0.065721 -0.288232 0.000296593  -0.0582247 -0.28869 0.000221729  -0.0576203 -0.281027 0.0002985  -0.0728035 -0.280245 0.000353813  -0.0657737 -0.288269 0.000258446  -0.0651605 -0.280619 0.000350952  -0.0576737 -0.28107 0.000259876  -0.0652151 -0.280663 0.000306606  -0.0744417 -0.30305 0.000204563  -0.0738645 -0.295428 0.000274658  -0.0668137 -0.303473 0.000203133  -0.059294 -0.303911 0.000155926  -0.0587265 -0.29627 0.000212193  -0.0739174 -0.295446 0.000243664  -0.0668471 -0.303486 0.000176907  -0.0662713 -0.295855 0.000246048  -0.0587645 -0.296299 0.000185966  -0.0663166 -0.295878 0.000215054  -0.0754571 -0.318242 0.000123024  -0.0749235 -0.310645 0.000172615  -0.0678434 -0.318688 0.000123978  -0.0603199 -0.319128 9.48906e-05  -0.0597806 -0.311504 0.000144958  -0.0749547 -0.310648 0.000156879  -0.067873 -0.31869 0.000111103  -0.067337 -0.311075 0.000164986  -0.0598106 -0.311525 0.00012064  -0.0673678 -0.311088 0.000143528  -0.0764334 -0.333424 6.19888e-05  -0.075927 -0.325831 9.87053e-05  -0.0688336 -0.333874 6.34193e-05  -0.0613077 -0.334312 4.76837e-05  -0.0607898 -0.32672 8.53539e-05  -0.0759513 -0.325837 9.63211e-05  -0.0688593 -0.33387 5.76973e-05  -0.0683434 -0.326278 9.58443e-05  -0.0608177 -0.326728 7.15256e-05  -0.0683684 -0.326283 8.53539e-05  -0.0773711 -0.348563 2.81334e-05  -0.0768902 -0.340999 5.14984e-05  -0.0697966 -0.349024 2.95639e-05  -0.0622642 -0.349473 2.19345e-05  -0.0617752 -0.341892 4.05312e-05  -0.0769038 -0.340999 4.43459e-05  -0.0698116 -0.34902 2.76566e-05  -0.0693152 -0.341451 4.86374e-05  -0.0617898 -0.341897 3.62396e-05  -0.0693381 -0.341451 4.00543e-05  -0.0782866 -0.363678 2.86102e-06  -0.0778134 -0.356126 1.38283e-05  -0.0707295 -0.36414 4.76837e-07  -0.0631969 -0.364586 -2.38419e-06  -0.0627182 -0.357033 1.38283e-05  -0.077831 -0.356128 1.57356e-05  -0.0707407 -0.364132 1.90735e-06  -0.070267 -0.356583 1.28746e-05  -0.062736 -0.357031 1.19209e-05  -0.0702782 -0.356581 1.4782e-05  -0.0792158 -0.378771 -1.7643e-05  -0.0787237 -0.371223 0  -0.0716465 -0.379221 -2.00272e-05  -0.0641208 -0.379667 -2.14577e-05  -0.0636444 -0.37213 -9.05991e-06  -0.078753 -0.371219 -4.76837e-07  -0.0716591 -0.37922 -1.57356e-05  -0.0711863 -0.371678 -2.86102e-06  -0.0636606 -0.37213 -8.10623e-06  -0.0711989 -0.371676 -4.29153e-06  -0.00297312 -0.000618264 0.00362825  0 0 0  -0.00174875 -0.000729606 0.0023818  -0.00114923 0.000279546 0.00203896  0 0 0  -0.00231946 -0.00116718 0.00294399  -0.00147313 1.22637e-05 0.00251389  0 0 0  -0.000664786 -8.46237e-05 0.00138474  -0.000869859 -0.000353441 0.00170946  -0.00561133 -0.00319378 0.00459433  -0.00406089 -0.00341633 0.00323486  -0.00326426 -0.00119314 0.00342512  -0.00531989 -0.00397971 0.00400257  -0.00428952 -0.00171554 0.00423384  -0.00289752 -0.00188333 0.00292158  -0.00382264 -0.00241643 0.00360632  -0.00824744 -0.00712977 0.00485563  -0.00634986 -0.00747854 0.00344658  -0.00533229 -0.00445092 0.00383568  -0.00820059 -0.00800231 0.00428152  -0.0069347 -0.00498885 0.00478077  -0.00521511 -0.0052847 0.00338268  -0.00677693 -0.00583494 0.00419855  -0.0108763 -0.0123649 0.00479698  -0.0085611 -0.0127759 0.00340128  -0.00743201 -0.00909843 0.00389147  -0.0109544 -0.0132419 0.00423861  -0.00956425 -0.00958902 0.00485182  -0.00746375 -0.00997655 0.00344276  -0.00959128 -0.01047 0.00428486  -0.0134767 -0.0187801 0.00457764  -0.0107056 -0.0192117 0.00323296  -0.00953108 -0.0150012 0.00375414  -0.0136229 -0.0196267 0.00403643  -0.0121781 -0.0154299 0.00470066  -0.0096426 -0.0158561 0.00332689  -0.0122988 -0.0162983 0.00414991  -0.0160308 -0.0262668 0.0042944  -0.0128 -0.0266939 0.00302744  -0.0116149 -0.0220101 0.00355053  -0.0162095 -0.0270539 0.00378132  -0.0147599 -0.0223907 0.00444555  -0.0117604 -0.0228321 0.00313282  -0.0149273 -0.0232158 0.00391626  -0.0185187 -0.0346902 0.00398827  -0.0148472 -0.0351228 0.00279665  -0.0136647 -0.03002 0.00330925  -0.0187117 -0.0354222 0.00350666  -0.0172823 -0.0303511 0.00414133  -0.0138299 -0.0307941 0.00291491  -0.0174717 -0.0311267 0.0036521  -0.0209345 -0.0439714 0.00366735  -0.0168337 -0.0443937 0.00257254  -0.0156792 -0.0389434 0.0030508  -0.0211262 -0.0446431 0.00321913  -0.0197349 -0.0392184 0.00382471  -0.0158475 -0.0396561 0.00268173  -0.0199285 -0.0399283 0.00335789  -0.0232611 -0.0540171 0.00335789  -0.0187641 -0.0544514 0.00235271  -0.017642 -0.048681 0.00279856  -0.0234488 -0.0546408 0.00294495  -0.02211 -0.0488973 0.00351334  -0.017807 -0.0493273 0.00246286  -0.0222996 -0.0495488 0.00307941  -0.0254999 -0.0647758 0.00306988  -0.0206382 -0.0652103 0.00214291  -0.0195475 -0.0591493 0.00255919  -0.0256797 -0.0653447 0.00268698  -0.0243893 -0.0593055 0.00321341  -0.0197074 -0.0597465 0.00224686  -0.0245757 -0.0599082 0.00281668  -0.0276505 -0.0761743 0.00277472  -0.0224469 -0.0766036 0.00194263  -0.0213938 -0.0702884 0.00232077  -0.0278239 -0.0766857 0.00243711  -0.0265821 -0.0703966 0.00292206  -0.0215526 -0.0708326 0.00203991  -0.026763 -0.0709389 0.00255871  -0.029707 -0.0881425 0.00251293  -0.0242004 -0.088584 0.00175333  -0.0231827 -0.0820395 0.00210619  -0.0298773 -0.0886077 0.00220203  -0.0286846 -0.0820925 0.00264549  -0.023329 -0.0825274 0.00184774  -0.0288622 -0.0825795 0.00231934  -0.0316796 -0.100635 0.00225592  -0.0258925 -0.101078 0.00157833  -0.0249099 -0.0943232 0.0019002  -0.0318365 -0.101048 0.00197029  -0.0307084 -0.0943253 0.00238562  -0.0250546 -0.094764 0.00166321  -0.0308666 -0.0947621 0.00208569  -0.0335685 -0.113588 0.00201988  -0.027532 -0.114034 0.00140762  -0.0265926 -0.1071 0.00170183  -0.033716 -0.113958 0.00176811  -0.0326351 -0.107051 0.00213909  -0.0267193 -0.107498 0.00148678  -0.0327865 -0.107445 0.00186729  -0.0353796 -0.126955 0.00180101  -0.0291166 -0.127401 0.0012517  -0.0282123 -0.120317 0.00152063  -0.0355127 -0.127288 0.00157309  -0.0344831 -0.120219 0.00190926  -0.0283334 -0.120669 0.00132704  -0.034623 -0.120571 0.00166798  -0.037113 -0.140685 0.00158882  -0.0306486 -0.141136 0.00110626  -0.0297748 -0.133911 0.00135183  -0.0372356 -0.140973 0.00138617  -0.0362568 -0.133774 0.00169182  -0.0298862 -0.134226 0.00117731  -0.0363842 -0.134083 0.0014782  -0.0387588 -0.154732 0.00139475  -0.0321198 -0.155189 0.000963688  -0.0312853 -0.147846 0.00117779  -0.0388789 -0.154984 0.00121784  -0.0379429 -0.147664 0.00148773  -0.0313919 -0.148126 0.00103331  -0.038064 -0.147943 0.00130129  -0.0403397 -0.169057 0.00120306  -0.0335467 -0.169506 0.000839233  -0.0327458 -0.162074 0.00104094  -0.0404482 -0.16927 0.00105524  -0.0395613 -0.161852 0.00130081  -0.0328367 -0.162314 0.000904083  -0.0396726 -0.162092 0.00113487  -0.0418479 -0.1836 0.00103903  -0.0349143 -0.184062 0.000717163  -0.0341527 -0.176548 0.00088644  -0.0419466 -0.183792 0.000907898  -0.0410962 -0.176293 0.00112343  -0.0342371 -0.176758 0.000776768  -0.0412059 -0.176502 0.000977516  -0.0432858 -0.198345 0.000885487  -0.0362391 -0.198805 0.000607967  -0.0355024 -0.191234 0.000763416  -0.043375 -0.198504 0.00077343  -0.0425744 -0.19095 0.00095892  -0.0355825 -0.191412 0.000669003  -0.0426672 -0.191127 0.00083828  -0.0446637 -0.213256 0.000737667  -0.0375118 -0.21371 0.000510216  -0.0368042 -0.20609 0.000641346  -0.0447395 -0.213378 0.000645638  -0.043983 -0.205782 0.0008111  -0.0368826 -0.20624 0.000561714  -0.044066 -0.205924 0.000703812  -0.045979 -0.22827 0.000611782  -0.0387373 -0.228732 0.00042057  -0.0380676 -0.221087 0.000534534  -0.0460427 -0.228384 0.000531673  -0.0453272 -0.220745 0.000664234  -0.0381289 -0.221202 0.000464916  -0.0453959 -0.220866 0.000582218  -0.0472288 -0.243392 0.00049448  -0.0399241 -0.243858 0.000336647  -0.0392802 -0.236178 0.000440121  -0.0472898 -0.243482 0.000432968  -0.0466087 -0.235821 0.000551224  -0.0393343 -0.236282 0.000380516  -0.0466745 -0.235919 0.000478745  -0.0484245 -0.258589 0.000381947  -0.0410638 -0.25904 0.000264645  -0.0404499 -0.251356 0.0003438  -0.0484788 -0.258651 0.000335217  -0.0478299 -0.250985 0.00043726  -0.0404975 -0.251439 0.000302792  -0.0478921 -0.251062 0.000382423  -0.0495791 -0.273812 0.000292301  -0.0421708 -0.274263 0.000200272  -0.0415752 -0.266587 0.000270844  -0.0496194 -0.273864 0.000252247  -0.0490072 -0.266199 0.00033474  -0.0416181 -0.26665 0.000235081  -0.0490556 -0.266255 0.000295639  -0.0506816 -0.289063 0.00020647  -0.0432367 -0.289513 0.000146389  -0.0426731 -0.281843 0.000196457  -0.0507174 -0.289101 0.000182152  -0.0501375 -0.281435 0.00025034  -0.0427089 -0.281885 0.000174999  -0.0501754 -0.281478 0.000216484  -0.0517395 -0.304317 0.000153542  -0.0442724 -0.304758 0.000102997  -0.0437262 -0.297104 0.000142574  -0.05177 -0.304336 0.000128746  -0.0512142 -0.296686 0.000180244  -0.0437577 -0.297137 0.000123978  -0.0512457 -0.296717 0.000156403  -0.0527627 -0.319554 9.34601e-05  -0.0452754 -0.319995 6.29425e-05  -0.0447581 -0.312357 8.96454e-05  -0.0527897 -0.319563 8.63075e-05  -0.0522573 -0.311935 0.000123501  -0.0447764 -0.312382 8.15392e-05  -0.0522823 -0.311954 0.000101566  -0.0537601 -0.334758 5.67436e-05  -0.0462537 -0.335198 3.62396e-05  -0.0457442 -0.327583 5.53131e-05  -0.0537746 -0.334758 4.91142e-05  -0.0532601 -0.327151 7.20024e-05  -0.0457685 -0.327601 4.673e-05  -0.0532873 -0.327165 6.10352e-05  -0.0547168 -0.349921 2.14577e-05  -0.0472062 -0.350363 1.14441e-05  -0.04672 -0.342779 2.71797e-05  -0.0547297 -0.34992 1.62125e-05  -0.05424 -0.342335 3.19481e-05  -0.0467329 -0.342786 2.6226e-05  -0.0542538 -0.342342 2.90871e-05  -0.055661 -0.365037 -1.43051e-06  -0.0481381 -0.365484 -2.38419e-06  -0.0476649 -0.357925 -3.8147e-06  -0.0556669 -0.365034 -9.53674e-07  -0.0551937 -0.357476 1.14441e-05  -0.0476775 -0.357928 0  -0.0551987 -0.357481 6.67572e-06  -0.0565717 -0.380121 -2.76566e-05  -0.0490639 -0.380554 -3.52859e-05  -0.0485792 -0.373026 -2.43187e-05  -0.0565879 -0.380114 -2.09808e-05  -0.0561156 -0.372579 -1.38283e-05  -0.0486012 -0.373023 -1.52588e-05  -0.0561259 -0.372577 -1.19209e-05  -0.00164109 0.000106871 0.00219679  0 0 0  -0.000796318 -0.000265956 0.00119257  -0.000536777 0.0005472 0.00101566  0 0 0  -0.00125533 -0.000442892 0.00179577  -0.000831936 0.000448853 0.00153017  0 0 0  -0.000303302 0.000170887 0.00069809  -0.000474241 7.6741e-05 0.00104713  -0.00308485 -0.00222623 0.00278234  -0.00185695 -0.0027436 0.00162601  -0.00149004 -0.000585914 0.00171518  -0.00292008 -0.00300854 0.00243998  -0.0023521 -0.000819176 0.00257158  -0.00131762 -0.00128227 0.00147104  -0.00207743 -0.00151294 0.0022068  -0.0046258 -0.00621778 0.00292301  -0.00295711 -0.00682139 0.0017333  -0.0024468 -0.00377354 0.00192642  -0.00461209 -0.00708127 0.00259209  -0.00384736 -0.0040389 0.00288534  -0.00240663 -0.00460371 0.00170517  -0.00376701 -0.00487325 0.00254917  -0.00620532 -0.0115534 0.00287819  -0.00406247 -0.0121996 0.00171089  -0.00347507 -0.00847387 0.00194311  -0.00626883 -0.0124249 0.00255489  -0.00541314 -0.0087204 0.00291824  -0.00350851 -0.00935584 0.00172901  -0.0054453 -0.00960276 0.00259209  -0.00778735 -0.0180698 0.00274277  -0.00516474 -0.0187247 0.00162172  -0.00454241 -0.0144698 0.00187731  -0.00789493 -0.0189129 0.00243235  -0.00699562 -0.0146712 0.0028224  -0.00461352 -0.0153262 0.00167084  -0.00708717 -0.0155317 0.00250292  -0.00937158 -0.0256515 0.00257301  -0.00627667 -0.0262949 0.00151062  -0.00562024 -0.021567 0.00177002  -0.00949907 -0.0264426 0.00226879  -0.00857395 -0.0217321 0.00266123  -0.00571597 -0.0223891 0.0015626  -0.008699 -0.022553 0.00235176  -0.0109412 -0.0341814 0.00237656  -0.00739563 -0.0348059 0.00139666  -0.00672269 -0.029674 0.00164127  -0.011079 -0.0349159 0.00209999  -0.0101641 -0.0297967 0.00247383  -0.00683516 -0.0304361 0.00145245  -0.0102918 -0.0305634 0.00218153  -0.0124983 -0.0435591 0.00219011  -0.00852269 -0.0441735 0.00127888  -0.00783998 -0.0386713 0.00151253  -0.0126396 -0.0442381 0.00192213  -0.0117218 -0.0387582 0.0022769  -0.00795639 -0.0393859 0.00133324  -0.011862 -0.0394738 0.00200701  -0.0140361 -0.0537117 0.00200653  -0.00965869 -0.0543161 0.00116968  -0.00897729 -0.0484939 0.00139332  -0.0141751 -0.054343 0.00175667  -0.0132717 -0.0485428 0.00209808  -0.00908744 -0.0491479 0.00122404  -0.0134103 -0.0491947 0.0018425  -0.0155494 -0.0645831 0.00182486  -0.010796 -0.065164 0.00105906  -0.0101222 -0.0590554 0.00126314  -0.0156833 -0.0651484 0.00159883  -0.0147996 -0.0590622 0.00191927  -0.010224 -0.0596557 0.00110817  -0.0149317 -0.0596594 0.00168419  -0.0170329 -0.076077 0.00164938  -0.0119455 -0.0766445 0.000955582  -0.0112638 -0.0702793 0.00114346  -0.0171595 -0.0765916 0.00144625  -0.0162982 -0.0702479 0.00173903  -0.0113714 -0.0708274 0.00100517  -0.0164222 -0.0707953 0.00152397  -0.0184923 -0.0881469 0.00149679  -0.013091 -0.0887101 0.000863552  -0.0124123 -0.0821123 0.00103855  -0.0186105 -0.0886144 0.00130701  -0.0177662 -0.0820423 0.00157166  -0.0125183 -0.0826087 0.000907898  -0.0178893 -0.0825374 0.00137472  -0.0199213 -0.100736 0.00134516  -0.0142332 -0.101287 0.000772953  -0.0135657 -0.0944859 0.00093317  -0.0200342 -0.101154 0.00117779  -0.0192091 -0.0943742 0.00141716  -0.0136589 -0.0949384 0.000814915  -0.0193262 -0.0948222 0.00124359  -0.0213255 -0.113778 0.00119972  -0.0153801 -0.114319 0.000689507  -0.0147222 -0.107347 0.000837326  -0.0214278 -0.114151 0.00104952  -0.0206239 -0.1072 0.00126839  -0.0148062 -0.10775 0.000727177  -0.0207342 -0.107598 0.00110722  -0.0226972 -0.127232 0.00106287  -0.0165212 -0.127766 0.00061655  -0.0158716 -0.120633 0.000742912  -0.0227901 -0.127562 0.000928402  -0.0220162 -0.120455 0.00112915  -0.0159535 -0.120997 0.000648022  -0.022115 -0.120809 0.000991344  -0.0240337 -0.141041 0.000938416  -0.0176529 -0.14157 0.000537395  -0.0170169 -0.134305 0.00065279  -0.0241238 -0.141331 0.000820637  -0.0233691 -0.134089 0.00100088  -0.0170867 -0.134624 0.000573158  -0.0234581 -0.134404 0.000876427  -0.0253427 -0.15516 0.00082159  -0.018784 -0.155684 0.000464439  -0.018147 -0.148306 0.00056982  -0.0254259 -0.155419 0.000715733  -0.0246871 -0.148058 0.000874996  -0.0182192 -0.148589 0.000499725  -0.0247784 -0.148338 0.000763416  -0.0266297 -0.169543 0.000720501  -0.0198979 -0.170064 0.000399113  -0.0192838 -0.162596 0.000493526  -0.0267005 -0.169774 0.000622749  -0.0259845 -0.162323 0.000767708  -0.0193412 -0.16284 0.000436306  -0.0260675 -0.162564 0.000669479  -0.0278716 -0.184159 0.000605583  -0.0210037 -0.184672 0.000341415  -0.0203936 -0.177126 0.000424385  -0.0279403 -0.184355 0.000527859  -0.0272512 -0.176825 0.000658989  -0.0204527 -0.17734 0.000373363  -0.0273242 -0.177036 0.000576973  -0.0290895 -0.198963 0.000519276  -0.0220997 -0.199462 0.000291348  -0.0215082 -0.191859 0.000358582  -0.0291476 -0.199125 0.000452042  -0.0284839 -0.191536 0.000562191  -0.021553 -0.192044 0.000312805  -0.0285492 -0.191716 0.000490189  -0.0302732 -0.213911 0.000431538  -0.0231793 -0.214411 0.000236034  -0.0225925 -0.206762 0.000302792  -0.0303297 -0.21405 0.000380993  -0.0296845 -0.206416 0.000475883  -0.0226421 -0.206921 0.000264168  -0.0297439 -0.206572 0.000415325  -0.0314317 -0.228981 0.000354767  -0.0242465 -0.229471 0.000197411  -0.0236723 -0.221794 0.000250816  -0.0314784 -0.229094 0.000311375  -0.0308559 -0.221431 0.000396729  -0.0237136 -0.221926 0.000212669  -0.0309038 -0.221556 0.000343323  -0.0325541 -0.244142 0.00027895  -0.0252907 -0.24462 0.000154018  -0.0247374 -0.236934 0.000197887  -0.032594 -0.244232 0.000248432  -0.031996 -0.236552 0.000319958  -0.0247691 -0.237036 0.000179291  -0.0320377 -0.236653 0.000274658  -0.0336525 -0.259372 0.000226974  -0.0263274 -0.259844 0.000122547  -0.0257783 -0.252139 0.000165462  -0.0336814 -0.259436 0.000197411  -0.0331018 -0.251744 0.000252724  -0.0258095 -0.252228 0.000137329  -0.0331438 -0.251826 0.000218391  -0.0347116 -0.274621 0.000173569  -0.0273407 -0.275089 9.58443e-05  -0.0268102 -0.26739 0.000123978  -0.0347447 -0.274672 0.000153542  -0.034188 -0.266986 0.000197411  -0.026834 -0.267461 0.000106812  -0.0342162 -0.26705 0.000171185  -0.0357585 -0.289902 0.000127316  -0.0283403 -0.290359 6.77109e-05  -0.027823 -0.282668 9.01222e-05  -0.0357804 -0.289933 0.00011301  -0.0352359 -0.282248 0.000148296  -0.0278461 -0.282721 8.10623e-05  -0.0352633 -0.282301 0.0001297  -0.036772 -0.305167 8.15392e-05  -0.0293255 -0.305624 4.05312e-05  -0.0288181 -0.297955 6.62804e-05  -0.0367913 -0.305193 7.29561e-05  -0.0362663 -0.297522 0.000106812  -0.0288353 -0.297989 5.24521e-05  -0.0362887 -0.297561 9.44138e-05  -0.0377629 -0.32042 5.29289e-05  -0.0302918 -0.320872 2.67029e-05  -0.0297976 -0.313223 4.05312e-05  -0.0377793 -0.320434 4.3869e-05  -0.0372653 -0.312786 6.53267e-05  -0.0298085 -0.313246 3.33786e-05  -0.0372872 -0.312811 5.91278e-05  -0.0387342 -0.335627 2.47955e-05  -0.0312486 -0.336077 1.81198e-05  -0.0307615 -0.328467 2.6226e-05  -0.0387473 -0.335637 2.43187e-05  -0.0382516 -0.328024 3.62396e-05  -0.0307724 -0.328474 2.0504e-05  -0.0382614 -0.328036 3.52859e-05  -0.0396814 -0.350804 1.04904e-05  -0.0321901 -0.351253 6.19888e-06  -0.0317149 -0.343668 1.14441e-05  -0.0396943 -0.350806 6.67572e-06  -0.0392108 -0.343218 2.24113e-05  -0.0317206 -0.343675 8.58307e-06  -0.039221 -0.343231 1.4782e-05  -0.0406065 -0.365938 -1.43051e-05  -0.0331113 -0.366382 -9.53674e-07  -0.0326462 -0.358822 -2.38419e-06  -0.040621 -0.36593 -8.10623e-06  -0.0401475 -0.358375 2.86102e-06  -0.0326543 -0.358822 -5.72205e-06  -0.0401599 -0.358374 2.86102e-06  -0.0415282 -0.381 -3.14713e-05  -0.0340283 -0.381438 -1.09673e-05  -0.0335655 -0.373921 -8.10623e-06  -0.0415363 -0.380994 -2.71797e-05  -0.0410688 -0.373473 -1.66893e-05  -0.0335693 -0.373916 -6.67572e-06  -0.041079 -0.373469 -1.4782e-05  -0.000481166 0.000368118 0.000709057  0 0 0  6.11395e-05 -0.000176787 -2.24113e-05  3.04431e-05 0.000589252 -3.19481e-05  0 0 0  -0.00036224 -0.000178993 0.000585556  -0.000252705 0.000591755 0.00049448  0 0 0  2.28956e-05 0.00021261 -2.24113e-05  -0.00013737 0.000216573 0.000339985  -0.000886753 -0.00183934 0.000916004  0.000143379 -0.00261545 -1.90735e-05  0.000115097 -0.000466704 -3.33786e-05  -0.000847489 -0.00261611 0.000810623  -0.000678152 -0.000467241 0.000835896  9.91374e-05 -0.00116482 -2.19345e-05  -0.000598207 -0.00117031 0.000722885  -0.00135028 -0.00583094 0.000967026  0.000200003 -0.0067043 -9.05991e-06  0.000196904 -0.00364581 -1.38283e-05  -0.00136369 -0.0066936 0.000867844  -0.00110686 -0.00364077 0.000949383  0.000178069 -0.00447702 -9.05991e-06  -0.0010998 -0.00447151 0.000847816  -0.0018625 -0.0112288 0.00094986  0.000208676 -0.0121289 3.8147e-06  0.000241578 -0.00839093 -9.05991e-06  -0.00191376 -0.0121016 0.000852108  -0.00160173 -0.00836837 0.000966072  0.000211239 -0.00925827 -4.76837e-07  -0.00163621 -0.00924131 0.000863552  -0.00242299 -0.0178269 0.00090313  0.000157535 -0.0187108 4.76837e-07  0.00023824 -0.0144253 -1.09673e-05  -0.00248653 -0.0186605 0.000803947  -0.00213552 -0.0143833 0.000930786  0.000189543 -0.0152787 -4.76837e-07  -0.00219715 -0.0152418 0.000835419  -0.00303119 -0.0254673 0.000849247  3.9041e-05 -0.0263308 -4.29153e-06  0.000158846 -0.0215769 -1.52588e-05  -0.0031029 -0.0262569 0.000750542  -0.00271887 -0.021511 0.000872612  0.0001086 -0.0223945 -6.67572e-06  -0.00278956 -0.022335 0.000779629  -0.00367439 -0.0340605 0.000788689  -0.00015074 -0.0348926 -9.05991e-06  5.72205e-06 -0.029728 -1.66893e-05  -0.00375909 -0.0348001 0.000693798  -0.0033468 -0.0296475 0.000818729  -4.67896e-05 -0.0305012 -4.76837e-06  -0.00342476 -0.0304163 0.000727654  -0.00436866 -0.0435079 0.000714779  -0.00041914 -0.0443182 -2.24113e-05  -0.000217199 -0.0387783 -2.38419e-05  -0.00445646 -0.0441996 0.000630379  -0.00401634 -0.0386764 0.000745296  -0.00027895 -0.0395023 -1.66893e-05  -0.00410366 -0.0393949 0.000660896  -0.00511384 -0.0537442 0.000648022  -0.000754714 -0.0545159 -2.14577e-05  -0.000517011 -0.0486586 -3.14713e-05  -0.00519121 -0.0543728 0.000567913  -0.00473428 -0.0485299 0.000682831  -0.000577569 -0.049326 -2.0504e-05  -0.00481868 -0.0491926 0.000602245  -0.00588143 -0.0646784 0.000584602  -0.00115609 -0.0654209 -3.00407e-05  -0.000890255 -0.0592755 -3.48091e-05  -0.00596142 -0.0652521 0.000516415  -0.00549316 -0.0591247 0.000611782  -0.000946641 -0.0598842 -2.52724e-05  -0.00557315 -0.0597292 0.000544548  -0.00669229 -0.0762503 0.000524521  -0.00162673 -0.0769687 -3.29018e-05  -0.00133169 -0.070562 -4.1008e-05  -0.00676978 -0.0767708 0.000464916  -0.00628459 -0.0703832 0.000554085  -0.00138438 -0.0711192 -2.90871e-05  -0.00636256 -0.070934 0.000490665  -0.00753593 -0.0883948 0.000473022  -0.00215769 -0.089089 -3.38554e-05  -0.00183272 -0.0824583 -4.00543e-05  -0.00761044 -0.0888683 0.00041151  -0.0071075 -0.0822508 0.00049448  -0.00188482 -0.0829628 -3.38554e-05  -0.00718427 -0.0827523 0.000440598  -0.00841248 -0.101045 0.000422001  -0.00274539 -0.101721 -4.19617e-05  -0.0023942 -0.0948921 -4.29153e-05  -0.00847685 -0.101478 0.000368595  -0.00796914 -0.0946549 0.000442982  -0.00244391 -0.0953426 -3.24249e-05  -0.00804114 -0.0951098 0.000385761  -0.00930798 -0.114158 0.000370026  -0.00338352 -0.114817 -3.91006e-05  -0.00301504 -0.107809 -4.76837e-05  -0.00936985 -0.114539 0.000324249  -0.00885892 -0.107551 0.000392437  -0.00306201 -0.108217 -4.48227e-05  -0.00892401 -0.107954 0.000344276  -0.0102309 -0.127671 0.000320911  -0.00406897 -0.128312 -4.43459e-05  -0.00367987 -0.121149 -4.673e-05  -0.0102848 -0.12802 0.000282288  -0.00976729 -0.120865 0.000346184  -0.00371873 -0.121518 -4.43459e-05  -0.00982368 -0.121232 0.000303745  -0.0111674 -0.141544 0.000286579  -0.00480187 -0.142163 -3.24249e-05  -0.00439763 -0.134868 -4.52995e-05  -0.0112199 -0.141847 0.000253201  -0.0106976 -0.134564 0.000304699  -0.00443375 -0.135196 -4.1008e-05  -0.0107476 -0.134887 0.000265598  -0.0121133 -0.155719 0.000246048  -0.00556827 -0.156318 -3.76701e-05  -0.00514197 -0.148922 -3.8147e-05  -0.0121663 -0.155983 0.000216961  -0.0116396 -0.14859 0.000264168  -0.00517917 -0.149206 -3.62396e-05  -0.011688 -0.148875 0.000234604  -0.0130799 -0.17016 0.000206947  -0.00637269 -0.170739 -3.71933e-05  -0.00593162 -0.163245 -3.95775e-05  -0.0131295 -0.170388 0.000182152  -0.0125964 -0.162905 0.000229836  -0.00596762 -0.163498 -3.8147e-05  -0.0126467 -0.16315 0.000201702  -0.014056 -0.184814 0.000173569  -0.00720119 -0.185385 -4.24385e-05  -0.00675845 -0.177817 -4.57764e-05  -0.0140965 -0.185013 0.000153542  -0.0135698 -0.177458 0.000191212  -0.00678706 -0.178037 -3.14713e-05  -0.0136092 -0.177672 0.000170708  -0.015039 -0.199656 0.000150204  -0.00806141 -0.200214 -3.71933e-05  -0.00760388 -0.192588 -4.29153e-05  -0.0150709 -0.199825 0.000131607  -0.0145466 -0.192215 0.000163555  -0.00762749 -0.192776 -3.48091e-05  -0.0145845 -0.192398 0.000141621  -0.0160222 -0.214652 0.000121593  -0.00893736 -0.215187 -2.38419e-05  -0.00847936 -0.207526 -4.19617e-05  -0.0160518 -0.21479 0.000103951  -0.0155292 -0.207134 0.000131607  -0.00849676 -0.207683 -3.48091e-05  -0.0155606 -0.207292 0.000119209  -0.0170088 -0.229756 9.9659e-05  -0.00983071 -0.230277 -2.52724e-05  -0.00936842 -0.222582 -3.09944e-05  -0.0170343 -0.229865 8.58307e-05  -0.016516 -0.222182 0.000112534  -0.00938296 -0.222714 -2.67029e-05  -0.0165401 -0.222312 9.29832e-05  -0.0179939 -0.244941 7.72476e-05  -0.010736 -0.245447 -2.24113e-05  -0.0102732 -0.237742 -3.24249e-05  -0.0180109 -0.245029 6.48499e-05  -0.0175009 -0.237325 8.82149e-05  -0.0102825 -0.23785 -2.43187e-05  -0.0175219 -0.237434 7.43866e-05  -0.0189707 -0.260183 5.14984e-05  -0.0116513 -0.26068 -1.95503e-05  -0.0111833 -0.25297 -2.67029e-05  -0.018986 -0.260254 4.81606e-05  -0.0184791 -0.25255 6.77109e-05  -0.0111945 -0.253059 -2.28882e-05  -0.0185006 -0.252634 5.91278e-05  -0.0199382 -0.275457 4.29153e-05  -0.012573 -0.27595 -2.00272e-05  -0.0120993 -0.268239 -2.67029e-05  -0.019954 -0.275513 3.67165e-05  -0.0194507 -0.267809 4.62532e-05  -0.0121133 -0.268307 -1.90735e-05  -0.0194688 -0.267879 4.3869e-05  -0.0209036 -0.290744 2.71797e-05  -0.0134976 -0.291227 -2.38419e-05  -0.0130246 -0.283535 -2.24113e-05  -0.0209172 -0.290788 2.52724e-05  -0.0204232 -0.283094 3.71933e-05  -0.0130353 -0.283589 -1.7643e-05  -0.0204341 -0.283151 3.19481e-05  -0.0218663 -0.306037 1.43051e-05  -0.0144241 -0.306503 -1.14441e-05  -0.0139561 -0.29883 -2.00272e-05  -0.0218709 -0.306059 1.43051e-05  -0.0213852 -0.298387 2.57492e-05  -0.0139604 -0.298867 -1.85966e-05  -0.0213959 -0.298425 2.0504e-05  -0.0228131 -0.321298 5.72205e-06  -0.0153472 -0.321754 -9.53674e-06  -0.0148907 -0.314104 -1.62125e-05  -0.0228176 -0.321309 7.62939e-06  -0.0223348 -0.313662 1.43051e-05  -0.014888 -0.31413 -1.04904e-05  -0.022346 -0.313686 9.05991e-06  -0.0237548 -0.33652 7.62939e-06  -0.0162749 -0.336977 -1.09673e-05  -0.0158088 -0.329347 -1.4782e-05  -0.0237613 -0.336527 1.43051e-06  -0.0232811 -0.328904 3.33786e-06  -0.0158107 -0.329369 -1.14441e-05  -0.0232885 -0.328921 8.58307e-06  -0.0246894 -0.351707 0  -0.017199 -0.352156 -8.58307e-06  -0.0167341 -0.344562 -8.58307e-06  -0.024689 -0.351703 -4.76837e-06  -0.0242231 -0.344113 4.76837e-07  -0.0167387 -0.34457 -7.62939e-06  -0.0242269 -0.344122 0  -0.0256083 -0.366833 -6.67572e-06  -0.0181096 -0.36728 -3.8147e-06  -0.0176539 -0.359724 -9.53674e-06  -0.0256088 -0.366827 -6.67572e-06  -0.0251522 -0.359275 -1.43051e-06  -0.0176554 -0.359721 -8.10623e-06  -0.0251515 -0.359272 -3.33786e-06  -0.0265186 -0.3819 -1.19209e-05  -0.0190246 -0.382331 2.38419e-06  -0.0185623 -0.374821 3.8147e-06  -0.026525 -0.38188 -6.19888e-06  -0.0260615 -0.374365 -4.29153e-06  -0.0185664 -0.374815 -1.43051e-06  -0.0260701 -0.374367 -4.76837e-06  0.000621557 0.000284135 -0.00078249  0 0 0  0.000910968 -0.000407577 -0.00123692  0.000585549 0.00044477 -0.00107002  0 0 0  0.000479952 -0.000250518 -0.000630379  0.000308461 0.000540674 -0.000550747  0 0 0  0.000340514 9.01222e-05 -0.00072813  0.000180751 0.000173628 -0.000374317  0.0012041 -0.00196511 -0.000971317  0.00213405 -0.00298005 -0.00164461  0.00170295 -0.000795245 -0.00176525  0.00112569 -0.0027352 -0.000833511  0.000904813 -0.000576258 -0.000905037  0.00151736 -0.00147372 -0.00149822  0.000800908 -0.00126529 -0.000762939  0.00180554 -0.00599456 -0.00100136  0.00333872 -0.00712091 -0.00173283  0.00283465 -0.00405651 -0.00195122  0.00175843 -0.00684774 -0.000874996  0.00150558 -0.00378299 -0.000992298  0.00274625 -0.00487697 -0.00171089  0.00144678 -0.00461286 -0.000864506  0.00235248 -0.0114217 -0.000980377  0.00446069 -0.0125656 -0.00169611  0.0039534 -0.00882828 -0.00195551  0.00232404 -0.0122828 -0.000852108  0.00208682 -0.00854278 -0.000988007  0.00391534 -0.00969386 -0.001719  0.00205246 -0.00941008 -0.000861645  0.00282788 -0.0180469 -0.000931263  0.00546026 -0.0191655 -0.001616  0.0049873 -0.014872 -0.00189161  0.0027985 -0.0188776 -0.000810623  0.0026052 -0.0145891 -0.000945091  0.00497782 -0.0157297 -0.00165749  0.00257283 -0.0154441 -0.00082922  0.00320268 -0.0257278 -0.000880241  0.00632441 -0.0268018 -0.0015192  0.00592154 -0.0220386 -0.00179291  0.00317526 -0.0265106 -0.00076437  0.0030306 -0.0217512 -0.000906467  0.00591081 -0.0228562 -0.00156784  0.00299942 -0.0225694 -0.000793457  0.00347698 -0.0343511 -0.000822544  0.00706208 -0.035383 -0.00142193  0.00671941 -0.030207 -0.00168085  0.00344491 -0.0350878 -0.000715256  0.00335211 -0.0299162 -0.000846386  0.00670725 -0.0309797 -0.00147009  0.00332409 -0.030688 -0.000739098  0.00364816 -0.0438459 -0.000765324  0.00765538 -0.0448365 -0.00131321  0.00737822 -0.0392869 -0.0015626  0.003613 -0.0445317 -0.000668526  0.00357562 -0.0389876 -0.000796318  0.0073784 -0.0400068 -0.00136614  0.00354177 -0.0397049 -0.00069046  0.00370717 -0.0541185 -0.000715733  0.00812411 -0.0550683 -0.00121069  0.0079124 -0.049199 -0.00144911  0.0036757 -0.0547507 -0.000619411  0.00368977 -0.0488816 -0.000736237  0.0079087 -0.0498598 -0.00126171  0.00365603 -0.049546 -0.000640869  0.00366962 -0.065101 -0.00066185  0.00845182 -0.0660018 -0.00112295  0.00831115 -0.05984 -0.00133419  0.0036422 -0.0656709 -0.000572205  0.00369835 -0.0595158 -0.000681877  0.00830185 -0.0604507 -0.00116539  0.00367153 -0.0601243 -0.000594139  0.00353622 -0.0767174 -0.000608921  0.00866413 -0.0775862 -0.00101948  0.00856805 -0.0711554 -0.00121737  0.00351191 -0.0772425 -0.000530243  0.00361466 -0.0708243 -0.000632763  0.00857413 -0.0717179 -0.00106859  0.00358844 -0.0713764 -0.000550747  0.00331032 -0.088902 -0.000553608  0.00874972 -0.0897385 -0.000930786  0.00872457 -0.0830877 -0.00112343  0.00329018 -0.0893793 -0.000481129  0.00343943 -0.0827362 -0.000580311  0.00872314 -0.0835903 -0.000975609  0.00341308 -0.0832412 -0.000506878  0.00300312 -0.101604 -0.000506878  0.00872004 -0.102405 -0.000845909  0.00874627 -0.0955518 -0.00101948  0.00298119 -0.102033 -0.000442505  0.0031718 -0.0951873 -0.000533581  0.00874901 -0.0960099 -0.000886917  0.00314593 -0.095645 -0.000463009  0.00260806 -0.11476 -0.000463009  0.00858665 -0.115528 -0.000764847  0.00867379 -0.1085 -0.000921726  0.00259197 -0.115145 -0.000406265  0.00281584 -0.108123 -0.000487328  0.00866532 -0.108913 -0.000804901  0.00279534 -0.108535 -0.000425816  0.00215459 -0.128312 -0.000419617  0.0083499 -0.129051 -0.000685215  0.00848079 -0.12187 -0.000828743  0.0021348 -0.128654 -0.000365257  0.00239408 -0.121485 -0.000443459  0.00848162 -0.12224 -0.000726223  0.00237286 -0.121853 -0.000382423  0.00162601 -0.142219 -0.000374317  0.00803065 -0.142934 -0.000614643  0.00819409 -0.135618 -0.000745296  0.00161123 -0.142528 -0.000330448  0.00189936 -0.135227 -0.000398636  0.00820172 -0.135952 -0.000650406  0.00188124 -0.135549 -0.000344753  0.00103664 -0.156435 -0.000330925  0.00761771 -0.157111 -0.000537872  0.00783038 -0.149685 -0.000656605  0.00102091 -0.156697 -0.000286579  0.00133467 -0.149287 -0.000349998  0.00783348 -0.149988 -0.000575542  0.00132489 -0.149576 -0.000303745  0.000386477 -0.170899 -0.000290871  0.00713277 -0.171555 -0.000472546  0.00737929 -0.164045 -0.000578403  0.000377417 -0.171133 -0.000254154  0.000718117 -0.16363 -0.000313282  0.00738525 -0.164305 -0.000510216  0.000706673 -0.163881 -0.000271797  -0.000308037 -0.185583 -0.000258923  0.00657964 -0.186218 -0.000412464  0.00686407 -0.17864 -0.000510216  -0.000312805 -0.185789 -0.000227451  4.86374e-05 -0.178212 -0.000273228  0.00686336 -0.178864 -0.000444889  3.93391e-05 -0.178434 -0.000237465  -0.00104713 -0.200452 -0.000220299  0.00596404 -0.201063 -0.000357151  0.00627756 -0.193434 -0.000442505  -0.00105524 -0.200625 -0.000196934  -0.00066781 -0.192994 -0.000241756  0.00627947 -0.19362 -0.000387669  -0.000681162 -0.193184 -0.000210285  -0.00182247 -0.215471 -0.000190735  0.00528979 -0.216051 -0.00030756  0.00562477 -0.208379 -0.00037384  -0.00182772 -0.215605 -0.000166893  -0.00142837 -0.207938 -0.000207901  0.00563264 -0.20854 -0.000330448  -0.00143838 -0.208098 -0.000178337  -0.00263786 -0.230592 -0.000160694  0.00457096 -0.231158 -0.000252724  0.0049293 -0.22345 -0.000320911  -0.00263429 -0.23071 -0.000141144  -0.00222802 -0.223005 -0.000172615  0.00493526 -0.22359 -0.000278473  -0.00222564 -0.223141 -0.000150204  -0.00346708 -0.245789 -0.000132561  0.00380611 -0.246337 -0.000209808  0.00418401 -0.238626 -0.000261307  -0.00346446 -0.245885 -0.000115871  -0.00304961 -0.238174 -0.00014782  0.0041945 -0.238738 -0.000230312  -0.00304818 -0.238284 -0.000126839  -0.00431967 -0.261044 -0.000104904  0.0030179 -0.261575 -0.000169754  0.00340748 -0.253864 -0.000210762  -0.00432301 -0.261121 -9.25064e-05  -0.00388908 -0.25341 -0.000119686  0.00341439 -0.253949 -0.000186443  -0.00388956 -0.253494 -0.000104427  -0.005193 -0.276338 -8.58307e-05  0.00218797 -0.276848 -0.000132561  0.00259519 -0.269139 -0.000169754  -0.00519204 -0.276391 -7.72476e-05  -0.00475597 -0.268682 -9.48906e-05  0.00260568 -0.269211 -0.000145912  -0.00475597 -0.268754 -8.24928e-05  -0.00607872 -0.291634 -6.34193e-05  0.00134015 -0.292132 -0.000104904  0.00175691 -0.284432 -0.000128269  -0.00608182 -0.291674 -5.8651e-05  -0.00563097 -0.283979 -7.77245e-05  0.00176692 -0.284489 -0.000112057  -0.00563407 -0.284032 -6.34193e-05  -0.00698781 -0.306915 -5.05447e-05  0.000472069 -0.307415 -7.48634e-05  0.000899076 -0.299734 -0.00010252  -0.00697637 -0.306954 -4.43459e-05  -0.00653172 -0.299276 -6.00815e-05  0.000906229 -0.299775 -9.05991e-05  -0.00652814 -0.299318 -5.34058e-05  -0.00788236 -0.322188 -3.43323e-05  -0.000409126 -0.322662 -5.00679e-05  2.83718e-05 -0.315017 -7.15256e-05  -0.00788069 -0.322205 -3.00407e-05  -0.00743318 -0.314561 -4.24385e-05  3.14713e-05 -0.31504 -6.48499e-05  -0.00742769 -0.314581 -3.71933e-05  -0.00879526 -0.337416 -2.09808e-05  -0.00130129 -0.33789 -3.52859e-05  -0.000855684 -0.330257 -5.14984e-05  -0.00878668 -0.337431 -2.14577e-05  -0.00833678 -0.329802 -2.52724e-05  -0.000852585 -0.330278 -4.1008e-05  -0.0083344 -0.329819 -2.19345e-05  -0.00970221 -0.352608 -6.19888e-06  -0.00220346 -0.353071 -1.38283e-05  -0.00175953 -0.345474 -2.86102e-05  -0.00969863 -0.35261 -1.33514e-05  -0.00925016 -0.345018 -1.85966e-05  -0.00174999 -0.345482 -2.6226e-05  -0.00924301 -0.345028 -1.38283e-05  -0.0106206 -0.367745 3.33786e-06  -0.00311232 -0.368185 0  -0.00266314 -0.360629 -8.10623e-06  -0.010607 -0.36773 -2.38419e-06  -0.0101609 -0.360175 -7.62939e-06  -0.00265884 -0.360634 -9.53674e-06  -0.0101521 -0.360177 -8.58307e-06  -0.0115347 -0.382801 1.57356e-05  -0.00401258 -0.383243 1.19209e-05  -0.00357342 -0.375726 1.33514e-05  -0.0115218 -0.382783 1.09673e-05  -0.0110774 -0.375273 6.67572e-06  -0.00356221 -0.375724 9.05991e-06  -0.0110664 -0.375268 1.90735e-06  0.00175479 -0.000129163 -0.00224876  0 0 0  0.00184971 -0.00100929 -0.00240135  0.00115512 9.41753e-05 -0.00208139  0 0 0  0.00136352 -0.000654042 -0.00182581  0.000865914 0.000302494 -0.00157642  0 0 0  0.000697613 -0.000248969 -0.0014143  0.000510193 -4.38094e-05 -0.00107288  0.00337726 -0.00260592 -0.00280952  0.004309 -0.00387603 -0.00320625  0.0034413 -0.00160933 -0.00343132  0.00318819 -0.00335789 -0.00244093  0.00255185 -0.00113368 -0.0026083  0.00307421 -0.00226647 -0.00291252  0.00226681 -0.00180352 -0.00221586  0.00505197 -0.00669485 -0.00293112  0.00669542 -0.00807232 -0.00340176  0.00568178 -0.00501043 -0.00382423  0.00497934 -0.0075314 -0.0025754  0.00421423 -0.00446767 -0.00289822  0.00552216 -0.00581372 -0.00334358  0.00409555 -0.00527841 -0.00253725  0.00666595 -0.0121149 -0.00287819  0.00890881 -0.0135019 -0.00335979  0.00786531 -0.00978816 -0.00386381  0.00664729 -0.0129759 -0.00253725  0.00587207 -0.00924504 -0.0029192  0.00782385 -0.0106356 -0.00339746  0.00583369 -0.0101047 -0.00256348  0.00816119 -0.0187294 -0.00275373  0.0109362 -0.0200765 -0.00321007  0.00993794 -0.0158007 -0.00374317  0.0081656 -0.0195635 -0.00241756  0.00743067 -0.0152771 -0.00282001  0.00994432 -0.0166505 -0.00329161  0.00742769 -0.0161318 -0.00247765  0.00950181 -0.0264019 -0.0025878  0.0127805 -0.0276998 -0.00302172  0.0118518 -0.0229449 -0.00355387  0.00951958 -0.0271967 -0.00227404  0.0088535 -0.0224341 -0.00267649  0.0118787 -0.0237628 -0.00311852  0.0088653 -0.0232557 -0.0023489  0.0106865 -0.0350391 -0.00242043  0.0144247 -0.0362786 -0.00281763  0.0135835 -0.0311078 -0.00332499  0.0107116 -0.0357804 -0.00211763  0.0101106 -0.030604 -0.00250483  0.0136259 -0.0318792 -0.00291395  0.0101367 -0.0313794 -0.00219679  0.0117213 -0.0445526 -0.00224209  0.0158806 -0.0457293 -0.00260687  0.0151313 -0.0401852 -0.0030899  0.0117434 -0.0452355 -0.00195789  0.0112262 -0.0396858 -0.00233269  0.0151789 -0.0409016 -0.00270987  0.0112477 -0.0404048 -0.00203943  0.0125792 -0.0548434 -0.00206518  0.0171332 -0.0559666 -0.00239468  0.0164783 -0.0500929 -0.00285244  0.0126004 -0.0554751 -0.0018034  0.0121714 -0.0495982 -0.00215006  0.0165306 -0.0507547 -0.0024991  0.0121917 -0.0502602 -0.00188255  0.0132716 -0.0658394 -0.00190258  0.0181971 -0.066909 -0.0021944  0.0176436 -0.0607464 -0.00262356  0.0133002 -0.0664171 -0.00165796  0.0129484 -0.0602489 -0.00198174  0.0176901 -0.0613508 -0.00229454  0.0129701 -0.0608581 -0.00173187  0.0138211 -0.0774803 -0.00173378  0.019075 -0.0784962 -0.00200987  0.0186152 -0.0720721 -0.00240564  0.0138431 -0.0780032 -0.00151205  0.0135689 -0.0715774 -0.00181484  0.0186598 -0.0726305 -0.0021019  0.0135921 -0.0721363 -0.00158501  0.0142157 -0.0896828 -0.00157642  0.0197704 -0.0906582 -0.00182581  0.019401 -0.0840026 -0.00218725  0.0142366 -0.0901642 -0.00137472  0.0140351 -0.0835105 -0.00165844  0.019444 -0.084507 -0.00191641  0.0140564 -0.0840123 -0.00144482  0.0144676 -0.102408 -0.00142717  0.0203001 -0.10334 -0.00165319  0.0200151 -0.0964766 -0.00198555  0.0144862 -0.102839 -0.00124931  0.0143623 -0.0959813 -0.00150156  0.0200564 -0.0969359 -0.00173569  0.0143782 -0.0964394 -0.00131226  0.0145878 -0.115579 -0.00128937  0.0206654 -0.116463 -0.00148344  0.0204586 -0.10943 -0.00179195  0.014604 -0.115968 -0.00112438  0.0145414 -0.108934 -0.00136328  0.0205019 -0.109845 -0.00156593  0.0145606 -0.109349 -0.00118494  0.0145773 -0.129155 -0.00115967  0.0208799 -0.13 -0.00133419  0.0207556 -0.122817 -0.00161123  0.0145962 -0.129501 -0.00101089  0.0145994 -0.122318 -0.00122547  0.0207908 -0.123184 -0.00140572  0.0146147 -0.122685 -0.00106478  0.0144501 -0.143079 -0.00103378  0.020963 -0.143884 -0.00118399  0.0208982 -0.136571 -0.00143719  0.0144734 -0.143385 -0.000900745  0.0145296 -0.136068 -0.00109529  0.0209379 -0.136901 -0.0012598  0.0145493 -0.136402 -0.00095892  0.0142188 -0.157296 -0.000909805  0.0209033 -0.158075 -0.00104189  0.0209067 -0.150648 -0.00126934  0.0142393 -0.157574 -0.000797272  0.0143468 -0.150148 -0.000968456  0.0209477 -0.15094 -0.00111437  0.0143685 -0.150441 -0.00084877  0.013895 -0.171787 -0.000796318  0.0207291 -0.172519 -0.000918388  0.0207949 -0.165005 -0.00111532  0.0139155 -0.17202 -0.000699997  0.01407 -0.164505 -0.000853539  0.0208294 -0.165262 -0.000974655  0.0140877 -0.164764 -0.000742912  0.013479 -0.186487 -0.000684261  0.0204427 -0.187186 -0.000789165  0.0205655 -0.179606 -0.000974655  0.0134933 -0.186685 -0.000597  0.0136902 -0.179107 -0.000738144  0.0205986 -0.179826 -0.000849724  0.0137136 -0.179327 -0.000645638  0.0129728 -0.201358 -0.000591755  0.0200603 -0.202027 -0.000676155  0.0202272 -0.194396 -0.00082922  0.0129967 -0.20153 -0.000519753  0.013236 -0.193898 -0.000635147  0.0202608 -0.194584 -0.000728607  0.0132546 -0.194086 -0.000559807  0.0124032 -0.216376 -0.000502586  0.0195854 -0.217013 -0.000577927  0.019794 -0.209342 -0.000716686  0.0124283 -0.21652 -0.000437737  0.012702 -0.208851 -0.000543594  0.019834 -0.209506 -0.000622749  0.0127194 -0.209011 -0.000473499  0.0117624 -0.231502 -0.000414848  0.0190399 -0.232117 -0.00047636  0.0192816 -0.224419 -0.000602245  0.0117915 -0.231627 -0.000362396  0.0120895 -0.223922 -0.000458241  0.0193202 -0.224554 -0.000524998  0.0121179 -0.22406 -0.000400543  0.0110815 -0.246711 -0.000344276  0.0184181 -0.247298 -0.000385761  0.0186977 -0.239585 -0.000492096  0.0111015 -0.246807 -0.00029707  0.011431 -0.2391 -0.00038147  0.018739 -0.239698 -0.000427246  0.0114522 -0.239207 -0.000329971  0.0103428 -0.261972 -0.000279427  0.0177343 -0.262533 -0.000315189  0.0180483 -0.254819 -0.000398159  0.0103631 -0.262048 -0.000241756  0.0107179 -0.254332 -0.00030899  0.0180855 -0.254908 -0.000346661  0.0107391 -0.254423 -0.00026989  0.00956798 -0.277265 -0.0002141  0.0169992 -0.277802 -0.000247002  0.0173464 -0.270093 -0.000313759  0.00958705 -0.27732 -0.000184536  0.00996137 -0.269609 -0.000249386  0.0173759 -0.270162 -0.000274181  0.0099833 -0.26968 -0.000212193  0.00875306 -0.292557 -0.000163555  0.0162208 -0.293079 -0.000179291  0.0165946 -0.285388 -0.00024128  0.00877166 -0.292603 -0.000142574  0.00916529 -0.284903 -0.000185013  0.0166156 -0.285438 -0.000211239  0.00918388 -0.284958 -0.000163078  0.00791907 -0.307848 -0.000123024  0.0154052 -0.308351 -0.000131607  0.0157979 -0.300677 -0.000179291  0.0079329 -0.307881 -0.000103951  0.00833726 -0.300201 -0.000146389  0.0158191 -0.300712 -0.000156403  0.00835752 -0.300237 -0.000125408  0.00705099 -0.323109 -8.01086e-05  0.0145617 -0.323597 -9.15527e-05  0.0149684 -0.315957 -0.000127792  0.00707078 -0.323128 -7.29561e-05  0.00748587 -0.315479 -9.67979e-05  0.0149817 -0.315978 -0.000108242  0.00750375 -0.315506 -8.67844e-05  0.00618148 -0.338338 -5.29289e-05  0.0136938 -0.338809 -5.24521e-05  0.014107 -0.331192 -8.29697e-05  0.00618982 -0.338347 -4.62532e-05  0.00661659 -0.330723 -6.10352e-05  0.0141304 -0.33121 -7.10487e-05  0.00663543 -0.330743 -5.62668e-05  0.00528646 -0.353521 -2.57492e-05  0.0128088 -0.353986 -2.6226e-05  0.0132403 -0.346393 -4.33922e-05  0.00529814 -0.353528 -2.24113e-05  0.00572944 -0.345931 -3.76701e-05  0.0132511 -0.346403 -3.86238e-05  0.00574589 -0.345941 -3.29018e-05  0.00438523 -0.368649 1.43051e-06  0.0119138 -0.36911 -9.53674e-07  0.0123534 -0.361545 -1.28746e-05  0.00439811 -0.368644 -9.53674e-07  0.00483966 -0.361089 -1.52588e-05  0.0123603 -0.361552 -1.04904e-05  0.004848 -0.361092 -1.09673e-05  0.00348139 -0.383714 2.0504e-05  0.0110126 -0.384173 2.76566e-05  0.0114512 -0.37664 1.04904e-05  0.00350237 -0.383705 2.14577e-05  0.00393486 -0.376179 1.09673e-05  0.0114641 -0.376646 1.04904e-05  0.0039444 -0.376187 9.05991e-06  0.00303142 -0.00100869 -0.0036397  0 0 0  0.0030532 -0.00221461 -0.00343084  0.00180494 -0.000668228 -0.003016  0 0 0  0.00240916 -0.00150901 -0.0029335  0.00145843 -0.000218809 -0.00253963  0 0 0  0.00115565 -0.000999331 -0.00202465  0.000896282 -0.000549793 -0.00172615  0.00584179 -0.00380725 -0.00455189  0.00691557 -0.00535023 -0.00464439  0.00556172 -0.00301534 -0.00496197  0.0055441 -0.00454152 -0.00393915  0.00442979 -0.00222915 -0.00420904  0.0050309 -0.00368172 -0.00419092  0.00398274 -0.00288045 -0.00356388  0.00861475 -0.00790846 -0.00480032  0.0104434 -0.00951505 -0.00499487  0.00893629 -0.00646728 -0.00561142  0.00850961 -0.00873637 -0.00421  0.00723803 -0.00568533 -0.0047245  0.00871146 -0.00727963 -0.0048871  0.00705451 -0.00648499 -0.00412464  0.0112681 -0.0132945 -0.00475025  0.0137211 -0.014892 -0.00497961  0.0121642 -0.0111926 -0.00572968  0.0112588 -0.0141413 -0.00417185  0.00995901 -0.0104401 -0.00479603  0.012109 -0.0120545 -0.00502348  0.0099093 -0.011291 -0.00421476  0.0137601 -0.0198651 -0.00455141  0.0167677 -0.0214306 -0.00477934  0.0152411 -0.0171682 -0.00557566  0.0137968 -0.0206995 -0.00399828  0.0125392 -0.016432 -0.00466633  0.0152752 -0.0180188 -0.00489473  0.0125542 -0.0172805 -0.00410032  0.0160592 -0.0275169 -0.00428867  0.0195741 -0.029019 -0.00450039  0.0181304 -0.0242817 -0.00529909  0.0161221 -0.0283089 -0.00376225  0.0149364 -0.0235602 -0.00442696  0.0182022 -0.0250961 -0.00464773  0.0149874 -0.0243772 -0.00388432  0.0181508 -0.0361384 -0.00399733  0.022131 -0.0375743 -0.00419569  0.020803 -0.032414 -0.0049696  0.0182245 -0.0368786 -0.00350237  0.0171352 -0.0317084 -0.00414705  0.0208852 -0.0331825 -0.00435209  0.0172006 -0.032482 -0.00363493  0.0200288 -0.0456331 -0.00370264  0.0244229 -0.0470028 -0.00387669  0.0232121 -0.0414668 -0.00460911  0.0201005 -0.0463204 -0.00324011  0.0191185 -0.0407802 -0.00385332  0.0233098 -0.0421817 -0.004035  0.0191922 -0.0414928 -0.00337219  0.0216774 -0.0559107 -0.00341702  0.0264659 -0.0572185 -0.00356913  0.0253849 -0.051352 -0.00425625  0.0217488 -0.0565489 -0.00298691  0.0208824 -0.0506755 -0.00356007  0.0254767 -0.0520108 -0.00372458  0.0209523 -0.0513384 -0.00311375  0.0231045 -0.0669085 -0.00313377  0.0282433 -0.068144 -0.00327206  0.0272937 -0.0619876 -0.0039053  0.0231711 -0.0674871 -0.00273514  0.0224169 -0.0613263 -0.00326681  0.0273896 -0.0625958 -0.00342131  0.0224868 -0.0619329 -0.00285864  0.0243148 -0.078541 -0.00285673  0.0297825 -0.0797107 -0.00298405  0.0289634 -0.0732953 -0.00357151  0.0243775 -0.0790685 -0.00249529  0.0237362 -0.0726396 -0.00298929  0.0290431 -0.0738515 -0.00312519  0.0238045 -0.0731999 -0.00261497  0.0253152 -0.0907463 -0.00259924  0.0310744 -0.0918574 -0.00271559  0.0303726 -0.0852062 -0.00325632  0.0253803 -0.0912271 -0.00227022  0.0248412 -0.0845654 -0.00272465  0.030458 -0.0857153 -0.00284815  0.0249048 -0.0850754 -0.0023818  0.0261166 -0.103465 -0.00234222  0.0321432 -0.104518 -0.00244856  0.0315547 -0.09767 -0.00295591  0.0261798 -0.103897 -0.00204611  0.02574 -0.0970414 -0.00247145  0.0316366 -0.0981281 -0.00258446  0.0258052 -0.0974988 -0.00215673  0.0267342 -0.11663 -0.00211191  0.0329968 -0.11764 -0.00220585  0.0325187 -0.110613 -0.00266171  0.0267925 -0.117025 -0.00184107  0.0264449 -0.109995 -0.00222921  0.0325943 -0.111022 -0.00232744  0.0265085 -0.110405 -0.00194407  0.0271732 -0.130208 -0.00189114  0.0336493 -0.131157 -0.00196743  0.0332738 -0.123974 -0.00238609  0.0272237 -0.130552 -0.0016551  0.026974 -0.123365 -0.00199986  0.033348 -0.124349 -0.00208139  0.0270294 -0.12374 -0.00174522  0.0274389 -0.144127 -0.00168228  0.0341132 -0.145024 -0.00175476  0.0338305 -0.137717 -0.00212765  0.0274975 -0.14443 -0.00147104  0.027323 -0.137119 -0.00178671  0.033902 -0.138049 -0.00186253  0.0273798 -0.137448 -0.00156116  0.0275614 -0.158343 -0.00147152  0.0343978 -0.159201 -0.00153732  0.0342002 -0.151786 -0.00188065  0.027616 -0.158618 -0.00129461  0.0275168 -0.151198 -0.00157738  0.0342779 -0.152077 -0.00164557  0.0275784 -0.151486 -0.00137806  0.0275424 -0.172823 -0.00128937  0.0345201 -0.173627 -0.00133896  0.03441 -0.16613 -0.00164223  0.0275934 -0.173053 -0.00113106  0.0275695 -0.16555 -0.0013833  0.0344799 -0.166384 -0.00143719  0.0276225 -0.165802 -0.0012064  0.0273921 -0.187514 -0.00112057  0.0344949 -0.188276 -0.00116158  0.0344584 -0.180709 -0.00142765  0.0274386 -0.187714 -0.000972748  0.0274789 -0.180138 -0.00119972  0.0345223 -0.180929 -0.00125217  0.0275326 -0.18036 -0.00105  0.0271158 -0.202383 -0.000953674  0.0343306 -0.203107 -0.000989437  0.0343699 -0.19548 -0.00122881  0.0271676 -0.20255 -0.000834942  0.0272703 -0.194922 -0.00103664  0.0344279 -0.195674 -0.00107718  0.0273194 -0.195115 -0.000905037  0.0267448 -0.217394 -0.0008111  0.0340428 -0.218079 -0.000835896  0.0341394 -0.210414 -0.00104284  0.0267906 -0.217535 -0.000703812  0.0269365 -0.209867 -0.000876904  0.0342021 -0.210573 -0.000911236  0.0269923 -0.210025 -0.000767231  0.0262709 -0.232502 -0.000667095  0.0336435 -0.233163 -0.00069809  0.0338023 -0.225472 -0.000869751  0.026319 -0.23263 -0.000584602  0.0265226 -0.224936 -0.000741005  0.0338576 -0.225609 -0.000760078  0.026567 -0.225071 -0.000647545  0.0257161 -0.247705 -0.00054884  0.0331507 -0.248325 -0.00056982  0.0333619 -0.240626 -0.000721931  0.0257595 -0.247804 -0.000476837  0.0260067 -0.240095 -0.00060463  0.0334096 -0.240732 -0.000627995  0.0260506 -0.240205 -0.00053072  0.0250945 -0.262958 -0.000441551  0.0325654 -0.263543 -0.00044775  0.0328245 -0.25584 -0.000575542  0.0251319 -0.263031 -0.000381947  0.0254166 -0.255321 -0.000491619  0.032867 -0.255927 -0.000504971  0.0254538 -0.255411 -0.000427246  0.0244031 -0.278244 -0.000333309  0.0319116 -0.278798 -0.000347614  0.0322034 -0.271099 -0.000452042  0.0244374 -0.278293 -0.000290871  0.0247583 -0.27059 -0.000386715  0.032248 -0.271166 -0.000394821  0.0247948 -0.270657 -0.00033617  0.023658 -0.29352 -0.000257015  0.031188 -0.294056 -0.000259876  0.0315189 -0.286373 -0.0003438  0.023689 -0.293562 -0.000221729  0.0240364 -0.285875 -0.000289917  0.0315545 -0.286424 -0.000298023  0.0240695 -0.285929 -0.000258446  0.022867 -0.308805 -0.000180244  0.030411 -0.309316 -0.000180721  0.0307698 -0.301657 -0.000249386  0.0228958 -0.30883 -0.000161171  0.0232689 -0.301163 -0.000221729  0.0308089 -0.301688 -0.000220299  0.0232966 -0.301196 -0.000192165  0.0220461 -0.324057 -0.00012064  0.0295925 -0.324554 -0.000123024  0.0299804 -0.316907 -0.00017643  0.0220671 -0.324073 -0.000106335  0.0224588 -0.316427 -0.000154495  0.0300059 -0.316934 -0.000152111  0.0224843 -0.316454 -0.0001297  0.021188 -0.339265 -6.96182e-05  0.0287371 -0.339753 -7.10487e-05  0.0291462 -0.332139 -0.000107765  0.0212076 -0.339281 -5.81741e-05  0.0216219 -0.331667 -9.82285e-05  0.0291691 -0.332158 -9.34601e-05  0.021641 -0.331683 -8.24928e-05  0.0203156 -0.354451 -3.76701e-05  0.0278561 -0.354915 -4.00543e-05  0.0282815 -0.347329 -5.8651e-05  0.0203273 -0.354454 -2.81334e-05  0.0207534 -0.346859 -5.76973e-05  0.0283022 -0.347342 -5.43594e-05  0.0207686 -0.346873 -4.72069e-05  0.0194154 -0.369569 4.76837e-07  0.0269637 -0.370028 -2.38419e-06  0.0273974 -0.362469 -2.67029e-05  0.0194328 -0.36957 -9.53674e-07  0.0198715 -0.362005 -1.90735e-05  0.0274131 -0.362476 -2.19345e-05  0.0198812 -0.362014 -1.57356e-05  0.0185165 -0.384636 3.67165e-05  0.0260615 -0.385106 2.28882e-05  0.026489 -0.377571 7.62939e-06  0.0185308 -0.38464 2.71797e-05  0.0189681 -0.377108 1.19209e-05  0.0265114 -0.377575 3.33786e-06  0.0189819 -0.37711 9.53674e-06  0.00479384 -0.00265014 -0.00490713  0 0 0  0.00511344 -0.00445157 -0.00440598  0.00303012 -0.00262469 -0.00375605  0 0 0  0.00394252 -0.00324851 -0.00391388  0.00223566 -0.00138503 -0.00334263  0 0 0  0.00226699 -0.00292385 -0.0025897  0.00147273 -0.00170445 -0.00227404  0.00881788 -0.00547624 -0.00621414  0.0100496 -0.00731862 -0.00610733  0.0082265 -0.00489712 -0.00651932  0.00842622 -0.00628769 -0.0053525  0.0068634 -0.00393057 -0.00571156  0.00763576 -0.00574774 -0.00547171  0.00626758 -0.0046587 -0.00480747  0.0126304 -0.00952929 -0.00664711  0.0146731 -0.011393 -0.00662136  0.0126332 -0.00828022 -0.00745821  0.0124963 -0.0104038 -0.00579691  0.0107365 -0.00733125 -0.00650978  0.0123882 -0.00920129 -0.00645638  0.0104946 -0.00818843 -0.00565052  0.0163046 -0.0148802 -0.00660849  0.0190409 -0.0167174 -0.00660944  0.0169484 -0.0129928 -0.00762558  0.0163096 -0.0157485 -0.00578833  0.0144874 -0.0120438 -0.0066638  0.016891 -0.0139049 -0.00666046  0.014432 -0.012924 -0.00583172  0.0198046 -0.0214316 -0.00634146  0.0231335 -0.0232044 -0.00634527  0.0210924 -0.0189486 -0.0074234  0.0198721 -0.0222631 -0.00556374  0.0180869 -0.0180088 -0.00649405  0.0211259 -0.0198192 -0.00649881  0.018123 -0.0188623 -0.00569487  0.0230669 -0.0290419 -0.00597715  0.0269217 -0.0307515 -0.00597382  0.0249785 -0.0260199 -0.0070467  0.0231634 -0.0298318 -0.00524044  0.0214645 -0.0250989 -0.00616884  0.0250691 -0.0268502 -0.00616884  0.0215529 -0.0259191 -0.00540876  0.0260586 -0.0376331 -0.00556898  0.0303805 -0.0392633 -0.00555944  0.0285823 -0.0341243 -0.00658989  0.0261695 -0.0383714 -0.00487709  0.0245962 -0.0332205 -0.00577545  0.0286924 -0.034893 -0.00576878  0.0247018 -0.0339875 -0.00506163  0.028774 -0.047097 -0.00515604  0.0335099 -0.0486469 -0.00514221  0.0318747 -0.0431295 -0.00611687  0.028888 -0.0477761 -0.00451279  0.0274553 -0.0422536 -0.00536585  0.0319872 -0.0438471 -0.00535154  0.0275656 -0.0429665 -0.00469303  0.0312015 -0.0573443 -0.00474977  0.0363133 -0.0588118 -0.00473881  0.034849 -0.0529805 -0.00564337  0.0313122 -0.0579712 -0.00415802  0.0300239 -0.0521178 -0.00495338  0.0349544 -0.0536361 -0.00493908  0.030138 -0.0527794 -0.00433779  0.0333389 -0.0683067 -0.00435352  0.0387948 -0.0697012 -0.00432825  0.0374755 -0.0635698 -0.00517797  0.033444 -0.0688823 -0.00380707  0.0323057 -0.0627418 -0.00454712  0.0375926 -0.0641719 -0.00453329  0.0324131 -0.0633418 -0.00397539  0.0351928 -0.0799122 -0.00397348  0.0409639 -0.0812284 -0.00395679  0.0398188 -0.0748378 -0.0047369  0.0352988 -0.0804337 -0.00347328  0.0342971 -0.0740287 -0.00416231  0.0399177 -0.0753844 -0.00414228  0.0344058 -0.0745812 -0.00363827  0.0367799 -0.0920905 -0.00360107  0.0428357 -0.0933341 -0.00358772  0.0418296 -0.0867144 -0.00430107  0.0368836 -0.0925589 -0.00315285  0.0360276 -0.0859236 -0.00378036  0.0419359 -0.0872117 -0.0037694  0.036126 -0.0864254 -0.00331163  0.0381181 -0.104781 -0.00325441  0.0444231 -0.105959 -0.00324011  0.0435611 -0.0991289 -0.00389624  0.0382185 -0.105205 -0.00284243  0.0374755 -0.0983632 -0.0034318  0.0436662 -0.0995814 -0.00341177  0.0375798 -0.0988228 -0.00299931  0.0392094 -0.117918 -0.00292873  0.0457405 -0.119031 -0.00291538  0.0450169 -0.112032 -0.00351763  0.0393054 -0.118307 -0.002563  0.038694 -0.111291 -0.00308657  0.0451134 -0.112439 -0.00307989  0.0387921 -0.111702 -0.00269842  0.0400794 -0.131472 -0.00261593  0.0468007 -0.132524 -0.00259829  0.0462102 -0.125362 -0.00315237  0.0401667 -0.131814 -0.00228739  0.0396731 -0.124639 -0.00276899  0.0463029 -0.125726 -0.00275993  0.039763 -0.125012 -0.00242043  0.0407338 -0.145367 -0.00232506  0.0476274 -0.146355 -0.00230598  0.0471663 -0.139074 -0.00279379  0.0408177 -0.145668 -0.0020318  0.0404358 -0.138374 -0.00246716  0.0472459 -0.139396 -0.00244808  0.0405163 -0.138694 -0.00215483  0.0411782 -0.159553 -0.00204134  0.0482373 -0.16049 -0.00203133  0.0478652 -0.153092 -0.00247335  0.0412636 -0.159823 -0.0017848  0.0409834 -0.152418 -0.00217915  0.0479567 -0.15339 -0.00216579  0.0410626 -0.152712 -0.00190783  0.0414493 -0.174008 -0.00177956  0.0486326 -0.174888 -0.00176477  0.0483818 -0.167411 -0.00216293  0.0415285 -0.174239 -0.00155926  0.0413404 -0.166751 -0.00190735  0.0484605 -0.167658 -0.00189638  0.0414162 -0.167002 -0.00166798  0.0415463 -0.188674 -0.0015378  0.0488472 -0.189504 -0.00152445  0.0486832 -0.18195 -0.00188541  0.0416236 -0.188875 -0.00134516  0.0415213 -0.181313 -0.00165653  0.0487561 -0.182169 -0.00164652  0.0415943 -0.181533 -0.00144768  0.0414927 -0.203512 -0.00131607  0.0488782 -0.204297 -0.00130463  0.0488081 -0.196696 -0.00160742  0.0415614 -0.20369 -0.00115204  0.0415375 -0.196071 -0.0014267  0.0488789 -0.196879 -0.00141287  0.0416121 -0.196261 -0.00124645  0.0412915 -0.218507 -0.00110626  0.0487573 -0.219237 -0.00109434  0.0487661 -0.211595 -0.00137234  0.0413618 -0.218645 -0.000971794  0.0414071 -0.210988 -0.00120974  0.0488358 -0.211747 -0.00119734  0.0414791 -0.211149 -0.00105619  0.0409656 -0.233602 -0.000923634  0.048492 -0.234287 -0.00090456  0.0485749 -0.226608 -0.00114918  0.0410311 -0.233714 -0.000804424  0.0411499 -0.226032 -0.00101423  0.0486419 -0.226748 -0.0010047  0.0412102 -0.226168 -0.000885487  0.0405319 -0.248773 -0.000752926  0.0480995 -0.249418 -0.000734329  0.0482407 -0.24174 -0.000937939  0.040591 -0.24886 -0.00065279  0.0407572 -0.241165 -0.000829697  0.0483103 -0.24184 -0.00082016  0.0408244 -0.241279 -0.0007267  0.0399983 -0.263996 -0.000589848  0.0475941 -0.264596 -0.000585556  0.0478072 -0.256913 -0.000761986  0.0400512 -0.264066 -0.000516891  0.0402763 -0.256368 -0.000665665  0.0478592 -0.257007 -0.000658035  0.0403371 -0.256464 -0.000580788  0.0393727 -0.279256 -0.000455856  0.046983 -0.279828 -0.00044632  0.0472517 -0.27215 -0.000591278  0.0394251 -0.279309 -0.000398636  0.0396962 -0.271618 -0.000522614  0.0473003 -0.272213 -0.000519753  0.039748 -0.271685 -0.000458717  0.0386753 -0.29452 -0.000338078  0.0462992 -0.295073 -0.000328541  0.0466027 -0.287395 -0.000444889  0.0387194 -0.294563 -0.000296593  0.0390329 -0.286879 -0.000391483  0.0466456 -0.28745 -0.000389099  0.0390782 -0.286935 -0.000343323  0.03791 -0.309784 -0.000233173  0.0455308 -0.310304 -0.000225067  0.045891 -0.302659 -0.000309467  0.0379529 -0.309809 -0.000206947  0.0383079 -0.302155 -0.000282288  0.0459259 -0.302687 -0.000276089  0.0383432 -0.302186 -0.000247955  0.0371161 -0.325019 -0.000153065  0.0447114 -0.325513 -0.000151634  0.0450995 -0.317893 -0.000206947  0.0371382 -0.325034 -0.000132561  0.037519 -0.317398 -0.00019455  0.0451267 -0.317908 -0.000185013  0.037549 -0.317421 -0.000166893  0.0362561 -0.340219 -9.01222e-05  0.0438569 -0.340699 -8.63075e-05  0.044265 -0.333095 -0.000123501  0.036283 -0.340224 -7.96318e-05  0.0366931 -0.332618 -0.000119686  0.0442836 -0.333108 -0.000110149  0.0367155 -0.332632 -0.000103474  0.0353813 -0.355382 -4.57764e-05  0.0429549 -0.355841 -3.38554e-05  0.0433865 -0.348274 -5.48363e-05  0.0353999 -0.355379 -4.00543e-05  0.0358207 -0.347804 -6.4373e-05  0.0434091 -0.348279 -5.8651e-05  0.0358467 -0.34781 -5.43594e-05  0.0344894 -0.370497 -1.43051e-05  0.042043 -0.370953 -1.38283e-05  0.0424943 -0.363394 -1.57356e-05  0.0345008 -0.37049 -1.00136e-05  0.0349364 -0.362933 -2.38419e-05  0.0424981 -0.363399 -2.28882e-05  0.0349519 -0.362937 -2.28882e-05  0.033577 -0.385577 2.28882e-05  0.041132 -0.386036 6.19888e-06  0.0415781 -0.378501 3.33786e-06  0.0335922 -0.385576 1.52588e-05  0.0340347 -0.378035 1.43051e-06  0.0415871 -0.378493 -9.53674e-07  0.0340471 -0.378036 3.8147e-06  
SCALARS smooth_stress float 1
LOOKUP_TABLE default
118.85 212.91 188.725 197.665 197.555 183 174.229 169.627 162.994 136.521 121.524 127.03 127.723 132.19 129.248 114.729 124.526 118.701 98.8762 96.8993 91.5856 96.2412 95.5316 104.5 102.783 100.2 95.6081 100.451 100.086 88.5612 101.801 90.1443 37.7243 189.644 371.026 362.272 373.347 356.15 324.212 328.476 321.786 306.52 258.515 234.731 245.999 241.312 250.254 251.018 240.852 261.436 238.65 195.782 189.853 184.489 206.706 195.059 189.875 177.96 170.999 185.666 194.804 190.019 165.442 176.886 164.061 68.9633 142.043 302.321 300.048 298.681 293.2 258.97 260.653 266.023 259.503 238.377 228.023 226.812 222.586 215.175 217.118 230.821 238.772 219.949 194.348 193.908 183.203 193.996 197.768 182.149 159.839 154.05 162.512 170.934 187.123 166.302 153.481 152.446 70.6942 122.962 231.29 219.308 247.147 250.241 226.171 218.606 218.947 224.247 222.472 217.272 203.717 203.612 206.853 201.502 200.621 207.771 197.448 188.049 213.992 196.187 170.736 191.466 190.129 169.333 167.104 152.053 145.817 165.473 162.377 147.784 154.264 83.2163 96.1163 178.096 189.874 222.549 207.265 197.843 215.135 210.877 214.128 212.221 194.799 195.349 201.272 204.03 198.342 188.173 199.632 203.564 182.944 196.246 194.338 171.719 173.317 180.966 187.83 164.501 158.512 168.951 145.239 140.806 142.763 133.104 67.4899 104.654 204.28 202.453 205.989 200.072 204.365 233.165 220.062 204.586 210.93 199.089 201.279 210.847 196.57 188.502 192.826 201.254 215.017 181.381 173.693 194.741 179.617 154.454 170.193 187.427 169.004 179.715 180.9 158.929 152.813 156.832 152.397 71.8324 131.851 267.094 275.371 256.139 235.549 262.656 274.004 256.197 250.295 233.599 217.565 216.067 215.978 205.041 200.844 202.877 212.734 201.08 175.145 187.564 202.639 191.89 155.683 156.824 164.143 171.748 193.776 171.181 173.771 172.523 160.513 167.398 80.0176 150.758 315.055 335.525 312.961 282.346 291.803 291.12 284.519 278.829 261.662 250.83 244.837 233.002 221.932 218.848 216.491 223.2 197.665 183.224 209.345 198.891 179.729 165.098 167.122 173.907 168.829 174.796 184.493 191.165 187.057 173.87 145.086 63.1742 79.158 161.23 165.54 164.411 155.241 144.082 147.346 142.59 127.264 132.862 140.011 130.574 121.214 119.172 114.318 114.19 117.996 105.485 97.1223 112.265 102.544 82.9412 83.7773 92.88 94.0328 85.4389 81.8223 94.4966 99.3678 99.4974 96.8138 72.7152 31.2603 221.573 416.423 391.865 396.086 378.283 358.534 340.097 328.306 323.937 287.853 256.518 271.221 277.732 265.275 251.862 235.249 244.005 240.282 222.962 216.92 197.932 191.573 201.144 206.577 191.552 178.581 176.467 191.006 183.388 178.797 212.6 187.221 77.9863 363.169 726.535 747.041 738.13 685.975 658.898 635.631 606.857 584.172 530.008 496.554 508.958 503.461 496.227 481.429 465.865 493.206 467.658 422.965 411.66 389.884 398.662 405.895 412.702 370.035 335.942 354.452 380.868 376.58 351.209 369.641 331.88 141.968 273.299 571.072 605.375 602.929 571.15 535.001 526.357 516.617 497.174 473.212 459.353 458.953 442.512 428.087 429.748 436.524 451.19 412.984 384.525 388.974 361.246 368.077 390.211 395.992 347.64 320.253 335.787 348.499 372.064 337.374 302.214 302.564 147.267 226.713 437.922 450.32 502.975 489.56 455.447 457.345 442.873 439.51 442.161 427.521 420.521 424.706 406.616 400.677 407.463 402.609 373.247 372.534 396.015 350.808 331.786 364.023 372.158 354.512 333.222 324.145 317.042 326.264 318.522 289.326 308.946 166.343 183.546 366.703 403.914 440.183 429.967 415.841 427.163 421.623 411.348 410.264 388.034 377.176 405.607 404.896 394.202 395.026 382.89 399.908 385.199 378.878 361.517 319.502 327.791 362.086 370.392 324.635 319.841 340.336 312.021 293.641 291.25 293.633 149.646 192.027 421.496 453.41 434.312 429.064 423.25 464.504 450.716 399.841 411.804 395.967 374.607 395.942 404.033 393.222 391.603 393.353 411.443 369.177 356.307 374.399 332.717 314.87 359.096 368.566 338.562 329.26 339.515 343.63 322.787 317.922 328.519 165.613 236.668 532.906 577.445 519.585 478.038 505.01 541.66 512.579 483.02 483.374 443.114 417.721 422.26 418.81 411.507 396.137 403.721 377.756 359.139 379.059 381.648 371.701 327.392 324.616 331.877 340.106 345.275 340.57 367.926 351.673 327.651 334.64 167.903 295.756 641.863 672.863 620.806 575.785 578.453 595.128 585.152 557.568 534.485 497.479 468.233 467.951 458.055 424.837 405.701 416.012 384.805 391.256 424.271 386.978 360.767 337.032 321.643 334.411 336.84 332.681 361.739 367.19 353.92 340.795 290.017 133.026 162.577 340.712 345.033 337.44 322.948 301.66 317.332 306.473 265.612 263.756 270.502 247.248 243.949 247.863 212.844 207.697 223.373 206.223 204.108 224.422 199.726 173.08 175.282 176.33 186.063 180.991 163.168 178.753 178.266 184.952 183.97 141.305 64.1489 203.918 402.719 413.139 404.507 361.526 349.679 339.924 312.028 292.647 287.799 276.859 277.599 284.49 273.717 244.362 234.075 236.472 229.002 217.129 215.692 218.702 197.235 193.794 192.17 172.534 156.171 168.897 169.447 156.398 169.487 188.636 179.621 81.5231 333.307 695.111 770.961 751.854 664.714 665.927 651.514 585.001 555.966 540.425 521.092 514.613 504.969 495.669 454.78 449.963 458.719 424.805 409.481 409.798 406.658 391.666 405.739 422.176 388.808 347.252 334.737 342.084 336.087 339.982 352.757 335.979 162.017 242.698 539.726 616.456 604.69 548.965 549.7 565.614 531.388 513.111 482.729 444.007 438.651 432.293 431.29 413.415 416.922 417.182 371.29 374.217 377.56 365.399 374.353 381.899 405.546 379.897 347.647 338.279 335.427 345.323 321.933 283.326 301.787 168.56 203.046 443.798 479.919 467.008 445.033 448.65 484.956 481.525 457.34 433.413 409.471 413.962 427 406.651 385.346 398.938 382.368 360.18 381.874 361.987 324.216 346.365 339.299 333.483 349.658 336.598 343.795 328.452 330.68 329.186 276.066 302.384 172.516 178.339 396.993 442.605 413.328 415.627 429.245 430.124 432.186 408.87 405.463 408.404 379.697 388.992 381.365 357.595 383.628 358.792 366.926 405.543 370.092 303.899 303.874 325.941 332.898 352.011 332.62 309.789 329.238 352.005 330.707 296.859 324.271 177.132 174.347 419.196 500.764 467.875 455.734 459.009 452.244 441.109 403.267 425.831 425.081 358.957 362.556 396.076 385.452 376.684 364.154 361.344 375.879 377.362 332.283 299.705 326.243 358.62 363.977 332.159 289.002 323.998 368.175 339.682 304.28 324.669 178.836 211.11 501.443 597.687 562.734 516.83 521.342 521.411 485.387 471.083 498.678 460.394 413.895 429.045 439.866 411.602 398.94 398.659 381.133 387.455 386.464 339.867 321.655 345.915 362.614 358.168 330.835 317.587 353.833 368.426 357.2 328.098 317.141 169.822 295.291 639.918 675.812 653.482 619.897 598.016 599.927 576.523 579.054 566.937 503.823 482.05 501.065 465.913 409.956 419.925 432.373 427.521 431.984 404.5 356.837 355.775 354.244 329.836 330.125 335.667 338.042 362.544 351.188 345.862 340.458 320.419 164.811 169.925 357.142 357.568 354.959 342.431 321.636 331.567 323.169 309.916 291.936 269.803 259.741 260.771 238.071 208.56 211.947 226.509 225.498 214.874 203.839 192.127 196.394 177.977 150.888 169.956 184.404 171.023 169.134 163.978 175.385 176.643 160.631 81.1429 213.894 412.453 407.543 416.145 386.923 366.011 371.887 328.921 273.531 265.593 287.114 278.21 267.57 284.503 269.023 244.431 218.878 199.054 193.925 201.23 213.729 195.005 175.198 172.039 166.304 168.333 179.931 155.272 139.834 158.877 161.743 166.032 85.0817 353.561 713.907 739.618 755.164 701.389 663.548 685.256 624.548 553.309 519.39 528.18 519.486 483.036 507.753 494.413 477.026 444.647 396.888 393.519 388.317 379.917 374.448 369.958 367.848 365.78 354.089 329.295 299.128 284.338 295.961 302.395 314.183 163.077 240.713 545.682 608.441 602.362 552.959 533.919 577.901 547.476 518.051 489.95 460.885 442.428 413.917 420.869 411.833 416.111 405.848 382.265 384.505 379.499 350.366 349.907 354.988 357.944 371.554 357.186 321.236 296.956 310.606 291.957 261.217 281.548 151.039 186.627 456.342 518.01 468.024 443.263 456.31 491.347 492.148 470.365 455.608 429.911 411.464 397.308 383.505 360.672 361.086 364.601 357.539 371.41 385.618 358.494 345.512 334.774 325.498 352.896 353.782 335.603 317.315 346.831 340.312 295.087 301.687 154.551 164.707 398.867 465.824 421.199 409.043 422.164 423.536 441.332 430.53 417.504 424.36 394.344 370.637 357.005 335.686 367.453 370.732 344.408 385.197 403.178 336.123 333.679 357.809 329.861 339.802 353.056 323.741 332.648 355.363 325.806 297.753 306.523 158.181 186.439 400.34 474.051 495.126 474.249 470.377 431.975 411.834 405.497 405.531 438.444 399.178 368.848 379.968 378.927 384.283 366.038 349.617 379.341 398.617 322.803 307.632 356.212 353.263 353.585 338.143 308.739 323.596 325.705 310.131 284.537 288.795 161.038 230.846 489.217 581.047 622.074 591.436 568.518 502.558 460.058 473.623 463.218 453.477 444.525 438.681 439.245 421.191 409.976 386.846 378.48 393.66 381.623 316.476 311.547 366.56 384.918 376.377 328.77 321.129 326.693 312.818 338.289 319.772 315.32 175.976 289.34 626.008 688.366 693.745 680.133 657.341 606.579 574.963 586.951 562.848 515.979 507.925 494.633 460.716 446.396 447.608 432.413 422.795 417.31 366.509 324.405 350.235 370.247 358.116 351.439 343.469 337.993 320.161 319.016 331.319 306.09 333.36 189.825 165.808 350.379 357.19 350.279 358.673 356.962 339.274 325.705 320.387 307.112 286.676 278.547 253.022 230.319 242.674 232.034 225.396 222.633 204.293 173.531 168.925 187.689 176.635 159.963 169.664 182.137 165.592 148.632 157.269 162.795 147.625 168.601 98.214 218.893 409.875 373.914 400.708 404.232 364.645 384.667 364.268 302.578 281.786 304.415 289.922 249.057 266.439 272.947 247.746 214.332 199.847 211.313 213.046 200.543 205.176 179.431 160.594 165.042 162.494 167.561 149.05 138.684 159.804 168.588 161.388 80.5909 378.493 722.279 690.559 726.103 708.928 650.945 674.369 648.169 568.353 535.901 551.714 537.876 480.599 501.529 516.619 477.581 433.822 417.387 426.569 403.154 375.529 379.3 360.313 343.011 338.057 313.867 314.767 310.907 292.929 298.269 308.624 309.16 155.196 258.301 539.773 590.644 599.54 550.042 531.994 545.433 515.594 496.843 499.458 480.818 463.479 433.165 434.668 435.612 418.127 405.406 409.602 405.808 380.574 357.023 325.511 318.522 339.311 352.84 321.354 303.966 307.109 309.59 293.539 287.25 300.908 149.277 188.48 442.153 512.196 486.726 469.43 480.887 492.983 468.802 454.636 467.106 428.524 400.998 399.32 408.034 380.546 355.721 361.624 359.344 369.313 376.306 350.511 312.37 302.367 331.686 369.987 344.918 310.76 299.363 316.205 331.424 331.603 322.431 149.782 159.623 386.163 446.506 437.103 429.51 429.119 443.056 432.769 418.346 402.717 383.703 370.979 365.284 369.606 363.165 375.594 383.046 371.634 385.402 385.499 347.327 337.784 348.087 350.43 359.283 343.566 321.57 323.367 308.35 309.629 339.274 327.788 152.216 185.818 391.818 441.55 502.948 490.389 466.953 446.732 408.998 402.342 379.385 415.714 415.682 364.826 358.756 376.248 409.164 403.052 373.812 369.27 377.205 356.425 349.648 363.21 360.96 355.087 338.262 317.077 314.635 302.244 302.497 308.856 307.831 159.713 235.727 489.913 556.868 612.53 587.549 562.576 524.102 492.796 485.722 457.106 465.805 466.911 429.53 411.848 407.09 407.918 390.108 348.833 346.516 350.363 351.314 370.64 368.496 372.343 358.971 326.077 322.013 301.409 307.202 333.722 308.633 308.414 167.752 278.678 618.091 694.077 682.381 654.88 645.603 628.487 621.984 581.621 533.062 508.177 491.114 471.27 471.68 457.422 421.574 399.407 371.29 373.21 347.87 342.445 386.807 379.752 377.586 360.24 329.975 329.139 306.98 315.09 318.305 281.696 295.502 164.215 158.925 348.618 370.45 348.276 352.294 356.054 345.313 342.526 303.464 274.387 269.387 254.379 238.979 257.438 252.022 214.653 205.012 191.918 189.323 175.053 168.702 189.014 191.105 190.566 187.234 173.531 156.633 150.951 162.643 153.801 127.034 136.426 79.0699 211.595 400.209 376.441 379.799 381.413 363.379 368.508 350.377 305.318 298.567 308.574 306.274 260.842 239.647 249.858 220.959 209.229 230.12 229.937 215.786 197.114 213.633 184.852 152.791 157.608 154.561 165.211 153.616 137.836 154.691 162.944 143.762 70.8933 347.829 702.282 718.396 714.267 684.058 670.18 666.503 625.344 575.611 563.601 555.992 548.965 493.162 458.511 471.043 430.899 415.722 438.152 428.879 426.319 408.465 396.484 362.436 341.537 334.53 303.329 338.475 348.136 300.207 307.945 338.377 315.675 151.941 237.231 528.389 600.302 586.907 546.923 550.967 531.854 501.836 504.683 504.783 482.042 472.269 445.633 425.111 415.524 400.612 390.206 400.463 406.989 393.909 394.536 350.492 325.359 360.518 363.316 329.802 349.557 360.459 318.124 308.181 341.719 349.731 170.434 192.607 457.218 509.413 467.454 467.909 461.717 458.384 463.624 459.666 462.505 436.367 418.515 411.135 413.946 391.993 362.925 359.626 383.394 396.083 355.271 336.362 325.06 320.941 354.536 372.028 347.532 330.938 307.396 291.024 324.445 333.399 332.285 169.948 171.894 423.093 473.871 441.27 424.812 424.319 448.689 425.823 416.82 419.873 381.172 372.485 381.573 374.501 368.636 364.455 378.759 404.605 386.578 332.753 313.107 333.908 349.374 357.154 359.358 324.593 294.398 315.065 298.35 301.207 329.732 327.096 165.078 180.319 406.82 462.803 479.366 460.551 469.081 473.709 427.802 410.712 415.226 408.532 394.059 388.196 371.461 364.312 397.695 408.357 378.913 340.873 329.589 374.445 383.229 357.36 355.755 347.09 328.473 298.44 319.741 338.514 315.145 327.102 320.836 151.875 225.483 492.889 548.146 549.515 543.482 557.023 542.052 524.752 506.756 490.138 478.348 438.429 422.594 415.159 388.944 400.543 402.864 371.228 336.442 328.416 382.625 394.501 369.615 366.226 331.964 332.846 344.514 320.7 348.151 353.602 316.123 298.235 146.098 278.004 618.68 685.235 672.115 634.442 625.69 632.663 623.537 588.249 547.295 506.514 472.863 487.655 474.54 415.859 402.573 412.808 424.982 386.955 339.474 363.359 390.23 378.038 359.356 342.919 330.239 335.787 332.753 333.694 333.949 314.018 297.958 150.035 152.557 340.42 377.086 375.71 350.33 330.979 340.156 337.519 300.66 275.266 257.271 244.946 269.506 264.04 220.246 207.523 215.455 219.026 192.844 179.789 195.249 202.469 189.575 174.495 184.322 167.772 149.96 158.186 160.978 163.803 162.379 147.928 71.2963 206.026 409.649 401.636 380.351 362.025 365.929 366.436 346.08 312.067 289.441 277.333 290.474 265.137 222.784 228.152 205.686 195.935 221.205 227.927 220.031 203.81 197.558 171.012 154.375 163.445 170.633 176.239 155.674 133.279 148.69 151.245 134.953 71.8112 332.859 709.266 749.792 709.64 679.854 696.307 688.592 637.719 566.221 536.614 536.542 529.341 469.775 423.599 434.832 413.277 405.09 415.742 410.326 427.151 408.236 372.888 347.562 335.416 331.816 335.399 365.96 342.446 298.595 318.41 332.659 307.411 151.915 227.496 533.126 608.871 585.55 581.608 581.247 561.444 531.742 496.956 488.069 506.359 487.689 418.401 398.474 404.857 411.841 406.785 387.911 389.132 399.61 394.821 372.038 358.827 349.909 336.784 351.284 393.631 386.046 338.482 335.565 356.705 337.956 156.898 179.483 448.244 506.243 460.556 488.595 477.762 447.683 464.33 475.238 461.694 442.415 445.686 412.015 385.93 387.112 376.042 371.537 395.007 415.428 390.609 358.791 362.801 365.169 345.637 337.157 346.462 350.565 345.321 334.191 343.622 332.555 303.854 149.38 159.408 398.537 481.82 436.417 425.634 438.563 415.443 423.273 432.25 428.677 387.724 384.339 397.141 372.191 375.011 371.6 378.319 401.174 395.835 368.411 344.612 341.181 347.134 337.812 331.352 326.254 300.709 319.959 321.46 307.067 294.745 277.024 143.882 182.366 416.814 499.389 485.103 452.779 462.333 454.195 434.82 394.223 398.327 399.87 394.115 419.167 404.479 392.736 393.863 381.79 369.484 355.617 338.969 375.235 381.207 355.448 364.622 339.418 335.575 324.399 351.701 360.646 312.207 295.913 290.557 150.986 234.578 525.2 573.883 564.163 561.912 536.065 509.609 493.057 470.213 469.746 471.833 434.062 425.143 426.668 400.925 399.594 377.248 367.077 363.682 342.105 363.059 380.129 379.041 385.864 343.806 339.882 354.453 352.633 379.478 363.566 311.109 296.688 156.527 288.556 650.024 690.571 681.509 668.263 617.389 591.638 566.299 560.092 575.244 540.129 466.8 462.71 439.674 397.282 419.586 414.831 429.495 404.031 356.277 357.465 356.857 366.296 350.538 348.247 353.558 343.128 328.307 332.804 355.624 331.727 314.77 164.179 155.757 357.837 379.785 370.326 358.311 331.986 329.176 309.016 284.287 295.945 275.706 239.379 257.845 233.564 203.017 214.047 214.96 232.362 208.825 182.849 193.425 182.846 178.462 168.253 181.251 182.941 159.02 153.463 153.537 174.974 179.052 169.972 87.3417 210.531 417.698 395.362 388.026 368.345 349.191 354.864 328.762 301.168 288.319 277.764 269.792 244.396 236.105 243.361 230.767 212.671 201.022 212.636 219.131 219.978 215.57 176.34 158.252 185.786 188.361 178.39 154.3 135.204 158.729 146.737 135.589 76.0837 350.625 706.103 705.663 708.047 695.7 674.446 676.229 637.583 563.114 525.581 515.654 494.009 444.11 433.783 460.049 458.36 440.392 420.575 409.755 402.432 416.78 407.865 346.081 321.554 350.94 352.983 346.859 331.42 317.606 334.698 309.656 300.657 160.886 259.172 537.201 570.653 580.047 595.684 586.426 570.596 552.77 511.241 482.194 465.263 442.709 409.435 407.119 431.162 453.447 438.93 410.62 393.266 368.768 389.207 404.174 355.766 317.201 314.591 333.051 361.459 388.431 373.689 346.312 330.32 311.572 151.607 215.483 460.44 485.317 459.91 485.679 503.51 474.045 461.426 472.093 450.26 408.886 402.723 405.342 405.832 403.246 408.554 390.918 383.962 409.889 382.091 361.447 401.815 376.116 314.071 307.765 336.986 352.994 362.361 359.547 355.368 336.914 296.801 140.431 186.243 387.053 440.172 428.994 431.081 446.788 417.447 420.584 408.687 410.193 386.976 378.381 398.244 374.592 368.135 387.311 383.948 401.798 424.327 388.362 352.248 361.334 355.042 327.294 326.799 335.422 330.099 324.461 325.87 335.644 329.146 317.266 161.013 193.6 414.776 472.525 470.459 462.46 440.774 408.867 421.764 392.562 408.256 409.905 395.049 424.024 395.038 371.442 401.669 402.56 403.418 392.295 352.336 359.897 348.972 344.729 355.958 337.051 325.603 331.206 354.698 353.054 330.081 295.27 310.603 178.008 233.49 518.753 575.663 565.054 536.316 484.271 465.014 478.767 481.347 495.115 481.383 440.829 441.156 437.43 403.645 417.17 406.366 378.665 363.434 338.222 346.264 344.365 355.343 372.11 362.511 347.082 337.332 345.613 374.985 384.989 317.288 302.971 169.867 290.441 653.517 717.671 701.682 645.661 569.691 552.176 560.539 569.314 577.497 555.544 482.144 441.316 431.878 436.033 452.855 421.81 389.155 377.372 364.446 346.476 337.608 358.641 366.589 372.261 373.159 356.761 331.962 344.849 386.254 359.32 325.167 158.496 160.713 374.13 399.328 377.976 358.073 321.746 303.395 300.429 294.639 285.774 278.603 242.215 221.561 211.286 224.468 232.744 213.765 205.005 195.649 186.822 176.903 170.818 183.075 183.316 178.33 184.814 180.54 167.636 165.308 180.725 177.668 165.83 79.2504 109.905 211.63 193.798 196.826 189.625 173.862 170.099 144.364 133.669 144.785 149.839 140.472 124.133 130.399 139.396 129.169 113.518 101.721 104.215 107.401 114.112 119.571 97.7659 78.019 97.4463 100.339 91.6949 79.5718 67.8147 84.5529 73.7534 66.4978 38.3955 180.88 351.144 337.134 354.664 357.475 329.68 320.668 301.657 279.147 267.126 252.301 243.59 227.115 225.223 249.686 250.477 234.9 226.69 212.962 198.773 220.132 226.899 175.697 153.163 184.645 178.826 167.952 169.311 161.1 167.71 149.144 145.785 79.7807 139.877 267.398 268.752 283.783 292.901 284.402 273.563 273.952 264.736 241.506 208.336 199.727 205.051 201.578 217.265 228.983 218.03 217.581 205.779 179.499 194.909 206.752 169.308 154.74 167.741 165.957 169.652 194.828 193.964 166.485 154.707 152.319 74.9174 127.458 246.438 245.394 236.925 233.113 243.514 236.892 226.467 230.171 225.85 205.003 188.86 196.544 202.432 202.081 208.707 194.455 186.163 195.252 176.102 177.406 211.902 197.554 165.328 161.066 176.439 186.507 185.16 177.117 172.039 166.717 156.786 76.3798 112.904 215.928 222.976 222.249 216.867 214.343 213.079 210.258 193.792 208.755 205.912 192.022 203.371 183.801 172.547 195.25 196.541 207.42 211.577 182.923 172.819 193.864 195.537 174.288 165.876 170.766 177.499 170.995 164.549 168.089 174.24 182.332 93.1974 105.199 211.323 218.632 217.348 227.35 210.822 192.719 207.128 204.195 226.345 213.095 192.861 219.615 194.618 164.964 202.713 220.059 223.734 199.539 169.621 172.859 162.375 173.816 169.677 160.383 155.781 157.452 166.316 170.909 170.945 158.95 173.298 95.1663 113.221 250.116 278.492 260.661 247.434 232.183 222.157 248.72 267.434 272.715 240.724 210.57 224.995 227.221 204.825 214.496 221.048 208.007 179.877 160.824 170.134 157.798 169.776 170.226 177.639 180.263 160.42 154.52 175.004 201.543 172.483 161.525 85.7244 140.259 316.98 368.151 358.015 310.636 278.364 275.374 294.866 302.485 285.22 272.556 246.364 223.506 225.989 239.618 231.161 213.232 195.766 180.444 176.709 165.58 159.672 178.568 180.623 188.513 195.678 178.117 164.291 174.501 198.595 192.472 170.725 75.0027 77.8901 180.814 205.294 203.433 181.747 157.59 146.755 152.824 156.367 136.778 138.144 128.884 109.229 105.262 122.315 125.161 113.511 97.6237 86.7487 90.5581 84.0046 82.8614 93.2463 91.518 85.904 89.3987 90.7621 85.1633 82.2959 88.6183 92.0993 83.9194 34.0949 118.85 212.91 221.573 118.85 118.85 212.91 416.423 221.573 189.644 371.026 363.169 189.644 118.85 118.85 212.91 221.573 118.85 189.644 118.85 94.0599 188.725 194.85 188.725 391.865 181.382 362.272 363.366 94.0599 94.0599 188.725 194.85 181.382 94.0599 94.6648 197.665 197.015 197.665 396.086 180.89 373.347 383.675 94.6648 94.6648 197.665 197.015 180.89 94.6648 103 197.555 199.071 197.555 378.283 192.457 356.15 354.455 103 103 197.555 199.071 192.457 103 94.5551 183 179.213 183 358.534 163.693 324.212 331.52 94.5551 94.5551 183 179.213 163.693 94.5551 88.4445 174.229 179.322 174.229 340.097 160.518 328.476 327.378 88.4445 88.4445 174.229 179.322 160.518 88.4445 85.7847 169.627 160.775 169.627 328.306 167.958 321.786 308.253 85.7847 85.7847 169.627 160.775 167.958 85.7847 83.8419 162.994 167.531 162.994 323.937 153.829 306.52 298.603 83.8419 83.8419 162.994 167.531 153.829 83.8419 79.1517 136.521 156.406 136.521 287.853 152.691 258.515 285.569 79.1517 79.1517 136.521 156.406 152.691 79.1517 57.3689 121.524 131.447 121.524 256.518 105.825 234.731 244.439 57.3689 57.3689 121.524 131.447 105.825 57.3689 64.155 127.03 125.071 127.03 271.221 128.906 245.999 252.114 64.155 64.155 127.03 125.071 128.906 64.155 62.8747 127.723 146.15 127.723 277.732 117.093 241.312 256.844 62.8747 62.8747 127.723 146.15 117.093 62.8747 64.8479 132.19 131.583 132.19 265.275 124.219 250.254 246.617 64.8479 64.8479 132.19 131.583 124.219 64.8479 67.3426 129.248 133.692 129.248 251.862 126.036 251.018 249.61 67.3426 67.3426 129.248 133.692 126.036 67.3426 61.9051 114.729 118.17 114.729 235.249 124.982 240.852 231.819 61.9051 61.9051 114.729 118.17 124.982 61.9051 52.824 124.526 117.079 124.526 244.005 115.87 261.436 234.046 52.824 52.824 124.526 117.079 115.87 52.824 71.7021 118.701 126.926 118.701 240.282 145.566 238.65 259.159 71.7021 71.7021 118.701 126.926 145.566 71.7021 46.9993 98.8762 113.356 98.8762 222.962 93.0835 195.782 208.499 46.9993 46.9993 98.8762 113.356 93.0835 46.9993 51.8769 96.8993 109.606 96.8993 216.92 102.699 189.853 214.467 51.8769 51.8769 96.8993 109.606 102.699 51.8769 45.0224 91.5856 107.314 91.5856 197.932 87.1547 184.489 197.193 45.0224 45.0224 91.5856 107.314 87.1547 45.0224 46.5632 96.2412 90.6181 96.2412 191.573 97.3343 206.706 192.692 46.5632 46.5632 96.2412 90.6181 97.3343 46.5632 49.678 95.5316 100.955 95.5316 201.144 109.371 195.059 205.971 49.678 49.678 95.5316 100.955 109.371 49.678 45.8536 104.5 100.188 104.5 206.577 85.6872 189.875 199.924 45.8536 45.8536 104.5 100.188 85.6872 45.8536 58.6463 102.783 106.389 102.783 191.552 104.188 177.96 212.778 58.6463 58.6463 102.783 106.389 104.188 58.6463 44.1364 100.2 85.1637 100.2 178.581 73.7721 170.999 157.257 44.1364 44.1364 100.2 85.1637 73.7721 44.1364 56.0632 95.6081 93.4171 95.6081 176.467 97.2272 185.666 178.685 56.0632 56.0632 95.6081 93.4171 97.2272 56.0632 39.5449 100.451 83.0502 100.451 191.006 88.4388 194.804 175.767 39.5449 39.5449 100.451 83.0502 88.4388 39.5449 60.9064 100.086 107.956 100.086 183.388 106.365 190.019 205.101 60.9064 60.9064 100.086 107.956 106.365 60.9064 39.1801 88.5612 75.4318 88.5612 178.797 83.6542 165.442 171.479 39.1801 39.1801 88.5612 75.4318 83.6542 39.1801 49.3812 101.801 103.365 101.801 212.6 81.7883 176.886 179.729 49.3812 49.3812 101.801 103.365 81.7883 49.3812 52.42 90.1443 109.235 90.1443 187.221 95.0973 164.061 189.912 52.42 52.42 90.1443 109.235 95.0973 52.42 37.7243 37.7243 77.9863 37.7243 77.9863 68.9633 68.9633 141.968 37.7243 37.7243 37.7243 77.9863 68.9633 37.7243 70.7941 158.116 310.111 141.595 142.043 302.321 273.299 142.043 70.7941 158.116 141.595 70.7941 142.043 70.7941 173.547 355.176 160.278 300.048 297.773 87.3218 173.547 168.516 160.278 87.3218 175.683 342.045 139.77 298.681 307.602 86.2254 175.683 186.66 139.77 86.2254 158.595 307.692 158.911 293.2 295.327 89.4572 158.595 155.385 158.911 89.4572 141.212 300.363 134.289 258.97 275.823 69.1381 141.212 152.307 134.289 69.1381 154.247 295.535 124.681 260.653 259.178 72.0739 154.247 148.056 124.681 72.0739 152.16 278.551 135.973 266.023 267.179 82.1728 152.16 147.478 135.973 82.1728 143.526 260.235 130.051 259.503 249.437 69.987 143.526 131.072 130.051 69.987 121.995 242.155 129.453 238.377 247.736 73.5389 121.995 129.162 129.453 73.5389 113.207 240.036 108.924 228.023 225.476 48.4557 113.207 112.993 108.924 48.4557 118.969 237.737 119.099 226.812 233.877 64.7512 118.969 127.043 119.099 64.7512 113.589 225.728 107.714 222.586 225.076 54.2181 113.589 110.694 107.714 54.2181 118.064 230.952 114.873 215.175 217.436 59.3708 118.064 115.034 114.873 59.3708 121.77 229.567 100.303 217.118 210.651 58.693 121.77 115.918 100.303 58.693 126.123 230.617 116.815 230.821 219.097 63.077 126.123 113.649 116.815 63.077 136.91 249.2 114.006 238.772 217.427 63.0456 136.91 116.967 114.006 63.0456 119.948 227.376 124.766 219.949 233.763 73.8641 119.948 132.233 124.766 73.8641 96.9059 200.003 95.1829 194.348 179.221 46.0842 96.9059 95.1426 95.1829 46.0842 92.9541 194.739 99.1652 193.908 205.304 50.8217 92.9541 104.861 99.1652 50.8217 92.9035 191.952 94.7424 183.203 183.67 42.1324 92.9035 89.8785 94.7424 42.1324 110.465 207.089 88.4602 193.996 177.576 50.7711 110.465 102.073 88.4602 50.7711 99.5271 204.751 105.536 197.768 190.501 59.6935 99.5271 105.015 105.536 59.6935 85.3749 206.126 92.2322 182.149 199.71 39.8337 85.3749 99.7359 92.2322 39.8337 75.177 178.483 89.9169 159.839 196.282 45.5412 75.177 106.39 89.9169 45.5412 70.7997 157.361 69.9216 154.05 151.358 29.6358 70.7997 72.0931 69.9216 29.6358 90.0579 177.985 84.128 162.512 168.895 41.164 90.0579 85.2679 84.128 41.164 94.3526 189.862 78.3837 170.934 166.893 48.8939 94.3526 92.7169 78.3837 48.8939 89.9328 193.193 92.5507 187.123 181.606 45.4586 89.9328 97.1451 92.5507 45.4586 76.8812 172.411 94.572 166.302 190.458 44.4742 76.8812 96.0475 94.572 44.4742 75.0845 157.041 71.7296 153.481 146.916 32.4071 75.0845 76.3637 71.7296 32.4071 73.9164 144.659 81.7518 152.446 155.297 42.6774 73.9164 80.6774 81.7518 42.6774 31.239 63.9819 70.6942 70.6942 147.267 31.239 31.239 63.9819 70.6942 31.239 71.249 144.205 260.961 131.703 122.962 231.29 226.713 122.962 71.249 144.205 131.703 71.249 122.962 71.249 126.5 250.199 108.328 219.308 211.209 72.956 126.5 129.257 108.328 72.956 122.998 260.885 110.98 247.147 239.111 53.5445 122.998 120.942 110.98 53.5445 134.604 263.458 136.167 250.241 263.864 69.4535 134.604 139.942 136.167 69.4535 117.758 234.637 114.074 226.171 225.697 65.1509 117.758 123.515 114.074 65.1509 106.407 230.823 112.097 218.606 229.75 52.6071 106.407 111.122 112.097 52.6071 113.863 238.066 106.509 218.947 227.595 53.7997 113.863 119.701 106.509 53.7997 115.977 236.939 112.437 224.247 215.278 60.0635 115.977 118.365 112.437 60.0635 116.382 231.057 111.81 222.472 224.232 55.9136 116.382 118.574 111.81 55.9136 114.816 219.317 110.662 217.272 217.93 60.4684 114.816 112.483 110.662 60.4684 107.843 221.215 106.611 203.717 209.592 54.3477 107.843 106.834 106.611 54.3477 108.997 216.783 97.1059 203.612 210.929 53.4954 108.997 114.382 97.1059 53.4954 97.1116 197.135 106.507 206.853 213.777 55.5017 97.1116 102.402 106.507 55.5017 95.3479 200.181 100.347 201.502 192.839 41.6099 95.3479 94.7332 100.347 41.6099 104.698 205.908 101.155 200.621 207.838 53.738 104.698 105.448 101.155 53.738 101.862 201.99 99.4654 207.771 199.625 50.9603 101.862 100.459 99.4654 50.9603 100 185.608 108.305 197.448 202.984 50.9016 100 101.53 108.305 50.9016 97.4421 184.522 89.1425 188.049 170.264 49.0987 97.4421 84.0783 89.1425 49.0987 100.953 194.235 98.9067 213.992 202.27 48.3435 100.953 100.443 98.9067 48.3435 90.2991 169.294 115.085 196.187 193.744 52.61 90.2991 93.7914 115.085 52.61 83.5318 160.988 81.1021 170.736 157.063 37.6891 83.5318 75.5023 81.1021 37.6891 98.2412 185.46 89.6339 191.466 174.723 45.8427 98.2412 85.4859 89.6339 45.8427 96.7743 189.866 101.832 190.129 189.301 52.3985 96.7743 99.9737 101.832 52.3985 84.6616 169.157 88.2969 169.333 182.858 44.3757 84.6616 89.8925 88.2969 44.3757 83.2499 162.892 81.0362 167.104 171.654 40.2859 83.2499 79.265 81.0362 40.2859 72.4538 157.803 86.0682 152.053 161.567 42.9641 72.4538 83.6266 86.0682 42.9641 76.5818 158.637 65.985 145.817 162.578 29.4897 76.5818 74.1759 65.985 29.4897 97.1899 178.871 79.8324 165.473 154.464 47.0921 97.1899 84.4608 79.8324 47.0921 89.4203 164.963 85.6402 162.377 171.799 50.0978 89.4203 94.4102 85.6402 50.0978 78.3969 145.173 76.7368 147.784 146.723 39.3225 78.3969 70.5527 76.7368 39.3225 78.5296 157.904 71.0473 154.264 142.603 39.0744 78.5296 74.6199 71.0473 39.0744 39.4552 83.2846 83.2163 83.2163 166.343 39.4552 39.4552 83.2846 83.2163 39.4552 51.7128 87.0847 176.961 95.0094 96.1163 178.096 183.546 96.1163 51.7128 87.0847 95.0094 51.7128 96.1163 51.7128 92.8073 200.121 81.9799 189.874 183.157 35.3719 92.8073 81.9517 81.9799 35.3719 124.149 242.09 107.894 222.549 220.758 57.4354 124.149 118.169 107.894 57.4354 115.637 226.103 114.655 207.265 219.425 66.7138 115.637 123.921 114.655 66.7138 108.413 220.809 92.6108 197.843 210.541 48.9229 108.413 102.181 92.6108 48.9229 112.199 226.522 105.232 215.135 205.3 59.4897 112.199 118.628 105.232 59.4897 105.083 204.807 109.902 210.877 221.863 52.7096 105.083 107.894 109.902 52.7096 108.27 202.57 100.975 214.128 199.76 52.3738 108.27 96.9127 100.975 52.3738 106.09 211.104 113.153 212.221 211.588 55.8965 106.09 105.658 113.153 55.8965 102.456 208.204 99.0678 194.799 198.676 50.1933 102.456 105.447 99.0678 50.1933 95.8735 199.305 95.7314 195.349 189.359 52.263 95.8735 102.758 95.7314 52.263 94.6153 207.923 99.6178 201.272 187.817 43.6105 94.6153 96.5474 99.6178 43.6105 109.742 209.482 101.654 204.03 217.79 51.0048 109.742 111.376 101.654 51.0048 106.154 200.495 102.376 198.342 187.106 58.7368 106.154 98.1059 102.376 58.7368 95.9225 201.556 95.9654 188.173 207.096 47.4174 95.9225 102.39 95.9654 47.4174 105.909 200.62 92.2071 199.632 187.93 48.5051 105.909 99.166 92.2071 48.5051 97.4477 187.639 107.425 203.564 194.961 57.4038 97.4477 101.454 107.425 57.4038 90.6071 188.013 96.1395 182.944 204.947 40.0438 90.6071 86.1854 96.1395 40.0438 113.038 201.78 86.8046 196.246 180.252 50.5632 113.038 101.827 86.8046 50.5632 105.888 181.514 109.442 194.338 198.626 62.4752 105.888 99.9529 109.442 62.4752 87.2042 170.798 84.8961 171.719 162.891 43.413 87.2042 81.5611 84.8961 43.413 93.225 178.564 86.8229 173.317 156.61 43.7912 93.225 89.2368 86.8229 43.7912 93.3549 182.292 86.4941 180.966 171.181 49.4338 93.3549 89.327 86.4941 49.4338 84.6715 185.355 94.4723 187.83 190.905 43.9211 84.6715 92.9651 94.4723 43.9211 83.8545 170.33 93.3575 164.501 179.487 40.7503 83.8545 92.3894 93.3575 40.7503 79.5994 166.342 71.1434 158.512 145.147 43.1042 79.5994 77.9407 71.1434 43.1042 69.2356 158.405 87.3688 168.951 174.694 36.4953 69.2356 88.4017 87.3688 36.4953 68.2827 147.393 81.5818 145.239 165.642 32.7403 68.2827 70.0036 81.5818 32.7403 72.9568 153.559 63.6575 140.806 146.379 35.5424 72.9568 77.389 63.6575 35.5424 69.3873 144.153 77.1485 142.763 147.263 37.4143 69.3873 76.1703 77.1485 37.4143 75.734 151.042 65.614 133.104 143.987 31.9729 75.734 67.983 65.614 31.9729 43.7611 83.0587 67.4899 67.4899 149.646 43.7611 43.7611 83.0587 67.4899 43.7611 44.4035 91.0114 189.742 88.5367 104.654 204.28 192.027 104.654 44.4035 91.0114 88.5367 44.4035 104.654 44.4035 97.0666 203.794 99.626 202.453 229.469 46.608 97.0666 101.205 99.626 46.608 98.3993 198.093 102.827 205.989 223.94 50.4586 98.3993 102.589 102.827 50.4586 91.6286 203.864 103.162 200.072 210.372 47.9407 91.6286 95.504 103.162 47.9407 89.4306 195.032 96.9107 204.365 218.693 43.6879 89.4306 108.36 96.9107 43.6879 102.935 200.641 107.454 233.165 204.557 45.7427 102.935 86.6719 107.454 45.7427 105.794 216.816 125.711 220.062 259.947 57.1927 105.794 113.969 125.711 57.1927 105.857 208.777 94.351 204.586 190.769 48.6009 105.857 102.847 94.351 48.6009 106.131 199.159 110.235 210.93 209.072 57.2563 106.131 105.93 110.235 57.2563 92.3429 179.83 100.694 199.089 202.731 48.8745 92.3429 93.2292 100.694 48.8745 99.4757 177.87 98.3945 201.279 193.236 43.4684 99.4757 86.6008 98.3945 43.4684 106.656 197.683 102.884 210.847 181.372 56.0073 106.656 91.2696 102.884 56.0073 94.2885 195.414 107.962 196.57 214.57 50.6491 94.2885 106.414 107.962 50.6491 92.1874 193.707 88.6076 188.502 189.463 43.6394 92.1874 89.0004 88.6076 43.6394 92.25 193.47 99.8945 192.826 203.759 48.548 92.25 104.706 99.8945 48.548 93.7229 182.271 92.9317 201.254 187.844 43.702 93.7229 88.7636 92.9317 43.702 106.117 212.269 108.322 215.017 205.509 50.0209 106.117 93.5071 108.322 50.0209 92.337 197.186 106.695 181.381 205.934 56.0956 92.337 118.761 106.695 56.0956 83.2078 177.098 74.6862 173.693 163.243 36.2414 83.2078 78.4251 74.6862 36.2414 88.4496 180.003 99.0066 194.741 193.064 46.9664 88.4496 98.6727 99.0066 46.9664 84.5148 148.704 95.7348 179.617 181.335 41.4832 84.5148 81.3302 95.7348 41.4832 80.0919 149.227 83.8822 154.454 151.383 43.0316 80.0919 67.3734 83.8822 43.0316 87.6115 179.794 70.5716 170.193 163.487 37.0603 87.6115 81.8539 70.5716 37.0603 103.158 185.038 99.6213 187.427 195.61 50.5512 103.158 97.9398 99.6213 50.5512 80.6464 154.304 87.8059 169.004 172.957 52.6072 80.6464 87.098 87.8059 52.6072 78.9128 153.499 81.1983 179.715 165.605 28.0392 78.9128 67.2064 81.1983 28.0392 99.715 181.931 98.5165 180.9 163.655 50.8736 99.715 86.2926 98.5165 50.8736 76.9565 164.628 82.3838 158.929 175.86 48.8415 76.9565 95.6385 82.3838 48.8415 67.8492 140.082 76.5456 152.813 167.77 28.1151 67.8492 68.9895 76.5456 28.1151 73.3752 147.097 76.2672 156.832 155.016 39.7341 73.3752 71.0924 76.2672 39.7341 57.3698 142.591 80.5646 152.397 162.906 33.6411 57.3698 76.0042 80.5646 33.6411 23.7287 66.5869 71.8324 71.8324 165.613 23.7287 23.7287 66.5869 71.8324 23.7287 60.2509 113.269 231.754 103.49 131.851 267.094 236.668 131.851 60.2509 113.269 103.49 60.2509 131.851 60.2509 105.387 249.616 135.243 275.371 296.237 53.018 105.387 128.265 135.243 53.018 107.589 236.219 140.128 256.139 281.208 52.3685 107.589 121.351 140.128 52.3685 108.444 225.2 116.011 235.549 238.377 55.2208 108.444 114.868 116.011 55.2208 114.934 228.218 119.538 262.656 239.661 53.2228 114.934 110.333 119.538 53.2228 130.23 263.864 143.118 274.004 265.349 61.7111 130.23 117.885 143.118 61.7111 114.269 233.9 130.886 256.197 276.311 68.5185 114.269 145.979 130.886 68.5185 98.7289 191.064 125.311 250.295 236.268 45.7501 98.7289 87.9216 125.311 45.7501 104.799 212.645 124.984 233.599 246.752 52.9789 104.799 103.142 124.984 52.9789 106.746 216.137 108.616 217.565 236.622 51.8199 106.746 109.502 108.616 51.8199 101.803 196.737 108.949 216.067 206.492 54.9261 101.803 106.635 108.949 54.9261 104.19 198.258 107.117 215.978 211.229 46.8772 104.19 90.1021 107.117 46.8772 102.281 208.618 108.86 205.041 211.03 57.313 102.281 108.156 108.86 57.313 96.3147 199.515 96.1807 200.844 207.78 44.9682 96.3147 100.462 96.1807 44.9682 100.576 198.133 104.664 202.877 203.727 51.3465 100.576 99.0527 104.664 51.3465 107.531 211.082 98.2134 212.734 192.41 49.2297 107.531 99.08 98.2134 49.2297 108.9 199.174 114.521 201.08 211.311 58.301 108.9 112.002 114.521 58.301 89.044 171.991 86.5592 175.145 166.445 50.5991 89.044 87.1725 86.5592 50.5991 90.485 179.21 88.5862 187.564 192.694 38.4449 90.485 84.8182 88.5862 38.4449 106.292 194.396 98.9781 202.639 186.365 52.0401 106.292 94.3915 98.9781 52.0401 95.1022 184.014 103.661 191.89 195.283 54.2517 95.1022 100.004 103.661 54.2517 74.3619 165.642 88.229 155.683 176.418 40.8506 74.3619 84.0095 88.229 40.8506 82.5815 179.303 67.4541 156.824 150.974 33.5114 82.5815 81.6328 67.4541 33.5114 84.2688 183.528 89.3697 164.143 173.642 49.0701 84.2688 97.6698 89.3697 49.0701 88.3578 184.257 74.7734 171.748 158.235 35.1987 88.3578 85.8585 74.7734 35.1987 100.802 175.761 96.9741 193.776 181.872 53.159 100.802 98.3988 96.9741 53.159 81.1852 157.584 96.8019 171.181 163.403 47.6429 81.1852 77.3625 96.8019 47.6429 81.9729 179.002 74.3795 173.771 177.167 33.5423 81.9729 80.2215 74.3795 33.5423 84.9636 182.705 99.3911 172.523 190.759 48.4306 84.9636 98.7807 99.3911 48.4306 83.4566 170.825 73.1322 160.513 160.914 36.533 83.4566 83.9241 73.1322 36.533 95.0272 185.928 87.3807 167.398 166.737 46.9235 95.0272 86.9013 87.3807 46.9235 48.1037 99.0262 80.0176 80.0176 167.903 48.1037 48.1037 99.0262 80.0176 48.1037 71.6001 153.825 301.151 133.178 150.758 315.055 295.756 150.758 71.6001 153.825 133.178 71.6001 150.758 71.6001 169.985 327.829 164.297 335.525 346.107 82.2249 169.985 167.973 164.297 82.2249 148.55 283.366 171.228 312.961 326.756 87.7599 148.55 159.857 171.228 87.7599 127.105 252.838 141.733 282.346 294.05 60.7899 127.105 123.509 141.733 60.7899 147.722 276.792 140.614 291.803 281.736 66.3151 147.722 129.328 140.614 66.3151 143.774 277.796 151.19 291.12 296.717 81.4065 143.774 147.464 151.19 81.4065 141.928 278.679 139.931 284.519 298.411 62.3676 141.928 130.332 139.931 62.3676 151.566 291.956 144.588 278.829 286.741 79.5609 151.566 148.346 144.588 79.5609 128.8 270.729 134.241 261.662 270.828 72.0047 128.8 143.61 134.241 72.0047 110.819 226.977 127.421 250.83 263.658 56.7957 110.819 127.12 127.421 56.7957 114.263 220.985 123.41 244.837 233.821 54.0233 114.263 99.8572 123.41 54.0233 111.787 224.001 121.428 233.002 234.412 60.24 111.787 121.127 121.428 60.24 102.76 210.192 111.574 221.932 233.539 51.5474 102.76 102.874 111.574 51.5474 104.53 211.992 110.358 218.848 224.516 51.2125 104.53 107.318 110.358 51.2125 102.301 198.004 108.49 216.491 200.32 53.3172 102.301 104.674 108.49 53.3172 105.204 192.639 108.001 223.2 205.38 48.9837 105.204 93.3295 108.001 48.9837 92.1799 178.582 115.199 197.665 210.632 56.2199 92.1799 99.3094 115.199 56.2199 86.1014 187.148 82.4658 183.224 174.173 35.96 86.1014 79.2725 82.4658 35.96 97.0794 199.849 100.758 209.345 217.083 50.1414 97.0794 107.876 100.758 50.1414 96.3473 187.252 108.587 198.891 207.188 46.938 96.3473 91.9735 108.587 46.938 96.7877 187.687 90.3043 179.729 179.79 49.4093 96.7877 95.2781 90.3043 49.4093 81.3212 161.75 89.4246 165.098 180.977 47.3784 81.3212 92.4085 89.4246 47.3784 74.2424 145.313 75.6739 167.122 156.056 33.9428 74.2424 69.3413 75.6739 33.9428 79.8743 148.348 91.4484 173.907 165.588 40.2996 79.8743 75.972 91.4484 40.2996 83.3897 155.849 82.4587 168.829 168.823 39.5747 83.3897 72.3762 82.4587 39.5747 92.974 169.513 86.37 174.796 168.017 43.815 92.974 83.4727 86.37 43.815 89.9961 182.986 88.4263 184.493 164.664 49.159 89.9961 86.0406 88.4263 49.159 91.7976 188.924 96.0664 191.165 197.075 40.8371 91.7976 96.9454 96.0664 40.8371 87.5597 168.968 95.099 187.057 170.115 50.9605 87.5597 91.9784 95.099 50.9605 77.0564 156.825 91.9581 173.87 183.804 36.5992 77.0564 76.9897 91.9581 36.5992 72.3711 148.713 81.9121 145.086 156.991 40.4572 72.3711 79.8355 81.9121 40.4572 31.9139 68.8772 63.1742 63.1742 133.026 31.9139 31.9139 68.8772 63.1742 31.9139 79.158 161.23 340.712 162.577 79.158 161.23 162.577 79.158 79.158 161.23 162.577 79.158 79.158 79.158 165.54 345.033 82.0723 165.54 178.134 82.0723 165.54 178.134 82.0723 82.0723 164.411 337.44 83.468 164.411 166.899 83.468 164.411 166.899 83.468 83.468 155.241 322.948 80.9429 155.241 170.54 80.9429 155.241 170.54 80.9429 80.9429 144.082 301.66 74.2986 144.082 152.407 74.2986 144.082 152.407 74.2986 74.2986 147.346 317.332 69.7833 147.346 149.253 69.7833 147.346 149.253 69.7833 69.7833 142.59 306.473 77.5631 142.59 168.079 77.5631 142.59 168.079 77.5631 77.5631 127.264 265.612 65.0272 127.264 138.394 65.0272 127.264 138.394 65.0272 65.0272 132.862 263.756 62.2366 132.862 127.218 62.2366 132.862 127.218 62.2366 62.2366 140.011 270.502 70.625 140.011 136.538 70.625 140.011 136.538 70.625 70.625 130.574 247.248 69.3863 130.574 133.964 69.3863 130.574 133.964 69.3863 69.3863 121.214 243.949 61.1876 121.214 113.284 61.1876 121.214 113.284 61.1876 61.1876 119.172 247.863 60.0266 119.172 130.665 60.0266 119.172 130.665 60.0266 60.0266 114.318 212.844 59.1454 114.318 117.198 59.1454 114.318 117.198 59.1454 59.1454 114.19 207.697 55.1726 114.19 95.6461 55.1726 114.19 95.6461 55.1726 55.1726 117.996 223.373 59.017 117.996 112.05 59.017 117.996 112.05 59.017 59.017 105.485 206.223 58.9794 105.485 111.323 58.9794 105.485 111.323 58.9794 58.9794 97.1223 204.108 46.5058 97.1223 94.9003 46.5058 97.1223 94.9003 46.5058 46.5058 112.265 224.422 50.6166 112.265 109.207 50.6166 112.265 109.207 50.6166 50.6166 102.544 199.726 61.6487 102.544 115.214 61.6487 102.544 115.214 61.6487 61.6487 82.9412 173.08 40.895 82.9412 84.512 40.895 82.9412 84.512 40.895 40.895 83.7773 175.282 42.0462 83.7773 88.5681 42.0462 83.7773 88.5681 42.0462 42.0462 92.88 176.33 41.7311 92.88 86.7144 41.7311 92.88 86.7144 41.7311 41.7311 94.0328 186.063 51.1488 94.0328 89.6157 51.1488 94.0328 89.6157 51.1488 51.1488 85.4389 180.991 42.884 85.4389 96.447 42.884 85.4389 96.447 42.884 42.884 81.8223 163.168 42.5549 81.8223 84.5439 42.5549 81.8223 84.5439 42.5549 42.5549 94.4966 178.753 39.2673 94.4966 78.6237 39.2673 94.4966 78.6237 39.2673 39.2673 99.3678 178.266 55.2293 99.3678 100.129 55.2293 99.3678 100.129 55.2293 55.2293 99.4974 184.952 44.1385 99.4974 78.137 44.1385 99.4974 78.137 44.1385 44.1385 96.8138 183.97 55.3589 96.8138 106.815 55.3589 96.8138 106.815 55.3589 55.3589 72.7152 141.305 41.4549 72.7152 77.1556 41.4549 72.7152 77.1556 41.4549 41.4549 31.2603 64.1489 31.2603 31.2603 64.1489 31.2603 31.2603 64.1489 31.2603 31.2603 203.513 203.918 102.723 402.719 203.918 355.509 333.307 173.524 102.723 203.513 203.918 102.723 173.524 102.723 203.141 198.802 413.139 384.769 361.805 100.79 203.141 198.802 181.984 100.79 198.421 214.338 404.507 364.783 409.157 102.35 198.421 214.338 202.785 102.35 180.729 190.17 361.526 329.825 342.698 96.0709 180.729 190.17 161.998 96.0709 175.535 171.356 349.679 334.686 322.017 84.6576 175.535 171.356 167.827 84.6576 165.867 178.323 339.924 307.155 343.91 90.877 165.867 178.323 166.859 90.877 158.679 161.601 312.028 285.07 307.603 74.9903 158.679 161.601 140.296 74.9903 160.944 150.427 292.647 277.652 277.398 83.6889 160.944 150.427 144.774 83.6889 151.332 142.22 287.799 271.493 278.568 77.2546 151.332 142.22 132.878 77.2546 134.994 145.579 276.859 261.823 261.856 74.0778 134.994 145.579 138.615 74.0778 144.191 131.28 277.599 262.959 259.235 60.9162 144.191 131.28 123.208 60.9162 150.01 146.319 284.49 262.149 255.378 83.2748 150.01 146.319 139.751 83.2748 133.084 138.171 273.717 245.973 249.592 66.7348 133.084 138.171 122.398 66.7348 122.614 135.546 244.362 230.411 246.077 66.3497 122.614 135.546 123.574 66.3497 120.52 108.815 234.075 225.014 208.703 56.2647 120.52 108.815 106.837 56.2647 119.479 125.259 236.472 231.77 241.26 64.2549 119.479 125.259 118.177 64.2549 121.581 111.213 229.002 229.008 217.459 55.2243 121.581 111.213 113.593 55.2243 124.086 117.79 217.129 227.183 207.346 66.3566 124.086 117.79 115.415 66.3566 120.021 99.3387 215.692 221.806 202.134 57.7294 120.021 99.3387 111.768 57.7294 106.347 116.353 218.702 205.395 207.664 62.2918 106.347 116.353 110.038 62.2918 95.3323 102.349 197.235 191.957 198.995 44.0549 95.3323 102.349 95.3572 44.0549 105.612 94.8862 193.794 210.836 192.672 51.2774 105.612 94.8862 96.5994 51.2774 102.077 98.9073 192.17 222.828 213.067 54.3347 102.077 98.9073 114.237 54.3347 88.7696 93.2629 172.534 192.076 209.109 47.7422 88.7696 93.2629 108.591 47.7422 78.3812 79.2716 156.171 164.942 179.699 41.0274 78.3812 79.2716 83.4847 41.0274 80.8591 76.8991 168.897 168.786 167.553 37.3538 80.8591 76.8991 81.4578 37.3538 90.5546 91.9978 169.447 186.064 167.184 43.5053 90.5546 91.9978 87.3283 43.5053 83.3011 77.4487 156.398 186.561 174.901 47.0493 83.3011 77.4487 98.7358 47.0493 90.236 78.9493 169.487 185.766 161.186 36.2518 90.236 78.9493 87.8251 36.2518 110.799 90.5374 188.636 192.756 178.795 53.9842 110.799 90.5374 97.9409 53.9842 97.0767 98.0982 179.621 167.82 173.962 56.8147 97.0767 98.0982 94.8147 56.8147 40.262 81.5231 81.5231 73.0049 162.017 40.262 40.262 81.5231 73.0049 40.262 292.392 129.389 268.751 242.698 131.256 151.996 129.389 70.8014 131.256 70.8014 357.822 305.328 297.028 181.629 163.003 137.496 81.1942 347.347 304.248 319.428 166.362 194.819 167.832 100.434 303.188 277.95 285.262 149.097 152.528 136.416 65.9274 316.248 276.031 263.702 159.151 150.66 141.534 83.1692 311.59 265.704 285.997 141.288 165.587 134.497 75.9822 272.973 250.594 279.616 126.391 146.002 131.207 65.3056 263.319 237.671 251.771 116.709 126.971 119.387 61.0854 252.626 234.836 261.34 120.161 136.348 118.284 55.6235 244.233 231.33 221.389 126.829 116.278 116.552 64.5371 237.014 232.14 222.618 118.768 127.955 114.778 62.2918 220.48 219.926 216.033 112.14 109.059 117.362 56.476 221.951 212.911 216.259 112.888 111.421 102.563 55.6635 210.419 212.63 215.031 107.797 110.531 110.348 57.2246 215.888 205.703 198.384 104.494 99.8877 102.282 50.5722 222.247 212.418 218.538 112.291 116.001 103.421 53.9217 195.802 193.036 198.644 107.427 106.246 108.997 58.3689 192.352 190.177 172.646 103.097 89.5565 84.0381 49.0584 194.106 195.066 201.571 101.785 102.795 106.139 54.0389 187.956 178.043 175.988 99.0484 91.3104 88.9275 47.7461 194.431 174.081 189.41 96.6243 96.6456 89.1156 51.3023 211.945 192.443 184.943 105.224 97.7854 84.9652 45.322 230.006 213.843 196.956 120.751 114.16 107.477 59.9022 216.274 187.802 208.59 103.306 115.846 106.365 60.8486 191.081 166.203 171.307 86.5613 100.427 81.4364 42.4573 165.84 173.276 176.34 87.9269 90.6539 84.7665 44.104 172.638 177.564 161.939 95.5094 75.1858 88.5091 43.823 179.689 184.941 173.488 103.26 97.4519 89.0552 51.6864 170.495 171.073 171.835 95.53 82.2372 95.8857 51.5734 164.122 148.732 150.099 81.9567 88.258 75.1868 43.9567 156.357 150.118 133.227 70.743 75.8636 73.5455 38 80.4938 76.5723 168.56 32.7429 80.4938 76.5723 32.7429 247.335 113.31 206.632 203.046 103.751 116.756 113.31 60.4544 103.751 60.4544 258.634 231.012 240.752 123.699 134.025 102.881 56.3013 257.343 255.828 239.167 137.887 124.609 128.131 67.3976 245.776 239.319 227.841 128.853 132.734 127.696 70.489 233.452 229.276 217.192 116.879 113.042 111.623 58.3643 254.024 238.739 231.459 124.416 120.41 117.653 58.515 258.415 223.926 253.497 124.203 133.614 121.086 65.9011 249.792 215.262 228.028 120.962 124.8 102.84 58.3015 230.103 219.69 229.312 114.675 124.992 112.422 62.6605 199.774 210.249 204.101 104.501 105.111 107.268 52.0148 201.636 216.804 205.37 113.372 94.6623 102.981 52.4861 211.813 221.094 208.592 107.786 106.974 113.823 60.8862 209.339 199.763 218.408 100.023 104.839 107.271 46.9 202.997 199.175 188.243 104.833 104.5 92.4924 53.1233 201.034 206.842 197.103 101.209 98.4966 106.682 51.7101 194.935 194.838 201.836 100.128 102.537 100.16 49.4991 175.488 175.8 180.532 85.6082 92.398 94.6784 50.6285 181.865 184.485 179.648 87.0795 83.0897 81.1212 34.9797 183.454 182.023 202.226 93.2812 98.7757 103.364 52.0999 177.443 154.62 159.761 78.9946 84.6781 78.659 41.1814 179.922 161.05 164.455 77.4564 92.7646 75.9614 37.8132 169.954 172.557 181.91 87.2184 87.1573 85.0888 39.6432 175.54 182.029 157.389 93.0919 82.7963 87.4684 47.5752 163.623 185.179 176.094 84.4958 92.7441 94.5607 45.5167 156.565 166.117 173.564 79.6417 70.8793 90.6181 38.9791 172.439 172.092 163.035 85.3488 85.6862 75.4991 40.6626 162.789 171.225 180.76 82.0549 86.7531 96.5926 44.6862 165.634 160.791 147.692 81.6811 76.0363 74.632 37.3687 151.438 156.145 182.988 75.5425 89.5976 86.1589 44.3124 119.204 141.542 146.198 66.7757 61.8405 69.9861 31.2301 145.429 154.683 129.868 79.3749 57.3635 71.5556 35.5455 88.0659 83.127 172.516 43.8294 88.0659 83.127 43.8294 196.463 89.7362 188.607 178.339 87.4298 89.8764 89.7362 43.2966 87.4298 43.2966 221.285 214.04 218.654 107.314 106.727 101.177 46.5798 209.665 217.634 223.952 117.941 114.557 112.864 60.7337 199.256 222.701 189.377 110.466 95.1071 104.771 57.2074 215.198 217.998 226.25 112.397 104.149 117.931 53.2584 230.932 212.028 202.995 114.323 111.049 100.067 59.1383 223.11 210.746 227.13 99.7235 119.883 111.961 55.1846 207.548 197.22 205.056 94.3002 103.227 98.7849 44.5389 203.31 198.043 203.813 105.015 104.32 98.4351 49.7613 209.697 193.235 201.65 105.748 98.9893 99.608 55.2532 212.326 181.827 206.754 103.432 110.708 93.6273 50.495 215.187 204.335 172.943 113.308 101.618 88.1992 52.9369 197.312 200.866 216.049 99.74 113.569 116.136 60.3709 182.349 195.861 165.316 94.3412 83.7432 84.7301 39.3691 197.905 206.853 192.279 105.633 98.6061 111.13 54.9721 187.433 183.259 191.349 94.7107 99.2987 95.7225 50.6609 184.692 196.343 167.443 90.1914 88.1344 87.5361 44.0498 200.009 202.255 199.483 97.4055 96.558 108.807 46.1415 178.533 182.632 206.06 88.7416 103.451 93.4476 51.2639 146.773 167.179 164.032 75.6258 75.0826 89.1839 37.4777 166.443 147.783 139.867 83.5937 71.6905 77.9953 38.1482 169.345 154.474 164.007 85.3387 94.7525 69.7873 45.4456 157.943 181.119 161.934 88.9372 74.5926 84.6868 39.8932 186.035 182.562 170.963 100.683 83.3499 96.4326 49.044 180.033 160.134 181.048 86.4755 102.685 86.1299 51.639 171.355 161.329 151.571 86.743 77.3484 74.0037 34.8365 165.663 171.386 158.218 89.1698 94.0071 87.3255 51.9065 165.046 166.781 171.02 79.1099 71.6558 84.0604 37.2633 177.748 152.835 180.986 80.6025 93.3905 82.7211 41.8466 156.862 148.487 149.721 74.766 84.3574 70.1142 38.7559 156.955 160.529 147.138 75.3077 72.5047 78.3732 36.0101 84.4499 82.1557 177.132 39.2976 84.4499 82.1557 39.2976 200.529 88.6028 217.216 174.347 87.3722 98.7302 88.6028 44.1333 87.3722 44.1333 221.321 250.956 244.849 106.727 111.927 129.843 54.5969 203.664 228.323 255.915 99.6934 109.394 121.113 52.1301 216.37 228.992 211.96 112.235 94.2697 107.21 47.5633 214.047 218.885 243.774 105.601 122.101 121.782 64.6721 199.193 231.339 215.235 97.7052 91.9461 97.103 40.9292 209.075 230.654 237.009 111.022 107.247 134.236 56.7761 201.322 195.255 204.099 102.92 101.829 96.4175 54.246 202.154 200.874 199.167 93.0285 99.4931 98.8373 48.6738 198.707 196.878 226.663 87.4871 102.661 102.037 44.3548 167.371 173.328 198.418 78.3947 96.0465 94.841 43.1323 173.805 185.095 160.539 91.0271 71.325 78.4873 35.2624 184.053 207.463 202.017 101.126 102.48 106.608 55.7647 175.246 204.719 194.06 101.519 81.5728 100.855 45.361 185.723 198.776 191.392 101.22 93.6727 103.864 56.1583 171.359 192.099 185.291 88.5478 92.05 94.9119 45.0616 182.234 196.426 178.863 106.152 79.3086 97.1872 43.4862 205.534 187.796 182.481 104.849 102.925 99.2391 62.6658 191.558 182.615 193.398 93.8899 102.609 88.557 42.1837 157.126 179.657 183.963 91.5533 88.9493 94.0576 51.7062 137.431 153.1 148.32 64.1888 68.1765 85.5999 39.8471 156.596 160.416 151.385 69.1354 69.2541 67.5006 24.3417 174.955 188.903 174.858 92.1822 87.3417 92.9151 44.7937 165.977 181.139 183.762 81.8795 87.6133 95.9883 47.3886 152.587 169.558 180.214 73.6581 78.3637 85.1507 34.4909 138.434 149.546 151.944 74.5863 74.2231 84.4069 39.1672 163.575 158.615 137.058 82.2161 64.2109 65.1387 35.4191 186.959 184.701 186.94 87.6715 99.3641 93.4762 46.797 152.959 169.974 181.235 72.2327 87.595 91.2246 40.8745 139.997 161.09 158.447 73.7213 65.3639 78.7493 31.3582 167.316 176.121 145.833 85.2212 74.6335 82.3409 42.363 92.6825 93.7806 178.836 42.8581 92.6825 93.7806 42.8581 218.667 85.7444 265.812 211.11 104.817 118.486 85.7444 43.239 104.817 43.239 279.444 302.074 290.333 144.229 132.922 160.994 75.2466 264.212 263.446 307.354 128.63 146.521 141.08 68.9829 239.364 242.489 255.381 116.757 117.69 122.366 59.6468 244.962 242.354 261.449 113.284 121.673 120.123 57.11 253.052 267.656 259.893 133.634 123.289 122.231 56.1738 232.033 256.382 261.518 119.632 129.763 145.425 77.4601 201.945 232.725 223.868 92.3351 102.271 110.957 42.1716 223.677 249.775 247.214 107.846 99.6742 121.768 50.1635 226.374 225.549 251.464 109.391 124.003 128.006 57.6824 191.585 201.655 208.93 94.9336 102.371 97.5426 51.7087 188.751 206.282 204.965 94.0681 89.2144 104.112 43.2249 212.023 213.769 224.081 106.337 99.5366 102.17 50.8432 210.206 210.663 215.785 103.2 112.487 111.6 55.494 190.961 193.259 195.817 97.5565 97.7197 99.0633 47.7062 192.795 190.987 203.122 103.551 93.2414 94.1961 49.8503 179.11 176.676 195.536 90.2743 99.554 96.7905 53.7009 170.345 183.993 185.596 82.9467 79.5561 79.8858 36.5733 185.803 191.494 201.859 88.7247 90.7892 104.108 46.3733 175.158 179.008 184.606 88.1041 95.0141 87.3868 42.3513 162.274 179.811 155.261 88.9117 80.1434 91.6216 45.7528 169.647 171.709 166.394 91.2804 82.1308 88.189 43.1589 183.666 167.792 179.521 96.7212 87.5165 83.52 48.1215 198 167.733 183.093 99.2595 96.149 84.2722 48.5997 179.572 168.359 175.076 95.8995 101.851 83.4613 50.6598 150.568 151.499 155.759 74.9593 77.7213 84.8974 45.2397 160.423 169.389 161.828 76.3988 72.8467 66.6012 29.7196 181.216 194.155 192.005 97.0293 87.5761 102.787 46.6792 186.723 179.15 176.421 97.7412 93.64 91.368 50.3501 164.283 167.138 180.779 87.3689 93.0833 87.7816 47.3911 157.353 167.242 147.319 90.9003 71.1995 79.3561 39.9778 86.1538 87.8858 169.822 50.9225 86.1538 87.8858 50.9225 282.776 125.366 326.807 295.291 144.998 147.326 125.366 61.5784 144.998 61.5784 318.243 337.338 344.627 157.845 157.41 181.81 85.7477 298.523 307.845 331.185 134.816 160.833 155.528 72.0968 277.466 293.439 322.298 125.733 137.69 152.317 62.7195 276.38 286.649 297.6 129.071 139.776 141.122 63.0132 268.36 304.008 300.416 134.022 136.604 145.527 66.0575 253.353 300.633 299.511 136.75 131.756 158.481 67.9646 269.138 278.739 277.012 140.39 121.598 142.152 68.7855 275.001 272.824 302.042 141.929 147.54 136.586 71.6049 234.02 246.649 264.895 116.158 127.461 136.237 70.324 222.309 223.396 238.928 106.721 106.559 110.411 45.8339 240.294 234.949 243.122 112.214 115.75 112.984 60.8873 227.842 236.123 257.944 107.432 124.544 121.965 51.3267 201.396 205.989 207.97 107.463 103.298 114.158 56.1055 207.979 189.21 201.986 95.703 98.0978 91.8306 51.3572 205.863 192.812 217.939 87.4353 109.881 97.3793 44.3458 202.023 187.14 214.434 86.4019 95.9825 95.4329 43.0895 217.11 208.032 213.087 101.047 106.04 91.7069 43.3124 200.661 214.926 218.897 102.77 111.07 116.325 57.7342 164.709 188.087 185.603 90.9044 89.5915 98.6012 45.0355 159.381 181.038 171.234 90.8989 75.118 89.4858 45.8688 176.267 171.934 184.541 80.4286 84.2633 91.552 45.0301 178.948 154.521 169.703 71.071 92.0042 80.3818 35.3985 160.169 160.504 160.133 68.4739 86.9437 74.1393 35.6725 151.263 168.011 169.992 72.4592 73.225 86.3645 32.8015 167.019 157.885 165.675 76.5392 78.0379 81.6467 39.6577 193.41 177.246 172.368 92.9898 88.9812 76.2379 36.8815 187.21 176.025 190.176 97.1262 104.429 101.008 56.1082 170.477 166.863 161.012 81.4085 82.7811 75.0164 41.0179 163.815 166.925 184.85 79.7688 87.6954 91.8463 40.3905 159.788 144.931 155.608 76.3415 76.1195 75.0789 39.3782 83.6684 69.852 164.811 36.9633 83.6684 69.852 36.9633 357.142 169.925 179.481 169.925 83.4193 179.481 169.925 83.4193 83.4193 83.4193 357.568 179.493 187.217 179.493 187.217 96.062 96.062 354.959 173.029 170.352 173.029 170.352 83.4312 83.4312 342.431 167.706 184.607 167.706 184.607 89.5976 89.5976 321.636 157.578 157.824 157.578 157.824 78.1087 78.1087 331.567 169.986 163.812 169.986 163.812 79.4698 79.4698 323.169 163.883 167.755 163.883 167.755 90.5161 90.5161 309.916 138.348 155.414 138.348 155.414 73.367 73.367 291.936 130.895 154.502 130.895 154.502 64.9814 64.9814 269.803 130.491 137.434 130.491 137.434 65.9133 65.9133 259.741 116.674 132.369 116.674 132.369 64.5776 64.5776 260.771 122.735 127.371 122.735 127.371 52.0968 52.0968 238.071 128.691 133.4 128.691 133.4 70.638 70.638 208.56 98.5263 104.671 98.5263 104.671 58.0528 58.0528 211.947 93.507 103.889 93.507 103.889 40.4734 40.4734 226.509 105.377 108.058 105.377 108.058 53.0335 53.0335 225.498 100.738 118.451 100.738 118.451 52.3433 52.3433 214.874 106.985 107.047 106.985 107.047 48.3945 48.3945 203.839 112.156 107.827 112.156 107.827 58.5908 58.5908 192.127 97.1826 96.0115 97.1826 96.0115 53.5657 53.5657 196.394 90.1389 96.1159 90.1389 96.1159 43.617 43.617 177.977 91.5052 100.278 91.5052 100.278 46.5219 46.5219 150.888 83.45 77.6985 83.45 77.6985 44.9832 44.9832 169.956 92.0298 73.1892 92.0298 73.1892 38.4668 38.4668 184.404 95.552 96.7672 95.552 96.7672 53.563 53.563 171.023 81.3454 87.6366 81.3454 87.6366 41.989 41.989 169.134 84.2566 83.3864 84.2566 83.3864 39.3564 39.3564 163.978 78.8987 85.7472 78.8987 85.7472 44.9002 44.9002 175.385 85.4542 78.2304 85.4542 78.2304 33.9985 33.9985 176.643 87.1564 97.155 87.1564 97.155 51.4557 51.4557 160.631 68.5894 79.4882 68.5894 79.4882 35.7007 35.7007 81.1429 32.8887 81.1429 32.8887 81.1429 32.8887 32.8887 199.206 213.894 101.195 412.453 213.894 339.602 353.561 159.782 101.195 199.206 213.894 101.195 159.782 101.195 209.999 198.559 407.543 386.192 360.346 98.0112 209.999 198.559 179.82 98.0112 206.086 208.984 416.145 387.071 379.272 111.987 206.086 208.984 206.372 111.987 180.797 207.161 386.923 334.889 375.892 94.0986 180.797 207.161 180.699 94.0986 174.145 179.762 366.011 331.241 325.496 86.6989 174.145 179.762 154.19 86.6989 174.057 186.249 371.887 344.359 338.052 87.4459 174.057 186.249 177.051 87.4459 153.349 185.639 328.921 299.931 347.204 86.6112 153.349 185.639 167.308 86.6112 131.704 143.283 273.531 278.314 277.344 66.738 131.704 143.283 132.623 66.738 136.466 130.249 265.593 268.932 275.965 64.9656 136.466 130.249 145.69 64.9656 141.865 135.344 287.114 259.269 243.425 71.5009 141.865 135.344 123.242 71.5009 133.408 151.77 278.21 251.654 284.755 70.3637 133.408 151.77 136.027 70.3637 134.48 126.441 267.57 242.82 234.731 63.0438 134.48 126.441 115.627 63.0438 140.633 141.129 284.503 249.696 248.305 71.4363 140.633 141.129 127.193 71.4363 121.747 143.374 269.023 224.369 259.448 69.1964 121.747 143.374 122.503 69.1964 113.555 125.649 244.431 224.95 234.965 52.5508 113.555 125.649 101.866 52.5508 116.993 118.781 218.878 226.949 242.062 61.0045 116.993 118.781 123.083 61.0045 107.422 100.097 199.054 195.797 202.585 55.9883 107.422 100.097 103.865 55.9883 93.0426 98.9568 193.925 182.297 194.303 51.4333 93.0426 98.9568 91.9314 51.4333 95.6707 94.9679 201.23 187.992 199.216 41.6093 95.6707 94.9679 90.3659 41.6093 112.356 106.263 213.729 201.263 189.101 54.0614 112.356 106.263 97.6257 54.0614 101.903 107.467 195.005 199.71 190.815 58.2942 101.903 107.467 103.637 58.2942 88.1815 87.5388 175.198 194.902 183.633 43.6089 88.1815 87.5388 96.0723 43.6089 90.0933 87.6591 172.039 199.348 186.325 44.5726 90.0933 87.6591 98.83 44.5726 83.7649 84.3799 166.304 196.733 181.524 45.5207 83.7649 84.3799 100.518 45.5207 77.7894 81.924 168.333 182.309 184.257 38.2442 77.7894 81.924 96.2141 38.2442 88.0378 86.4093 179.931 165.951 169.832 39.5452 88.0378 86.4093 86.0952 39.5452 78.8919 93.522 155.272 156.02 159.462 48.4925 78.8919 93.522 79.8554 48.4925 73.0969 61.7495 139.834 149.526 139.666 30.3994 73.0969 61.7495 76.1648 30.3994 79.2507 78.0844 158.877 154.216 144.672 42.6975 79.2507 78.0844 73.3614 42.6975 77.8367 80.7922 161.743 160.002 151.289 36.5532 77.8367 80.7922 80.8546 36.5532 82.5446 80.9503 166.032 168.159 151.106 41.2835 82.5446 80.9503 79.1471 41.2835 41.2611 85.0817 85.0817 89.012 163.077 41.2611 41.2611 85.0817 89.012 41.2611 301.454 139.667 270.975 240.713 111.443 140.396 139.667 58.5872 111.443 58.5872 332.075 311.128 304.968 176.193 161.787 159.532 81.8088 339.019 300.442 303.473 180.985 170.288 151.596 94.3845 314.466 271.015 298.889 154.092 168.731 148.846 86.6008 297.537 273.669 254.069 157.096 145.734 122.169 67.491 313.368 299.91 279.85 170.302 151.803 151.5 89.6052 295.627 280.794 298.051 146.582 161.565 148.41 80.6964 279.778 275.44 249.425 146.61 134.061 132.384 65.8854 253.798 247.893 268.626 132.465 145.717 143.056 80.7247 241.066 212.677 221.324 117.404 108.081 104.837 51.7407 241.276 206.511 239.562 118.247 132.985 107.84 65.6634 215.466 212.367 202.867 108.34 108.291 98.671 52.5831 223.25 218.379 211.05 109.063 107.176 113.696 55.7572 225.389 200.785 209.82 102.622 116.074 104.683 53.3062 232.596 211.219 202.013 111.395 109.315 96.102 49.3155 225.768 204.763 214.098 109.956 123.28 115.117 62.079 197.834 178.255 191.751 88.3751 102.488 89.6464 47.877 199.594 184.041 190.515 89.2547 95.3462 88.6082 40.4981 187.087 182.493 193.99 92.3209 104.248 95.4324 48.7566 166.188 187.356 185.509 88.9075 82.8386 87.061 43.5643 179.443 200.272 164.857 97.8067 83.3489 100.295 45.3432 194.76 189.456 185.05 106.721 96.0942 99.9775 52.4634 195.809 191.704 169.938 109.255 98.6656 89.4785 54.2574 199.476 192.095 188.006 112.968 97.1438 102.225 54.9977 185.756 181.444 183.548 104.52 102.333 89.8701 57.9699 149.363 165.003 173.638 77.9128 83.423 91.5736 46.55 143.857 157.863 147.598 77.1283 65.9402 73.4297 31.3629 144.504 160.382 149.358 76.4293 77.9163 84.4331 45.7654 137.085 150.861 161.249 74.9652 66.5875 75.9492 30.6639 140.653 134.593 130.708 82.165 70.4972 74.9117 44.3014 148.151 151.669 130.509 85.6145 70.1557 59.6816 37.8636 77.9953 91.9874 151.039 47.7509 77.9953 91.9874 47.7509 244.228 101.046 237.166 186.627 99.295 130.579 101.046 52.8554 99.295 52.8554 276.366 248.906 269.715 134.935 143.181 137.871 77.7236 263.343 211.18 248.295 119.457 133.185 111.035 57.2116 238.493 205.714 219.729 116.923 130.158 100.145 62.2451 236.383 219.374 223.534 116.573 108.335 105.569 54.6779 264.533 246.217 232.775 129.608 128.047 113.805 61.8949 251.849 257.599 258.571 134.212 136.486 132.412 67.7132 238.273 242.078 233.577 128.83 115.364 125.188 66.499 236.152 213.723 236.788 115.428 122.909 116.89 62.3314 219.819 199.222 218.82 95.2727 113.243 96.8327 53.0966 201.152 197.158 211.091 88.2641 106.576 102.389 42.1762 198.45 205.906 200.373 104.027 94.5761 94.7693 46.088 197.62 206.888 196.935 109.316 103.874 111.137 57.9387 186.443 186.171 186.57 98.1634 93.7457 95.751 51.377 183.515 192.096 174.102 99.8244 92.6976 90.4204 46.7865 180.08 187.53 186.985 94.8074 90.8173 101.676 53.038 184.431 184.38 177.617 89.8795 89.2627 85.854 41.7694 184.911 197.389 179.923 94.7858 95.1684 98.5266 48.11 192.412 179.964 191.488 90.1725 89.7423 98.8625 46.6758 184.179 169.595 194.131 98.4481 102.67 81.1017 43.4967 170.464 185.315 164.364 102.465 81.5084 88.4937 54.9513 160.229 166.742 181.148 82.7352 88.9557 96.821 47.5141 162.135 151.454 153.626 82.4485 71.2728 69.9206 35.2211 172.077 164.479 171.872 79.1275 90.8621 81.5333 47.2274 171.431 170.481 181.024 76.9238 81.2154 82.9458 31.9002 171.873 171.703 172.759 87.0905 90.2152 87.5355 45.0236 153.099 157.228 162.844 80.7345 81.658 84.1675 42.0669 166.103 169.889 154.471 83.9529 71.4412 73.0601 38.6676 154.872 173.041 192.36 75.8956 94.6613 96.8292 45.2853 120.564 134.524 147.952 52.4283 60.2109 76.2118 30.6103 133.397 147.701 147.135 66.0545 60.3534 58.3125 21.818 73.0441 89.3889 154.551 44.2365 73.0441 89.3889 44.2365 212.115 85.5811 208.386 164.707 90.9091 106.587 85.5811 46.4396 90.9091 46.4396 241.644 228.565 234.16 113.971 126.534 117.477 60.1475 204.681 195.694 231.664 91.7234 115.11 111.088 53.8237 204.771 192.926 189.535 88.7907 89.5712 84.6062 37.8997 219.927 211.247 219.508 102.801 115.199 108.319 50.8909 226.814 218.096 202.657 116.609 104.728 102.927 51.9104 240.299 221.44 220.88 123.387 122.086 115.169 64.6984 232.092 211.65 220.453 113.248 118.213 106.271 58.6886 219.455 207.42 210.077 98.2951 113.879 105.378 54.559 210.091 215.169 207.426 103.949 105.577 102.042 43.7361 210.312 197.871 216.934 108.894 104.515 113.127 60.2128 198.858 184.657 177.409 101.879 105.797 84.7439 48.6813 185.885 180.499 193.228 97.5722 93.0611 99.9135 53.1981 174.228 161.734 163.777 88.008 92.8244 80.5859 44.3741 177.571 176.775 171.909 92.2717 81.404 81.1483 43.6339 184.521 175.533 195.544 92.7223 96.1674 95.6262 48.6378 173.108 170.583 175.187 94.5011 88.354 79.9069 44.0845 186.5 203.288 169.22 102.603 84.7544 90.6758 50.4165 193.206 187.46 215.977 89.7916 101.745 112.612 52.1867 174.316 136.72 187.201 71.1473 91.4606 74.8479 37.6049 175.048 156.091 148.923 82.8493 82.8553 61.8717 33.5423 174.546 171.467 184.756 84.0064 92.1924 94.2193 49.3069 163.363 151.778 173.053 69.0054 82.3533 77.2475 34.6995 180.818 169.449 156.808 85.3515 81.0099 74.5306 34.3059 182.352 172.486 182.994 93.5575 99.8084 94.9184 51.0456 163.73 148.46 170.062 84.6125 82.5435 77.5678 42.5119 164.216 157.852 153.679 76.4931 81.1864 70.8924 42.1006 180.729 185.224 178.969 85.9364 83.0297 86.9595 34.3924 185.44 177.872 176.394 97.1454 97.6992 98.2645 51.5439 174.523 148.372 149.411 82.096 87.7407 79.6071 45.6014 168.289 163.742 148.342 81.6469 86.7821 68.765 36.4946 81.5074 94.9767 158.181 45.1523 81.5074 94.9767 45.1523 186.752 79.1258 201.98 186.439 86.9749 101.799 79.1258 44.4695 86.9749 44.4695 224.18 249.808 213.901 114.594 107.626 115.006 57.3296 216.518 239.552 260.15 103.971 116.554 134.802 57.264 204.272 226.742 234.977 104.135 99.9639 104.75 46.7065 202.237 240.124 239.273 108.445 104.309 121.992 57.4285 196.723 220.905 231.104 101.487 97.9287 118.132 51.0169 201.034 210.455 200.871 98.0532 98.794 102.773 50.4705 198.438 208.012 210.963 98.4021 102.24 107.682 47.5827 198.048 224.956 194.534 109.125 96.1988 100.33 50.8193 214.269 228.203 210.997 111.22 101.849 124.626 58.3059 184.032 185.629 227.447 88.9768 112.42 103.577 52.9142 171.779 177.461 171.731 82.7779 71.6121 82.052 36.0626 171.12 188.613 197.117 82.9271 100.167 95.4088 46.7153 161.458 180.733 182.851 73.7262 70.9528 93.2046 36.2118 189.882 177.907 196.076 84.5028 90.5052 87.5279 37.5144 186.21 172.055 188.207 82.8108 99.3768 90.3795 46.9884 171.299 164.918 177.832 76.0817 86.8334 81.6754 35.8224 198.698 188.083 171.785 100.685 84.4657 83.2421 40.2593 209.972 194.747 207.556 97.6684 114.232 104.841 60.4254 161.807 152.626 191.061 65.5724 95.7401 89.9058 37.243 158.631 146.604 131.742 73.2418 66.0673 62.72 28.3294 183.263 165.827 175.891 87.4604 92.564 83.8843 44.9124 166.497 169.717 180.321 82.7727 90.6995 81.9431 42.548 158.984 182.838 172.941 84.0975 75.798 87.774 40.2247 170.704 162.601 180.644 78.9287 83.1858 95.0635 43.8728 160.011 139.456 157.499 63.8477 87.5185 67.5375 35.0559 168.432 165.383 151.24 81.3589 72.4927 71.9188 28.7918 174.634 183.474 172.355 99.2877 95.9389 93.464 52.5671 140.366 169.708 153.35 80.7262 78.6951 90.0105 46.7206 123.23 143.19 156.781 66.2761 61.6706 79.6978 34.0056 138.233 148.548 127.756 82.0948 61.5599 63.4921 32.2705 76.6735 85.0556 161.038 49.8244 76.6735 85.0556 49.8244 213.588 107.313 235.631 230.846 106.293 100.181 107.313 42.5054 106.293 42.5054 249.87 295.613 258.371 135.214 106.274 129.339 57.6759 278.609 299.288 322.675 135.582 143.596 166.274 77.5383 269.977 274.34 299.399 122.607 135.013 133.014 58.0436 268.14 278.988 292.038 131.678 134.964 141.326 64.5632 235.253 253.755 276.481 119.418 133.176 137.662 67.115 210.801 229.005 226.077 112.402 102.077 116.094 52.3027 207.059 238.357 233.981 109.61 108.724 112.911 60.099 207.483 248.903 239.642 115.831 98.335 125.446 49.5107 224.175 234.845 223.576 116.983 109.148 123.457 66.3204 215.146 212.24 229.901 96.6518 115.027 111.387 50.6624 197.069 222.763 214.624 94.6829 100.119 100.852 45.9895 208.848 226.096 224.057 105.686 96.9503 121.911 48.6935 217.469 200.94 215.188 107.006 111.898 104.186 56.9928 194.401 205.68 206.003 93.4046 105.571 96.7542 50.0135 179.828 207.672 203.973 89.2441 88.83 108.926 43.3911 178.318 204.457 182.873 88.8358 90.9983 98.746 45.853 180.643 203.462 195.607 87.3986 87.3195 105.711 42.9828 188.645 194.97 198.053 97.0786 93.3239 97.7513 44.4158 160.996 160.859 183.57 87.0534 95.3214 97.2188 52.6628 149.001 141.845 132.906 73.3625 65.6743 63.6397 34.3906 172.949 174.206 178.641 78.3669 83.3267 78.2051 38.9719 186.765 194.821 187.919 86.9443 89.6219 96.0007 39.395 194.601 190.435 196.999 98.7401 97.1434 98.8206 47.5493 167.438 162.476 179.378 83.6723 97.4579 91.6143 51.1908 148.728 166.088 149.393 75.6086 69.9805 70.8618 32.4816 155.164 184.444 171.736 84.0239 78.7475 95.2267 43.127 151.071 174.271 154.957 84.1868 76.4166 89.2176 40.8969 169.765 178.05 157.861 88.9821 74.6549 85.0531 43.2899 161.307 160.96 180.427 76.9139 95.1103 92.9971 45.6922 150.561 149.899 139.345 66.453 66.1965 67.9629 31.2217 84.365 81.9364 175.976 35.2313 84.365 81.9364 35.2313 275.629 123.532 313.11 289.34 150.293 135.45 123.532 63.7872 150.293 63.7872 331.176 338.474 336.668 160.399 152.097 162.817 71.6627 343.465 345.637 351.698 163.707 179.079 175.657 88.7359 321.46 326.458 342.046 151.733 164.386 169.98 74.9707 300.379 311.367 338.087 147.309 157.074 156.478 76.7627 267.305 295.919 319.254 134.338 143.305 154.889 70.5466 249.258 275.89 287.325 116.603 124.001 141.03 63.791 266.564 300.315 287.637 128.748 125.257 134.86 52.8124 255.735 294.113 299.314 133.072 141.307 165.456 75.9353 229.302 257.174 263.534 117.862 114.428 128.658 57.137 229.379 258.654 252.445 115.588 114.874 128.517 60.7251 241.611 266.117 255.481 128.08 114.505 130.137 54.8629 230.397 229.79 239.152 120.41 127.107 135.979 73.2173 203.722 203.967 221.563 93.9333 103.29 93.8112 47.1927 215.574 230.716 224.833 112.276 100.432 110.156 46.7406 207.017 239.561 222.775 118.428 115.143 120.56 65.535 200.162 240.381 209.638 115.621 91.8746 119.001 52.893 213.017 223.952 213.157 116.063 108.287 121.38 62.7278 192.978 189.573 204.153 97.8914 104.729 102.572 53.3354 155.48 168.75 162.356 73.8051 88.2485 87.0019 44.556 162.546 174.737 162.049 68.4823 67.2317 81.7481 29.2491 193.612 182.31 188.186 95.8389 95.3143 92.9893 39.2332 198.153 175.315 182.061 107.877 98.2975 89.321 56.6057 181.775 169.621 176.055 91.6948 99.8555 85.9936 51.2713 161.332 167.656 175.385 78.8037 81.9197 83.6277 40.4235 172.401 180.158 168.084 90.4798 79.4123 84.0278 38.3802 171.529 185.297 169.909 100.42 92.9887 96.1297 52.0996 161.747 175.163 150.252 90.0838 78.5403 89.1677 48.3207 168.524 178.999 168.764 89.068 83.2064 85.9951 41.7631 158.465 173.533 162.555 84.0461 85.3171 93.0041 47.3049 164.759 175.488 143.536 83.4464 73.1483 80.5288 36.7412 91.6106 94.9593 189.825 46.7052 91.6106 94.9593 46.7052 350.379 165.808 177.66 165.808 86.5058 177.66 165.808 86.5058 86.5058 86.5058 357.19 178.075 184.571 178.075 184.571 91.1547 91.1547 350.279 181.93 172.619 181.93 172.619 86.9207 86.9207 358.673 174.725 177.66 174.725 177.66 95.0098 95.0098 356.962 164.057 181.013 164.057 181.013 79.7151 79.7151 339.274 161.581 175.949 161.581 175.949 84.3424 84.3424 325.705 159.286 163.325 159.286 163.325 77.2391 77.2391 320.387 171.568 162.38 171.568 162.38 82.0473 82.0473 307.112 161.041 158.007 161.041 158.007 89.5203 89.5203 286.676 139.312 149.106 139.312 149.106 71.5207 71.5207 278.547 143.066 137.571 143.066 137.571 67.7917 67.7917 253.022 138.036 140.976 138.036 140.976 75.2746 75.2746 230.319 109.38 112.046 109.38 112.046 62.7618 62.7618 242.674 110.034 118.273 110.034 118.273 46.6185 46.6185 232.034 118.44 124.401 118.44 124.401 63.4152 63.4152 225.396 121.133 107.633 121.133 107.633 55.0247 55.0247 222.633 124.76 117.763 124.76 117.763 66.1079 66.1079 204.293 107.888 104.869 107.888 104.869 58.6523 58.6523 173.531 91.682 99.4237 91.682 99.4237 49.2362 49.2362 168.925 94.9448 74.1073 94.9448 74.1073 42.4459 42.4459 187.689 106.255 94.8172 106.255 94.8172 52.499 52.499 176.635 86.4713 92.8714 86.4713 92.8714 53.7561 53.7561 159.963 67.4376 83.7639 67.4376 83.7639 32.7152 32.7152 169.664 77.9266 76.1993 77.9266 76.1993 34.7224 34.7224 182.137 88.8518 93.4649 88.8518 93.4649 43.2042 43.2042 165.592 89.6777 88.6717 89.6777 88.6717 45.6476 45.6476 148.632 84.8771 76.9207 84.8771 76.9207 44.03 44.03 157.269 85.0789 71.7116 85.0789 71.7116 40.847 40.847 162.795 89.9312 85.5576 89.9312 85.5576 44.2319 44.2319 147.625 89.4868 77.2379 89.4868 77.2379 45.6993 45.6993 168.601 92.0417 70.3872 92.0417 70.3872 43.7875 43.7875 98.214 48.2542 98.214 48.2542 98.214 48.2542 48.2542 213.246 218.893 112.699 409.875 218.893 374.304 378.493 193.779 112.699 213.246 218.893 112.699 193.779 112.699 197.544 190.981 373.914 353.426 343.786 100.547 197.544 190.981 180.526 100.547 210.059 182.933 400.708 368.093 346.773 96.9968 210.059 182.933 172.9 96.9968 206.125 217.775 404.232 366.499 379.33 113.062 206.125 217.775 195.193 113.062 191.866 186.457 364.645 332.307 329.598 93.0631 191.866 186.457 171.306 93.0631 197.83 178.189 384.667 340.897 321.347 98.8028 197.83 178.189 161 98.8028 175.572 206.479 364.268 324.617 353.022 99.0275 175.572 206.479 179.897 99.0275 141.828 157.789 302.578 274.996 295.147 76.5446 141.828 157.789 144.72 76.5446 129.126 144.789 281.786 250.459 273.206 65.283 129.126 144.789 130.275 65.283 145.249 136.997 304.415 268.911 262.695 63.8434 145.249 136.997 120.183 63.8434 144.803 167.418 289.922 267.832 289.019 81.4058 144.803 167.418 148.728 81.4058 133.09 122.504 249.057 240.216 248.857 63.3971 133.09 122.504 119.105 63.3971 143.871 126.553 266.439 258.057 231.742 69.6927 143.871 126.553 121.111 69.6927 147.276 139.886 272.947 270.044 269.788 74.1778 147.276 139.886 136.945 74.1778 130.875 133.061 247.746 252.077 246.831 73.0985 130.875 133.061 133.098 73.0985 101.885 114.686 214.332 217.698 230.75 57.7769 101.885 114.686 118.978 57.7769 91.6321 99.6466 199.847 201.091 203.071 44.1086 91.6321 99.6466 98.7196 44.1086 100.882 100.201 211.313 211.222 214.316 47.5235 100.882 100.201 102.372 47.5235 105.56 111.112 213.046 200.326 212.253 53.3585 105.56 111.112 108.85 53.3585 101.374 101.934 200.543 178.654 190.901 52.2013 101.374 101.934 91.4756 52.2013 93.1023 98.6097 205.176 174.739 184.628 49.1724 93.1023 98.6097 87.1781 49.1724 87.0164 106.566 179.431 175.055 194.672 43.9299 87.0164 106.566 87.5607 43.9299 81.9457 72.865 160.594 168.5 165.641 43.0865 81.9457 72.865 87.4947 43.0865 82.5389 87.729 165.042 169.048 177.37 38.8592 82.5389 87.729 81.0052 38.8592 90.5439 77.3128 162.494 171.78 160.687 43.6798 90.5439 77.3128 88.0425 43.6798 91.8935 85.1809 167.561 163.344 153.18 46.8641 91.8935 85.1809 83.7371 46.8641 76.3796 82.3796 149.05 143.108 161.587 45.0295 76.3796 82.3796 79.6068 45.0295 66.7371 66.6703 138.684 134.812 149.32 31.3501 66.7371 66.6703 63.5011 31.3501 79.6259 72.0133 159.804 141.745 143.609 35.3869 79.6259 72.0133 71.3105 35.3869 83.9059 87.7903 168.588 142.394 154.66 44.239 83.9059 87.7903 70.4349 44.239 83.4874 80.7974 161.388 146.024 153.964 39.6668 83.4874 80.7974 71.9589 39.6668 43.8206 80.5909 80.5909 74.065 155.196 43.8206 43.8206 80.5909 74.065 43.8206 312.405 159.6 274.707 258.301 129.271 161.058 159.6 81.0798 129.271 81.0798 316.645 297.313 281.471 155.882 152.805 145.436 79.9783 325.395 301.92 309.173 158.034 163.841 151.877 75.9033 304.696 281.944 290.368 160.374 161.554 150.043 82.1307 286.3 260.25 259.674 140.441 143.142 131.9 78.2431 289.702 277.992 272.32 143.067 143.159 128.35 62.1976 283.901 266.682 273.113 149.045 146.543 149.641 80.8691 265.775 242.611 242.481 133.168 137.358 117.041 68.1758 254.115 242.056 254.362 121.332 128.417 125.57 64.9922 247.299 248.208 245.095 123.662 125.698 116.486 56.34 247.954 235.918 235.722 123.029 121.601 131.722 67.3219 231.542 201.55 227.757 107.126 126.353 104.196 55.7074 235.09 202.49 205.407 114.186 105.189 97.3541 51.4188 243.672 211.047 229.26 122.768 129.902 105.136 62.7676 229.835 204.892 206.351 121.201 113.771 105.911 60 219.489 201.085 211.776 115.812 116.064 98.9807 61.2013 217.54 204.011 193.63 109.459 103.425 102.104 54.611 215.256 200.464 215.972 110.34 114.115 101.906 54.8481 190.108 197.006 189.836 94.7658 101.141 98.558 55.4915 174.986 163.01 190.738 77.28 88.9673 98.4477 39.2743 174.125 149.635 166.285 81.6364 86.0188 64.5628 38.0057 180.882 165.532 159.226 88.039 88.1059 85.0724 43.6308 182.417 166.241 159.297 86.5542 92.7765 80.4598 44.4082 173.015 179.459 180.014 86.5087 89.6409 85.7808 42.146 151.374 175.742 172.827 81.2357 83.3745 93.6779 44.3627 147.206 156.233 148.528 71.4503 67.9991 82.0645 36.873 161.857 139.093 155.438 66.7283 79.2072 74.1684 34.5774 154.246 150.224 151.67 68.0745 82.6499 64.9245 32.1509 138.465 141.096 157.92 62.1194 71.5959 85.2996 35.9236 140.036 126.624 135.619 58.4879 66.8694 55.7964 26.1958 147.772 129.88 151.631 62.5366 73.1666 70.8275 32.2921 74.6053 59.052 149.277 30.2445 74.6053 59.052 30.2445 227.368 98.701 219.176 188.48 87.3323 113.649 98.701 48.1908 87.3323 48.1908 273.999 269.104 253.673 141.431 128.667 131.844 65.4578 274.146 256.844 258.524 143.886 145.332 137.259 75.9733 245.346 237.55 228.202 121.57 128.813 119.584 67.9128 245.694 236.936 241.228 119.81 116.532 117.966 53.6572 255.731 245.13 239.659 134.925 129.161 118.97 66.1526 231.693 234.549 253.324 117.637 126.57 126.16 68.7723 231.068 228.287 215.477 109.443 105.123 108.389 48.865 245.343 241.884 239.159 120.724 125.945 119.898 60.5779 233.519 230.689 227.947 124.546 119.398 121.987 60.1463 215.525 214.306 200.577 112.888 114.121 108.702 64.4002 201.623 191.402 200.421 94.4235 101.404 105.604 48.4882 199.577 176.617 198.898 88.3041 100.219 85.7983 45.9353 191.939 174.5 209.135 88.2799 99.3588 90.8191 42.3687 188.292 168.99 171.411 83.6905 92.5805 83.6812 45.9111 185.917 177.072 184.309 85.2726 95.7119 85.3089 37.7793 192.062 173.159 177.315 94.5517 90.2048 91.7628 47.4933 190.552 174.021 182.029 90.1249 101.857 81.3962 47.0584 190.466 205.654 187.284 102.24 88.6952 92.6252 43.0665 182.037 188.899 189.022 85.7305 101.771 113.029 59.1734 151.386 160.197 161.489 67.9987 80.2666 75.87 26.5571 137.64 168.033 150.881 77.4933 71.1197 84.3271 41.4416 156.893 174.044 151.486 79.6864 66.5204 83.7055 36.0517 179.825 188.417 180.2 92.95 90.3728 90.3387 43.6348 169.981 183.301 189.786 94.5067 89.4522 98.0779 49.3152 156.76 163.9 155.131 84.7826 80.5284 85.2232 45.1916 145.252 160.088 155.628 72.3647 76.2312 78.6768 39.5911 155.345 176.942 143.735 82.1496 69.0204 81.4109 32.7736 155.074 167.271 172.47 78.9766 86.3242 95.5312 49.376 147.214 160.563 158.953 68.136 68.7497 71.7398 29.6006 153.137 153.986 172.65 67.3429 78.4647 88.8229 38.5354 74.6718 65.1626 149.782 28.8075 74.6718 65.1626 28.8075 214.785 89.7791 190.481 159.623 73.7978 105.528 89.7791 39.1415 73.7978 39.1415 238.197 237.259 226.541 127.673 125.006 116.683 66.3864 212.581 225.505 219.965 112.958 113.192 120.576 61.2862 224.085 216.117 217.138 115.98 99.3889 104.929 51.6715 235.193 210.918 212.372 117.126 124.696 111.188 64.3083 237.252 205.44 216.747 110.205 110.498 99.7293 52.8176 237.109 219.892 226.309 116.912 126.754 105.711 57.3873 223.568 218.881 206.46 118.844 110.354 114.181 59.5244 221.763 210.083 211.886 121.16 113.213 104.699 59.3197 195.005 209.191 190.831 106.143 108.549 105.384 61.8405 185.473 196.473 192.872 101.418 86.4557 103.807 44.302 197.697 185.98 178.107 96.9788 99.0173 92.6654 57.1158 208.456 176.506 187.178 88.3133 98.6798 93.3143 39.8629 188.607 173.952 182.428 86.2204 109.776 83.1913 48.4503 167.428 190.679 180.736 85.2997 78.8309 90.7609 37.7701 175.708 195.198 194.858 91.7991 88.5975 99.918 47.5296 167.282 173.825 188.188 78.6074 87.11 95.2805 44.2695 178.761 181.909 183.446 83.8966 80.1724 78.5443 34.3379 185.84 215.718 201.956 103.414 98.5888 103.365 49.5587 168.473 199.404 183.543 103.169 87.2513 112.353 53.8557 160.984 177.588 163.785 92.1984 81.222 87.0508 49.3129 164.727 186.342 174 90.5393 79.7615 90.5371 42.8855 174.793 178.083 174.087 94.3578 84.9654 95.8053 47.6538 190.161 170.353 176.343 95.4668 89.8274 82.2773 46.704 174.937 180.57 182.94 88.7944 100.334 88.0758 48.7628 154 175.281 160.626 79.1174 74.603 92.4942 40.0316 154.112 174.796 160.944 87.723 79.397 82.7867 39.0858 160.861 170.139 162.424 94.7925 74.7148 92.0091 48.6373 176.35 147.934 145.927 88.2945 86.1459 78.1298 46.1552 184.389 149.381 163.702 92.4268 90.2037 69.8042 42.1393 169.295 142.781 175.572 86.6426 94.185 79.577 50.2875 75.1098 63.2042 152.216 36.355 75.1098 63.2042 36.355 171.378 69.8436 198.359 185.818 99.4643 84.953 69.8436 34.6563 99.4643 34.6563 208.308 224.243 206 109.587 101.535 98.8952 50.2966 224.523 255.574 235.55 112.547 106.773 125.348 59.2899 205.426 247.507 267.399 100.137 117.749 130.226 53.2574 193.926 230.253 222.991 93.7918 87.6764 117.281 46.88 205.804 211.07 243.962 95.2353 106.249 112.972 46.9118 195.66 201.379 202.77 102.981 99.5545 98.0977 48.3235 194.778 197.485 206.228 100.036 96.1054 103.282 54.657 180.954 180.575 196.115 88.9229 98.6723 94.2037 45.3794 188.698 210.241 183.27 103.049 82.2818 86.3708 43.5435 185.506 213.549 232.443 95.0549 106.416 123.87 59.5054 167.587 191.387 183.239 89.0009 79.0893 89.6791 35.5495 161.15 191.354 181.587 88.1924 88.498 101.708 53.4514 174.557 198.194 177.169 87.7319 72.6522 89.646 34.741 208.166 206.376 199.079 105.379 101.905 108.548 52.9909 207.339 193.984 210.085 103.399 106.261 97.8273 52.3884 204.351 184.699 192.967 95.2174 101.078 96.1563 51.011 206.641 191.258 180.846 98.0129 103.273 88.5431 44.2064 199.659 203.87 188.425 112.304 103.368 102.715 53.8065 178.854 170.177 188.78 96.2349 96.2914 101.156 58.497 176.801 161.028 167.644 85.3895 82.5626 69.0216 37.7379 183.36 190.385 182.004 95.803 94.2384 92.0064 47.6516 175.637 183.546 181.207 83.7248 89.122 98.3783 48.1514 169.121 170.748 179.753 74.8864 86.5152 85.1674 35.5733 168.629 175.542 175.334 91.7756 82.6061 85.5802 39.313 167.57 169.283 162.928 96.1635 86.023 89.9615 52.4625 169.255 158.213 154.149 87.0727 81.5467 79.3214 43.7009 147.489 142.231 160.486 75.3463 87.7088 78.8915 43.3718 133.279 140.423 141.758 59.6395 59.7806 63.3395 31.9745 154.885 141.347 160.738 56.9544 73.4987 77.083 27.6649 158.493 140.247 148.118 56.1386 81.3867 64.2643 29.2894 77.1059 75.9828 159.713 26.8492 77.1059 75.9828 26.8492 220.439 115.975 253.586 235.727 124.553 113.407 115.975 64.808 124.553 64.808 233.241 285.434 254.185 114.656 104.465 129.033 48.5986 278.426 322.785 302.683 143.027 128.776 156.401 66.0577 284.964 317.096 309.848 147.37 149.649 166.384 76.969 273.027 289.531 277.701 136.462 135.314 150.712 70.4008 240.928 248.803 284.875 115.835 137.713 138.819 66.0607 213.338 231.053 239.228 98.3989 103.215 109.984 49.7742 207.565 235.266 253.568 97.449 110.122 121.07 48.6247 198.431 214.315 232.154 91.6516 97.4422 114.196 48.8243 227.016 218.632 224.952 107.192 100.989 100.119 42.8273 230.176 232.285 240.853 118.494 126.027 118.513 64.3648 197.238 215.918 226.058 102.386 104.149 113.772 54.1296 197.606 213.149 203.472 103.162 93.089 102.146 48.2569 201.69 220.251 208.376 110.463 104.517 111.003 54.905 200.998 204.295 198.713 100.996 97.1736 109.249 55.5575 195.713 179.174 209.205 90.5842 103.824 95.0466 45.4389 169.461 174.023 180.903 89.482 91.889 84.127 45.1453 162.629 190.198 167.93 93.2448 77.5722 89.8963 44.3367 177.546 186.653 178.587 91.5667 85.057 100.302 48.9081 177.571 155.617 171.776 73.9422 92.4889 86.3511 42.6586 172.847 169.702 179.537 75.6385 85.0819 69.2663 31.2837 179.85 192.355 191.103 94.5816 87.7651 100.436 44.3548 185.322 190.097 177.393 99.8209 92.0845 91.9186 50.2268 185.965 185.942 194.949 95.8613 93.2379 98.1783 49.5941 169.633 166.294 164.022 83.7661 92.7276 87.7634 46.2672 149.508 155.041 162.055 73.1195 76.9055 78.531 37.499 145.38 142.249 159.958 71.1402 72.6021 76.5096 35.6205 154.755 138.548 141.451 66.8847 72.7774 65.7393 35.5197 169.217 160.239 165.751 80.7831 81.9775 72.8083 31.365 153.971 158.812 167.971 84.3929 87.2398 87.4303 49.4181 149.338 165.421 140.662 84.1085 66.7311 71.3819 34.9748 82.6073 94.0391 167.752 49.1337 82.6073 94.0391 49.1337 269.473 119.753 312.898 278.678 139.047 140.179 119.753 59.745 139.047 59.745 323.627 349.893 339.413 170.778 149.721 173.851 80.4342 334.105 348.108 354.663 179.759 173.906 176.042 90.3434 302.585 353.675 327.717 169.726 160.199 172.066 89.4154 289.549 345.974 327.162 153.069 142.387 181.609 80.3109 283.174 310.66 318.44 132.968 147.162 164.365 72.7583 279.458 299.073 310.047 132.655 136.012 146.295 60.2096 278.157 286.636 311.937 137.817 143.446 152.778 72.445 258.675 268.735 269.684 122.663 134.712 133.858 65.3717 238.79 258.804 263.378 111.44 123.964 134.876 57.2914 236.735 249.271 244.799 113.791 114.826 123.928 54.1487 232.292 228.516 246.315 113.531 121.909 125.343 59.642 214.243 230.925 224.955 109.987 110.383 103.173 53.8892 205.399 242.429 246.726 109.789 103.86 127.752 56.0976 206.921 216.893 210.696 103.299 101.54 114.677 53.6912 194.395 192.853 210.878 88.5894 105.381 102.216 49.6077 179.372 182.414 188.529 84.5412 89.014 90.6373 38.9817 183.887 193.358 182.761 96.9536 90.3575 91.7767 45.5596 172.817 176.936 190.45 95.0865 93.5295 101.582 51.394 173.743 155.655 157.42 81.6751 79.2875 75.354 43.6925 197.793 175.497 185.025 94.0637 94.4556 80.3008 37.9826 188.646 187.937 201.782 97.7729 103.337 95.1964 56.0811 187.02 182.802 177.969 90.276 85.3088 92.7405 41.6918 173.006 181.818 199.617 90.0805 101.711 90.0612 48.5842 156.444 175.813 160.623 82.5283 71.2942 91.7569 41.4962 172.506 157.836 169.352 81.9211 85.1496 84.0561 41.032 156.029 134.864 159.787 71.1087 87.3562 73.7797 40.8891 152.447 143.853 147.194 71.6629 68.6731 61.0842 30.2196 164.505 152.32 167.896 79.4555 83.7737 82.769 41.4433 154.662 132.558 150.409 74.4193 80.7309 69.5508 38.0122 159.076 157.872 131.287 81.3125 73.9308 63.0067 36.4071 85.145 94.8652 164.215 44.9054 85.145 94.8652 44.9054 348.618 158.925 172.719 158.925 79.3019 172.719 158.925 79.3019 79.3019 79.3019 370.45 179.115 189.693 179.115 189.693 93.4167 93.4167 348.276 168.349 180.757 168.349 180.757 85.6983 85.6983 352.294 183.949 167.519 183.949 167.519 82.6505 82.6505 356.054 192.905 184.775 192.905 184.775 101.298 101.298 345.313 177.692 171.279 177.692 171.279 91.6068 91.6068 342.526 166.418 174.034 166.418 174.034 86.0855 86.0855 303.464 148.819 168.492 148.819 168.492 80.3327 80.3327 274.387 146.071 134.973 146.071 134.973 68.4866 68.4866 269.387 147.364 139.414 147.364 139.414 77.5849 77.5849 254.379 135.48 129.973 135.48 129.973 69.7792 69.7792 238.979 114.985 124.407 114.985 124.407 65.7012 65.7012 257.438 120.938 114.572 120.938 114.572 49.2839 49.2839 252.022 132.64 142.866 132.64 142.866 71.6546 71.6546 214.653 113.594 109.156 113.594 109.156 60.9859 60.9859 205.012 104.263 105.497 104.263 105.497 52.6079 52.6079 191.918 97.8727 99.5152 97.8727 99.5152 51.6556 51.6556 189.323 96.4046 92.4031 96.4046 92.4031 46.2171 46.2171 175.053 81.849 96.9201 81.849 96.9201 50.1875 50.1875 168.702 73.9797 78.1326 73.9797 78.1326 31.6615 31.6615 189.014 81.4335 90.569 81.4335 90.569 42.3182 42.3182 191.105 90.164 98.4447 90.164 98.4447 39.1153 39.1153 190.566 92.5256 92.6606 92.5256 92.6606 51.0487 51.0487 187.234 91.7376 97.9053 91.7376 97.9053 41.4769 41.4769 173.531 93.2848 89.3285 93.2848 89.3285 50.2607 50.2607 156.633 75.9147 84.2024 75.9147 84.2024 43.0241 43.0241 150.951 63.7552 72.4305 63.7552 72.4305 32.8906 32.8906 162.643 72.1903 78.5206 72.1903 78.5206 30.8646 30.8646 153.801 72.8643 84.1228 72.8643 84.1228 41.3257 41.3257 127.034 58.1383 69.6777 58.1383 69.6777 31.5386 31.5386 136.426 76.5595 57.3562 76.5595 57.3562 26.5997 26.5997 79.0699 49.9598 79.0699 49.9598 79.0699 49.9598 49.9598 196.628 211.595 106.195 400.209 211.595 347.975 347.829 184.715 106.195 196.628 211.595 106.195 184.715 106.195 176.369 188.615 376.441 337.133 354.453 90.4338 176.369 188.615 163.26 90.4338 190.649 187.826 379.799 358.01 363.943 85.9357 190.649 187.826 173.873 85.9357 198.107 191.973 381.413 342.429 350.324 104.713 198.107 191.973 184.137 104.713 172.779 189.439 363.379 318.639 333.734 93.3934 172.779 189.439 158.292 93.3934 186.837 173.94 368.508 333.472 336.445 79.3858 186.837 173.94 160.347 79.3858 188.696 194.568 350.377 323.552 330.058 107.451 188.696 194.568 173.126 107.451 160.75 155.809 305.318 293.357 295.287 81.2443 160.75 155.809 150.426 81.2443 152.66 149.509 298.567 285.443 280.324 79.5058 152.66 149.509 142.931 79.5058 159.166 149.058 308.574 282.803 283.277 73.154 159.166 149.058 142.512 73.154 145.119 159.516 306.274 270.044 272.715 86.012 145.119 159.516 140.291 86.012 115.967 146.758 260.842 240.383 276.25 59.1067 115.967 146.758 129.752 59.1067 122.568 114.084 239.647 243.472 216.912 56.8602 122.568 114.084 110.63 56.8602 125.67 125.563 249.858 246.575 241.599 65.7082 125.67 125.563 132.842 65.7082 116.871 124.295 220.959 225.505 229.444 59.9621 116.871 124.295 113.733 59.9621 112.447 96.6649 209.229 216.124 201.454 56.9089 112.447 96.6649 111.772 56.9089 108.215 112.564 230.12 216.296 214.268 55.538 108.215 112.564 104.352 55.538 110.431 117.556 229.937 215.347 223.885 52.6771 110.431 117.556 111.944 52.6771 107.486 112.381 215.786 202.828 204.994 57.7538 107.486 112.381 103.403 57.7538 99.1695 103.405 197.114 196.876 221.325 49.7323 99.1695 103.405 99.4252 49.7323 112.073 93.7091 213.633 204.562 187.139 49.4373 112.073 93.7091 97.4504 49.4373 92.4145 119.923 184.852 185.258 209.344 62.6361 92.4145 119.923 107.111 62.6361 78.6483 64.929 152.791 174.511 153.091 29.7784 78.6483 64.929 78.1467 29.7784 82.5029 87.8619 157.608 169.01 188.445 48.8699 82.5029 87.8619 96.3647 48.8699 71.9498 69.7458 154.561 142.088 146.085 33.633 71.9498 69.7458 72.6448 33.633 75.667 84.8153 165.211 151.423 157.244 38.3168 75.667 84.8153 69.4429 38.3168 72.6703 80.3958 153.616 167.799 181.231 37.3502 72.6703 80.3958 81.98 37.3502 71.9466 73.2199 137.836 158.118 166.905 35.3202 71.9466 73.2199 85.8191 35.3202 80.1777 64.616 154.691 156.524 133.302 36.6264 80.1777 64.616 72.2987 36.6264 84.6819 90.0748 162.944 166.23 174.643 43.5513 84.6819 90.0748 84.2249 43.5513 77.9009 72.8689 143.762 163.136 163.734 41.1306 77.9009 72.8689 82.0051 41.1306 36.7704 70.8933 70.8933 81.1312 151.941 36.7704 36.7704 70.8933 81.1312 36.7704 302.073 136.234 265.066 237.231 129.03 151.347 136.234 78.5203 129.03 78.5203 341.955 293.332 291.158 160.764 165.839 136.035 72.8262 334.467 297.62 309.144 167.361 176.116 157.296 87.9373 302.646 268.098 277.763 144.322 158.351 140.324 79.4235 306.8 271.744 269.159 145.86 144.295 127.774 64.8985 297.995 267.442 281.807 146.635 162.505 143.97 80.9612 274.967 248.912 250.046 134.856 135.489 123.472 65.6742 270.293 254.232 251.79 132.607 139.478 125.44 69.1818 265.034 257.401 252.893 132.783 130.815 128.792 63.4249 247.418 232.609 251.89 123.637 134.219 128.609 69.3577 242.692 227.562 230.152 124.925 113.199 104 54.2793 232.321 231.615 242.117 124.416 129.493 123.562 70.6458 218.864 232.177 203.515 120.904 102.828 108.053 53.77 221.185 224.564 221.595 120.905 116.035 124.124 67.1341 209.939 213.236 193.928 108.634 105.15 100.44 53.7706 206.493 204.321 206.684 103.677 104.789 112.796 54.8632 208.033 205.591 183.522 108.081 101.704 91.5253 48.8138 198.942 205.344 216.941 104.916 106.329 114.065 59.2668 210.533 183.568 190.048 95.3424 92.6127 91.2781 45.6494 211.35 194.013 203.861 97.7061 117.92 92.2901 49.6929 182.851 175.876 190.674 92.4882 93.4302 101.723 48.0132 177.583 152.99 159.817 92.8434 89.4208 74.1531 44.4751 188.746 173.07 165.542 95.8632 88.1625 78.8371 48.3683 176.922 173.382 194.976 86.5067 100.583 94.2329 47.4949 148.768 145.612 168.34 70.1379 76.3392 79.1488 39.0118 173.264 147.733 161.462 75.756 72.4289 66.463 31.1261 194.52 168.016 188.095 95.1288 100.835 81.2699 44.6299 162.371 159.366 172.364 86.1713 93.6851 86.7458 50.499 153.254 152.443 145.76 76.3459 68.6858 72.6205 35.6723 175.434 160.627 162.421 81.5481 84.5682 79.8227 40.6736 171.913 171.029 179.298 85.2354 90.8654 80.8038 40.8745 81.0473 90.2251 170.434 44.3608 81.0473 90.2251 44.3608 226.316 100.997 222.976 192.607 101.148 113.719 100.997 50.5101 101.148 50.5101 258.347 243.093 264.612 132.568 125.319 121.828 63.2092 252.44 229.882 244.801 130.259 133.027 121.264 69.3588 244.277 231.881 222.653 123.776 119.412 108.618 60.9007 244.166 243.951 245.257 125.884 124.865 123.263 62.8753 233.859 247.854 216.46 120.807 119.302 120.689 63.0087 226.869 234.253 241.924 114.056 114.557 127.165 57.7978 234.391 226.349 221.7 121.625 112.312 107.088 56.258 239.749 225.221 237.966 124.619 122.078 119.261 65.3673 234.623 197.835 224.539 108.972 117.671 105.96 59.2514 229.577 186.692 211.828 102.637 116.952 91.8745 49.7208 213.312 207.918 206.688 107.199 112.624 94.8174 52.9158 206.247 231.416 204.447 111.273 100.687 113.1 54.2833 194.338 206.046 209.499 103.659 105.56 118.316 56.9901 190.673 186.731 182.494 104.602 88.7785 87.7302 46.6694 183.713 184.553 180.431 100.644 101.894 99.0005 57.9326 192.43 186.185 179.195 97.5101 81.8185 85.5521 42.7115 208.047 195.292 204.198 100.427 110.612 100.633 54.7986 183.377 170.652 191.885 88.2258 97.4355 94.6587 45.6286 183.185 161.611 163.387 96.3067 85.9411 75.9928 42.5971 167.641 152.173 172.975 83.3876 97.2442 85.6186 53.7096 147.776 134.334 152.085 60.1468 70.3965 66.554 29.678 171.772 157.642 168.856 77.2068 77.3791 67.7804 30.4688 186.394 181.57 185.679 86.8751 94.3931 89.8614 46.738 181.033 161.617 186.349 75.4739 92.0008 91.7084 40.1371 176.293 146.86 161.183 71.9769 89.0326 69.9083 35.3369 165.939 139.276 169.755 72.8869 87.2599 76.9513 36.6401 155.753 139.263 137.641 73.1951 78.6786 62.3244 36.2469 154.927 164.153 153.383 76.0974 77.0741 76.9389 36.9482 166.285 171.04 171.063 79.0784 77.8528 87.2136 39.1491 177.819 168.446 162.336 85.7935 88.4323 83.8268 39.9293 89.3862 84.619 169.948 45.8643 89.3862 84.619 45.8643 230.902 91.6101 195.682 171.894 85.8248 109.257 91.6101 50.6376 85.8248 50.6376 251.066 209.247 251.2 110.525 139.292 109.858 58.6193 215.014 211.598 222.672 99.6229 111.774 99.389 51.9055 223.633 213.393 218.599 108.105 103.24 112.209 47.7174 217.55 218.201 206.214 118.067 120.392 101.184 60.3874 224.525 237.615 218.105 127.047 97.158 117.017 57.6801 236.755 212.876 230.585 120.197 127.367 120.598 69.367 225.275 199.465 195.239 104.724 109.388 92.2784 50.83 222.756 192.634 221.581 100.603 115.887 107.187 53.8937 201.744 174.512 198.291 88.8626 106.868 85.4472 46.7088 188.939 174.506 182.88 84.0552 94.8755 89.0647 42.1537 197.823 179.305 189.605 100.718 94.063 85.4413 41.9015 207.699 193.101 191.968 120.143 103.76 93.8636 58.8169 197.655 189.212 182.533 102.387 103.939 99.2371 61.3259 172.252 184.915 186.103 82.1287 93.7156 89.9752 41.0608 175.913 187.848 178.352 83.9085 78.5364 94.9401 41.0679 190.963 197.809 200.407 88.6751 97.377 92.9075 42.8405 188.036 203.493 204.198 94.8646 93.5865 104.901 45.8345 171.895 169.781 182.381 82.4257 94.4492 98.5913 49.0301 153.177 147.924 150.373 65.3047 77.4455 71.19 33.3957 157.419 160.197 162.734 68.7851 75.7312 76.7338 31.9091 173.165 161.745 171.174 74.1876 81.688 83.4628 36.876 182.764 172.347 178.2 80.435 91.4774 78.2822 37.3116 185.634 188.93 178.954 94.6947 91.2861 94.0652 43.1234 166.499 162.996 180.405 86.1428 94.3483 94.8644 51.5714 154.645 146.289 144.189 74.8827 72.1504 68.1319 34.5714 141.457 148.572 150.209 66.3888 82.4948 78.1571 40.3113 135.271 138.211 164.856 66.0682 58.9623 70.4145 26.0775 169.519 161.695 133.494 88.0552 76.3089 67.7968 39.9907 167.114 189.893 167.713 91.962 93.2098 93.8982 48.0645 154.466 185.006 162.019 82.6523 73.904 95.9948 43.8975 80.562 89.0115 165.078 38.7548 80.562 89.0115 38.7548 192.191 80.2835 193.458 180.319 86.3539 86.4255 80.2835 35.1872 86.3539 35.1872 222.805 217.307 226.501 98.7217 111.907 107.105 51.2383 226.257 247.374 236.302 111.975 110.898 110.202 47.4834 201.18 242.882 243.064 105.288 115.358 137.172 64.4918 206.768 236.699 217.487 100.134 85.8216 105.71 40.7964 224.164 235.662 251.595 110.568 120.947 130.989 59.3374 189.068 207.618 222.115 92.6794 103.217 104.672 51.231 191.545 204.857 205.687 94.7413 85.851 102.946 41.4484 197.117 198.81 205.025 92.0312 105.694 101.911 53.2929 179.428 205.473 210.201 85.6493 91.4232 96.8996 38.7383 183.547 202.133 198.331 90.4507 88.0049 108.573 46.911 183.75 173.438 195.727 78.5864 95.5418 93.5595 43.5397 166.802 167.402 192.469 72.9578 88.2083 79.8787 35.0466 170.981 178.053 178.992 86.8255 78.5934 87.523 37.9112 192.203 202.788 185.32 102.787 92.3874 90.5304 48.9143 202.846 209.068 212.375 103.939 99.8156 112.257 53.8722 213.641 189.113 195.982 109.134 103.03 96.8107 50.067 198.543 178.013 182.931 108.628 110.611 92.3024 59.0669 160.858 173.335 157.942 87.3556 87.9314 85.7101 49.5612 159.93 186.248 171.648 82.619 72.9271 87.6247 37.7944 176.489 188.62 202.797 91.4115 87.0031 98.6229 44.8247 176.208 172.825 180.432 87.5574 89.4855 89.9971 46.5868 174.39 177.414 176.929 91.9125 86.7227 82.8283 40.9706 173.724 184.339 178.826 94.2349 87.6674 94.5856 50.9419 158.095 162.72 168.264 76.8535 86.0563 89.7535 43.2931 139.753 147.794 160.209 71.4062 72.0384 72.967 33.5605 173.608 156.422 138.231 82.1827 67.7144 74.8274 37.8458 163.079 160.013 181.51 72.1431 105.893 81.5946 44.337 131.689 162.074 157.004 73.6398 57.1853 78.4187 27.8061 162.618 167.509 158.141 97.931 74.5034 83.6555 45.8337 172.63 167.584 168.961 102.354 88.1145 83.8536 52.0973 84.5156 83.7304 151.875 50.2568 84.5156 83.7304 50.2568 214.629 100.036 236.327 225.483 111.174 107.033 100.036 51.1666 111.174 51.1666 239.997 271.434 267.406 118.585 114.594 125.153 55.8663 253.109 289.745 280.74 135.399 125.404 146.282 62.7188 259.371 270.453 268.775 137.594 127.706 143.463 72.6803 262.313 273.045 274.708 136.566 131.665 126.99 64.9136 249.545 275.3 282.315 125.093 130.648 146.056 71.652 238.733 261.742 259.736 114.939 118.897 129.244 53.4413 219.167 250.456 265.016 110.116 119.836 132.498 61.4977 218.108 242.791 241.74 106.779 99.3311 117.958 48.6179 229.104 247.173 248.397 119.823 118.777 124.834 58.1613 210.512 234.626 229.95 111.682 110.327 122.34 61.6622 204.446 213.612 208.479 94.8519 100.186 112.286 50.0198 204.659 198.7 214.116 94.444 104.26 101.326 44.8321 193.331 186.838 201.044 91.228 100.399 97.3739 49.6119 205.492 203.623 187.9 100.001 92.9323 89.4646 41.6161 205.511 210.935 212.642 105.129 112.559 114.159 58.3852 165.271 174.809 190.222 79.9792 92.9515 96.7761 46.7438 142.33 156.318 181.007 69.3844 72.32 78.0334 33.2355 168.731 163.71 155.436 85.9792 70.0104 78.2844 36.1489 214.515 195.697 172.981 103.629 98.7205 85.4253 49.8303 206.741 200.938 209.644 97.2085 115.794 110.271 53.7982 181.152 176.141 184.856 85.268 90.9462 90.6667 43.4103 181.365 182.246 184.758 85.5014 90.2061 85.4747 41.8577 173.366 173.029 181.467 90.1042 91.1585 96.7709 43.6438 170.378 159.783 150.497 85.867 82.2075 76.2585 46.4605 158.687 166.973 182.349 76.3882 88.1706 83.5241 39.4065 146.133 159.16 162.165 74.2393 70.5164 83.4488 36.9817 175.435 168.654 158.534 87.8702 75.6167 75.7112 37.2577 183.456 173.483 189.617 88.4343 99.8186 92.9429 50.6126 164.485 149.82 163.985 69.578 83.6378 80.5403 37.8217 148.206 142.993 152.138 65.2299 80.8467 69.28 31.7563 67.3589 73.7132 146.098 33.4736 67.3589 73.7132 33.4736 278.26 125.447 305.193 278.004 139.631 129.294 125.447 60.0076 139.631 60.0076 308.149 344.184 340.675 152.849 152.812 165.563 69.2864 296.406 334.273 344.56 154.346 155.337 178.622 83.5628 284.112 301.205 327.555 132.859 141.069 155.651 70.7831 294.71 299.629 306.886 136.48 143.043 145.553 62.076 292.507 317.827 318.803 150.206 151.668 154.076 74.4036 286.019 322.911 313.859 146.803 140.839 163.752 75.8027 287.589 294.985 309.678 140.34 145.18 159.16 71.0005 272.029 264.328 278.571 136.012 142.409 135.826 69.3398 249.244 249.373 268.723 127.35 129.62 128.502 66.6725 227.917 241.843 237.791 122.944 119.624 120.871 60.6773 218.148 242.754 235.072 118.76 108.293 120.972 62.2666 210.5 240.755 252.583 104.256 109.855 121.782 56.4937 195.612 214.992 221.957 95.6105 100.645 118.973 47.762 195.051 204.681 193.901 103.622 94.9678 96.0191 47.8485 197.353 206.554 208.672 105.806 100.083 108.662 55.7733 205.957 188.876 204.136 94.8303 97.27 97.892 50.0324 194.112 179.852 220.846 86.9334 108.687 90.9839 44.7979 159.685 170.934 166.109 77.7305 85.4252 88.8681 42.1355 168.11 186.79 173.365 92.068 74.2601 82.0662 35.595 187.76 211.31 189.994 103.729 93.85 104.724 56.473 188.463 191.815 200.236 90.8734 93.9103 106.586 47.2564 184.861 194.784 177.802 96.7442 94.5524 85.2289 43.617 158.598 178.421 181.554 82.9252 90.3087 109.556 53.1272 162.467 154.162 161.365 73.9156 68.2892 68.8658 29.798 185.827 171.303 168.874 90.5847 94.1783 85.2959 44.1176 174.566 172.116 166.913 84.9206 91.649 86.007 46.4671 172.716 171.237 165.839 80.7839 82.9174 86.1095 38.4535 170.146 165.985 167.854 85.049 89.7983 85.1275 42.3304 151.639 149.138 166.095 80.2424 80.3476 80.8578 42.7186 150.03 137.63 147.923 77.7633 71.291 68.2803 37.5237 78.7387 69.3496 150.035 40.2396 78.7387 69.3496 40.2396 340.42 152.557 175.899 152.557 79.6231 175.899 152.557 79.6231 79.6231 79.6231 377.086 191.335 187.863 191.335 187.863 96.2762 96.2762 375.71 179.927 189.223 179.927 189.223 95.0589 95.0589 350.33 168.346 186.486 168.346 186.486 84.8684 84.8684 330.979 163.149 163.844 163.149 163.844 83.4772 83.4772 340.156 167.621 167.135 167.621 167.135 79.6719 79.6719 337.519 176.108 173.021 176.108 173.021 87.9489 87.9489 300.66 154.645 164.498 154.645 164.498 88.159 88.159 275.266 128.316 136.162 128.316 136.162 66.486 66.486 257.271 122.023 139.103 122.023 139.103 61.8295 61.8295 244.946 118.899 118.167 118.899 118.167 60.1934 60.1934 269.506 123.994 126.779 123.994 126.779 58.7055 58.7055 264.04 136.499 142.727 136.499 142.727 65.2881 65.2881 220.246 119.382 121.313 119.382 121.313 71.2114 71.2114 207.523 101.06 98.9337 101.06 98.9337 48.1705 48.1705 215.455 100.749 108.589 100.749 108.589 52.889 52.889 219.026 94.0456 106.866 94.0456 106.866 47.8597 47.8597 192.844 92.9185 112.16 92.9185 112.16 46.1859 46.1859 179.789 93.2037 80.684 93.2037 80.684 46.7326 46.7326 195.249 94.722 99.1048 94.722 99.1048 46.4712 46.4712 202.469 107.58 96.1439 107.58 96.1439 48.2508 48.2508 189.575 100.941 106.326 100.941 106.326 59.3294 59.3294 174.495 98.0403 83.2494 98.0403 83.2494 41.6119 41.6119 184.322 95.4962 91.2458 95.4962 91.2458 56.4284 56.4284 167.772 80.2462 93.0759 80.2462 93.0759 39.0678 39.0678 149.96 80.7182 74.6957 80.7182 74.6957 41.1783 41.1783 158.186 87.1958 75.2641 87.1958 75.2641 39.5398 39.5398 160.978 90.4531 82.922 90.4531 82.922 47.656 47.656 163.803 80.9363 78.056 80.9363 78.056 42.7971 42.7971 162.379 68.8957 85.7473 68.8957 85.7473 38.1391 38.1391 147.928 59.8666 76.6318 59.8666 76.6318 30.7565 30.7565 71.2963 29.1101 71.2963 29.1101 71.2963 29.1101 29.1101 203.581 206.026 105.4 409.649 206.026 354.307 332.859 163.114 105.4 203.581 206.026 105.4 163.114 105.4 200.071 203.623 401.636 381.263 376.407 98.1808 200.071 203.623 191.193 98.1808 189.151 198.012 380.351 356.257 373.384 101.891 189.151 198.012 190.07 101.891 183.306 182.339 362.025 341.63 336.256 87.26 183.306 182.339 166.187 87.26 190.6 179.686 365.929 351.541 343.598 96.046 190.6 179.686 175.442 96.046 181.671 186.242 366.436 333.031 352.709 94.5542 181.671 186.242 176.099 94.5542 161.682 180.193 346.08 301.793 335.883 87.117 161.682 180.193 156.932 87.117 144.568 165.887 312.067 282.254 301.836 74.5647 144.568 165.887 144.861 74.5647 145.907 146.18 289.441 278.159 264.385 70.0032 145.907 146.18 137.393 70.0032 149.408 143.261 277.333 273.189 272.229 75.9042 149.408 143.261 140.766 75.9042 161.155 134.072 290.474 278.922 264.313 73.5038 161.155 134.072 132.424 73.5038 144.875 156.403 265.137 252.78 265.028 87.651 144.875 156.403 146.498 87.651 117.079 108.734 222.784 215.038 204.747 57.2236 117.079 108.734 106.282 57.2236 124.188 114.05 228.152 224.468 218.852 59.8552 124.188 114.05 108.757 59.8552 104.088 114.102 205.686 205.394 215.98 64.3325 104.088 114.102 115.712 64.3325 96.782 91.5843 195.935 199.598 197.297 39.756 96.782 91.5843 89.6823 39.756 121.905 104.35 221.205 221.857 207.793 57.026 121.905 104.35 109.916 57.026 119.506 116.855 227.927 213.532 207.949 64.8788 119.506 116.855 111.941 64.8788 108.3 111.072 220.031 223.491 202.376 54.6275 108.3 111.072 101.591 54.6275 97.9448 108.959 203.81 211.589 224.774 53.6729 97.9448 108.959 121.9 53.6729 101.559 94.8518 197.558 191.922 183.462 44.2718 101.559 94.8518 89.6889 44.2718 92.438 102.706 171.012 177.178 189.426 57.2874 92.438 102.706 102.233 57.2874 74.1426 68.3057 154.375 167.025 158.136 35.1506 74.1426 68.3057 74.9447 35.1506 75.1048 86.0695 163.445 165.521 177.28 38.992 75.1048 86.0695 92.0804 38.992 82.6113 77.375 170.633 161.242 154.536 36.1128 82.6113 77.375 73.4402 36.1128 89.5441 93.2581 176.239 187.052 180.862 46.4986 89.5441 93.2581 87.8013 46.4986 80.9453 82.9808 155.674 180.337 185.097 43.0456 80.9453 82.9808 99.251 43.0456 65.8894 72.6932 133.279 142.089 157.348 37.8997 65.8894 72.6932 81.0859 37.8997 74.5131 60.5857 148.69 151.421 141.247 27.9896 74.5131 60.5857 61.0031 27.9896 78.2618 88.1038 151.245 172.147 177.163 46.5235 78.2618 88.1038 90.4181 46.5235 65.8613 63.1416 134.953 152.539 155.496 31.7383 65.8613 63.1416 81.7292 31.7383 34.123 71.8112 71.8112 70.8095 151.915 34.123 34.123 71.8112 70.8095 34.123 299.617 126.833 263.323 227.496 108.2 150.726 126.833 57.7139 108.2 57.7139 348.156 306.97 305.63 181.192 172.784 155.122 93.0124 329.289 289.287 303.241 167.107 175.372 151.848 88.1792 317.828 278.825 282.309 158.324 153.917 137.439 78.9274 330.378 279.223 299.299 160.941 163.912 141.386 79.3963 322.156 264.412 281.948 151.36 166.466 137.837 81.5443 291.639 252.925 279.496 140.111 155.69 126.574 69.8152 254.154 250.451 252.246 137.686 135.949 126.35 70.2959 247.173 247.382 244.71 132.251 118.205 124.101 67.39 259.209 249.432 243.359 123.781 128.967 123.281 64.8614 238.867 244.707 263.001 117.767 130.242 126.152 58.9198 204.638 214.018 224.689 107.905 108.625 118.556 58.8469 200.815 192.933 193.713 97.9597 96.013 95.4621 49.0583 206.68 190.96 204.762 100.281 104.802 97.4712 48.9014 207.59 187.377 200.095 101.306 101.878 93.4884 51.3792 209.155 185.885 211.745 102.816 105.713 93.8882 49.9263 194.537 194.872 195.04 99.9519 103.442 91.9967 52.8897 182.398 201.645 192.871 94.0254 91.0941 102.875 47.0621 207.12 210.341 196.261 115.19 91.3043 98.7701 46.9633 204.426 200.523 203.349 113.644 115.816 111.571 68.2271 175.33 174.616 191.472 90.3628 88.6101 88.9517 45.417 176.55 172.369 180.566 84.7399 86.7198 85.6643 44.9458 181.04 187.448 178.261 92.8825 89.8303 86.7044 39.7942 168.371 189.935 171.648 90.4158 91.2101 100.743 53.0884 164.766 184.19 165.136 78.6302 77.1613 89.1911 37.3274 189.721 201.824 186.148 97.5082 87.6043 94.9985 41.3028 186.772 192.443 207.482 99.3915 102.117 106.825 56.2054 165.316 158.757 178.564 76.1997 84.6552 85.618 43.1862 169.72 155.738 159.919 76.9081 80.6611 73.1394 33.0135 181.414 181.092 175.647 93.8855 89.0592 82.5983 43.8946 172.458 178.702 181.058 86.6773 92.3544 98.4939 49.9909 80.1035 80.2084 156.898 36.6865 80.1035 80.2084 36.6865 233.509 100.663 234.242 179.483 91.4589 112.596 100.663 50.4864 91.4589 50.4864 260.715 266.32 268.761 125.779 132.846 142.783 62.11 256.262 237.571 237.482 122.18 127.869 123.537 63.6686 263.78 236.029 223.074 120.501 128.392 114.035 58.5118 250.869 217.765 265.521 118.282 135.387 121.994 61.9892 239.288 210.53 212.241 113.052 115.482 95.7711 56.2932 240.104 229.371 235.442 112.813 123.807 114.759 56.7591 242.802 233.317 228.889 112.765 116.297 114.612 56.0544 240.896 237.283 246.349 115.13 126.505 118.705 56.711 247.15 238.532 215.345 125.651 114.391 118.579 58.4192 248.823 231.824 227.07 126.94 132.759 119.953 67.2317 213.763 203.217 218.616 106.113 116.064 111.87 59.7087 197.659 182.53 193.399 94.9736 97.6995 91.347 46.4039 198.177 185.947 192.53 90.6789 99.9597 91.1831 48.5698 204.25 176.194 194.581 86.0711 98.2174 94.7639 42.1091 197.63 175.074 181.46 83.0689 106.033 81.4304 43.9619 193.374 197.208 190.076 94.9199 91.5975 93.6434 39.107 206.734 200.791 204.931 107.62 101.777 103.565 55.813 192.49 184.62 210.497 95.1509 104.957 97.226 51.8068 190.396 174.751 180.112 86.8787 87.5332 87.3939 43.344 196.708 172.887 178.679 84.2532 102.862 87.3568 43.5347 182.276 186.607 184.122 87.6288 93.8458 85.5306 40.7185 168.869 196.894 181.047 94.5653 88.4306 101.076 46.9103 168.413 190.458 164.59 99.5187 80.4381 95.8177 47.655 186.518 185.915 172.567 105.559 87.9744 94.6406 51.8637 203.91 184.078 173.895 104.316 98.5441 91.2747 53.6958 199.274 168.12 176.671 93.0517 105.366 92.8034 50.6199 173.166 151.761 168.65 82.5577 93.9085 75.3165 42.4318 165.845 160.293 165.54 78.8295 79.2576 76.4441 40.1259 175.291 162.359 178.081 87.2067 86.5875 83.8489 38.7036 165.498 163.839 154.474 92.025 88.7036 78.5096 48.503 76.7943 85.3291 149.38 43.5219 76.7943 85.3291 43.5219 214.735 78.8207 227.411 159.408 86.0687 121.646 78.8207 40.9725 86.0687 40.9725 245.528 264.625 239.129 140.541 135.915 141.342 80.6731 204.294 229.672 242.691 115.391 109.613 123.283 59.8681 224.815 211.42 193.726 115.528 94.6814 106.389 55.5228 226.893 206.118 231.907 99.4829 130.134 105.03 60.0049 208.394 211.074 206.656 97.4781 96.7592 101.087 39.478 224.227 212.947 208.787 116.558 111.635 109.987 58.0002 232.436 217.355 214.486 120.551 112.592 102.96 58.5576 220.798 227.239 217.764 122.153 119.844 114.395 61.9936 195.265 206.66 210.913 112.881 100.953 112.844 60.1594 196.864 197.979 176.811 104.883 94.3114 93.8157 52.7218 198.252 202.268 207.527 97.1046 102.552 104.164 52.1615 188.27 181.4 189.614 87.5565 95.6996 98.1047 44.9431 188.935 179.423 182.577 95.2682 92.5707 83.2956 42.6134 171.791 179.54 192.433 90.1233 96.3638 96.1278 52.6548 173.906 190.911 179.167 92.0049 75.4275 83.4118 37.4685 201.633 206.796 199.152 102.288 98.4787 107.5 54.5364 208.694 183.086 202.022 93.1711 103.154 99.2964 47.752 198.119 162.972 193.813 89.469 105.54 83.7893 45.4191 168.396 165.183 174.598 87.872 92.5788 79.1826 44.0499 166.093 173.711 170.014 88.6342 75.8168 86.0005 43.8221 182.892 187.629 171.167 98.9779 90.2758 87.7108 44.8121 176.768 184.806 175.967 102.329 92.6165 99.9179 54.1658 168.744 170.428 161.845 90.9396 84.1515 84.8883 48.1627 159.943 161.597 169.507 80.3559 84.5927 85.5401 42.7769 146.656 148.109 156.747 79.7625 75.3507 76.057 37.579 146.047 166.493 143.963 75.0682 71.3049 72.0521 42.1835 161.025 160.139 175.996 69.2029 74.7418 94.4412 32.8847 177.777 139.512 145.464 81.4635 86.2828 65.6974 36.3181 157.264 139.839 161.603 75.1519 91.4937 73.815 45.1453 138.357 142.09 133.142 71.8137 65.7705 66.0238 30.0065 72.5861 76.066 143.882 41.8072 72.5861 76.066 41.8072 183.801 80.587 213.362 182.366 93.9654 105.765 80.587 45.0963 93.9654 45.0963 236.292 245.496 234.448 124.084 103.214 119.396 60.669 232.123 231.992 264.941 114.281 133.078 126.1 63.4146 200.819 217.669 220.162 95.8919 99.045 105.892 50.8667 211.67 232.382 232.617 106.635 101.774 111.777 45.0252 207.048 238.048 229.716 113.596 109.897 120.605 61.6095 199.046 220.184 224.479 96.3891 97.1514 117.442 51.9865 199.814 205.855 210.341 96.8037 101.895 102.741 44.4026 207.879 216.415 183.882 105.086 97.9196 103.114 52.4011 192.459 203.059 214.445 93.7788 109.96 113.301 52.6849 187.475 191.926 185.425 93.096 82.4997 89.7583 41.0939 198.889 214.758 208.69 105.164 104.975 102.168 52.0021 183.921 204.059 210.476 93.8439 93.914 112.59 53.1616 186.076 186.259 194.003 84.1553 90.0067 91.4693 40.6823 199.809 194.907 198.734 89.4164 96.0695 94.7893 43.473 204.412 199.288 195.13 98.9064 103.739 100.118 45.9433 199.541 189.8 186.66 104.508 100.673 99.1708 52.9631 187.141 162.861 182.823 89.9146 98.8679 90.629 51.5444 170.292 156.255 172.793 73.5029 88.2732 72.2317 38.3701 176.216 188.197 166.176 77.3111 82.0191 84.0229 35.1327 175.089 194.609 209.059 85.0771 94.1973 104.174 42.1784 164.241 184.535 172.147 88.6508 80.8913 90.4346 42.8987 161.044 178.341 183.301 82.4777 83.3501 94.1005 45.7521 162.608 162.751 181.321 79.4888 77.6936 84.2403 36.7256 166.31 165.752 158.097 81.2412 84.9142 78.5103 42.7632 154.054 150.645 177.478 68.3466 81.396 87.2421 38.478 173.912 163.319 146.921 91.4251 72.6579 63.4034 29.8686 160.435 178.501 204.78 90.9357 101.254 99.9155 61.5565 129.291 153.071 155.865 58.0489 59.1811 78.5852 29.3792 137.48 159.593 156.342 64.6869 70.1094 74.4858 28.6697 138.667 153.252 139.572 70.2761 67.3711 85.1077 36.0172 71.296 68.1441 150.986 34.2588 71.296 68.1441 34.2588 233.013 101.779 256.562 234.578 114.309 107.596 101.779 48.8691 114.309 48.8691 263.097 276.712 290.622 121.412 131.234 142.253 58.7274 252.98 259.77 283.262 117.71 131.863 134.459 62.685 251.96 273.029 280.902 121.777 121.117 125.311 55.0254 250.663 283.978 281.01 125.747 130.843 147.718 66.7515 247.147 266.752 255.055 124.452 119.82 136.26 58.9957 235.774 263.01 254.554 123.795 127.327 130.492 65.456 194.408 256.3 238.504 109.052 108.446 132.518 58.3385 190.447 247.346 231.71 111.329 85.9619 123.783 50.7132 207.411 231.174 238.036 109.28 104.486 123.564 60.616 206.64 203.803 233.797 98.8302 102.925 107.611 48.6643 220.278 208.982 200.265 109.594 103.715 96.1922 50.1658 220.558 216.46 224.878 110.215 116.562 112.79 59.4282 206.66 202.105 201.79 102.103 103.996 103.67 50.787 194.054 196.919 199.135 105.491 102.664 98.4355 51.3163 177.377 191.929 200.458 100.382 91.3901 98.4839 54.1742 169.943 196.419 176.79 85.2923 85.9872 93.4454 46.2078 168.476 180.124 190.287 72.946 83.9556 102.973 39.0845 168.677 164.706 173.395 82.7518 84.5203 77.1512 33.8615 199.019 186.928 168.71 110.886 84.1565 87.5553 48.8902 206.118 193.563 194.349 109.532 114.862 99.3732 61.9961 191.207 193.473 185.78 95.8842 91.2559 94.1898 47.5359 203.579 183.98 193.26 95.8631 99.9509 99.2837 48.3484 176.811 158.934 192.603 83.2618 103.628 84.6962 47.5148 169.265 173.063 151.202 84.5112 73.1827 74.2382 35.7471 170.345 177.541 188.68 82.2989 96.0822 98.8248 48.7641 177.789 161.54 165.774 71.8938 74.2628 78.7167 33.5348 200.211 179.497 186.859 87.565 103.526 82.823 38.3591 182.917 180.119 192.619 95.0221 96.6843 96.674 49.206 158.433 166.303 170.947 94.9065 86.2322 83.4451 45.8161 151.89 155.242 140.162 82.9757 72.2008 82.8577 49.0904 79.6895 72.3844 156.527 33.8853 79.6895 72.3844 33.8853 292.187 132.799 313.486 288.556 138.374 148.966 132.799 65.4398 138.374 65.4398 310.786 341.051 361.467 155.3 159.388 175.113 83.5259 311.183 337.842 329.104 142.06 151.399 165.938 71.7739 309.952 333.237 352.406 151.253 159.785 171.904 70.2859 285.403 326.061 315.857 158.231 150.167 161.333 80.9667 262.462 314.836 301.532 142.3 135.236 164.728 77.2642 257.284 300.626 290.106 139.215 127.226 150.108 65.0361 275.805 293.264 276.193 147.249 130.057 150.518 74.1793 279.298 282.967 283.899 136.017 145.748 142.746 73.0694 264.423 257.142 291.345 121.894 133.551 140.221 62.9475 227.422 231.02 248.784 104.973 130.872 116.92 58.9464 204.866 244.901 218.016 99.3882 96.5496 114.1 46.0264 206.11 233.785 244.694 106.245 108.316 130.801 53.3618 194.265 200.866 194.979 100.002 97.7936 102.984 52.8827 205.539 197.892 202.302 91.4289 96.4712 97.8824 47.1193 199.871 206.254 217.283 91.5473 109.068 100.01 44.3097 197.134 236.106 197.548 111.126 90.8028 106.244 47.2376 195.206 207.104 231.947 107.178 106.331 129.862 63.8887 173.428 168.54 172.084 81.9547 88.8747 77.2411 43.2897 164.04 176.569 184.193 76.0421 84.5531 91.2986 38.665 174.011 178.92 173.272 84.031 79.487 85.2701 37.377 187.834 186.223 183.585 97.5893 94.5243 93.6501 46.6539 182.285 164.572 182.711 88.1168 93.3094 92.5729 50.9354 166.995 164.498 167.827 75.6726 88.9757 71.9989 37.1815 170.617 176.077 180.42 88.5519 78.0195 92.4992 38.4912 184.108 164.484 173.138 95.2426 92.5974 83.5781 50.0607 174.844 160.636 169.99 89.6458 91.5109 80.9062 45.1819 179.267 162.457 158.317 91.9319 83.3328 79.7299 44.4639 180.649 167.964 174.487 85.097 95.9345 82.7269 47.468 152.676 164.88 181.136 71.3963 84.7148 85.2371 37.629 144.798 160.328 150.591 72.2664 67.9608 79.6425 33.7672 76.8373 80.6853 164.179 38.4991 76.8373 80.6853 38.4991 357.837 155.757 164.521 155.757 72.9338 164.521 155.757 72.9338 72.9338 72.9338 379.785 185.751 202.08 185.751 202.08 91.5869 91.5869 370.326 195.783 177.705 195.783 177.705 94.1644 94.1644 358.311 181.985 192.621 181.985 192.621 101.618 101.618 331.986 167.83 165.69 167.83 165.69 80.3664 80.3664 329.176 172.535 166.296 172.535 166.296 87.4635 87.4635 309.016 161.411 162.88 161.411 162.88 85.0718 85.0718 284.287 146.015 146.136 146.015 146.136 76.3391 76.3391 295.945 146.95 138.152 146.95 138.152 69.6761 69.6761 275.706 135.248 157.794 135.248 157.794 77.2738 77.2738 239.379 126.047 117.912 126.047 117.912 57.974 57.974 257.845 145.513 121.467 145.513 121.467 68.0734 68.0734 233.564 127.54 136.378 127.54 136.378 77.4392 77.4392 203.017 100.864 97.1858 100.864 97.1858 50.1012 50.1012 214.047 106.463 105.831 106.463 105.831 50.7632 50.7632 214.96 114.706 108.215 114.706 108.215 55.7 55.7 232.362 124.98 106.745 124.98 106.745 59.0063 59.0063 208.825 99.9251 125.616 99.9251 125.616 65.9737 65.9737 182.849 86.585 83.2088 86.585 83.2088 33.9514 33.9514 193.425 100.527 99.64 100.527 99.64 52.6336 52.6336 182.846 94.8892 93.7849 94.8892 93.7849 47.8931 47.8931 178.462 88.6337 89.0607 88.6337 89.0607 46.9961 46.9961 168.253 76.455 89.4017 76.455 89.4017 41.6376 41.6376 181.251 88.8255 78.851 88.8255 78.851 34.8174 34.8174 182.941 87.5254 102.4 87.5254 102.4 54.008 54.008 159.02 69.2416 80.5405 69.2416 80.5405 33.5174 33.5174 153.463 70.9903 78.479 70.9903 78.479 35.7243 35.7243 153.537 70.5249 74.9843 70.5249 74.9843 35.266 35.266 174.974 82.867 78.5528 82.867 78.5528 35.2589 35.2589 179.052 93.4833 96.4214 93.4833 96.4214 47.6081 47.6081 169.972 88.0614 82.6304 88.0614 82.6304 45.8752 45.8752 87.3417 42.1862 87.3417 42.1862 87.3417 42.1862 42.1862 206.068 210.531 100.626 417.698 210.531 354.959 350.625 169.745 100.626 206.068 210.531 100.626 169.745 100.626 201.564 207.168 395.362 368.529 355.478 105.443 201.564 207.168 185.214 105.443 191.201 188.194 388.026 353.383 350.185 96.1217 191.201 188.194 183.314 96.1217 178.719 199.832 368.345 338.224 357.862 95.0791 178.719 199.832 170.068 95.0791 175.329 168.513 349.191 344.766 337.838 83.6403 175.329 168.513 168.156 83.6403 184.764 180.678 354.864 355.561 336.609 91.6883 184.764 180.678 176.61 91.6883 184.398 174.186 328.762 335.926 339.621 93.0761 184.398 174.186 178.951 93.0761 167.499 154.577 301.168 283.967 297.963 91.3222 167.499 154.577 156.976 91.3222 143.534 146.591 288.319 258.455 265.151 76.1764 143.534 146.591 126.992 76.1764 127.925 141.727 277.764 263.353 260.43 67.3572 127.925 141.727 131.463 67.3572 129.319 136.037 269.792 250.419 255.225 60.5677 129.319 136.037 131.89 60.5677 120.262 133.755 244.396 216.995 238.785 68.7517 120.262 133.755 118.53 68.7517 105.705 110.641 236.105 208.561 205.325 51.5106 105.705 110.641 98.4653 51.5106 103.964 125.464 243.361 210.363 228.459 54.1946 103.964 125.464 110.095 54.1946 101.598 117.897 230.767 207.883 231.59 49.7694 101.598 117.897 100.268 49.7694 99.1525 112.87 212.671 205.492 226.77 51.8283 99.1525 112.87 107.615 51.8283 99.3006 99.8003 201.022 193.885 213.622 47.3242 99.3006 99.8003 97.877 47.3242 108.421 101.221 212.636 196.794 206.953 51.9764 108.421 101.221 96.0084 51.9764 111.73 111.414 219.131 203.66 202.803 56.4445 111.73 111.414 100.786 56.4445 105.866 107.717 219.978 196.647 199.63 55.2856 105.866 107.717 102.874 55.2856 95.999 112.261 215.57 180.966 217.15 50.58 95.999 112.261 93.7731 50.58 78.5742 103.309 176.34 170.384 190.715 45.419 78.5742 103.309 87.193 45.419 80.2327 73.0307 158.252 168.391 155.366 33.1551 80.2327 73.0307 83.1913 33.1551 88.3398 85.221 185.786 166.295 166.188 47.0775 88.3398 85.221 85.1993 47.0775 88.0218 100.565 188.361 174.157 184.752 41.2623 88.0218 100.565 81.0961 41.2623 86.6948 87.7955 178.39 178.907 168.231 46.7595 86.6948 87.7955 93.0611 46.7595 74.7286 90.5942 154.3 162.109 178.628 39.9352 74.7286 90.5942 85.8464 39.9352 67.3895 63.7062 135.204 156.506 152.792 34.7934 67.3895 63.7062 76.2624 34.7934 74.1765 71.498 158.729 166.989 164.814 32.5961 74.1765 71.498 80.2437 32.5961 72.9837 87.2314 146.737 160.512 169.885 41.5804 72.9837 87.2314 86.745 41.5804 69.0915 59.5056 135.589 154.872 139.771 31.4033 69.0915 59.5056 73.7668 31.4033 37.6882 76.0837 76.0837 81.1053 160.886 37.6882 37.6882 76.0837 81.1053 37.6882 288.405 140.094 269.803 259.172 119.295 148.891 140.094 69.119 119.295 69.119 310.301 301.901 278.029 166.964 148.31 150.508 79.7716 320.02 296.263 292.624 162.182 161.99 151.394 87.1928 327.355 302.784 287.423 159.505 158.03 144.87 74.9893 325.256 302.024 308.261 169.437 169.325 157.914 84.5155 321.365 297.033 278.164 170.797 155.931 144.11 84.922 308.821 278.818 292.432 151.528 165.435 152.922 85.8745 261.946 246.505 260.338 116.468 143.386 125.896 65.6534 237.262 240.687 250.903 114.921 118.56 120.609 50.8151 237.89 256.927 231.291 135.428 118.702 120.078 64.1061 224.217 242.982 233.972 121.1 119.188 136.849 71.3219 199.714 204.383 208.737 96.7328 105.03 106.133 49.7781 197.679 205.541 200.698 102.855 94.6842 98.2504 46.9547 216.688 213.897 206.421 106.399 102.995 107.291 55.9007 227.593 224.464 224.741 106.285 113.694 106.607 50.4986 227.721 220.9 228.706 106.339 113.899 117.857 55.7863 219.553 193.039 210.224 94.5847 113.822 103.043 50.5528 197.12 187.487 200.395 88.373 105.732 89.9956 44.032 183.302 189.269 192.871 91.9296 91.3883 97.4913 44.341 196.802 194.299 175.897 90.7817 91.9132 91.7779 47.5886 192.295 197.422 213.31 84.9671 104.889 102.521 43.193 169.741 186.458 190.864 91.8102 87.4061 94.9014 41.774 163.302 162.461 164.902 88.1579 82.3349 91.5565 50.0361 165.154 146.849 152.299 77.9556 80.9672 70.9048 38.1217 164.622 167.094 162.292 86.1354 84.1866 75.9446 39.8338 168.469 191.807 170.759 92.2127 80.4357 91.1499 46.3015 177.12 193.603 190.7 87.3802 88.0337 100.657 45.9112 182.402 179.725 197.731 89.1166 89.0858 92.9458 41.469 175.969 179.828 175.958 92.8122 93.3158 86.7793 47.6476 162.919 175.612 170.354 87.5281 82.6532 93.0485 45.1646 165.068 159.253 159.965 85.7805 80.2654 82.564 42.3635 84.8023 76.6894 151.607 43.417 84.8023 76.6894 43.417 248.796 119.078 214.002 215.483 88.0245 120.912 119.078 50.1763 88.0245 50.1763 260.352 239.923 244.958 134.937 129.718 125.978 70.736 260.026 222.985 240.36 134.081 130.634 113.946 64.2007 268.329 252.566 219.55 143.279 129.393 109.039 69.8806 261.17 259.997 266.129 132.587 138.937 143.527 73.3982 249.23 237.152 237.381 126.236 122.234 116.47 59.1884 243.949 234.959 236.663 127.29 126.997 120.683 67.0476 249.295 241.921 224.762 130.037 116.952 114.277 60.2425 244.932 224.411 247.331 125.766 132.343 127.645 69.7941 227.373 203.883 202.93 121.499 112.589 96.766 55.9721 218.491 213.863 205.956 121.882 114.785 107.117 65.5271 209.721 208.798 196.767 107.651 103.707 106.746 56.355 209.44 203.399 208.575 102.686 106.014 102.052 51.2957 214.474 201.165 197.257 107.498 103.426 101.347 51.39 225.854 199.847 205.989 118.179 111.047 99.8172 56.1082 211.209 196.463 202.566 114.561 114.806 100.03 62.0709 191.066 197.799 188.353 98.4541 96.4025 96.4328 52.4905 196.146 214.637 195.609 99.114 94.6636 101.366 45.9636 185.466 205.989 214.28 97.3396 101.482 113.271 53.1503 192.405 184.04 167.811 103.517 83.984 92.7182 44.1892 211.879 189.913 193.636 112.455 108.421 91.3223 59.3276 186.025 178.562 208.18 94.6477 103.458 98.591 53.1273 153.899 148.743 167.936 74.3035 82.5675 79.9711 41.5204 149.437 146.698 146.135 68.8938 71.3314 68.7719 32.7831 168.429 160.547 161.629 80.959 78.1055 77.9265 36.1107 192.99 166.487 175.356 99.5942 90.3236 82.62 44.8483 211.311 177.201 177.638 106.223 102.666 83.8673 54.7459 191.287 182.43 184.723 90.6084 108.645 93.3338 51.4767 170.343 183.329 174.824 87.0156 82.6422 89.0964 39.1317 167.401 170.197 180.543 88.0844 87.7011 94.2323 47.8839 146.505 140.016 156.37 73.4729 79.7001 75.9645 40.2005 66.8044 64.0512 140.431 33.2723 66.8044 64.0512 33.2723 211.644 96.405 171.126 186.243 73.3389 93.0899 96.405 37.8482 73.3389 37.8482 224.966 217.195 200.811 104.987 115.239 97.787 55.2417 199.883 206.745 239.361 88.9035 109.726 119.408 49.7449 217.35 214.214 189.633 109.287 90.1572 87.3369 39.1586 242.34 232.446 241.448 127.41 127.193 126.877 70.1289 224.814 204.369 205.34 110.916 115.148 105.569 57.2812 217.477 210.326 212.107 107.669 109.667 98.8 53.6351 222.797 214.895 208.477 111.885 107.81 111.526 54.0341 205.329 201.438 200.21 98.6445 114.987 103.369 57.8507 181.513 181.064 209.982 82.3835 90.3414 98.0686 40.7939 184.232 186.359 176.994 91.9806 91.1715 82.9954 41.5896 195.621 194.873 201.387 101.147 93.0601 103.364 50.3909 196.392 190.791 196.857 100.714 102.561 91.5089 50.7565 188.772 195.587 177.735 93.6664 93.8302 99.2818 49.9574 182.701 192.061 190.399 81.6681 94.9414 96.3055 43.709 179.709 187.407 196.911 81.9014 87.7593 95.7552 37.9591 192.895 194.378 187.037 99.3447 91.95 91.6522 43.9423 213.743 212.75 214.762 115.523 100.945 102.726 55.4024 196.625 205.439 209.566 108.65 112.798 110.024 60.1208 169.041 179.429 178.797 80.5236 83.827 95.4154 48.5289 189.936 167.47 173.451 77.4584 85.2143 84.0136 31.9947 190.09 159.505 187.883 83.9144 104.722 83.4563 45.4637 160.172 153.005 167.159 74.4395 85.3687 76.0487 38.4507 158.328 160.924 160.135 77.8045 74.8037 76.9568 35.9887 168.556 164.656 166.665 79.5875 83.5239 83.9668 41.8158 160.005 152.6 168.758 66.8931 85.0325 80.6897 37.7717 151.05 153.465 161.341 70.9784 74.9721 71.9107 29.1214 168.26 161.321 163.119 91.8217 76.0782 81.5547 41.8571 185.024 167.555 162.751 96.3131 92.1818 79.7666 49.9647 169.513 154.906 172.893 82.1124 92.8424 87.7881 46.3484 150.297 134.934 156.253 66.5429 76.6703 67.1179 35.764 73.6266 67.8161 161.013 30.7789 73.6266 67.8161 30.7789 175.409 89.8377 203.452 193.6 88.4006 78.0359 89.8377 35.4907 88.4006 35.4907 215.206 253.893 221.176 112.209 85.5713 115.052 42.5452 229.111 253.112 251.35 117.842 129.635 138.841 69.6633 213.732 235.11 219.11 104.927 99.4759 114.27 48.1783 204.448 229.951 243.35 105.036 114.256 120.84 56.7484 192.633 216.148 197.423 93.4523 90.1924 109.111 48.2874 203.107 214.636 211.444 102.657 102.441 107.036 45.1649 185.89 188.367 210.321 103.01 100.666 107.6 57.4919 204.864 181.911 182.241 102.793 85.2233 80.7672 45.5185 205.463 196.811 226.015 98.6805 119.641 101.144 57.2748 194.15 202.189 183.891 94.3788 85.8225 95.6665 41.4058 202.623 204.409 211.159 93.7254 108.327 106.522 52.973 178.201 200.42 212.865 90.0768 94.2954 97.8866 40.7524 179.363 206.478 182.173 101.921 83.9051 102.533 49.3244 204.61 198.956 189.269 110.393 95.4578 103.944 52.5965 204.239 182.501 212.4 105.506 109.152 95.012 57.7961 208.903 179.684 190.16 95.0333 95.0866 87.4893 47.7099 210.584 192.756 213.258 97.2265 113.816 92.1945 47.3234 191.737 182.715 179.037 96.7895 96.7677 100.562 49.903 183.206 187.038 173.299 98.9054 94.9698 82.1527 46.8864 171.398 186.598 186.598 90.0116 88.2366 104.885 52.0189 164.952 170.913 162.374 75.5906 83.1614 81.7127 37.9926 167.121 186.282 182.355 78.566 81.7905 89.2005 37.598 168.472 176.668 173.603 83.1191 85.331 97.0811 40.9681 166.866 169.823 163.448 85.069 83.1406 79.5867 42.151 170.095 173.754 162.156 85.7074 83.7254 90.2361 42.918 173.41 188.382 169.05 82.487 86.3692 83.5174 42.7893 157.61 182.145 185.648 69.4996 87.041 104.865 39.6977 150.62 159.136 167.407 71.2416 70.569 77.2803 29.8019 159.633 136.32 162.674 72.7935 80.0509 81.8558 41.4397 166.969 137.306 132.596 68.3911 79.5823 54.4642 31.3539 87.3868 82.8414 178.008 37.0372 87.3868 82.8414 37.0372 239.367 103.762 268.638 233.49 120.269 125.416 103.762 52.9099 120.269 52.9099 257.319 297.171 285.263 141.685 135.604 148.368 72.5066 241.349 304.393 290.4 135.27 121.715 148.803 69.1782 248.728 288.882 274.654 130.184 119.634 155.59 66.0918 236.326 252.087 261.662 124.916 129.095 133.292 64.0917 216.234 242.857 222.608 122.695 107.231 118.795 60.8239 218.657 230.048 242.406 111.979 109.003 124.062 61.8714 206.672 213.913 236.361 85.3566 109.654 105.986 50.1079 203.392 222.4 244.986 79.1182 97.018 107.927 35.2487 204.442 240.659 250.129 98.1302 106.374 114.473 43.8695 200.9 230.259 231.254 107.81 98.0682 126.186 54.2608 221.401 216.161 209.575 110.684 102.831 104.073 53.5494 216.838 210.208 231.581 110.343 118.57 112.088 57.1342 192.079 198.82 205.849 104.557 98.2682 98.12 53.2091 197.059 202.674 197.796 88.5638 93.8112 100.7 51.348 198.322 185.319 219.373 76.9953 103.248 101.974 37.2159 194.515 170.658 186.993 84.6505 95.0734 83.3446 39.7794 181.711 183.557 191.672 95.5298 99.4419 87.3134 44.8711 160.598 177.398 171.762 85.9251 82.2693 96.2438 50.6588 176.691 176.13 166.46 88.1324 78.3291 81.1544 35.2663 177.574 186.567 179.804 96.5862 98.3617 94.9761 52.8661 179.777 185.567 164.561 95.3226 79.2126 91.5905 43.7201 188.837 201.884 190.782 107.715 100.565 93.9766 51.6025 168.579 184.871 181.328 93.5487 88.2722 107.907 56.113 158.737 166.819 181.183 84.7538 80.307 76.9641 37.4357 161.111 176.912 165.899 88.0462 78.4304 89.8548 47.3181 181.288 191.093 171.433 105.895 82.6809 87.057 40.7281 195.444 199.981 174.179 112.646 98.6068 104.036 65.1673 179.461 183.447 200.806 87.8945 96.8375 95.9449 47.4784 135.637 144.806 184.184 63.5264 82.6232 87.5019 40.4161 143.634 141.446 133.105 68.9145 53.0133 57.3039 23.1103 90.6208 84.1424 169.867 45.8042 90.6208 84.1424 45.8042 279.387 129.728 336.537 290.441 150.183 143.221 129.728 67.3595 150.183 67.3595 318.344 349.52 363.076 155.486 149.659 186.355 75.8617 323.705 343.667 354.596 169.123 168.685 163.165 79.6247 287.588 335.026 347.086 158.699 155.02 180.502 89.4986 247.945 291.328 298.575 127.172 132.568 154.524 69.2003 248.78 276.802 271.116 120.162 115.377 136.804 57.9713 260.11 265.673 281.06 118.068 133.403 139.998 62.1903 274.675 266.828 279.48 128.556 126.707 125.675 55.878 291.723 292.277 289.834 143.282 147.968 141.154 72.6783 276.941 282.987 287.663 142.529 143.755 151.123 70.6033 239.929 235.78 267.881 122.449 133.186 131.864 71.9257 219.755 217.81 214.263 105.477 106.743 103.916 50.5233 220.592 205.889 227.053 99.865 113.011 113.893 54.9541 211.566 196.416 204.825 94.2629 107.58 91.9955 44.9109 220.111 221.694 231.208 114.11 103.985 104.42 49.352 208.045 208.578 221.647 108.324 116.125 117.274 64.7584 184.15 193.389 200.163 86.0075 91.9195 91.304 43.5652 181.723 196.927 188.991 88.0273 92.2301 102.085 42.4423 177.624 187.737 188.38 91.4731 89.4929 94.8424 45.585 169.573 180.896 176.065 87.9981 88.131 92.8945 45.8881 166.791 177.937 170.411 89.9804 81.4422 88.0018 42.11 175.566 180.073 167.198 90.2445 85.3484 89.9349 47.8704 183.273 185.966 191.443 94.1683 90.2176 90.1383 42.3741 193.931 183.748 175.146 91.3226 93.0554 95.8278 51.7942 188.344 177.48 197.116 82.065 100.876 87.9206 39.5284 176.221 178.644 176.043 88.8657 87.4685 89.5598 42.5367 164.325 167.671 180.718 85.1979 88.7524 89.0837 46.329 179.541 170.348 151.244 87.3354 75.5727 78.5872 38.8689 205.529 187.66 193.605 95.5524 103.968 91.7605 48.4666 181.652 166.848 192.649 81.2794 101.561 95.8991 47.0858 159.337 154.443 166.671 72.5318 80.0913 70.9488 34.1936 79.246 83.4937 158.496 38.3382 79.246 83.4937 38.3382 374.13 160.713 193.316 160.713 82.8232 193.316 160.713 82.8232 82.8232 82.8232 399.328 194.034 213.417 194.034 213.417 110.493 110.493 377.976 174.544 185.911 174.544 185.911 83.5407 83.5407 358.073 176.327 192.066 176.327 192.066 91.003 91.003 321.746 164.156 166.008 164.156 166.008 85.3236 85.3236 303.395 156.641 155.739 156.641 155.739 78.8325 78.8325 300.429 147.605 147.657 147.605 147.657 77.8081 77.8081 294.639 138.272 152.773 138.272 152.773 69.7967 69.7967 285.774 148.996 141.866 148.996 141.866 68.4754 68.4754 278.603 140.458 143.908 140.458 143.908 80.5201 80.5201 242.215 113.331 134.695 113.331 134.695 59.938 59.938 221.561 112.332 107.52 112.332 107.52 53.3932 53.3932 211.286 106.024 114.041 106.024 114.041 58.9391 58.9391 224.468 102.153 97.245 102.153 97.245 47.0846 47.0846 232.744 107.583 127.223 107.583 127.223 55.0681 55.0681 213.765 100.254 105.521 100.254 105.521 52.5154 52.5154 205.005 107.382 108.244 107.382 108.244 47.7388 47.7388 195.649 108.9 96.7613 108.9 96.7613 59.6427 59.6427 186.822 96.2638 98.8875 96.2638 98.8875 49.2574 49.2574 176.903 92.8982 87.9344 92.8982 87.9344 47.0064 47.0064 170.818 87.9563 88.9684 87.9563 88.9684 45.8918 45.8918 183.075 89.8287 81.8494 89.8287 81.8494 42.0645 42.0645 183.316 91.7978 101.226 91.7978 101.226 47.7642 47.7642 178.33 92.4259 82.0902 92.4259 82.0902 44.0336 44.0336 184.814 95.4154 96.2397 95.4154 96.2397 48.3922 48.3922 180.54 89.7779 88.5744 89.7779 88.5744 47.0231 47.0231 167.636 82.4731 91.9656 82.4731 91.9656 42.7547 42.7547 165.308 83.0122 75.6708 83.0122 75.6708 39.7183 39.7183 180.725 92.1072 89.6373 92.1072 89.6373 43.2939 43.2939 177.668 85.5685 91.0882 85.5685 91.0882 48.8133 48.8133 165.83 81.9107 86.5797 81.9107 86.5797 36.7552 36.7552 79.2504 45.1554 79.2504 45.1554 79.2504 45.1554 45.1554 211.63 109.905 109.905 211.63 109.905 351.144 180.88 180.88 109.905 211.63 109.905 109.905 180.88 109.905 193.798 101.725 193.798 337.134 170.264 101.725 193.798 101.725 170.264 101.725 196.826 92.0726 196.826 354.664 166.87 92.0726 196.826 92.0726 166.87 92.0726 189.625 104.753 189.625 357.475 187.794 104.753 189.625 104.753 187.794 104.753 173.862 84.8726 173.862 329.68 169.682 84.8726 173.862 84.8726 169.682 84.8726 170.099 88.9896 170.099 320.668 159.998 88.9896 170.099 88.9896 159.998 88.9896 144.364 81.1098 144.364 301.657 160.67 81.1098 144.364 81.1098 160.67 81.1098 133.669 63.2543 133.669 279.147 140.987 63.2543 133.669 63.2543 140.987 63.2543 144.785 70.415 144.785 267.126 138.16 70.415 144.785 70.415 138.16 70.415 149.839 74.3702 149.839 252.301 128.966 74.3702 149.839 74.3702 128.966 74.3702 140.472 75.4691 140.472 243.59 123.335 75.4691 140.472 75.4691 123.335 75.4691 124.133 65.0034 124.133 227.115 120.255 65.0034 124.133 65.0034 120.255 65.0034 130.399 59.13 130.399 225.223 106.86 59.13 130.399 59.13 106.86 59.13 139.396 71.2693 139.396 249.686 118.363 71.2693 139.396 71.2693 118.363 71.2693 129.169 68.1272 129.169 250.477 131.322 68.1272 129.169 68.1272 131.322 68.1272 113.518 61.042 113.518 234.9 119.155 61.042 113.518 61.042 119.155 61.042 101.721 52.4761 101.721 226.69 115.745 52.4761 101.721 52.4761 115.745 52.4761 104.215 49.2449 104.215 212.962 110.945 49.2449 104.215 49.2449 110.945 49.2449 107.401 54.9698 107.401 198.773 102.017 54.9698 107.401 54.9698 102.017 54.9698 114.112 52.431 114.112 220.132 96.7556 52.431 114.112 52.431 96.7556 52.431 119.571 61.681 119.571 226.899 123.377 61.681 119.571 61.681 123.377 61.681 97.7659 57.8904 97.7659 175.697 103.522 57.8904 97.7659 57.8904 103.522 57.8904 78.019 39.8756 78.019 153.163 72.1743 39.8756 78.019 39.8756 72.1743 39.8756 97.4463 38.1434 97.4463 184.645 80.9889 38.1434 97.4463 38.1434 80.9889 38.1434 100.339 59.3029 100.339 178.826 103.656 59.3029 100.339 59.3029 103.656 59.3029 91.6949 41.0359 91.6949 167.952 75.1701 41.0359 91.6949 41.0359 75.1701 41.0359 79.5718 50.659 79.5718 169.311 92.7816 50.659 79.5718 50.659 92.7816 50.659 67.8147 28.9128 67.8147 161.1 76.5297 28.9128 67.8147 28.9128 76.5297 28.9128 84.5529 38.9019 84.5529 167.71 84.5701 38.9019 84.5529 38.9019 84.5701 38.9019 73.7534 45.651 73.7534 149.144 83.1397 45.651 73.7534 45.651 83.1397 45.651 66.4978 28.1023 66.4978 145.785 66.0042 28.1023 66.4978 28.1023 66.0042 28.1023 38.3955 38.3955 38.3955 79.7807 79.7807 38.3955 38.3955 38.3955 79.7807 38.3955 139.514 70.9753 267.398 139.877 139.877 139.514 70.9753 70.9753 139.877 70.9753 143.336 268.752 127.521 143.336 68.5388 127.521 68.5388 157.838 283.783 141.231 157.838 74.7976 141.231 74.7976 167.85 292.901 142.553 167.85 83.0406 142.553 83.0406 155.818 284.402 150.348 155.818 84.8094 150.348 84.8094 150.569 273.563 134.054 150.569 71.0088 134.054 71.0088 157.293 273.952 139.509 157.293 79.5602 139.509 79.5602 145.477 264.736 134.442 145.477 77.7329 134.442 77.7329 122.341 241.506 130.294 122.341 67.7446 130.294 67.7446 102.462 208.336 111.213 102.462 54.5961 111.213 54.5961 103.117 199.727 97.1233 103.117 47.8659 97.1233 47.8659 102.981 205.051 102.604 102.981 55.2516 102.604 55.2516 94.8235 201.578 102.448 94.8235 47.7295 102.448 47.7295 110.289 217.265 99.1305 110.289 47.094 99.1305 47.094 121.308 228.983 118.134 121.308 63.195 118.134 63.195 121.382 218.03 110.849 121.382 58.1132 110.849 58.1132 124.969 217.581 107.181 124.969 63.2691 107.181 63.2691 108.747 205.779 110.4 108.747 61.6996 110.4 61.6996 91.3719 179.499 95.3794 91.3719 47.0473 95.3794 47.0473 106.02 194.909 84.1194 106.02 44.3246 84.1194 44.3246 107.328 206.752 110.79 107.328 61.6957 110.79 61.6957 77.9307 169.308 95.9626 77.9307 45.632 95.9626 45.632 75.1442 154.74 73.3458 75.1442 32.2987 73.3458 32.2987 87.1982 167.741 81.3937 87.1982 42.8455 81.3937 42.8455 78.4869 165.957 86.3475 78.4869 44.3527 86.3475 44.3527 76.2567 169.652 79.6094 76.2567 34.1342 79.6094 34.1342 89.7394 194.828 90.0427 89.7394 42.1226 90.0427 42.1226 93.285 193.964 104.785 93.285 47.6168 104.785 47.6168 83.1568 166.485 89.1788 83.1568 45.6682 89.1788 45.6682 75.3905 154.707 77.3059 75.3905 37.4886 77.3059 37.4886 79.2872 152.319 77.4015 79.2872 37.9019 77.4015 37.9019 41.3853 74.9174 74.9174 41.3853 41.3853 74.9174 41.3853 127.884 68.9015 246.438 127.458 127.458 127.884 68.9015 68.9015 127.458 68.9015 125.415 245.394 118.98 125.415 58.9822 118.98 58.9822 125.945 236.925 126.414 125.945 66.4329 126.414 66.4329 125.051 233.113 110.511 125.051 59.5122 110.511 59.5122 128.584 243.514 122.602 128.584 65.5384 122.602 65.5384 122.994 236.892 120.912 122.994 63.0451 120.912 63.0451 116.659 226.467 115.981 116.659 59.9493 115.981 59.9493 119.259 230.171 110.486 119.259 56.7095 110.486 56.7095 119.166 225.85 119.686 119.166 62.5493 119.686 62.5493 105.874 205.003 106.164 105.874 56.6165 106.164 56.6165 96.6093 188.86 98.8392 96.6093 49.2574 98.8392 49.2574 102.07 196.544 90.0211 102.07 47.3519 90.0211 47.3519 106.755 202.432 106.523 106.755 54.7182 106.523 54.7182 106.976 202.081 95.9094 106.976 52.0365 95.9094 52.0365 107.675 208.707 106.172 107.675 54.9392 106.172 54.9392 96.6474 194.455 102.536 96.6474 52.7354 102.536 52.7354 92.6119 186.163 91.9198 92.6119 43.912 91.9198 43.912 97.032 195.252 94.2429 97.032 48.6999 94.2429 48.6999 88.1269 176.102 101.009 88.1269 48.3321 101.009 48.3321 88.8886 177.406 75.0928 88.8886 39.7948 75.0928 39.7948 99.4244 211.902 102.313 99.4244 49.0938 102.313 49.0938 91.3777 197.554 109.589 91.3777 50.3306 109.589 50.3306 79.5954 165.328 87.9651 79.5954 41.0471 87.9651 41.0471 80.5431 161.066 77.3633 80.5431 38.5483 77.3633 38.5483 87.47 176.439 83.7029 87.47 41.9948 83.7029 41.9948 93.3954 186.507 92.7361 93.3954 45.4753 92.7361 45.4753 105.088 185.16 93.7709 105.088 47.9202 93.7709 47.9202 100.679 177.117 91.3895 100.679 57.1683 91.3895 57.1683 83.3278 172.039 85.7277 83.3278 43.5105 85.7277 43.5105 79.3168 166.717 86.3112 79.3168 39.8172 86.3112 39.8172 73.0316 156.786 80.4058 73.0316 39.4996 80.4058 39.4996 33.5321 76.3798 76.3798 33.5321 33.5321 76.3798 33.5321 118.554 58.5568 215.928 112.904 112.904 118.554 58.5568 58.5568 112.904 58.5568 119.979 222.976 103.024 119.979 59.9977 103.024 59.9977 110.98 222.249 119.953 110.98 59.9813 119.953 59.9813 108.062 216.867 102.296 108.062 50.9986 102.296 50.9986 114.93 214.343 114.571 114.93 57.0638 114.571 57.0638 113.898 213.079 99.7715 113.898 57.8665 99.7715 57.8665 109.808 210.258 113.307 109.808 56.0315 113.307 56.0315 110.913 193.792 96.9507 110.913 53.7762 96.9507 53.7762 106.684 208.755 96.8413 106.684 57.1365 96.8413 57.1365 99.1293 205.912 111.914 99.1293 49.5475 111.914 49.5475 92.251 192.022 93.9985 92.251 49.5818 93.9985 49.5818 94.474 203.371 98.0235 94.474 42.6691 98.0235 42.6691 95.6778 183.801 105.348 95.6778 51.8049 105.348 51.8049 95.1052 172.547 78.4536 95.1052 43.8729 78.4536 43.8729 101.033 195.25 94.0938 101.033 51.2324 94.0938 51.2324 97.808 196.541 101.156 97.808 49.8003 101.156 49.8003 93.5507 207.42 95.3845 93.5507 48.0078 95.3845 48.0078 98.2201 211.577 112.036 98.2201 45.543 112.036 45.543 87.9751 182.923 99.5417 87.9751 52.6771 99.5417 52.6771 88.5177 172.819 83.3814 88.5177 35.298 83.3814 35.298 112.478 193.864 89.4373 112.478 53.2197 89.4373 53.2197 106.176 195.537 104.427 106.176 59.258 104.427 59.258 85.7329 174.288 91.1104 85.7329 46.918 91.1104 46.918 80.5231 165.876 83.1779 80.5231 38.815 83.1779 38.815 88.969 170.766 82.6977 88.969 41.7081 82.6977 41.7081 93.1116 177.499 88.0682 93.1116 47.2609 88.0682 47.2609 80.0719 170.995 89.4306 80.0719 45.8507 89.4306 45.8507 76.4384 164.549 81.5645 76.4384 34.2212 81.5645 34.2212 88.7111 168.089 82.9842 88.7111 42.2172 82.9842 42.2172 87.4002 174.24 85.1052 87.4002 46.494 85.1052 46.494 83.754 182.332 89.1347 83.754 40.9063 89.1347 40.9063 42.8477 93.1974 93.1974 42.8477 42.8477 93.1974 42.8477 97.3731 54.347 211.323 105.199 105.199 97.3731 54.347 54.347 105.199 54.347 102.997 218.632 106.124 102.997 43.0261 106.124 43.0261 111.269 217.348 112.508 111.269 59.9713 112.508 59.9713 108.805 227.35 104.84 108.805 51.2976 104.84 51.2976 99.4123 210.822 122.51 99.4123 57.5072 122.51 57.5072 99.1806 192.719 88.3121 99.1806 41.905 88.3121 41.905 100.45 207.128 104.407 100.45 57.2756 104.407 57.2756 82.8793 204.195 102.721 82.8793 43.1745 102.721 43.1745 102.071 226.345 101.474 102.071 39.7048 101.474 39.7048 106.783 213.095 124.87 106.783 62.3663 124.87 62.3663 99.7711 192.861 88.2242 99.7711 44.4167 88.2242 44.4167 108.897 219.615 104.636 108.897 55.3544 104.636 55.3544 88.1237 194.618 114.979 88.1237 53.543 114.979 53.543 77.4421 164.964 79.6398 77.4421 34.5807 79.6398 34.5807 94.2173 202.713 85.3246 94.2173 42.8614 85.3246 42.8614 98.7327 220.059 117.388 98.7327 51.3559 117.388 51.3559 113.869 223.734 102.671 113.869 47.3767 102.671 47.3767 113.357 199.539 121.064 113.357 66.4927 121.064 66.4927 94.948 169.621 78.4752 94.948 46.8646 78.4752 46.8646 84.301 172.859 91.1462 84.301 48.0834 91.1462 48.0834 81.3864 162.375 81.7132 81.3864 36.2176 81.7132 36.2176 89.3613 173.816 80.6613 89.3613 45.1688 80.6613 45.1688 88.5554 169.677 93.1545 88.5554 44.1925 93.1545 44.1925 85.3526 160.383 76.5221 85.3526 44.3629 76.5221 44.3629 81.797 155.781 83.8609 81.797 40.9896 83.8609 40.9896 84.3873 157.452 71.9196 84.3873 40.8074 71.9196 40.8074 90.9232 166.316 85.5327 90.9232 43.5799 85.5327 43.5799 88.1104 170.909 80.7828 88.1104 47.3433 80.7828 47.3433 79.3783 170.945 90.1263 79.3783 40.7671 90.1263 40.7671 86.8397 158.95 80.8183 86.8397 38.6112 80.8183 38.6112 98.5781 173.298 78.1314 98.5781 48.2285 78.1314 48.2285 50.3496 95.1663 95.1663 50.3496 50.3496 95.1663 50.3496 113.95 50.8522 250.116 113.221 113.221 113.95 50.8522 50.8522 113.221 50.8522 115.635 278.492 136.895 115.635 63.0979 136.895 63.0979 106.079 260.661 141.597 106.079 52.5368 141.597 52.5368 118.545 247.434 119.064 118.545 53.5419 119.064 53.5419 111.41 232.183 128.37 111.41 65.003 128.37 65.003 93.5386 222.157 103.813 93.5386 46.4071 103.813 46.4071 106.678 248.72 118.344 106.678 47.1316 118.344 47.1316 121.316 267.434 130.375 121.316 59.5463 130.375 59.5463 124.273 272.715 137.059 124.273 61.7693 137.059 61.7693 106.312 240.724 135.656 106.312 62.5042 135.656 62.5042 93.0895 210.57 105.068 93.0895 43.8075 105.068 43.8075 110.718 224.995 105.502 110.718 49.282 105.502 49.282 106.495 227.221 119.493 106.495 61.4355 119.493 61.4355 87.5224 204.825 107.729 87.5224 45.0591 107.729 45.0591 108.495 214.496 97.0965 108.495 42.4632 97.0965 42.4632 121.326 221.048 117.399 121.326 66.0322 117.399 66.0322 109.865 208.007 103.648 109.865 55.294 103.648 55.294 86.1814 179.877 104.359 86.1814 54.5709 104.359 54.5709 74.6733 160.824 75.5184 74.6733 31.6105 75.5184 31.6105 88.5584 170.134 85.3058 88.5584 43.0628 85.3058 43.0628 80.9881 157.798 84.8278 80.9881 45.4956 84.8278 45.4956 84.4545 169.776 72.9705 84.4545 35.4925 72.9705 35.4925 81.1212 170.226 96.8055 81.1212 48.962 96.8055 48.962 75.0305 177.639 73.4204 75.0305 32.1592 73.4204 32.1592 73.9836 180.263 104.219 73.9836 42.8713 104.219 42.8713 73.0651 160.42 76.0441 73.0651 31.1123 76.0441 31.1123 75.3923 154.52 84.3763 75.3923 41.9528 84.3763 41.9528 82.7987 175.004 70.1433 82.7987 33.4395 70.1433 33.4395 91.5663 201.543 104.861 91.5663 49.3592 104.861 49.3592 72.1101 172.483 96.6819 72.1101 42.2071 96.6819 42.2071 74.7196 161.525 75.8007 74.7196 29.903 75.8007 29.903 44.8167 85.7244 85.7244 44.8167 44.8167 85.7244 44.8167 136.166 62.3685 316.98 140.259 140.259 136.166 62.3685 62.3685 140.259 62.3685 162.857 368.151 176.721 162.857 73.7971 176.721 73.7971 154.582 358.015 191.43 154.582 89.0601 191.43 89.0601 128.889 310.636 166.584 128.889 65.5218 166.584 65.5218 120.773 278.364 144.051 120.773 63.3672 144.051 63.3672 128.619 275.374 134.312 128.619 57.4061 134.312 57.4061 142.042 294.866 141.061 142.042 71.2127 141.061 71.2127 146.119 302.485 153.805 146.119 70.8291 153.805 70.8291 148.442 285.22 148.68 148.442 75.2898 148.68 75.2898 134.412 272.556 136.539 134.412 73.1518 136.539 73.1518 117.48 246.364 136.017 117.48 61.2603 136.017 61.2603 114.277 223.506 110.347 114.277 56.22 110.347 56.22 120.727 225.989 113.159 120.727 58.0573 113.159 58.0573 117.303 239.618 112.83 117.303 62.6695 112.83 62.6695 106 231.161 126.788 106 54.6332 126.788 54.6332 99.7213 213.232 104.373 99.7213 51.367 104.373 51.367 98.1421 195.766 108.859 98.1421 48.3543 108.859 48.3543 93.6957 180.444 86.9064 93.6957 49.7878 86.9064 49.7878 86.1508 176.709 93.5379 86.1508 43.9079 93.5379 43.9079 81.5751 165.58 83.171 81.5751 42.243 83.171 42.243 76.8102 159.672 82.4088 76.8102 39.3322 82.4088 39.3322 85.3215 178.568 77.2629 85.3215 37.478 77.2629 37.478 89.1048 180.623 101.305 89.1048 47.8435 101.305 47.8435 102.609 188.513 79.3178 102.609 41.2612 79.3178 41.2612 106.279 195.678 109.195 106.279 61.3476 109.195 61.3476 87.3552 178.117 86.4831 87.3552 44.9318 86.4831 44.9318 79.1273 164.291 91.6343 79.1273 42.4235 91.6343 42.4235 92.2053 174.501 72.6563 92.2053 36.7038 72.6563 36.7038 109.976 198.595 101.845 109.976 55.5014 101.845 55.5014 100.373 192.472 96.7497 100.373 54.4748 96.7497 54.4748 86.8055 170.725 95.7222 86.8055 45.8977 95.7222 45.8977 40.9078 75.0027 75.0027 40.9078 40.9078 75.0027 40.9078 180.814 77.8901 180.814 77.8901 77.8901 180.814 77.8901 77.8901 77.8901 77.8901 205.294 205.294 102.924 205.294 102.924 102.924 102.924 203.433 203.433 102.37 203.433 102.37 102.37 102.37 181.747 181.747 101.063 181.747 101.063 101.063 101.063 157.59 157.59 80.684 157.59 80.684 80.684 80.684 146.755 146.755 76.9064 146.755 76.9064 76.9064 76.9064 152.824 152.824 69.8485 152.824 69.8485 69.8485 69.8485 156.367 156.367 82.976 156.367 82.976 82.976 82.976 136.778 136.778 73.3906 136.778 73.3906 73.3906 73.3906 138.144 138.144 63.3875 138.144 63.3875 63.3875 63.3875 128.884 128.884 74.7569 128.884 74.7569 74.7569 74.7569 109.229 109.229 54.127 109.229 54.127 54.127 54.127 105.262 105.262 55.1021 105.262 55.1021 55.1021 55.1021 122.315 122.315 50.1604 122.315 50.1604 50.1604 50.1604 125.161 125.161 72.1547 125.161 72.1547 72.1547 72.1547 113.511 113.511 53.006 113.511 53.006 53.006 53.006 97.6237 97.6237 60.505 97.6237 60.505 60.505 60.505 86.7487 86.7487 37.1186 86.7487 37.1186 37.1186 37.1186 90.5581 90.5581 49.6301 90.5581 49.6301 49.6301 49.6301 84.0046 84.0046 40.928 84.0046 40.928 40.928 40.928 82.8614 82.8614 43.0766 82.8614 43.0766 43.0766 43.0766 93.2463 93.2463 39.7848 93.2463 39.7848 39.7848 39.7848 91.518 91.518 53.4615 91.518 53.4615 53.4615 53.4615 85.904 85.904 38.0566 85.904 38.0566 38.0566 38.0566 89.3987 89.3987 47.8474 89.3987 47.8474 47.8474 47.8474 90.7621 90.7621 41.5513 90.7621 41.5513 41.5513 41.5513 85.1633 85.1633 49.2108 85.1633 49.2108 49.2108 49.2108 82.2959 82.2959 35.9525 82.2959 35.9525 35.9525 35.9525 88.6183 88.6183 46.3434 88.6183 46.3434 46.3434 46.3434 92.0993 92.0993 42.2749 92.0993 42.2749 42.2749 42.2749 83.9194 83.9194 49.8244 83.9194 49.8244 49.8244 49.8244 34.0949 34.0949 34.0949 34.0949 34.0949 34.0949 34.0949 
CELL_DATA 2048
SCALARS stress float 1
LOOKUP_TABLE default
118.85 94.0599 94.6648 103 94.5551 88.4445 85.7847 83.8419 79.1517 57.3689 64.155 62.8747 64.8479 67.3426 61.9051 52.824 71.7021 46.9993 51.8769 45.0224 46.5632 49.678 45.8536 58.6463 44.1364 56.0632 39.5449 60.9064 39.1801 49.3812 52.42 37.7243 70.7941 87.3218 86.2254 89.4572 69.1381 72.0739 82.1728 69.987 73.5389 48.4557 64.7512 54.2181 59.3708 58.693 63.077 63.0456 73.8641 46.0842 50.8217 42.1324 50.7711 59.6935 39.8337 45.5412 29.6358 41.164 48.8939 45.4586 44.4742 32.4071 42.6774 31.239 71.249 72.956 53.5445 69.4535 65.1509 52.6071 53.7997 60.0635 55.9136 60.4684 54.3477 53.4954 55.5017 41.6099 53.738 50.9603 50.9016 49.0987 48.3435 52.61 37.6891 45.8427 52.3985 44.3757 40.2859 42.9641 29.4897 47.0921 50.0978 39.3225 39.0744 39.4552 51.7128 35.3719 57.4354 66.7138 48.9229 59.4897 52.7096 52.3738 55.8965 50.1933 52.263 43.6105 51.0048 58.7368 47.4174 48.5051 57.4038 40.0438 50.5632 62.4752 43.413 43.7912 49.4338 43.9211 40.7503 43.1042 36.4953 32.7403 35.5424 37.4143 31.9729 43.7611 44.4035 46.608 50.4586 47.9407 43.6879 45.7427 57.1927 48.6009 57.2563 48.8745 43.4684 56.0073 50.6491 43.6394 48.548 43.702 50.0209 56.0956 36.2414 46.9664 41.4832 43.0316 37.0603 50.5512 52.6072 28.0392 50.8736 48.8415 28.1151 39.7341 33.6411 23.7287 60.2509 53.018 52.3685 55.2208 53.2228 61.7111 68.5185 45.7501 52.9789 51.8199 54.9261 46.8772 57.313 44.9682 51.3465 49.2297 58.301 50.5991 38.4449 52.0401 54.2517 40.8506 33.5114 49.0701 35.1987 53.159 47.6429 33.5423 48.4306 36.533 46.9235 48.1037 71.6001 82.2249 87.7599 60.7899 66.3151 81.4065 62.3676 79.5609 72.0047 56.7957 54.0233 60.24 51.5474 51.2125 53.3172 48.9837 56.2199 35.96 50.1414 46.938 49.4093 47.3784 33.9428 40.2996 39.5747 43.815 49.159 40.8371 50.9605 36.5992 40.4572 31.9139 79.158 82.0723 83.468 80.9429 74.2986 69.7833 77.5631 65.0272 62.2366 70.625 69.3863 61.1876 60.0266 59.1454 55.1726 59.017 58.9794 46.5058 50.6166 61.6487 40.895 42.0462 41.7311 51.1488 42.884 42.5549 39.2673 55.2293 44.1385 55.3589 41.4549 31.2603 102.723 100.79 102.35 96.0709 84.6576 90.877 74.9903 83.6889 77.2546 74.0778 60.9162 83.2748 66.7348 66.3497 56.2647 64.2549 55.2243 66.3566 57.7294 62.2918 44.0549 51.2774 54.3347 47.7422 41.0274 37.3538 43.5053 47.0493 36.2518 53.9842 56.8147 40.262 70.8014 81.1942 100.434 65.9274 83.1692 75.9822 65.3056 61.0854 55.6235 64.5371 62.2918 56.476 55.6635 57.2246 50.5722 53.9217 58.3689 49.0584 54.0389 47.7461 51.3023 45.322 59.9022 60.8486 42.4573 44.104 43.823 51.6864 51.5734 43.9567 38 32.7429 60.4544 56.3013 67.3976 70.489 58.3643 58.515 65.9011 58.3015 62.6605 52.0148 52.4861 60.8862 46.9 53.1233 51.7101 49.4991 50.6285 34.9797 52.0999 41.1814 37.8132 39.6432 47.5752 45.5167 38.9791 40.6626 44.6862 37.3687 44.3124 31.2301 35.5455 43.8294 43.2966 46.5798 60.7337 57.2074 53.2584 59.1383 55.1846 44.5389 49.7613 55.2532 50.495 52.9369 60.3709 39.3691 54.9721 50.6609 44.0498 46.1415 51.2639 37.4777 38.1482 45.4456 39.8932 49.044 51.639 34.8365 51.9065 37.2633 41.8466 38.7559 36.0101 39.2976 44.1333 54.5969 52.1301 47.5633 64.6721 40.9292 56.7761 54.246 48.6738 44.3548 43.1323 35.2624 55.7647 45.361 56.1583 45.0616 43.4862 62.6658 42.1837 51.7062 39.8471 24.3417 44.7937 47.3886 34.4909 39.1672 35.4191 46.797 40.8745 31.3582 42.363 42.8581 43.239 75.2466 68.9829 59.6468 57.11 56.1738 77.4601 42.1716 50.1635 57.6824 51.7087 43.2249 50.8432 55.494 47.7062 49.8503 53.7009 36.5733 46.3733 42.3513 45.7528 43.1589 48.1215 48.5997 50.6598 45.2397 29.7196 46.6792 50.3501 47.3911 39.9778 50.9225 61.5784 85.7477 72.0968 62.7195 63.0132 66.0575 67.9646 68.7855 71.6049 70.324 45.8339 60.8873 51.3267 56.1055 51.3572 44.3458 43.0895 43.3124 57.7342 45.0355 45.8688 45.0301 35.3985 35.6725 32.8015 39.6577 36.8815 56.1082 41.0179 40.3905 39.3782 36.9633 83.4193 96.062 83.4312 89.5976 78.1087 79.4698 90.5161 73.367 64.9814 65.9133 64.5776 52.0968 70.638 58.0528 40.4734 53.0335 52.3433 48.3945 58.5908 53.5657 43.617 46.5219 44.9832 38.4668 53.563 41.989 39.3564 44.9002 33.9985 51.4557 35.7007 32.8887 101.195 98.0112 111.987 94.0986 86.6989 87.4459 86.6112 66.738 64.9656 71.5009 70.3637 63.0438 71.4363 69.1964 52.5508 61.0045 55.9883 51.4333 41.6093 54.0614 58.2942 43.6089 44.5726 45.5207 38.2442 39.5452 48.4925 30.3994 42.6975 36.5532 41.2835 41.2611 58.5872 81.8088 94.3845 86.6008 67.491 89.6052 80.6964 65.8854 80.7247 51.7407 65.6634 52.5831 55.7572 53.3062 49.3155 62.079 47.877 40.4981 48.7566 43.5643 45.3432 52.4634 54.2574 54.9977 57.9699 46.55 31.3629 45.7654 30.6639 44.3014 37.8636 47.7509 52.8554 77.7236 57.2116 62.2451 54.6779 61.8949 67.7132 66.499 62.3314 53.0966 42.1762 46.088 57.9387 51.377 46.7865 53.038 41.7694 48.11 46.6758 43.4967 54.9513 47.5141 35.2211 47.2274 31.9002 45.0236 42.0669 38.6676 45.2853 30.6103 21.818 44.2365 46.4396 60.1475 53.8237 37.8997 50.8909 51.9104 64.6984 58.6886 54.559 43.7361 60.2128 48.6813 53.1981 44.3741 43.6339 48.6378 44.0845 50.4165 52.1867 37.6049 33.5423 49.3069 34.6995 34.3059 51.0456 42.5119 42.1006 34.3924 51.5439 45.6014 36.4946 45.1523 44.4695 57.3296 57.264 46.7065 57.4285 51.0169 50.4705 47.5827 50.8193 58.3059 52.9142 36.0626 46.7153 36.2118 37.5144 46.9884 35.8224 40.2593 60.4254 37.243 28.3294 44.9124 42.548 40.2247 43.8728 35.0559 28.7918 52.5671 46.7206 34.0056 32.2705 49.8244 42.5054 57.6759 77.5383 58.0436 64.5632 67.115 52.3027 60.099 49.5107 66.3204 50.6624 45.9895 48.6935 56.9928 50.0135 43.3911 45.853 42.9828 44.4158 52.6628 34.3906 38.9719 39.395 47.5493 51.1908 32.4816 43.127 40.8969 43.2899 45.6922 31.2217 35.2313 63.7872 71.6627 88.7359 74.9707 76.7627 70.5466 63.791 52.8124 75.9353 57.137 60.7251 54.8629 73.2173 47.1927 46.7406 65.535 52.893 62.7278 53.3354 44.556 29.2491 39.2332 56.6057 51.2713 40.4235 38.3802 52.0996 48.3207 41.7631 47.3049 36.7412 46.7052 86.5058 91.1547 86.9207 95.0098 79.7151 84.3424 77.2391 82.0473 89.5203 71.5207 67.7917 75.2746 62.7618 46.6185 63.4152 55.0247 66.1079 58.6523 49.2362 42.4459 52.499 53.7561 32.7152 34.7224 43.2042 45.6476 44.03 40.847 44.2319 45.6993 43.7875 48.2542 112.699 100.547 96.9968 113.062 93.0631 98.8028 99.0275 76.5446 65.283 63.8434 81.4058 63.3971 69.6927 74.1778 73.0985 57.7769 44.1086 47.5235 53.3585 52.2013 49.1724 43.9299 43.0865 38.8592 43.6798 46.8641 45.0295 31.3501 35.3869 44.239 39.6668 43.8206 81.0798 79.9783 75.9033 82.1307 78.2431 62.1976 80.8691 68.1758 64.9922 56.34 67.3219 55.7074 51.4188 62.7676 60 61.2013 54.611 54.8481 55.4915 39.2743 38.0057 43.6308 44.4082 42.146 44.3627 36.873 34.5774 32.1509 35.9236 26.1958 32.2921 30.2445 48.1908 65.4578 75.9733 67.9128 53.6572 66.1526 68.7723 48.865 60.5779 60.1463 64.4002 48.4882 45.9353 42.3687 45.9111 37.7793 47.4933 47.0584 43.0665 59.1734 26.5571 41.4416 36.0517 43.6348 49.3152 45.1916 39.5911 32.7736 49.376 29.6006 38.5354 28.8075 39.1415 66.3864 61.2862 51.6715 64.3083 52.8176 57.3873 59.5244 59.3197 61.8405 44.302 57.1158 39.8629 48.4503 37.7701 47.5296 44.2695 34.3379 49.5587 53.8557 49.3129 42.8855 47.6538 46.704 48.7628 40.0316 39.0858 48.6373 46.1552 42.1393 50.2875 36.355 34.6563 50.2966 59.2899 53.2574 46.88 46.9118 48.3235 54.657 45.3794 43.5435 59.5054 35.5495 53.4514 34.741 52.9909 52.3884 51.011 44.2064 53.8065 58.497 37.7379 47.6516 48.1514 35.5733 39.313 52.4625 43.7009 43.3718 31.9745 27.6649 29.2894 26.8492 64.808 48.5986 66.0577 76.969 70.4008 66.0607 49.7742 48.6247 48.8243 42.8273 64.3648 54.1296 48.2569 54.905 55.5575 45.4389 45.1453 44.3367 48.9081 42.6586 31.2837 44.3548 50.2268 49.5941 46.2672 37.499 35.6205 35.5197 31.365 49.4181 34.9748 49.1337 59.745 80.4342 90.3434 89.4154 80.3109 72.7583 60.2096 72.445 65.3717 57.2914 54.1487 59.642 53.8892 56.0976 53.6912 49.6077 38.9817 45.5596 51.394 43.6925 37.9826 56.0811 41.6918 48.5842 41.4962 41.032 40.8891 30.2196 41.4433 38.0122 36.4071 44.9054 79.3019 93.4167 85.6983 82.6505 101.298 91.6068 86.0855 80.3327 68.4866 77.5849 69.7792 65.7012 49.2839 71.6546 60.9859 52.6079 51.6556 46.2171 50.1875 31.6615 42.3182 39.1153 51.0487 41.4769 50.2607 43.0241 32.8906 30.8646 41.3257 31.5386 26.5997 49.9598 106.195 90.4338 85.9357 104.713 93.3934 79.3858 107.451 81.2443 79.5058 73.154 86.012 59.1067 56.8602 65.7082 59.9621 56.9089 55.538 52.6771 57.7538 49.7323 49.4373 62.6361 29.7784 48.8699 33.633 38.3168 37.3502 35.3202 36.6264 43.5513 41.1306 36.7704 78.5203 72.8262 87.9373 79.4235 64.8985 80.9612 65.6742 69.1818 63.4249 69.3577 54.2793 70.6458 53.77 67.1341 53.7706 54.8632 48.8138 59.2668 45.6494 49.6929 48.0132 44.4751 48.3683 47.4949 39.0118 31.1261 44.6299 50.499 35.6723 40.6736 40.8745 44.3608 50.5101 63.2092 69.3588 60.9007 62.8753 63.0087 57.7978 56.258 65.3673 59.2514 49.7208 52.9158 54.2833 56.9901 46.6694 57.9326 42.7115 54.7986 45.6286 42.5971 53.7096 29.678 30.4688 46.738 40.1371 35.3369 36.6401 36.2469 36.9482 39.1491 39.9293 45.8643 50.6376 58.6193 51.9055 47.7174 60.3874 57.6801 69.367 50.83 53.8937 46.7088 42.1537 41.9015 58.8169 61.3259 41.0608 41.0679 42.8405 45.8345 49.0301 33.3957 31.9091 36.876 37.3116 43.1234 51.5714 34.5714 40.3113 26.0775 39.9907 48.0645 43.8975 38.7548 35.1872 51.2383 47.4834 64.4918 40.7964 59.3374 51.231 41.4484 53.2929 38.7383 46.911 43.5397 35.0466 37.9112 48.9143 53.8722 50.067 59.0669 49.5612 37.7944 44.8247 46.5868 40.9706 50.9419 43.2931 33.5605 37.8458 44.337 27.8061 45.8337 52.0973 50.2568 51.1666 55.8663 62.7188 72.6803 64.9136 71.652 53.4413 61.4977 48.6179 58.1613 61.6622 50.0198 44.8321 49.6119 41.6161 58.3852 46.7438 33.2355 36.1489 49.8303 53.7982 43.4103 41.8577 43.6438 46.4605 39.4065 36.9817 37.2577 50.6126 37.8217 31.7563 33.4736 60.0076 69.2864 83.5628 70.7831 62.076 74.4036 75.8027 71.0005 69.3398 66.6725 60.6773 62.2666 56.4937 47.762 47.8485 55.7733 50.0324 44.7979 42.1355 35.595 56.473 47.2564 43.617 53.1272 29.798 44.1176 46.4671 38.4535 42.3304 42.7186 37.5237 40.2396 79.6231 96.2762 95.0589 84.8684 83.4772 79.6719 87.9489 88.159 66.486 61.8295 60.1934 58.7055 65.2881 71.2114 48.1705 52.889 47.8597 46.1859 46.7326 46.4712 48.2508 59.3294 41.6119 56.4284 39.0678 41.1783 39.5398 47.656 42.7971 38.1391 30.7565 29.1101 105.4 98.1808 101.891 87.26 96.046 94.5542 87.117 74.5647 70.0032 75.9042 73.5038 87.651 57.2236 59.8552 64.3325 39.756 57.026 64.8788 54.6275 53.6729 44.2718 57.2874 35.1506 38.992 36.1128 46.4986 43.0456 37.8997 27.9896 46.5235 31.7383 34.123 57.7139 93.0124 88.1792 78.9274 79.3963 81.5443 69.8152 70.2959 67.39 64.8614 58.9198 58.8469 49.0583 48.9014 51.3792 49.9263 52.8897 47.0621 46.9633 68.2271 45.417 44.9458 39.7942 53.0884 37.3274 41.3028 56.2054 43.1862 33.0135 43.8946 49.9909 36.6865 50.4864 62.11 63.6686 58.5118 61.9892 56.2932 56.7591 56.0544 56.711 58.4192 67.2317 59.7087 46.4039 48.5698 42.1091 43.9619 39.107 55.813 51.8068 43.344 43.5347 40.7185 46.9103 47.655 51.8637 53.6958 50.6199 42.4318 40.1259 38.7036 48.503 43.5219 40.9725 80.6731 59.8681 55.5228 60.0049 39.478 58.0002 58.5576 61.9936 60.1594 52.7218 52.1615 44.9431 42.6134 52.6548 37.4685 54.5364 47.752 45.4191 44.0499 43.8221 44.8121 54.1658 48.1627 42.7769 37.579 42.1835 32.8847 36.3181 45.1453 30.0065 41.8072 45.0963 60.669 63.4146 50.8667 45.0252 61.6095 51.9865 44.4026 52.4011 52.6849 41.0939 52.0021 53.1616 40.6823 43.473 45.9433 52.9631 51.5444 38.3701 35.1327 42.1784 42.8987 45.7521 36.7256 42.7632 38.478 29.8686 61.5565 29.3792 28.6697 36.0172 34.2588 48.8691 58.7274 62.685 55.0254 66.7515 58.9957 65.456 58.3385 50.7132 60.616 48.6643 50.1658 59.4282 50.787 51.3163 54.1742 46.2078 39.0845 33.8615 48.8902 61.9961 47.5359 48.3484 47.5148 35.7471 48.7641 33.5348 38.3591 49.206 45.8161 49.0904 33.8853 65.4398 83.5259 71.7739 70.2859 80.9667 77.2642 65.0361 74.1793 73.0694 62.9475 58.9464 46.0264 53.3618 52.8827 47.1193 44.3097 47.2376 63.8887 43.2897 38.665 37.377 46.6539 50.9354 37.1815 38.4912 50.0607 45.1819 44.4639 47.468 37.629 33.7672 38.4991 72.9338 91.5869 94.1644 101.618 80.3664 87.4635 85.0718 76.3391 69.6761 77.2738 57.974 68.0734 77.4392 50.1012 50.7632 55.7 59.0063 65.9737 33.9514 52.6336 47.8931 46.9961 41.6376 34.8174 54.008 33.5174 35.7243 35.266 35.2589 47.6081 45.8752 42.1862 100.626 105.443 96.1217 95.0791 83.6403 91.6883 93.0761 91.3222 76.1764 67.3572 60.5677 68.7517 51.5106 54.1946 49.7694 51.8283 47.3242 51.9764 56.4445 55.2856 50.58 45.419 33.1551 47.0775 41.2623 46.7595 39.9352 34.7934 32.5961 41.5804 31.4033 37.6882 69.119 79.7716 87.1928 74.9893 84.5155 84.922 85.8745 65.6534 50.8151 64.1061 71.3219 49.7781 46.9547 55.9007 50.4986 55.7863 50.5528 44.032 44.341 47.5886 43.193 41.774 50.0361 38.1217 39.8338 46.3015 45.9112 41.469 47.6476 45.1646 42.3635 43.417 50.1763 70.736 64.2007 69.8806 73.3982 59.1884 67.0476 60.2425 69.7941 55.9721 65.5271 56.355 51.2957 51.39 56.1082 62.0709 52.4905 45.9636 53.1503 44.1892 59.3276 53.1273 41.5204 32.7831 36.1107 44.8483 54.7459 51.4767 39.1317 47.8839 40.2005 33.2723 37.8482 55.2417 49.7449 39.1586 70.1289 57.2812 53.6351 54.0341 57.8507 40.7939 41.5896 50.3909 50.7565 49.9574 43.709 37.9591 43.9423 55.4024 60.1208 48.5289 31.9947 45.4637 38.4507 35.9887 41.8158 37.7717 29.1214 41.8571 49.9647 46.3484 35.764 30.7789 35.4907 42.5452 69.6633 48.1783 56.7484 48.2874 45.1649 57.4919 45.5185 57.2748 41.4058 52.973 40.7524 49.3244 52.5965 57.7961 47.7099 47.3234 49.903 46.8864 52.0189 37.9926 37.598 40.9681 42.151 42.918 42.7893 39.6977 29.8019 41.4397 31.3539 37.0372 52.9099 72.5066 69.1782 66.0918 64.0917 60.8239 61.8714 50.1079 35.2487 43.8695 54.2608 53.5494 57.1342 53.2091 51.348 37.2159 39.7794 44.8711 50.6588 35.2663 52.8661 43.7201 51.6025 56.113 37.4357 47.3181 40.7281 65.1673 47.4784 40.4161 23.1103 45.8042 67.3595 75.8617 79.6247 89.4986 69.2003 57.9713 62.1903 55.878 72.6783 70.6033 71.9257 50.5233 54.9541 44.9109 49.352 64.7584 43.5652 42.4423 45.585 45.8881 42.11 47.8704 42.3741 51.7942 39.5284 42.5367 46.329 38.8689 48.4666 47.0858 34.1936 38.3382 82.8232 110.493 83.5407 91.003 85.3236 78.8325 77.8081 69.7967 68.4754 80.5201 59.938 53.3932 58.9391 47.0846 55.0681 52.5154 47.7388 59.6427 49.2574 47.0064 45.8918 42.0645 47.7642 44.0336 48.3922 47.0231 42.7547 39.7183 43.2939 48.8133 36.7552 45.1554 109.905 101.725 92.0726 104.753 84.8726 88.9896 81.1098 63.2543 70.415 74.3702 75.4691 65.0034 59.13 71.2693 68.1272 61.042 52.4761 49.2449 54.9698 52.431 61.681 57.8904 39.8756 38.1434 59.3029 41.0359 50.659 28.9128 38.9019 45.651 28.1023 38.3955 70.9753 68.5388 74.7976 83.0406 84.8094 71.0088 79.5602 77.7329 67.7446 54.5961 47.8659 55.2516 47.7295 47.094 63.195 58.1132 63.2691 61.6996 47.0473 44.3246 61.6957 45.632 32.2987 42.8455 44.3527 34.1342 42.1226 47.6168 45.6682 37.4886 37.9019 41.3853 68.9015 58.9822 66.4329 59.5122 65.5384 63.0451 59.9493 56.7095 62.5493 56.6165 49.2574 47.3519 54.7182 52.0365 54.9392 52.7354 43.912 48.6999 48.3321 39.7948 49.0938 50.3306 41.0471 38.5483 41.9948 45.4753 47.9202 57.1683 43.5105 39.8172 39.4996 33.5321 58.5568 59.9977 59.9813 50.9986 57.0638 57.8665 56.0315 53.7762 57.1365 49.5475 49.5818 42.6691 51.8049 43.8729 51.2324 49.8003 48.0078 45.543 52.6771 35.298 53.2197 59.258 46.918 38.815 41.7081 47.2609 45.8507 34.2212 42.2172 46.494 40.9063 42.8477 54.347 43.0261 59.9713 51.2976 57.5072 41.905 57.2756 43.1745 39.7048 62.3663 44.4167 55.3544 53.543 34.5807 42.8614 51.3559 47.3767 66.4927 46.8646 48.0834 36.2176 45.1688 44.1925 44.3629 40.9896 40.8074 43.5799 47.3433 40.7671 38.6112 48.2285 50.3496 50.8522 63.0979 52.5368 53.5419 65.003 46.4071 47.1316 59.5463 61.7693 62.5042 43.8075 49.282 61.4355 45.0591 42.4632 66.0322 55.294 54.5709 31.6105 43.0628 45.4956 35.4925 48.962 32.1592 42.8713 31.1123 41.9528 33.4395 49.3592 42.2071 29.903 44.8167 62.3685 73.7971 89.0601 65.5218 63.3672 57.4061 71.2127 70.8291 75.2898 73.1518 61.2603 56.22 58.0573 62.6695 54.6332 51.367 48.3543 49.7878 43.9079 42.243 39.3322 37.478 47.8435 41.2612 61.3476 44.9318 42.4235 36.7038 55.5014 54.4748 45.8977 40.9078 77.8901 102.924 102.37 101.063 80.684 76.9064 69.8485 82.976 73.3906 63.3875 74.7569 54.127 55.1021 50.1604 72.1547 53.006 60.505 37.1186 49.6301 40.928 43.0766 39.7848 53.4615 38.0566 47.8474 41.5513 49.2108 35.9525 46.3434 42.2749 49.8244 34.0949 
SCALARS volume float 1
LOOKUP_TABLE default
14.6353 14.7171 14.7198 14.7223 14.725 14.7276 14.7302 14.7337 14.7368 14.7399 14.7431 14.7456 14.7483 14.7506 14.7532 14.7553 14.7577 14.7598 14.7617 14.763 14.7649 14.7662 14.7679 14.7686 14.77 14.7708 14.7712 14.772 14.7726 14.7731 14.7731 14.7733 14.6828 14.7289 14.736 14.738 14.7392 14.7411 14.7432 14.7452 14.7473 14.7491 14.7515 14.7536 14.7557 14.7574 14.7591 14.7607 14.7622 14.7638 14.7651 14.7661 14.7671 14.7683 14.769 14.7698 14.7707 14.7717 14.7721 14.7723 14.7727 14.7729 14.7734 14.7736 14.7206 14.7468 14.7511 14.7526 14.7533 14.754 14.7551 14.7562 14.7577 14.7588 14.76 14.7614 14.7625 14.7635 14.7647 14.7656 14.7665 14.7674 14.7683 14.769 14.7698 14.7703 14.7708 14.7713 14.7721 14.7717 14.7725 14.773 14.7728 14.7731 14.7733 14.7737 14.7562 14.7648 14.7659 14.7665 14.7662 14.7667 14.7672 14.7674 14.768 14.7684 14.7687 14.7694 14.7697 14.7702 14.7706 14.771 14.7712 14.7714 14.7717 14.772 14.7727 14.7724 14.7726 14.7726 14.7731 14.7729 14.7731 14.7732 14.7732 14.7735 14.7734 14.7733 14.7913 14.7818 14.7804 14.7801 14.7798 14.7795 14.7791 14.7787 14.7783 14.7781 14.7776 14.7772 14.7771 14.7764 14.7761 14.7761 14.7757 14.7756 14.7752 14.775 14.7747 14.7748 14.7744 14.7742 14.7743 14.7739 14.7736 14.7734 14.7735 14.7733 14.7734 14.7732 14.8261 14.7996 14.7952 14.7941 14.7928 14.7923 14.7913 14.7902 14.7888 14.7877 14.7858 14.7852 14.7844 14.7833 14.7824 14.7815 14.7805 14.7794 14.7786 14.7778 14.7775 14.7766 14.776 14.7757 14.7756 14.7748 14.7743 14.774 14.7736 14.7733 14.7736 14.7732 14.8627 14.8169 14.8095 14.8078 14.8063 14.8044 14.8029 14.8008 14.7988 14.7971 14.795 14.7932 14.7912 14.7897 14.7876 14.7861 14.785 14.7836 14.7823 14.7807 14.7794 14.7789 14.778 14.7769 14.7767 14.7757 14.7747 14.7744 14.7738 14.7736 14.7734 14.773 14.9075 14.8276 14.8244 14.8224 14.8198 14.8172 14.8149 14.812 14.8091 14.8064 14.8038 14.8009 14.7983 14.7958 14.7936 14.7913 14.7891 14.7873 14.7855 14.7838 14.7817 14.7806 14.7795 14.7781 14.7772 14.776 14.7754 14.7752 14.7741 14.7736 14.7734 14.7735 14.6426 14.7013 14.7126 14.718 14.7226 14.7262 14.7301 14.7341 14.7369 14.7398 14.7434 14.7458 14.7487 14.7511 14.7536 14.7558 14.7581 14.7602 14.7617 14.7635 14.7651 14.7661 14.7678 14.769 14.7701 14.7711 14.7716 14.7723 14.7726 14.7732 14.7732 14.7731 14.6883 14.7118 14.7274 14.7337 14.7372 14.7399 14.7423 14.7447 14.7471 14.7494 14.7516 14.7534 14.7553 14.7577 14.759 14.7607 14.762 14.7632 14.7651 14.766 14.7675 14.7682 14.769 14.7702 14.771 14.7717 14.7721 14.7724 14.7726 14.7733 14.7736 14.7733 14.7235 14.7361 14.7449 14.7492 14.7514 14.7531 14.7547 14.7562 14.7575 14.7591 14.7603 14.7613 14.7627 14.7637 14.7646 14.7655 14.7666 14.7677 14.7684 14.7691 14.7699 14.7704 14.7711 14.7714 14.772 14.7723 14.7727 14.7727 14.773 14.7732 14.7733 14.7735 14.7573 14.7609 14.7637 14.765 14.7658 14.7664 14.767 14.7675 14.7681 14.7685 14.7689 14.7693 14.7696 14.7702 14.7704 14.7708 14.7713 14.7711 14.7718 14.7721 14.7721 14.7726 14.7726 14.7727 14.7729 14.7731 14.7735 14.773 14.7733 14.7733 14.7731 14.7735 14.7901 14.7856 14.7826 14.7807 14.7801 14.7793 14.7789 14.7788 14.7783 14.7779 14.7775 14.7771 14.7772 14.7766 14.7762 14.776 14.7761 14.7754 14.775 14.7751 14.775 14.7748 14.7741 14.7739 14.7739 14.7737 14.7738 14.7735 14.7735 14.7735 14.7732 14.7732 14.8235 14.8099 14.8006 14.7962 14.7943 14.7925 14.791 14.7895 14.7888 14.7872 14.7864 14.7852 14.784 14.7831 14.7822 14.7812 14.7801 14.7796 14.7785 14.7779 14.7772 14.7767 14.7761 14.7756 14.7748 14.7743 14.7742 14.7739 14.7738 14.7736 14.7732 14.7732 14.858 14.8326 14.8168 14.8111 14.808 14.8054 14.8029 14.8009 14.799 14.797 14.7948 14.7929 14.791 14.7893 14.7876 14.7863 14.7846 14.7832 14.7818 14.7807 14.7794 14.7786 14.7778 14.7769 14.7758 14.7752 14.775 14.7745 14.7736 14.7732 14.7734 14.773 14.902 14.8413 14.8304 14.8254 14.8218 14.8182 14.8149 14.8119 14.8092 14.806 14.8031 14.8004 14.7979 14.7961 14.7931 14.7911 14.789 14.7871 14.7853 14.7835 14.7822 14.7805 14.7793 14.778 14.7769 14.7759 14.7753 14.7743 14.7735 14.7733 14.7735 14.7729 14.6359 14.698 14.7085 14.7153 14.721 14.7255 14.7298 14.7334 14.7368 14.74 14.7429 14.746 14.7486 14.7513 14.7535 14.7559 14.7582 14.7596 14.7621 14.7639 14.7653 14.7668 14.7681 14.7694 14.7702 14.7711 14.7716 14.7726 14.773 14.7733 14.7731 14.7734 14.6857 14.7078 14.7232 14.7308 14.7354 14.739 14.7419 14.7447 14.7469 14.7494 14.7515 14.7538 14.7556 14.7576 14.7589 14.7607 14.7624 14.7635 14.7651 14.7662 14.7679 14.7685 14.7696 14.7702 14.7707 14.7715 14.772 14.7725 14.7727 14.773 14.7734 14.7738 14.7219 14.733 14.7419 14.7472 14.7503 14.7525 14.7543 14.7559 14.7576 14.7588 14.7601 14.7614 14.7628 14.7634 14.7648 14.7658 14.7668 14.7674 14.7682 14.769 14.7701 14.7704 14.7709 14.7712 14.7721 14.7724 14.7727 14.7728 14.7731 14.7733 14.7735 14.7736 14.7567 14.7597 14.7623 14.764 14.7653 14.7657 14.7665 14.767 14.7679 14.7682 14.7692 14.7696 14.7699 14.7702 14.7705 14.7711 14.7712 14.7714 14.7719 14.7717 14.7725 14.7726 14.7725 14.7726 14.7728 14.7729 14.773 14.7731 14.7731 14.7732 14.7736 14.7734 14.7911 14.787 14.7834 14.7811 14.7802 14.7795 14.779 14.7786 14.7782 14.7781 14.7774 14.7774 14.7772 14.7765 14.7764 14.7763 14.7757 14.7755 14.7755 14.7748 14.7747 14.7744 14.7743 14.7744 14.7742 14.774 14.7735 14.7735 14.7738 14.7734 14.7736 14.7734 14.8256 14.813 14.8035 14.7979 14.7946 14.7929 14.7911 14.7899 14.7887 14.7873 14.7861 14.7851 14.784 14.783 14.7819 14.7814 14.7801 14.7791 14.7787 14.7779 14.7772 14.7763 14.7759 14.7753 14.7749 14.7747 14.7744 14.7739 14.7734 14.7736 14.7734 14.7731 14.8603 14.8367 14.8208 14.8134 14.809 14.806 14.8036 14.8011 14.7988 14.7967 14.7946 14.7927 14.7909 14.7893 14.7877 14.7864 14.7847 14.7835 14.7818 14.7808 14.7795 14.7785 14.7775 14.7767 14.7762 14.7754 14.7749 14.7742 14.7739 14.7736 14.7732 14.7733 14.9079 14.8451 14.8345 14.828 14.8228 14.8191 14.8154 14.8121 14.8086 14.8062 14.8032 14.8003 14.7984 14.7952 14.7932 14.791 14.7891 14.7869 14.7853 14.7834 14.7819 14.7803 14.7788 14.778 14.7767 14.7755 14.7751 14.7742 14.7736 14.7736 14.7733 14.7731 14.6324 14.6958 14.7068 14.7139 14.7199 14.7253 14.7291 14.7333 14.7368 14.7402 14.7431 14.7459 14.749 14.7514 14.7538 14.7562 14.7581 14.7602 14.7621 14.7636 14.7649 14.7667 14.7676 14.7693 14.7702 14.7713 14.7723 14.7722 14.7729 14.7734 14.7734 14.7735 14.6848 14.7058 14.7217 14.7299 14.7346 14.7384 14.7416 14.7443 14.747 14.7494 14.7515 14.7535 14.7558 14.7577 14.7593 14.7609 14.7622 14.7636 14.7652 14.7665 14.7673 14.7685 14.7694 14.7703 14.7708 14.7716 14.7724 14.7726 14.773 14.7731 14.7736 14.7737 14.7212 14.7318 14.7405 14.7461 14.7495 14.7519 14.7544 14.7559 14.7572 14.7588 14.7603 14.7615 14.7626 14.764 14.765 14.7659 14.7669 14.7675 14.7685 14.7691 14.7701 14.7702 14.7708 14.7712 14.7716 14.7722 14.7724 14.773 14.773 14.7733 14.7734 14.7732 14.7564 14.7595 14.7618 14.7639 14.7649 14.7659 14.7667 14.7674 14.7678 14.7682 14.7689 14.7689 14.7697 14.7702 14.7706 14.7708 14.7713 14.7717 14.7717 14.7721 14.7723 14.7723 14.7726 14.773 14.7729 14.7732 14.7733 14.7735 14.7735 14.7732 14.7735 14.7734 14.7911 14.787 14.7835 14.7816 14.7802 14.7798 14.779 14.7788 14.7781 14.7777 14.7777 14.7772 14.777 14.7764 14.7763 14.776 14.7755 14.7756 14.775 14.7747 14.7748 14.7747 14.774 14.7739 14.774 14.774 14.7737 14.7735 14.7736 14.7734 14.7731 14.773 14.8258 14.8139 14.8046 14.799 14.7954 14.7933 14.7913 14.7898 14.7885 14.7874 14.7861 14.7851 14.7839 14.783 14.7816 14.7811 14.7802 14.7795 14.7784 14.7775 14.7771 14.7767 14.7761 14.7753 14.7749 14.7745 14.7744 14.7739 14.7736 14.7734 14.7732 14.7731 14.8613 14.8382 14.8224 14.8145 14.8098 14.8063 14.8039 14.8011 14.7985 14.7965 14.7946 14.7926 14.7911 14.7892 14.7873 14.7859 14.7848 14.7829 14.7818 14.7804 14.7796 14.7785 14.7771 14.7764 14.7757 14.775 14.7748 14.7741 14.7736 14.7734 14.7734 14.7729 14.9113 14.8472 14.8362 14.8293 14.8239 14.8194 14.8156 14.812 14.8086 14.8059 14.8032 14.8005 14.7979 14.7952 14.7931 14.7908 14.789 14.7867 14.7851 14.7833 14.7816 14.7802 14.779 14.7779 14.7769 14.7759 14.7748 14.7741 14.7735 14.7736 14.773 14.7735 14.6329 14.6959 14.7068 14.714 14.7196 14.725 14.7293 14.7332 14.7367 14.7401 14.7431 14.7461 14.7487 14.7514 14.7538 14.756 14.7581 14.7603 14.7622 14.7636 14.7653 14.7665 14.7682 14.769 14.77 14.7712 14.7717 14.7722 14.7731 14.7735 14.7735 14.7734 14.6848 14.706 14.7218 14.7295 14.7347 14.7386 14.7414 14.7443 14.7469 14.7495 14.7513 14.7535 14.7557 14.7575 14.7591 14.7609 14.7626 14.7637 14.7653 14.7661 14.7675 14.7685 14.7697 14.7704 14.7713 14.7718 14.7721 14.7727 14.7729 14.7732 14.7731 14.7736 14.7214 14.7317 14.7404 14.7462 14.7497 14.7521 14.7542 14.7558 14.7572 14.7586 14.7602 14.7618 14.7627 14.7638 14.7648 14.7659 14.7667 14.7675 14.7685 14.7692 14.77 14.7702 14.771 14.7714 14.7718 14.7722 14.7725 14.7727 14.7728 14.7733 14.7734 14.7735 14.7566 14.7595 14.7619 14.7636 14.7649 14.7658 14.7664 14.7674 14.768 14.7684 14.769 14.7695 14.7698 14.7705 14.7707 14.771 14.7713 14.7716 14.7718 14.7721 14.7723 14.7729 14.773 14.773 14.7729 14.7731 14.7731 14.7732 14.7732 14.7729 14.7732 14.7736 14.7912 14.7873 14.784 14.7818 14.7804 14.7794 14.779 14.7787 14.778 14.7778 14.7775 14.7769 14.7766 14.7766 14.7761 14.776 14.7759 14.7755 14.7752 14.7747 14.7747 14.7746 14.7743 14.774 14.7738 14.7735 14.7735 14.7736 14.7736 14.7736 14.7734 14.7733 14.8259 14.8136 14.8048 14.7985 14.7952 14.793 14.7912 14.7901 14.7884 14.7873 14.7861 14.7851 14.7839 14.783 14.782 14.7811 14.7798 14.7792 14.7786 14.7779 14.7772 14.7768 14.7761 14.7751 14.7749 14.7746 14.7743 14.774 14.7736 14.7734 14.7733 14.7729 14.8616 14.8382 14.8224 14.8143 14.8098 14.8063 14.8034 14.8015 14.7988 14.7968 14.7947 14.7925 14.7912 14.7894 14.7879 14.7859 14.7844 14.7833 14.7818 14.7808 14.7795 14.7782 14.7776 14.7765 14.7762 14.7753 14.7745 14.7742 14.7736 14.7736 14.7735 14.7731 14.9107 14.8472 14.8363 14.8291 14.824 14.8195 14.8158 14.8121 14.8092 14.8058 14.8034 14.8004 14.7982 14.7958 14.7929 14.791 14.7889 14.7869 14.7853 14.7833 14.7817 14.7805 14.779 14.7777 14.7768 14.7756 14.7749 14.7745 14.7736 14.7732 14.7728 14.7732 14.636 14.6976 14.7086 14.7153 14.7208 14.7254 14.7295 14.7337 14.737 14.7402 14.743 14.746 14.7487 14.7514 14.7539 14.7561 14.7582 14.7601 14.7618 14.7634 14.7651 14.7667 14.7682 14.7687 14.7702 14.7714 14.7719 14.7724 14.7729 14.7734 14.7732 14.7733 14.6859 14.7077 14.7233 14.7309 14.7354 14.7389 14.7417 14.7446 14.747 14.7496 14.7517 14.7537 14.7556 14.7574 14.7593 14.7608 14.7623 14.7639 14.7653 14.7664 14.7673 14.7682 14.7692 14.7701 14.7711 14.7715 14.7724 14.7725 14.7731 14.7732 14.7733 14.7736 14.7215 14.733 14.7411 14.7472 14.7503 14.7525 14.7544 14.7563 14.7575 14.7588 14.76 14.7613 14.7625 14.764 14.7646 14.766 14.7666 14.7677 14.7683 14.769 14.77 14.7706 14.7712 14.7714 14.7721 14.7723 14.7728 14.7728 14.7731 14.7734 14.7731 14.7737 14.7567 14.7598 14.7623 14.7643 14.7653 14.7662 14.7667 14.7672 14.7673 14.7685 14.7687 14.7694 14.7696 14.7703 14.7706 14.7709 14.7712 14.7713 14.7717 14.7717 14.7724 14.7727 14.7728 14.773 14.7727 14.7731 14.7732 14.773 14.7731 14.7732 14.7733 14.7733 14.791 14.7867 14.7832 14.7814 14.7801 14.7795 14.779 14.7788 14.7784 14.7779 14.7776 14.7773 14.7768 14.7765 14.7762 14.7759 14.7757 14.7754 14.7748 14.7751 14.7748 14.7748 14.7745 14.7741 14.7736 14.7735 14.7738 14.7735 14.7736 14.7732 14.7731 14.7732 14.8254 14.8128 14.8036 14.7979 14.7949 14.7929 14.7913 14.7898 14.7887 14.7874 14.7863 14.7847 14.784 14.7829 14.7819 14.781 14.7804 14.7793 14.7784 14.7779 14.777 14.7764 14.7759 14.7755 14.7751 14.7745 14.7742 14.774 14.7736 14.7737 14.7735 14.7728 14.8603 14.8367 14.8206 14.8134 14.8095 14.8062 14.8033 14.8008 14.7989 14.7968 14.7946 14.7928 14.7911 14.7891 14.7874 14.7861 14.7843 14.7832 14.782 14.7808 14.7797 14.7787 14.7772 14.7768 14.7756 14.7753 14.7748 14.7744 14.7736 14.7732 14.7733 14.7728 14.9081 14.8455 14.8344 14.828 14.8234 14.8191 14.8152 14.8121 14.8088 14.8061 14.8032 14.8001 14.7979 14.7956 14.7931 14.791 14.7888 14.7869 14.7847 14.7835 14.7818 14.7805 14.779 14.778 14.7766 14.7761 14.775 14.7745 14.7736 14.7733 14.7731 14.7729 14.6427 14.7012 14.7122 14.7181 14.7226 14.7263 14.7303 14.7335 14.7371 14.7401 14.7428 14.7458 14.7487 14.7513 14.7535 14.7553 14.758 14.7602 14.7619 14.7633 14.765 14.7664 14.7681 14.769 14.7703 14.7708 14.7718 14.7724 14.7728 14.7734 14.7734 14.7737 14.6883 14.7118 14.7275 14.7334 14.7371 14.7399 14.7425 14.745 14.7473 14.7494 14.7517 14.7538 14.7554 14.757 14.7593 14.7607 14.7623 14.7636 14.7651 14.7661 14.7675 14.7686 14.7695 14.77 14.771 14.7717 14.7722 14.7725 14.7727 14.7732 14.7733 14.7736 14.7235 14.736 14.7452 14.7491 14.7514 14.7531 14.7546 14.7561 14.7576 14.759 14.76 14.7616 14.7625 14.7639 14.7648 14.7656 14.7669 14.7676 14.7684 14.7687 14.7696 14.7702 14.7711 14.7716 14.7719 14.7723 14.7727 14.7727 14.7731 14.773 14.7736 14.7739 14.7574 14.7609 14.7635 14.7651 14.7658 14.7665 14.7669 14.7675 14.768 14.7686 14.7692 14.7695 14.7697 14.77 14.7705 14.771 14.7712 14.7717 14.772 14.7724 14.7719 14.7722 14.7725 14.7728 14.7729 14.7733 14.773 14.7735 14.7728 14.7732 14.7732 14.7735 14.7906 14.7855 14.7825 14.7808 14.7804 14.7795 14.7788 14.7787 14.7784 14.7779 14.7775 14.7774 14.7768 14.7762 14.7764 14.7757 14.7757 14.7754 14.7752 14.775 14.7748 14.7745 14.774 14.7741 14.774 14.774 14.7734 14.7737 14.7732 14.7734 14.773 14.773 14.8239 14.8104 14.8006 14.7962 14.7942 14.7925 14.7909 14.7899 14.7883 14.7875 14.7861 14.7852 14.7842 14.7832 14.7821 14.781 14.7802 14.7794 14.7786 14.7779 14.777 14.7766 14.7759 14.7753 14.7749 14.775 14.7742 14.7741 14.7735 14.7737 14.7732 14.7731 14.8581 14.8326 14.8165 14.8113 14.8081 14.8051 14.8032 14.8011 14.7987 14.7966 14.7949 14.7929 14.7911 14.7894 14.7876 14.7861 14.7846 14.7834 14.7819 14.7805 14.7795 14.7786 14.7775 14.7767 14.776 14.7754 14.7749 14.7744 14.7735 14.7736 14.7735 14.7733 14.902 14.8416 14.8306 14.8259 14.8218 14.8182 14.8152 14.8119 14.8089 14.8056 14.8034 14.8007 14.7984 14.7952 14.7934 14.7913 14.789 14.7872 14.7853 14.7837 14.7818 14.7806 14.7791 14.778 14.7767 14.7759 14.7749 14.7742 14.774 14.7735 14.773 14.7734 14.6355 14.7166 14.7199 14.7219 14.7247 14.7277 14.7307 14.7336 14.737 14.7401 14.7428 14.7457 14.7484 14.7512 14.7535 14.7556 14.758 14.7596 14.7617 14.7635 14.7651 14.766 14.7681 14.7691 14.7699 14.7707 14.7714 14.7724 14.7724 14.7731 14.773 14.7733 14.6828 14.7284 14.7357 14.738 14.7392 14.7409 14.7427 14.745 14.747 14.7492 14.7514 14.7532 14.7553 14.7573 14.7591 14.7605 14.7619 14.7634 14.7649 14.7659 14.7669 14.768 14.7693 14.77 14.7706 14.7712 14.7721 14.7725 14.773 14.773 14.773 14.7738 14.7205 14.7466 14.7507 14.7527 14.7534 14.7542 14.755 14.7563 14.7577 14.759 14.7601 14.7614 14.7626 14.7637 14.7646 14.7659 14.7665 14.7675 14.7685 14.769 14.7697 14.7702 14.771 14.7716 14.7718 14.772 14.7725 14.7724 14.7728 14.7733 14.7734 14.7734 14.7563 14.7643 14.766 14.7664 14.7667 14.7668 14.7675 14.7681 14.7681 14.7686 14.7689 14.7692 14.7703 14.7701 14.7704 14.7708 14.7711 14.7716 14.7716 14.7721 14.7719 14.7722 14.7725 14.773 14.773 14.7729 14.7731 14.7733 14.7728 14.773 14.7735 14.7735 14.791 14.782 14.7809 14.7801 14.7798 14.7793 14.7792 14.7788 14.7782 14.7779 14.7778 14.7774 14.777 14.7766 14.7764 14.7761 14.7757 14.7752 14.7752 14.7749 14.7754 14.7745 14.7743 14.7745 14.7739 14.7738 14.7735 14.774 14.7734 14.7733 14.7735 14.7731 14.826 14.7993 14.7952 14.7937 14.7928 14.792 14.7908 14.7899 14.789 14.7872 14.7864 14.7853 14.7843 14.7833 14.7818 14.7813 14.7803 14.7799 14.7786 14.7782 14.7775 14.7767 14.7763 14.7756 14.775 14.7745 14.7744 14.7738 14.7737 14.7736 14.7732 14.7733 14.8626 14.8168 14.8095 14.8075 14.8061 14.8046 14.8029 14.8011 14.799 14.7968 14.7952 14.7932 14.7914 14.7894 14.7879 14.7864 14.7849 14.7836 14.7822 14.7808 14.7798 14.7786 14.7777 14.7771 14.7761 14.7759 14.7749 14.7747 14.7736 14.7734 14.7735 14.7729 14.9075 14.8273 14.8246 14.8221 14.8201 14.8175 14.8143 14.8121 14.809 14.8061 14.8036 14.8009 14.7986 14.7961 14.7937 14.7914 14.7892 14.7874 14.7855 14.7838 14.7822 14.7805 14.7792 14.7783 14.7776 14.7759 14.7749 14.7747 14.7744 14.7736 14.7737 14.7728 
SCALARS volume_diff float 1
LOOKUP_TABLE default
14.6334 14.7152 14.7178 14.7204 14.723 14.7256 14.7282 14.7317 14.7348 14.738 14.7412 14.7436 14.7464 14.7486 14.7513 14.7533 14.7557 14.7579 14.7597 14.7611 14.763 14.7642 14.766 14.7667 14.7681 14.7689 14.7693 14.77 14.7707 14.7711 14.7711 14.7713 14.6808 14.7269 14.7341 14.736 14.7372 14.7391 14.7413 14.7432 14.7454 14.7471 14.7495 14.7517 14.7537 14.7554 14.7571 14.7587 14.7602 14.7618 14.7632 14.7641 14.7651 14.7663 14.767 14.7678 14.7687 14.7697 14.7701 14.7704 14.7707 14.771 14.7715 14.7717 14.7186 14.7449 14.7491 14.7507 14.7513 14.752 14.7531 14.7542 14.7557 14.7569 14.7581 14.7594 14.7606 14.7616 14.7627 14.7636 14.7645 14.7655 14.7663 14.7671 14.7678 14.7683 14.7688 14.7694 14.7701 14.7697 14.7705 14.7711 14.7708 14.7711 14.7714 14.7717 14.7542 14.7629 14.764 14.7646 14.7642 14.7647 14.7653 14.7654 14.766 14.7665 14.7668 14.7675 14.7677 14.7682 14.7687 14.769 14.7692 14.7695 14.7697 14.7701 14.7707 14.7704 14.7706 14.7707 14.7712 14.771 14.7711 14.7713 14.7713 14.7715 14.7715 14.7713 14.7893 14.7798 14.7785 14.7782 14.7778 14.7775 14.7771 14.7768 14.7763 14.7761 14.7756 14.7753 14.7751 14.7744 14.7741 14.7742 14.7738 14.7737 14.7732 14.7731 14.7728 14.7728 14.7724 14.7722 14.7723 14.772 14.7717 14.7715 14.7716 14.7714 14.7714 14.7712 14.8241 14.7977 14.7933 14.7922 14.7909 14.7903 14.7893 14.7882 14.7868 14.7858 14.7838 14.7832 14.7824 14.7813 14.7804 14.7795 14.7786 14.7775 14.7767 14.7758 14.7755 14.7746 14.774 14.7738 14.7736 14.7728 14.7723 14.7721 14.7717 14.7714 14.7716 14.7712 14.8608 14.8149 14.8075 14.8059 14.8043 14.8024 14.801 14.7989 14.7969 14.7951 14.793 14.7912 14.7892 14.7877 14.7857 14.7842 14.783 14.7817 14.7803 14.7788 14.7774 14.7769 14.776 14.775 14.7748 14.7737 14.7727 14.7724 14.7718 14.7717 14.7715 14.771 14.9056 14.8256 14.8224 14.8204 14.8179 14.8153 14.813 14.81 14.8071 14.8044 14.8018 14.7989 14.7963 14.7939 14.7916 14.7893 14.7871 14.7854 14.7835 14.7818 14.7797 14.7786 14.7775 14.7761 14.7753 14.7741 14.7734 14.7732 14.7721 14.7717 14.7715 14.7716 14.6406 14.6993 14.7106 14.716 14.7207 14.7243 14.7281 14.7321 14.735 14.7378 14.7415 14.7439 14.7467 14.7491 14.7516 14.7538 14.7562 14.7582 14.7598 14.7616 14.7632 14.7642 14.7658 14.767 14.7682 14.7691 14.7697 14.7703 14.7707 14.7713 14.7713 14.7711 14.6863 14.7098 14.7255 14.7318 14.7353 14.7379 14.7404 14.7427 14.7451 14.7474 14.7496 14.7514 14.7534 14.7557 14.7571 14.7587 14.7601 14.7613 14.7631 14.764 14.7655 14.7663 14.7671 14.7682 14.769 14.7697 14.7702 14.7705 14.7707 14.7714 14.7716 14.7713 14.7216 14.7342 14.743 14.7473 14.7494 14.7512 14.7527 14.7543 14.7555 14.7571 14.7584 14.7593 14.7608 14.7617 14.7626 14.7636 14.7647 14.7658 14.7664 14.7672 14.7679 14.7685 14.7691 14.7695 14.77 14.7704 14.7708 14.7708 14.771 14.7712 14.7714 14.7715 14.7553 14.7589 14.7617 14.763 14.7638 14.7644 14.7651 14.7656 14.7662 14.7666 14.767 14.7673 14.7676 14.7682 14.7685 14.7688 14.7693 14.7692 14.7699 14.7702 14.7702 14.7707 14.7707 14.7708 14.7709 14.7712 14.7715 14.7711 14.7713 14.7713 14.7712 14.7716 14.7882 14.7837 14.7806 14.7788 14.7782 14.7774 14.777 14.7769 14.7763 14.776 14.7756 14.7751 14.7752 14.7747 14.7743 14.774 14.7741 14.7734 14.7731 14.7731 14.773 14.7728 14.7721 14.772 14.772 14.7718 14.7719 14.7715 14.7716 14.7715 14.7713 14.7713 14.8216 14.808 14.7986 14.7943 14.7923 14.7905 14.7891 14.7876 14.7869 14.7853 14.7844 14.7833 14.7821 14.7812 14.7803 14.7792 14.7781 14.7777 14.7765 14.776 14.7752 14.7748 14.7742 14.7737 14.7728 14.7723 14.7723 14.772 14.7718 14.7717 14.7712 14.7712 14.8561 14.8306 14.8149 14.8091 14.8061 14.8035 14.801 14.7989 14.797 14.795 14.7929 14.791 14.7891 14.7873 14.7857 14.7843 14.7827 14.7812 14.7798 14.7787 14.7775 14.7766 14.7758 14.7749 14.7739 14.7733 14.7731 14.7725 14.7717 14.7713 14.7714 14.771 14.9 14.8393 14.8285 14.8235 14.8199 14.8162 14.8129 14.81 14.8073 14.8041 14.8012 14.7985 14.796 14.7941 14.7912 14.7892 14.787 14.7852 14.7834 14.7815 14.7802 14.7786 14.7774 14.7761 14.7749 14.774 14.7734 14.7724 14.7716 14.7714 14.7715 14.771 14.634 14.6961 14.7065 14.7134 14.719 14.7236 14.7278 14.7315 14.7348 14.7381 14.741 14.744 14.7466 14.7494 14.7515 14.7539 14.7562 14.7577 14.7601 14.7619 14.7634 14.7648 14.7662 14.7675 14.7682 14.7691 14.7696 14.7706 14.7711 14.7714 14.7711 14.7714 14.6838 14.7059 14.7213 14.7289 14.7334 14.7371 14.74 14.7428 14.745 14.7474 14.7496 14.7519 14.7536 14.7556 14.757 14.7588 14.7604 14.7615 14.7632 14.7643 14.7659 14.7665 14.7676 14.7682 14.7687 14.7695 14.77 14.7706 14.7707 14.7711 14.7714 14.7718 14.7199 14.731 14.7399 14.7452 14.7484 14.7506 14.7523 14.754 14.7556 14.7569 14.7582 14.7595 14.7609 14.7615 14.7628 14.7638 14.7649 14.7655 14.7662 14.767 14.7681 14.7685 14.7689 14.7693 14.7702 14.7705 14.7707 14.7708 14.7712 14.7713 14.7716 14.7716 14.7548 14.7577 14.7603 14.7621 14.7633 14.7637 14.7645 14.7651 14.7659 14.7662 14.7673 14.7677 14.7679 14.7683 14.7686 14.7691 14.7693 14.7694 14.7699 14.7698 14.7705 14.7707 14.7706 14.7707 14.7708 14.771 14.771 14.7712 14.7711 14.7713 14.7716 14.7715 14.7891 14.785 14.7815 14.7792 14.7783 14.7775 14.7771 14.7766 14.7763 14.7761 14.7755 14.7754 14.7752 14.7746 14.7744 14.7743 14.7737 14.7736 14.7735 14.7729 14.7728 14.7724 14.7723 14.7724 14.7722 14.7721 14.7715 14.7715 14.7719 14.7714 14.7717 14.7714 14.8237 14.811 14.8016 14.796 14.7927 14.7909 14.7891 14.788 14.7867 14.7854 14.7842 14.7831 14.782 14.781 14.7799 14.7795 14.7782 14.7771 14.7767 14.776 14.7752 14.7744 14.7739 14.7733 14.7729 14.7727 14.7725 14.7719 14.7714 14.7716 14.7714 14.7711 14.8584 14.8348 14.8189 14.8115 14.8071 14.804 14.8016 14.7992 14.7969 14.7948 14.7926 14.7908 14.7889 14.7874 14.7858 14.7844 14.7827 14.7815 14.7799 14.7788 14.7776 14.7765 14.7756 14.7747 14.7743 14.7734 14.7729 14.7722 14.7719 14.7716 14.7712 14.7713 14.906 14.8432 14.8325 14.826 14.8209 14.8171 14.8135 14.8102 14.8067 14.8042 14.8012 14.7984 14.7964 14.7933 14.7913 14.7891 14.7871 14.7849 14.7833 14.7814 14.78 14.7783 14.7768 14.776 14.7747 14.7735 14.7731 14.7722 14.7717 14.7717 14.7713 14.7712 14.6304 14.6938 14.7048 14.712 14.7179 14.7233 14.7271 14.7314 14.7348 14.7382 14.7412 14.7439 14.7471 14.7495 14.7518 14.7543 14.7561 14.7582 14.7601 14.7616 14.763 14.7648 14.7657 14.7674 14.7683 14.7693 14.7703 14.7703 14.7709 14.7714 14.7715 14.7716 14.6828 14.7038 14.7198 14.728 14.7326 14.7365 14.7397 14.7424 14.7451 14.7475 14.7496 14.7516 14.7538 14.7558 14.7573 14.7589 14.7603 14.7616 14.7632 14.7645 14.7654 14.7666 14.7675 14.7683 14.7689 14.7697 14.7704 14.7707 14.771 14.7712 14.7717 14.7717 14.7193 14.7298 14.7385 14.7441 14.7475 14.7499 14.7525 14.7539 14.7552 14.7568 14.7583 14.7596 14.7607 14.762 14.7631 14.7639 14.7649 14.7655 14.7665 14.7671 14.7681 14.7682 14.7689 14.7693 14.7697 14.7702 14.7704 14.771 14.771 14.7714 14.7714 14.7713 14.7545 14.7576 14.7599 14.7619 14.763 14.7639 14.7647 14.7654 14.7658 14.7663 14.7669 14.767 14.7677 14.7682 14.7686 14.7689 14.7693 14.7697 14.7698 14.7701 14.7704 14.7704 14.7707 14.771 14.771 14.7712 14.7713 14.7715 14.7715 14.7713 14.7715 14.7714 14.7891 14.785 14.7816 14.7797 14.7782 14.7778 14.777 14.7769 14.7762 14.7758 14.7757 14.7752 14.775 14.7744 14.7743 14.774 14.7736 14.7736 14.773 14.7727 14.7728 14.7728 14.7721 14.7719 14.772 14.772 14.7717 14.7715 14.7716 14.7714 14.7711 14.7711 14.8239 14.812 14.8027 14.7971 14.7934 14.7913 14.7894 14.7878 14.7865 14.7854 14.7842 14.7832 14.782 14.781 14.7796 14.7791 14.7782 14.7775 14.7765 14.7755 14.7751 14.7747 14.7742 14.7734 14.7729 14.7726 14.7724 14.772 14.7717 14.7714 14.7712 14.7711 14.8593 14.8363 14.8205 14.8126 14.8078 14.8044 14.8019 14.7992 14.7966 14.7945 14.7927 14.7907 14.7892 14.7873 14.7854 14.784 14.7828 14.781 14.7799 14.7784 14.7777 14.7765 14.7752 14.7745 14.7737 14.7731 14.7728 14.7722 14.7716 14.7715 14.7715 14.7709 14.9093 14.8453 14.8343 14.8273 14.8219 14.8174 14.8137 14.8101 14.8067 14.8039 14.8012 14.7986 14.7959 14.7932 14.7911 14.7888 14.7871 14.7848 14.7831 14.7813 14.7796 14.7783 14.777 14.7759 14.775 14.774 14.7729 14.7722 14.7716 14.7716 14.7711 14.7716 14.6309 14.694 14.7048 14.7121 14.7177 14.723 14.7274 14.7312 14.7347 14.7381 14.7412 14.7441 14.7467 14.7495 14.7519 14.7541 14.7561 14.7584 14.7603 14.7617 14.7634 14.7646 14.7662 14.767 14.7681 14.7692 14.7698 14.7702 14.7711 14.7716 14.7716 14.7715 14.6828 14.7041 14.7198 14.7275 14.7328 14.7367 14.7395 14.7424 14.745 14.7475 14.7493 14.7516 14.7537 14.7556 14.7571 14.7589 14.7607 14.7618 14.7633 14.7641 14.7655 14.7666 14.7678 14.7685 14.7693 14.7698 14.7702 14.7708 14.771 14.7712 14.7712 14.7717 14.7195 14.7297 14.7385 14.7443 14.7478 14.7502 14.7522 14.7539 14.7553 14.7567 14.7583 14.7598 14.7607 14.7618 14.7628 14.764 14.7647 14.7655 14.7665 14.7672 14.7681 14.7683 14.7691 14.7695 14.7698 14.7703 14.7705 14.7707 14.7709 14.7713 14.7715 14.7716 14.7547 14.7575 14.76 14.7616 14.7629 14.7639 14.7645 14.7654 14.766 14.7664 14.767 14.7675 14.7679 14.7685 14.7688 14.769 14.7693 14.7696 14.7698 14.7702 14.7703 14.7709 14.771 14.771 14.771 14.7711 14.7711 14.7713 14.7712 14.771 14.7713 14.7716 14.7892 14.7853 14.7821 14.7798 14.7785 14.7774 14.7771 14.7767 14.7761 14.7758 14.7756 14.775 14.7747 14.7746 14.7741 14.7741 14.774 14.7736 14.7732 14.7728 14.7728 14.7727 14.7724 14.772 14.7719 14.7715 14.7716 14.7716 14.7717 14.7717 14.7715 14.7713 14.8239 14.8117 14.8029 14.7966 14.7932 14.7911 14.7892 14.7881 14.7864 14.7853 14.7841 14.7832 14.782 14.781 14.7801 14.7791 14.7779 14.7772 14.7767 14.776 14.7753 14.7748 14.7741 14.7731 14.773 14.7726 14.7723 14.772 14.7716 14.7715 14.7714 14.771 14.8597 14.8363 14.8204 14.8124 14.8078 14.8044 14.8014 14.7995 14.7969 14.7948 14.7928 14.7905 14.7892 14.7874 14.7859 14.784 14.7825 14.7813 14.7799 14.7788 14.7775 14.7762 14.7757 14.7745 14.7743 14.7734 14.7726 14.7723 14.7717 14.7717 14.7715 14.7712 14.9088 14.8452 14.8344 14.8271 14.822 14.8175 14.8139 14.8101 14.8073 14.8038 14.8014 14.7984 14.7962 14.7938 14.791 14.789 14.787 14.7849 14.7833 14.7814 14.7797 14.7785 14.777 14.7758 14.7748 14.7737 14.773 14.7725 14.7717 14.7713 14.7709 14.7713 14.6341 14.6957 14.7066 14.7133 14.7189 14.7234 14.7275 14.7317 14.735 14.7382 14.7411 14.744 14.7467 14.7494 14.7519 14.7542 14.7563 14.7582 14.7599 14.7615 14.7631 14.7647 14.7662 14.7668 14.7683 14.7694 14.77 14.7705 14.771 14.7714 14.7713 14.7714 14.6839 14.7058 14.7214 14.729 14.7334 14.737 14.7398 14.7427 14.745 14.7476 14.7497 14.7517 14.7536 14.7555 14.7573 14.7589 14.7603 14.762 14.7633 14.7645 14.7654 14.7662 14.7673 14.7681 14.7692 14.7696 14.7704 14.7706 14.7711 14.7713 14.7713 14.7717 14.7195 14.7311 14.7391 14.7453 14.7484 14.7506 14.7524 14.7544 14.7555 14.7569 14.758 14.7594 14.7606 14.7621 14.7626 14.7641 14.7646 14.7657 14.7664 14.767 14.7681 14.7687 14.7692 14.7694 14.7702 14.7704 14.7708 14.7708 14.7712 14.7715 14.7712 14.7718 14.7547 14.7578 14.7603 14.7623 14.7634 14.7643 14.7647 14.7653 14.7654 14.7665 14.7668 14.7674 14.7677 14.7684 14.7686 14.7689 14.7692 14.7694 14.7697 14.7698 14.7704 14.7708 14.7709 14.7711 14.7708 14.7712 14.7712 14.771 14.7712 14.7713 14.7713 14.7713 14.7891 14.7847 14.7813 14.7794 14.7781 14.7776 14.7771 14.7769 14.7764 14.7759 14.7757 14.7753 14.7749 14.7746 14.7743 14.774 14.7738 14.7734 14.7729 14.7731 14.7728 14.7728 14.7725 14.7722 14.7716 14.7715 14.7719 14.7715 14.7717 14.7712 14.7711 14.7712 14.8234 14.8109 14.8017 14.796 14.793 14.791 14.7893 14.7879 14.7868 14.7854 14.7844 14.7827 14.782 14.781 14.7799 14.7791 14.7784 14.7774 14.7764 14.776 14.7751 14.7745 14.7739 14.7735 14.7731 14.7725 14.7723 14.772 14.7717 14.7718 14.7715 14.7709 14.8583 14.8348 14.8187 14.8115 14.8075 14.8043 14.8013 14.7988 14.7969 14.7949 14.7926 14.7909 14.7892 14.7871 14.7855 14.7841 14.7823 14.7813 14.78 14.7789 14.7777 14.7768 14.7753 14.7748 14.7737 14.7734 14.7729 14.7724 14.7716 14.7712 14.7713 14.7708 14.9062 14.8435 14.8324 14.826 14.8214 14.8172 14.8133 14.8101 14.8068 14.8042 14.8012 14.7982 14.796 14.7936 14.7911 14.7891 14.7869 14.785 14.7828 14.7815 14.7798 14.7785 14.777 14.7761 14.7747 14.7741 14.773 14.7725 14.7716 14.7713 14.7711 14.7709 14.6407 14.6992 14.7102 14.7161 14.7206 14.7243 14.7284 14.7316 14.7351 14.7381 14.7408 14.7439 14.7468 14.7493 14.7516 14.7533 14.7561 14.7582 14.76 14.7614 14.763 14.7645 14.7661 14.767 14.7684 14.7688 14.7698 14.7704 14.7709 14.7714 14.7715 14.7717 14.6863 14.7099 14.7255 14.7314 14.7352 14.7379 14.7405 14.7431 14.7453 14.7475 14.7497 14.7518 14.7535 14.7551 14.7573 14.7588 14.7604 14.7617 14.7631 14.7641 14.7656 14.7667 14.7676 14.7681 14.7691 14.7698 14.7703 14.7705 14.7708 14.7712 14.7713 14.7717 14.7215 14.734 14.7433 14.7471 14.7495 14.7512 14.7527 14.7541 14.7556 14.7571 14.7581 14.7596 14.7605 14.7619 14.7629 14.7636 14.7649 14.7657 14.7665 14.7668 14.7676 14.7682 14.7691 14.7697 14.77 14.7704 14.7708 14.7708 14.7711 14.771 14.7716 14.7719 14.7555 14.759 14.7616 14.7631 14.7638 14.7646 14.765 14.7656 14.766 14.7666 14.7673 14.7675 14.7678 14.768 14.7685 14.7691 14.7693 14.7697 14.77 14.7704 14.77 14.7702 14.7705 14.7708 14.7709 14.7713 14.7711 14.7715 14.7709 14.7713 14.7713 14.7715 14.7887 14.7835 14.7806 14.7789 14.7784 14.7775 14.7768 14.7767 14.7764 14.776 14.7756 14.7754 14.7749 14.7742 14.7745 14.7738 14.7737 14.7735 14.7733 14.773 14.7728 14.7725 14.7721 14.7721 14.772 14.772 14.7715 14.7717 14.7712 14.7714 14.7711 14.771 14.822 14.8084 14.7987 14.7942 14.7923 14.7905 14.789 14.788 14.7863 14.7856 14.7841 14.7833 14.7823 14.7812 14.7801 14.779 14.7782 14.7775 14.7766 14.776 14.775 14.7746 14.774 14.7733 14.773 14.7731 14.7722 14.7721 14.7715 14.7717 14.7712 14.7712 14.8562 14.8307 14.8146 14.8093 14.8062 14.8031 14.8013 14.7991 14.7968 14.7947 14.7929 14.7909 14.7892 14.7874 14.7856 14.7841 14.7826 14.7814 14.78 14.7786 14.7776 14.7766 14.7755 14.7747 14.774 14.7734 14.773 14.7725 14.7715 14.7717 14.7716 14.7713 14.9 14.8397 14.8287 14.8239 14.8198 14.8162 14.8132 14.81 14.807 14.8037 14.8015 14.7988 14.7965 14.7933 14.7914 14.7894 14.787 14.7852 14.7834 14.7817 14.7799 14.7787 14.7772 14.776 14.7747 14.774 14.773 14.7722 14.772 14.7716 14.7711 14.7714 14.6335 14.7147 14.718 14.7199 14.7228 14.7258 14.7287 14.7317 14.7351 14.7382 14.7408 14.7438 14.7464 14.7493 14.7515 14.7536 14.756 14.7576 14.7597 14.7616 14.7632 14.7641 14.7661 14.7671 14.7679 14.7688 14.7695 14.7704 14.7704 14.7712 14.7711 14.7713 14.6809 14.7264 14.7338 14.736 14.7373 14.7389 14.7408 14.7431 14.745 14.7473 14.7494 14.7513 14.7533 14.7553 14.7571 14.7586 14.7599 14.7615 14.763 14.764 14.7649 14.766 14.7673 14.7681 14.7687 14.7693 14.7702 14.7706 14.7711 14.771 14.7711 14.7718 14.7186 14.7446 14.7487 14.7508 14.7515 14.7523 14.7531 14.7544 14.7557 14.757 14.7582 14.7594 14.7606 14.7617 14.7627 14.7639 14.7646 14.7655 14.7666 14.7671 14.7678 14.7683 14.769 14.7696 14.7699 14.77 14.7706 14.7704 14.7709 14.7714 14.7714 14.7715 14.7543 14.7623 14.764 14.7645 14.7648 14.7649 14.7655 14.7661 14.7661 14.7666 14.767 14.7673 14.7683 14.7681 14.7685 14.7688 14.7691 14.7696 14.7696 14.7701 14.7699 14.7703 14.7705 14.771 14.7711 14.771 14.7711 14.7713 14.7708 14.7711 14.7716 14.7715 14.789 14.78 14.7789 14.7782 14.7779 14.7773 14.7772 14.7769 14.7763 14.7759 14.7758 14.7754 14.775 14.7746 14.7745 14.7741 14.7738 14.7732 14.7733 14.7729 14.7734 14.7726 14.7724 14.7725 14.7719 14.7719 14.7715 14.772 14.7715 14.7714 14.7715 14.7711 14.8241 14.7973 14.7933 14.7918 14.7909 14.7901 14.7888 14.788 14.787 14.7852 14.7844 14.7834 14.7823 14.7813 14.7799 14.7793 14.7783 14.7779 14.7766 14.7763 14.7755 14.7747 14.7743 14.7737 14.773 14.7725 14.7724 14.7719 14.7717 14.7716 14.7713 14.7714 14.8606 14.8149 14.8075 14.8055 14.8042 14.8027 14.8009 14.7991 14.7971 14.7949 14.7933 14.7913 14.7894 14.7874 14.7859 14.7845 14.7829 14.7817 14.7803 14.7788 14.7779 14.7767 14.7758 14.7751 14.7742 14.774 14.773 14.7728 14.7716 14.7715 14.7716 14.771 14.9056 14.8253 14.8226 14.8202 14.8182 14.8156 14.8124 14.8102 14.8071 14.8042 14.8016 14.7989 14.7966 14.7941 14.7917 14.7894 14.7872 14.7854 14.7836 14.7819 14.7803 14.7785 14.7773 14.7763 14.7756 14.7739 14.7729 14.7728 14.7724 14.7717 14.7718 14.7708 
