# vtk DataFile Version 5.1
vtk output
ASCII

DATASET UNSTRUCTURED_GRID
POINTS 6253 float
0 0 0
0.166667 0 0
0.333333 0 0
0.5 0 0
0.666667 0 0
0.833333 0 0
1 0 0
1.16667 0 0
1.33333 0 0
1.5 0 0
1.66667 0 0
1.83333 0 0
2 0 0
2.16667 0 0
2.33333 0 0
2.5 0 0
2.66667 0 0
2.83333 0 0
3 0 0
0 0.166667 0
0.166667 0.166667 0
0.333333 0.166667 0
0.5 0.166667 0
0.666667 0.166667 0
0.833333 0.166667 0
1 0.166667 0
1.16667 0.166667 0
1.33333 0.166667 0
1.5 0.166667 0
1.66667 0.166667 0
1.83333 0.166667 0
2 0.166667 0
2.16667 0.166667 0
2.33333 0.166667 0
2.5 0.166667 0
2.66667 0.166667 0
2.83333 0.166667 0
3 0.166667 0
0 0.333333 0
0.166667 0.333333 0
0.333333 0.333333 0
0.5 0.333333 0
0.666667 0.333333 0
0.833333 0.333333 0
1 0.333333 0
1.16667 0.333333 0
1.33333 0.333333 0
1.5 0.333333 0
1.66667 0.333333 0
1.83333 0.333333 0
2 0.333333 0
2.16667 0.333333 0
2.33333 0.333333 0
2.5 0.333333 0
2.66667 0.333333 0
2.83333 0.333333 0
3 0.333333 0
0 0.5 0
0.166667 0.5 0
0.333333 0.5 0
0.5 0.5 0
0.666667 0.5 0
0.833333 0.5 0
1 0.5 0
1.16667 0.5 0
1.33333 0.5 0
1.5 0.5 0
1.66667 0.5 0
1.83333 0.5 0
2 0.5 0
2.16667 0.5 0
2.33333 0.5 0
2.5 0.5 0
2.66667 0.5 0
2.83333 0.5 0
3 0.5 0
0 0.666667 0
0.166667 0.666667 0
0.333333 0.666667 0
0.5 0.666667 0
0.666667 0.666667 0
0.833333 0.666667 0
1 0.666667 0
1.16667 0.666667 0
1.33333 0.666667 0
1.5 0.666667 0
1.66667 0.666667 0
1.83333 0.666667 0
2 0.666667 0
2.16667 0.666667 0
2.33333 0.666667 0
2.5 0.666667 0
2.66667 0.666667 0
2.83333 0.666667 0
3 0.666667 0
0 0.833333 0
0.166667 0.833333 0
0.333333 0.833333 0
0.5 0.833333 0
0.666667 0.833333 0
0.833333 0.833333 0
1 0.833333 0
1.16667 0.833333 0
1.33333 0.833333 0
1.5 0.833333 0
1.66667 0.833333 0
1.83333 0.833333 0
2 0.833333 0
2.16667 0.833333 0
2.33333 0.833333 0
2.5 0.833333 0
2.66667 0.833333 0
2.83333 0.833333 0
3 0.833333 0
0 1 0
0.166667 1 0
0.333333 1 0
0.5 1 0
0.666667 1 0
0.833333 1 0
1 1 0
1.16667 1 0
1.33333 1 0
1.5 1 0
1.66667 1 0
1.83333 1 0
2 1 0
2.16667 1 0
2.33333 1 0
2.5 1 0
2.66667 1 0
2.83333 1 0
3 1 0
0 0 0.166667
0.166667 0 0.166667
0.333333 0 0.166667
0.5 0 0.166667
0.666667 0 0.166667
0.833333 0 0.166667
1 0 0.166667
1.16667 0 0.166667
1.33333 0 0.166667
1.5 0 0.166667
1.66667 0 0.166667
1.83333 0 0.166667
2 0 0.166667
2.16667 0 0.166667
2.33333 0 0.166667
2.5 0 0.166667
2.66667 0 0.166667
2.83333 0 0.166667
3 0 0.166667
0 0.166667 0.166667
0.166667 0.166667 0.166667
0.333333 0.166667 0.166667
0.5 0.166667 0.166667
0.666667 0.166667 0.166667
0.833333 0.166667 0.166667
1 0.166667 0.166667
1.16667 0.166667 0.166667
1.33333 0.166667 0.166667
1.5 0.166667 0.166667
1.66667 0.166667 0.166667
1.83333 0.166667 0.166667
2 0.166667 0.166667
2.16667 0.166667 0.166667
2.33333 0.166667 0.166667
2.5 0.166667 0.166667
2.66667 0.166667 0.166667
2.83333 0.166667 0.166667
3 0.166667 0.166667
0 0.333333 0.166667
0.166667 0.333333 0.166667
0.333333 0.333333 0.166667
0.5 0.333333 0.166667
0.666667 0.333333 0.166667
0.833333 0.333333 0.166667
1 0.333333 0.166667
1.16667 0.333333 0.166667
1.33333 0.333333 0.166667
1.5 0.333333 0.166667
1.66667 0.333333 0.166667
1.83333 0.333333 0.166667
2 0.333333 0.166667
2.16667 0.333333 0.166667
2.33333 0.333333 0.166667
2.5 0.333333 0.166667
2.66667 0.333333 0.166667
2.83333 0.333333 0.166667
3 0.333333 0.166667
0 0.5 0.166667
0.166667 0.5 0.166667
0.333333 0.5 0.166667
0.5 0.5 0.166667
0.666667 0.5 0.166667
0.833333 0.5 0.166667
1 0.5 0.166667
1.16667 0.5 0.166667
1.33333 0.5 0.166667
1.5 0.5 0.166667
1.66667 0.5 0.166667
1.83333 0.5 0.166667
2 0.5 0.166667
2.16667 0.5 0.166667
2.33333 0.5 0.166667
2.5 0.5 0.166667
2.66667 0.5 0.166667
2.83333 0.5 0.166667
3 0.5 0.166667
0 0.666667 0.166667
0.166667 0.666667 0.166667
0.333333 0.666667 0.166667
0.5 0.666667 0.166667
0.666667 0.666667 0.166667
0.833333 0.666667 0.166667
1 0.666667 0.166667
1.16667 0.666667 0.166667
1.33333 0.666667 0.166667
1.5 0.666667 0.166667
1.66667 0.666667 0.166667
1.83333 0.666667 0.166667
2 0.666667 0.166667
2.16667 0.666667 0.166667
2.33333 0.666667 0.166667
2.5 0.666667 0.166667
2.66667 0.666667 0.166667
2.83333 0.666667 0.166667
3 0.666667 0.166667
0 0.833333 0.166667
0.166667 0.833333 0.166667
0.333333 0.833333 0.166667
0.5 0.833333 0.166667
0.666667 0.833333 0.166667
0.833333 0.833333 0.166667
1 0.833333 0.166667
1.16667 0.833333 0.166667
1.33333 0.833333 0.166667
1.5 0.833333 0.166667
1.66667 0.833333 0.166667
1.83333 0.833333 0.166667
2 0.833333 0.166667
2.16667 0.833333 0.166667
2.33333 0.833333 0.166667
2.5 0.833333 0.166667
2.66667 0.833333 0.166667
2.83333 0.833333 0.166667
3 0.833333 0.166667
0 1 0.166667
0.166667 1 0.166667
0.333333 1 0.166667
0.5 1 0.166667
0.666667 1 0.166667
0.833333 1 0.166667
1 1 0.166667
1.16667 1 0.166667
1.33333 1 0.166667
1.5 1 0.166667
1.66667 1 0.166667
1.83333 1 0.166667
2 1 0.166667
2.16667 1 0.166667
2.33333 1 0.166667
2.5 1 0.166667
2.66667 1 0.166667
2.83333 1 0.166667
3 1 0.166667
0 0 0.333333
0.166667 0 0.333333
0.333333 0 0.333333
0.5 0 0.333333
0.666667 0 0.333333
0.833333 0 0.333333
1 0 0.333333
1.16667 0 0.333333
1.33333 0 0.333333
1.5 0 0.333333
1.66667 0 0.333333
1.83333 0 0.333333
2 0 0.333333
2.16667 0 0.333333
2.33333 0 0.333333
2.5 0 0.333333
2.66667 0 0.333333
2.83333 0 0.333333
3 0 0.333333
0 0.166667 0.333333
0.166667 0.166667 0.333333
0.333333 0.166667 0.333333
0.5 0.166667 0.333333
0.666667 0.166667 0.333333
0.833333 0.166667 0.333333
1 0.166667 0.333333
1.16667 0.166667 0.333333
1.33333 0.166667 0.333333
1.5 0.166667 0.333333
1.66667 0.166667 0.333333
1.83333 0.166667 0.333333
2 0.166667 0.333333
2.16667 0.166667 0.333333
2.33333 0.166667 0.333333
2.5 0.166667 0.333333
2.66667 0.166667 0.333333
2.83333 0.166667 0.333333
3 0.166667 0.333333
0 0.333333 0.333333
0.166667 0.333333 0.333333
0.333333 0.333333 0.333333
0.5 0.333333 0.333333
0.666667 0.333333 0.333333
0.833333 0.333333 0.333333
1 0.333333 0.333333
1.16667 0.333333 0.333333
1.33333 0.333333 0.333333
1.5 0.333333 0.333333
1.66667 0.333333 0.333333
1.83333 0.333333 0.333333
2 0.333333 0.333333
2.16667 0.333333 0.333333
2.33333 0.333333 0.333333
2.5 0.333333 0.333333
2.66667 0.333333 0.333333
2.83333 0.333333 0.333333
3 0.333333 0.333333
0 0.5 0.333333
0.166667 0.5 0.333333
0.333333 0.5 0.333333
0.5 0.5 0.333333
0.666667 0.5 0.333333
0.833333 0.5 0.333333
1 0.5 0.333333
1.16667 0.5 0.333333
1.33333 0.5 0.333333
1.5 0.5 0.333333
1.66667 0.5 0.333333
1.83333 0.5 0.333333
2 0.5 0.333333
2.16667 0.5 0.333333
2.33333 0.5 0.333333
2.5 0.5 0.333333
2.66667 0.5 0.333333
2.83333 0.5 0.333333
3 0.5 0.333333
0 0.666667 0.333333
0.166667 0.666667 0.333333
0.333333 0.666667 0.333333
0.5 0.666667 0.333333
0.666667 0.666667 0.333333
0.833333 0.666667 0.333333
1 0.666667 0.333333
1.16667 0.666667 0.333333
1.33333 0.666667 0.333333
1.5 0.666667 0.333333
1.66667 0.666667 0.333333
1.83333 0.666667 0.333333
2 0.666667 0.333333
2.16667 0.666667 0.333333
2.33333 0.666667 0.333333
2.5 0.666667 0.333333
2.66667 0.666667 0.333333
2.83333 0.666667 0.333333
3 0.666667 0.333333
0 0.833333 0.333333
0.166667 0.833333 0.333333
0.333333 0.833333 0.333333
0.5 0.833333 0.333333
0.666667 0.833333 0.333333
0.833333 0.833333 0.333333
1 0.833333 0.333333
1.16667 0.833333 0.333333
1.33333 0.833333 0.333333
1.5 0.833333 0.333333
1.66667 0.833333 0.333333
1.83333 0.833333 0.333333
2 0.833333 0.333333
2.16667 0.833333 0.333333
2.33333 0.833333 0.333333
2.5 0.833333 0.333333
2.66667 0.833333 0.333333
2.83333 0.833333 0.333333
3 0.833333 0.333333
0 1 0.333333
0.166667 1 0.333333
0.333333 1 0.333333
0.5 1 0.333333
0.666667 1 0.333333
0.833333 1 0.333333
1 1 0.333333
1.16667 1 0.333333
1.33333 1 0.333333
1.5 1 0.333333
1.66667 1 0.333333
1.83333 1 0.333333
2 1 0.333333
2.16667 1 0.333333
2.33333 1 0.333333
2.5 1 0.333333
2.66667 1 0.333333
2.83333 1 0.333333
3 1 0.333333
0 0 0.5
0.166667 0 0.5
0.333333 0 0.5
0.5 0 0.5
0.666667 0 0.5
0.833333 0 0.5
1 0 0.5
1.16667 0 0.5
1.33333 0 0.5
1.5 0 0.5
1.66667 0 0.5
1.83333 0 0.5
2 0 0.5
2.16667 0 0.5
2.33333 0 0.5
2.5 0 0.5
2.66667 0 0.5
2.83333 0 0.5
3 0 0.5
0 0.166667 0.5
0.166667 0.166667 0.5
0.333333 0.166667 0.5
0.5 0.166667 0.5
0.666667 0.166667 0.5
0.833333 0.166667 0.5
1 0.166667 0.5
1.16667 0.166667 0.5
1.33333 0.166667 0.5
1.5 0.166667 0.5
1.66667 0.166667 0.5
1.83333 0.166667 0.5
2 0.166667 0.5
2.16667 0.166667 0.5
2.33333 0.166667 0.5
2.5 0.166667 0.5
2.66667 0.166667 0.5
2.83333 0.166667 0.5
3 0.166667 0.5
0 0.333333 0.5
0.166667 0.333333 0.5
0.333333 0.333333 0.5
0.5 0.333333 0.5
0.666667 0.333333 0.5
0.833333 0.333333 0.5
1 0.333333 0.5
1.16667 0.333333 0.5
1.33333 0.333333 0.5
1.5 0.333333 0.5
1.66667 0.333333 0.5
1.83333 0.333333 0.5
2 0.333333 0.5
2.16667 0.333333 0.5
2.33333 0.333333 0.5
2.5 0.333333 0.5
2.66667 0.333333 0.5
2.83333 0.333333 0.5
3 0.333333 0.5
0 0.5 0.5
0.166667 0.5 0.5
0.333333 0.5 0.5
0.5 0.5 0.5
0.666667 0.5 0.5
0.833333 0.5 0.5
1 0.5 0.5
1.16667 0.5 0.5
1.33333 0.5 0.5
1.5 0.5 0.5
1.66667 0.5 0.5
1.83333 0.5 0.5
2 0.5 0.5
2.16667 0.5 0.5
2.33333 0.5 0.5
2.5 0.5 0.5
2.66667 0.5 0.5
2.83333 0.5 0.5
3 0.5 0.5
0 0.666667 0.5
0.166667 0.666667 0.5
0.333333 0.666667 0.5
0.5 0.666667 0.5
0.666667 0.666667 0.5
0.833333 0.666667 0.5
1 0.666667 0.5
1.16667 0.666667 0.5
1.33333 0.666667 0.5
1.5 0.666667 0.5
1.66667 0.666667 0.5
1.83333 0.666667 0.5
2 0.666667 0.5
2.16667 0.666667 0.5
2.33333 0.666667 0.5
2.5 0.666667 0.5
2.66667 0.666667 0.5
2.83333 0.666667 0.5
3 0.666667 0.5
0 0.833333 0.5
0.166667 0.833333 0.5
0.333333 0.833333 0.5
0.5 0.833333 0.5
0.666667 0.833333 0.5
0.833333 0.833333 0.5
1 0.833333 0.5
1.16667 0.833333 0.5
1.33333 0.833333 0.5
1.5 0.833333 0.5
1.66667 0.833333 0.5
1.83333 0.833333 0.5
2 0.833333 0.5
2.16667 0.833333 0.5
2.33333 0.833333 0.5
2.5 0.833333 0.5
2.66667 0.833333 0.5
2.83333 0.833333 0.5
3 0.833333 0.5
0 1 0.5
0.166667 1 0.5
0.333333 1 0.5
0.5 1 0.5
0.666667 1 0.5
0.833333 1 0.5
1 1 0.5
1.16667 1 0.5
1.33333 1 0.5
1.5 1 0.5
1.66667 1 0.5
1.83333 1 0.5
2 1 0.5
2.16667 1 0.5
2.33333 1 0.5
2.5 1 0.5
2.66667 1 0.5
2.83333 1 0.5
3 1 0.5
0 0 0.666667
0.166667 0 0.666667
0.333333 0 0.666667
0.5 0 0.666667
0.666667 0 0.666667
0.833333 0 0.666667
1 0 0.666667
1.16667 0 0.666667
1.33333 0 0.666667
1.5 0 0.666667
1.66667 0 0.666667
1.83333 0 0.666667
2 0 0.666667
2.16667 0 0.666667
2.33333 0 0.666667
2.5 0 0.666667
2.66667 0 0.666667
2.83333 0 0.666667
3 0 0.666667
0 0.166667 0.666667
0.166667 0.166667 0.666667
0.333333 0.166667 0.666667
0.5 0.166667 0.666667
0.666667 0.166667 0.666667
0.833333 0.166667 0.666667
1 0.166667 0.666667
1.16667 0.166667 0.666667
1.33333 0.166667 0.666667
1.5 0.166667 0.666667
1.66667 0.166667 0.666667
1.83333 0.166667 0.666667
2 0.166667 0.666667
2.16667 0.166667 0.666667
2.33333 0.166667 0.666667
2.5 0.166667 0.666667
2.66667 0.166667 0.666667
2.83333 0.166667 0.666667
3 0.166667 0.666667
0 0.333333 0.666667
0.166667 0.333333 0.666667
0.333333 0.333333 0.666667
0.5 0.333333 0.666667
0.666667 0.333333 0.666667
0.833333 0.333333 0.666667
1 0.333333 0.666667
1.16667 0.333333 0.666667
1.33333 0.333333 0.666667
1.5 0.333333 0.666667
1.66667 0.333333 0.666667
1.83333 0.333333 0.666667
2 0.333333 0.666667
2.16667 0.333333 0.666667
2.33333 0.333333 0.666667
2.5 0.333333 0.666667
2.66667 0.333333 0.666667
2.83333 0.333333 0.666667
3 0.333333 0.666667
0 0.5 0.666667
0.166667 0.5 0.666667
0.333333 0.5 0.666667
0.5 0.5 0.666667
0.666667 0.5 0.666667
0.833333 0.5 0.666667
1 0.5 0.666667
1.16667 0.5 0.666667
1.33333 0.5 0.666667
1.5 0.5 0.666667
1.66667 0.5 0.666667
1.83333 0.5 0.666667
2 0.5 0.666667
2.16667 0.5 0.666667
2.33333 0.5 0.666667
2.5 0.5 0.666667
2.66667 0.5 0.666667
2.83333 0.5 0.666667
3 0.5 0.666667
0 0.666667 0.666667
0.166667 0.666667 0.666667
0.333333 0.666667 0.666667
0.5 0.666667 0.666667
0.666667 0.666667 0.666667
0.833333 0.666667 0.666667
1 0.666667 0.666667
1.16667 0.666667 0.666667
1.33333 0.666667 0.666667
1.5 0.666667 0.666667
1.66667 0.666667 0.666667
1.83333 0.666667 0.666667
2 0.666667 0.666667
2.16667 0.666667 0.666667
2.33333 0.666667 0.666667
2.5 0.666667 0.666667
2.66667 0.666667 0.666667
2.83333 0.666667 0.666667
3 0.666667 0.666667
0 0.833333 0.666667
0.166667 0.833333 0.666667
0.333333 0.833333 0.666667
0.5 0.833333 0.666667
0.666667 0.833333 0.666667
0.833333 0.833333 0.666667
1 0.833333 0.666667
1.16667 0.833333 0.666667
1.33333 0.833333 0.666667
1.5 0.833333 0.666667
1.66667 0.833333 0.666667
1.83333 0.833333 0.666667
2 0.833333 0.666667
2.16667 0.833333 0.666667
2.33333 0.833333 0.666667
2.5 0.833333 0.666667
2.66667 0.833333 0.666667
2.83333 0.833333 0.666667
3 0.833333 0.666667
0 1 0.666667
0.166667 1 0.666667
0.333333 1 0.666667
0.5 1 0.666667
0.666667 1 0.666667
0.833333 1 0.666667
1 1 0.666667
1.16667 1 0.666667
1.33333 1 0.666667
1.5 1 0.666667
1.66667 1 0.666667
1.83333 1 0.666667
2 1 0.666667
2.16667 1 0.666667
2.33333 1 0.666667
2.5 1 0.666667
2.66667 1 0.666667
2.83333 1 0.666667
3 1 0.666667
0 0 0.833333
0.166667 0 0.833333
0.333333 0 0.833333
0.5 0 0.833333
0.666667 0 0.833333
0.833333 0 0.833333
1 0 0.833333
1.16667 0 0.833333
1.33333 0 0.833333
1.5 0 0.833333
1.66667 0 0.833333
1.83333 0 0.833333
2 0 0.833333
2.16667 0 0.833333
2.33333 0 0.833333
2.5 0 0.833333
2.66667 0 0.833333
2.83333 0 0.833333
3 0 0.833333
0 0.166667 0.833333
0.166667 0.166667 0.833333
0.333333 0.166667 0.833333
0.5 0.166667 0.833333
0.666667 0.166667 0.833333
0.833333 0.166667 0.833333
1 0.166667 0.833333
1.16667 0.166667 0.833333
1.33333 0.166667 0.833333
1.5 0.166667 0.833333
1.66667 0.166667 0.833333
1.83333 0.166667 0.833333
2 0.166667 0.833333
2.16667 0.166667 0.833333
2.33333 0.166667 0.833333
2.5 0.166667 0.833333
2.66667 0.166667 0.833333
2.83333 0.166667 0.833333
3 0.166667 0.833333
0 0.333333 0.833333
0.166667 0.333333 0.833333
0.333333 0.333333 0.833333
0.5 0.333333 0.833333
0.666667 0.333333 0.833333
0.833333 0.333333 0.833333
1 0.333333 0.833333
1.16667 0.333333 0.833333
1.33333 0.333333 0.833333
1.5 0.333333 0.833333
1.66667 0.333333 0.833333
1.83333 0.333333 0.833333
2 0.333333 0.833333
2.16667 0.333333 0.833333
2.33333 0.333333 0.833333
2.5 0.333333 0.833333
2.66667 0.333333 0.833333
2.83333 0.333333 0.833333
3 0.333333 0.833333
0 0.5 0.833333
0.166667 0.5 0.833333
0.333333 0.5 0.833333
0.5 0.5 0.833333
0.666667 0.5 0.833333
0.833333 0.5 0.833333
1 0.5 0.833333
1.16667 0.5 0.833333
1.33333 0.5 0.833333
1.5 0.5 0.833333
1.66667 0.5 0.833333
1.83333 0.5 0.833333
2 0.5 0.833333
2.16667 0.5 0.833333
2.33333 0.5 0.833333
2.5 0.5 0.833333
2.66667 0.5 0.833333
2.83333 0.5 0.833333
3 0.5 0.833333
0 0.666667 0.833333
0.166667 0.666667 0.833333
0.333333 0.666667 0.833333
0.5 0.666667 0.833333
0.666667 0.666667 0.833333
0.833333 0.666667 0.833333
1 0.666667 0.833333
1.16667 0.666667 0.833333
1.33333 0.666667 0.833333
1.5 0.666667 0.833333
1.66667 0.666667 0.833333
1.83333 0.666667 0.833333
2 0.666667 0.833333
2.16667 0.666667 0.833333
2.33333 0.666667 0.833333
2.5 0.666667 0.833333
2.66667 0.666667 0.833333
2.83333 0.666667 0.833333
3 0.666667 0.833333
0 0.833333 0.833333
0.166667 0.833333 0.833333
0.333333 0.833333 0.833333
0.5 0.833333 0.833333
0.666667 0.833333 0.833333
0.833333 0.833333 0.833333
1 0.833333 0.833333
1.16667 0.833333 0.833333
1.33333 0.833333 0.833333
1.5 0.833333 0.833333
1.66667 0.833333 0.833333
1.83333 0.833333 0.833333
2 0.833333 0.833333
2.16667 0.833333 0.833333
2.33333 0.833333 0.833333
2.5 0.833333 0.833333
2.66667 0.833333 0.833333
2.83333 0.833333 0.833333
3 0.833333 0.833333
0 1 0.833333
0.166667 1 0.833333
0.333333 1 0.833333
0.5 1 0.833333
0.666667 1 0.833333
0.833333 1 0.833333
1 1 0.833333
1.16667 1 0.833333
1.33333 1 0.833333
1.5 1 0.833333
1.66667 1 0.833333
1.83333 1 0.833333
2 1 0.833333
2.16667 1 0.833333
2.33333 1 0.833333
2.5 1 0.833333
2.66667 1 0.833333
2.83333 1 0.833333
3 1 0.833333
0 0 1
0.166667 0 1
0.333333 0 1
0.5 0 1
0.666667 0 1
0.833333 0 1
1 0 1
1.16667 0 1
1.33333 0 1
1.5 0 1
1.66667 0 1
1.83333 0 1
2 0 1
2.16667 0 1
2.33333 0 1
2.5 0 1
2.66667 0 1
2.83333 0 1
3 0 1
0 0.166667 1
0.166667 0.166667 1
0.333333 0.166667 1
0.5 0.166667 1
0.666667 0.166667 1
0.833333 0.166667 1
1 0.166667 1
1.16667 0.166667 1
1.33333 0.166667 1
1.5 0.166667 1
1.66667 0.166667 1
1.83333 0.166667 1
2 0.166667 1
2.16667 0.166667 1
2.33333 0.166667 1
2.5 0.166667 1
2.66667 0.166667 1
2.83333 0.166667 1
3 0.166667 1
0 0.333333 1
0.166667 0.333333 1
0.333333 0.333333 1
0.5 0.333333 1
0.666667 0.333333 1
0.833333 0.333333 1
1 0.333333 1
1.16667 0.333333 1
1.33333 0.333333 1
1.5 0.333333 1
1.66667 0.333333 1
1.83333 0.333333 1
2 0.333333 1
2.16667 0.333333 1
2.33333 0.333333 1
2.5 0.333333 1
2.66667 0.333333 1
2.83333 0.333333 1
3 0.333333 1
0 0.5 1
0.166667 0.5 1
0.333333 0.5 1
0.5 0.5 1
0.666667 0.5 1
0.833333 0.5 1
1 0.5 1
1.16667 0.5 1
1.33333 0.5 1
1.5 0.5 1
1.66667 0.5 1
1.83333 0.5 1
2 0.5 1
2.16667 0.5 1
2.33333 0.5 1
2.5 0.5 1
2.66667 0.5 1
2.83333 0.5 1
3 0.5 1
0 0.666667 1
0.166667 0.666667 1
0.333333 0.666667 1
0.5 0.666667 1
0.666667 0.666667 1
0.833333 0.666667 1
1 0.666667 1
1.16667 0.666667 1
1.33333 0.666667 1
1.5 0.666667 1
1.66667 0.666667 1
1.83333 0.666667 1
2 0.666667 1
2.16667 0.666667 1
2.33333 0.666667 1
2.5 0.666667 1
2.66667 0.666667 1
2.83333 0.666667 1
3 0.666667 1
0 0.833333 1
0.166667 0.833333 1
0.333333 0.833333 1
0.5 0.833333 1
0.666667 0.833333 1
0.833333 0.833333 1
1 0.833333 1
1.16667 0.833333 1
1.33333 0.833333 1
1.5 0.833333 1
1.66667 0.833333 1
1.83333 0.833333 1
2 0.833333 1
2.16667 0.833333 1
2.33333 0.833333 1
2.5 0.833333 1
2.66667 0.833333 1
2.83333 0.833333 1
3 0.833333 1
0 1 1
0.166667 1 1
0.333333 1 1
0.5 1 1
0.666667 1 1
0.833333 1 1
1 1 1
1.16667 1 1
1.33333 1 1
1.5 1 1
1.66667 1 1
1.83333 1 1
2 1 1
2.16667 1 1
2.33333 1 1
2.5 1 1
2.66667 1 1
2.83333 1 1
3 1 1
0 0.0833333 0
0.0833333 0.166667 0.0833333
0.0833333 0.0833333 0.0833333
0.0833333 0.0833333 0
0.0833333 0.166667 0
0.166667 0.166667 0.0833333
0.0833333 0.0833333 0.166667
0.166667 0.0833333 0.166667
0.0833333 0 0.166667
0 0 0.0833333
0.0833333 0 0.0833333
0 0.166667 0.0833333
0 0.0833333 0.0833333
0.0833333 0.166667 0.166667
0 0.0833333 0.166667
0.166667 0 0.0833333
0.0833333 0 0
0.166667 0.0833333 0.0833333
0.166667 0.0833333 0
0.25 0.166667 0.0833333
0.25 0.0833333 0.0833333
0.25 0.0833333 0
0.25 0.166667 0
0.333333 0.166667 0.0833333
0.25 0.0833333 0.166667
0.333333 0.0833333 0.166667
0.25 0 0.166667
0.25 0 0.0833333
0.25 0.166667 0.166667
0.333333 0 0.0833333
0.25 0 0
0.333333 0.0833333 0.0833333
0.333333 0.0833333 0
0.416667 0.166667 0.0833333
0.416667 0.0833333 0.0833333
0.416667 0.0833333 0
0.416667 0.166667 0
0.5 0.166667 0.0833333
0.416667 0.0833333 0.166667
0.5 0.0833333 0.166667
0.416667 0 0.166667
0.416667 0 0.0833333
0.416667 0.166667 0.166667
0.5 0 0.0833333
0.416667 0 0
0.5 0.0833333 0.0833333
0.5 0.0833333 0
0.583333 0.166667 0.0833333
0.583333 0.0833333 0.0833333
0.583333 0.0833333 0
0.583333 0.166667 0
0.666667 0.166667 0.0833333
0.583333 0.0833333 0.166667
0.666667 0.0833333 0.166667
0.583333 0 0.166667
0.583333 0 0.0833333
0.583333 0.166667 0.166667
0.666667 0 0.0833333
0.583333 0 0
0.666667 0.0833333 0.0833333
0.666667 0.0833333 0
0.75 0.166667 0.0833333
0.75 0.0833333 0.0833333
0.75 0.0833333 0
0.75 0.166667 0
0.833333 0.166667 0.0833333
0.75 0.0833333 0.166667
0.833333 0.0833333 0.166667
0.75 0 0.166667
0.75 0 0.0833333
0.75 0.166667 0.166667
0.833333 0 0.0833333
0.75 0 0
0.833333 0.0833333 0.0833333
0.833333 0.0833333 0
0.916667 0.166667 0.0833333
0.916667 0.0833333 0.0833333
0.916667 0.0833333 0
0.916667 0.166667 0
1 0.166667 0.0833333
0.916667 0.0833333 0.166667
1 0.0833333 0.166667
0.916667 0 0.166667
0.916667 0 0.0833333
0.916667 0.166667 0.166667
1 0 0.0833333
0.916667 0 0
1 0.0833333 0.0833333
1 0.0833333 0
1.08333 0.166667 0.0833333
1.08333 0.0833333 0.0833333
1.08333 0.0833333 0
1.08333 0.166667 0
1.16667 0.166667 0.0833333
1.08333 0.0833333 0.166667
1.16667 0.0833333 0.166667
1.08333 0 0.166667
1.08333 0 0.0833333
1.08333 0.166667 0.166667
1.16667 0 0.0833333
1.08333 0 0
1.16667 0.0833333 0.0833333
1.16667 0.0833333 0
1.25 0.166667 0.0833333
1.25 0.0833333 0.0833333
1.25 0.0833333 0
1.25 0.166667 0
1.33333 0.166667 0.0833333
1.25 0.0833333 0.166667
1.33333 0.0833333 0.166667
1.25 0 0.166667
1.25 0 0.0833333
1.25 0.166667 0.166667
1.33333 0 0.0833333
1.25 0 0
1.33333 0.0833333 0.0833333
1.33333 0.0833333 0
1.41667 0.166667 0.0833333
1.41667 0.0833333 0.0833333
1.41667 0.0833333 0
1.41667 0.166667 0
1.5 0.166667 0.0833333
1.41667 0.0833333 0.166667
1.5 0.0833333 0.166667
1.41667 0 0.166667
1.41667 0 0.0833333
1.41667 0.166667 0.166667
1.5 0 0.0833333
1.41667 0 0
1.5 0.0833333 0.0833333
1.5 0.0833333 0
1.58333 0.166667 0.0833333
1.58333 0.0833333 0.0833333
1.58333 0.0833333 0
1.58333 0.166667 0
1.66667 0.166667 0.0833333
1.58333 0.0833333 0.166667
1.66667 0.0833333 0.166667
1.58333 0 0.166667
1.58333 0 0.0833333
1.58333 0.166667 0.166667
1.66667 0 0.0833333
1.58333 0 0
1.66667 0.0833333 0.0833333
1.66667 0.0833333 0
1.75 0.166667 0.0833333
1.75 0.0833333 0.0833333
1.75 0.0833333 0
1.75 0.166667 0
1.83333 0.166667 0.0833333
1.75 0.0833333 0.166667
1.83333 0.0833333 0.166667
1.75 0 0.166667
1.75 0 0.0833333
1.75 0.166667 0.166667
1.83333 0 0.0833333
1.75 0 0
1.83333 0.0833333 0.0833333
1.83333 0.0833333 0
1.91667 0.166667 0.0833333
1.91667 0.0833333 0.0833333
1.91667 0.0833333 0
1.91667 0.166667 0
2 0.166667 0.0833333
1.91667 0.0833333 0.166667
2 0.0833333 0.166667
1.91667 0 0.166667
1.91667 0 0.0833333
1.91667 0.166667 0.166667
2 0 0.0833333
1.91667 0 0
2 0.0833333 0.0833333
2 0.0833333 0
2.08333 0.166667 0.0833333
2.08333 0.0833333 0.0833333
2.08333 0.0833333 0
2.08333 0.166667 0
2.16667 0.166667 0.0833333
2.08333 0.0833333 0.166667
2.16667 0.0833333 0.166667
2.08333 0 0.166667
2.08333 0 0.0833333
2.08333 0.166667 0.166667
2.16667 0 0.0833333
2.08333 0 0
2.16667 0.0833333 0.0833333
2.16667 0.0833333 0
2.25 0.166667 0.0833333
2.25 0.0833333 0.0833333
2.25 0.0833333 0
2.25 0.166667 0
2.33333 0.166667 0.0833333
2.25 0.0833333 0.166667
2.33333 0.0833333 0.166667
2.25 0 0.166667
2.25 0 0.0833333
2.25 0.166667 0.166667
2.33333 0 0.0833333
2.25 0 0
2.33333 0.0833333 0.0833333
2.33333 0.0833333 0
2.41667 0.166667 0.0833333
2.41667 0.0833333 0.0833333
2.41667 0.0833333 0
2.41667 0.166667 0
2.5 0.166667 0.0833333
2.41667 0.0833333 0.166667
2.5 0.0833333 0.166667
2.41667 0 0.166667
2.41667 0 0.0833333
2.41667 0.166667 0.166667
2.5 0 0.0833333
2.41667 0 0
2.5 0.0833333 0.0833333
2.5 0.0833333 0
2.58333 0.166667 0.0833333
2.58333 0.0833333 0.0833333
2.58333 0.0833333 0
2.58333 0.166667 0
2.66667 0.166667 0.0833333
2.58333 0.0833333 0.166667
2.66667 0.0833333 0.166667
2.58333 0 0.166667
2.58333 0 0.0833333
2.58333 0.166667 0.166667
2.66667 0 0.0833333
2.58333 0 0
2.66667 0.0833333 0.0833333
2.66667 0.0833333 0
2.75 0.166667 0.0833333
2.75 0.0833333 0.0833333
2.75 0.0833333 0
2.75 0.166667 0
2.83333 0.166667 0.0833333
2.75 0.0833333 0.166667
2.83333 0.0833333 0.166667
2.75 0 0.166667
2.75 0 0.0833333
2.75 0.166667 0.166667
2.83333 0 0.0833333
2.75 0 0
2.83333 0.0833333 0.0833333
2.83333 0.0833333 0
2.91667 0.166667 0.0833333
2.91667 0.0833333 0.0833333
2.91667 0.0833333 0
2.91667 0.166667 0
3 0.166667 0.0833333
2.91667 0.0833333 0.166667
3 0.0833333 0.166667
2.91667 0 0.166667
2.91667 0 0.0833333
2.91667 0.166667 0.166667
3 0 0.0833333
2.91667 0 0
3 0.0833333 0.0833333
3 0.0833333 0
0 0.25 0
0.0833333 0.333333 0.0833333
0.0833333 0.25 0.0833333
0.0833333 0.25 0
0.0833333 0.333333 0
0.166667 0.333333 0.0833333
0.0833333 0.25 0.166667
0.166667 0.25 0.166667
0 0.333333 0.0833333
0 0.25 0.0833333
0.0833333 0.333333 0.166667
0 0.25 0.166667
0.166667 0.25 0.0833333
0.166667 0.25 0
0.25 0.333333 0.0833333
0.25 0.25 0.0833333
0.25 0.25 0
0.25 0.333333 0
0.333333 0.333333 0.0833333
0.25 0.25 0.166667
0.333333 0.25 0.166667
0.25 0.333333 0.166667
0.333333 0.25 0.0833333
0.333333 0.25 0
0.416667 0.333333 0.0833333
0.416667 0.25 0.0833333
0.416667 0.25 0
0.416667 0.333333 0
0.5 0.333333 0.0833333
0.416667 0.25 0.166667
0.5 0.25 0.166667
0.416667 0.333333 0.166667
0.5 0.25 0.0833333
0.5 0.25 0
0.583333 0.333333 0.0833333
0.583333 0.25 0.0833333
0.583333 0.25 0
0.583333 0.333333 0
0.666667 0.333333 0.0833333
0.583333 0.25 0.166667
0.666667 0.25 0.166667
0.583333 0.333333 0.166667
0.666667 0.25 0.0833333
0.666667 0.25 0
0.75 0.333333 0.0833333
0.75 0.25 0.0833333
0.75 0.25 0
0.75 0.333333 0
0.833333 0.333333 0.0833333
0.75 0.25 0.166667
0.833333 0.25 0.166667
0.75 0.333333 0.166667
0.833333 0.25 0.0833333
0.833333 0.25 0
0.916667 0.333333 0.0833333
0.916667 0.25 0.0833333
0.916667 0.25 0
0.916667 0.333333 0
1 0.333333 0.0833333
0.916667 0.25 0.166667
1 0.25 0.166667
0.916667 0.333333 0.166667
1 0.25 0.0833333
1 0.25 0
1.08333 0.333333 0.0833333
1.08333 0.25 0.0833333
1.08333 0.25 0
1.08333 0.333333 0
1.16667 0.333333 0.0833333
1.08333 0.25 0.166667
1.16667 0.25 0.166667
1.08333 0.333333 0.166667
1.16667 0.25 0.0833333
1.16667 0.25 0
1.25 0.333333 0.0833333
1.25 0.25 0.0833333
1.25 0.25 0
1.25 0.333333 0
1.33333 0.333333 0.0833333
1.25 0.25 0.166667
1.33333 0.25 0.166667
1.25 0.333333 0.166667
1.33333 0.25 0.0833333
1.33333 0.25 0
1.41667 0.333333 0.0833333
1.41667 0.25 0.0833333
1.41667 0.25 0
1.41667 0.333333 0
1.5 0.333333 0.0833333
1.41667 0.25 0.166667
1.5 0.25 0.166667
1.41667 0.333333 0.166667
1.5 0.25 0.0833333
1.5 0.25 0
1.58333 0.333333 0.0833333
1.58333 0.25 0.0833333
1.58333 0.25 0
1.58333 0.333333 0
1.66667 0.333333 0.0833333
1.58333 0.25 0.166667
1.66667 0.25 0.166667
1.58333 0.333333 0.166667
1.66667 0.25 0.0833333
1.66667 0.25 0
1.75 0.333333 0.0833333
1.75 0.25 0.0833333
1.75 0.25 0
1.75 0.333333 0
1.83333 0.333333 0.0833333
1.75 0.25 0.166667
1.83333 0.25 0.166667
1.75 0.333333 0.166667
1.83333 0.25 0.0833333
1.83333 0.25 0
1.91667 0.333333 0.0833333
1.91667 0.25 0.0833333
1.91667 0.25 0
1.91667 0.333333 0
2 0.333333 0.0833333
1.91667 0.25 0.166667
2 0.25 0.166667
1.91667 0.333333 0.166667
2 0.25 0.0833333
2 0.25 0
2.08333 0.333333 0.0833333
2.08333 0.25 0.0833333
2.08333 0.25 0
2.08333 0.333333 0
2.16667 0.333333 0.0833333
2.08333 0.25 0.166667
2.16667 0.25 0.166667
2.08333 0.333333 0.166667
2.16667 0.25 0.0833333
2.16667 0.25 0
2.25 0.333333 0.0833333
2.25 0.25 0.0833333
2.25 0.25 0
2.25 0.333333 0
2.33333 0.333333 0.0833333
2.25 0.25 0.166667
2.33333 0.25 0.166667
2.25 0.333333 0.166667
2.33333 0.25 0.0833333
2.33333 0.25 0
2.41667 0.333333 0.0833333
2.41667 0.25 0.0833333
2.41667 0.25 0
2.41667 0.333333 0
2.5 0.333333 0.0833333
2.41667 0.25 0.166667
2.5 0.25 0.166667
2.41667 0.333333 0.166667
2.5 0.25 0.0833333
2.5 0.25 0
2.58333 0.333333 0.0833333
2.58333 0.25 0.0833333
2.58333 0.25 0
2.58333 0.333333 0
2.66667 0.333333 0.0833333
2.58333 0.25 0.166667
2.66667 0.25 0.166667
2.58333 0.333333 0.166667
2.66667 0.25 0.0833333
2.66667 0.25 0
2.75 0.333333 0.0833333
2.75 0.25 0.0833333
2.75 0.25 0
2.75 0.333333 0
2.83333 0.333333 0.0833333
2.75 0.25 0.166667
2.83333 0.25 0.166667
2.75 0.333333 0.166667
2.83333 0.25 0.0833333
2.83333 0.25 0
2.91667 0.333333 0.0833333
2.91667 0.25 0.0833333
2.91667 0.25 0
2.91667 0.333333 0
3 0.333333 0.0833333
2.91667 0.25 0.166667
3 0.25 0.166667
2.91667 0.333333 0.166667
3 0.25 0.0833333
3 0.25 0
0 0.416667 0
0.0833333 0.5 0.0833333
0.0833333 0.416667 0.0833333
0.0833333 0.416667 0
0.0833333 0.5 0
0.166667 0.5 0.0833333
0.0833333 0.416667 0.166667
0.166667 0.416667 0.166667
0 0.5 0.0833333
0 0.416667 0.0833333
0.0833333 0.5 0.166667
0 0.416667 0.166667
0.166667 0.416667 0.0833333
0.166667 0.416667 0
0.25 0.5 0.0833333
0.25 0.416667 0.0833333
0.25 0.416667 0
0.25 0.5 0
0.333333 0.5 0.0833333
0.25 0.416667 0.166667
0.333333 0.416667 0.166667
0.25 0.5 0.166667
0.333333 0.416667 0.0833333
0.333333 0.416667 0
0.416667 0.5 0.0833333
0.416667 0.416667 0.0833333
0.416667 0.416667 0
0.416667 0.5 0
0.5 0.5 0.0833333
0.416667 0.416667 0.166667
0.5 0.416667 0.166667
0.416667 0.5 0.166667
0.5 0.416667 0.0833333
0.5 0.416667 0
0.583333 0.5 0.0833333
0.583333 0.416667 0.0833333
0.583333 0.416667 0
0.583333 0.5 0
0.666667 0.5 0.0833333
0.583333 0.416667 0.166667
0.666667 0.416667 0.166667
0.583333 0.5 0.166667
0.666667 0.416667 0.0833333
0.666667 0.416667 0
0.75 0.5 0.0833333
0.75 0.416667 0.0833333
0.75 0.416667 0
0.75 0.5 0
0.833333 0.5 0.0833333
0.75 0.416667 0.166667
0.833333 0.416667 0.166667
0.75 0.5 0.166667
0.833333 0.416667 0.0833333
0.833333 0.416667 0
0.916667 0.5 0.0833333
0.916667 0.416667 0.0833333
0.916667 0.416667 0
0.916667 0.5 0
1 0.5 0.0833333
0.916667 0.416667 0.166667
1 0.416667 0.166667
0.916667 0.5 0.166667
1 0.416667 0.0833333
1 0.416667 0
1.08333 0.5 0.0833333
1.08333 0.416667 0.0833333
1.08333 0.416667 0
1.08333 0.5 0
1.16667 0.5 0.0833333
1.08333 0.416667 0.166667
1.16667 0.416667 0.166667
1.08333 0.5 0.166667
1.16667 0.416667 0.0833333
1.16667 0.416667 0
1.25 0.5 0.0833333
1.25 0.416667 0.0833333
1.25 0.416667 0
1.25 0.5 0
1.33333 0.5 0.0833333
1.25 0.416667 0.166667
1.33333 0.416667 0.166667
1.25 0.5 0.166667
1.33333 0.416667 0.0833333
1.33333 0.416667 0
1.41667 0.5 0.0833333
1.41667 0.416667 0.0833333
1.41667 0.416667 0
1.41667 0.5 0
1.5 0.5 0.0833333
1.41667 0.416667 0.166667
1.5 0.416667 0.166667
1.41667 0.5 0.166667
1.5 0.416667 0.0833333
1.5 0.416667 0
1.58333 0.5 0.0833333
1.58333 0.416667 0.0833333
1.58333 0.416667 0
1.58333 0.5 0
1.66667 0.5 0.0833333
1.58333 0.416667 0.166667
1.66667 0.416667 0.166667
1.58333 0.5 0.166667
1.66667 0.416667 0.0833333
1.66667 0.416667 0
1.75 0.5 0.0833333
1.75 0.416667 0.0833333
1.75 0.416667 0
1.75 0.5 0
1.83333 0.5 0.0833333
1.75 0.416667 0.166667
1.83333 0.416667 0.166667
1.75 0.5 0.166667
1.83333 0.416667 0.0833333
1.83333 0.416667 0
1.91667 0.5 0.0833333
1.91667 0.416667 0.0833333
1.91667 0.416667 0
1.91667 0.5 0
2 0.5 0.0833333
1.91667 0.416667 0.166667
2 0.416667 0.166667
1.91667 0.5 0.166667
2 0.416667 0.0833333
2 0.416667 0
2.08333 0.5 0.0833333
2.08333 0.416667 0.0833333
2.08333 0.416667 0
2.08333 0.5 0
2.16667 0.5 0.0833333
2.08333 0.416667 0.166667
2.16667 0.416667 0.166667
2.08333 0.5 0.166667
2.16667 0.416667 0.0833333
2.16667 0.416667 0
2.25 0.5 0.0833333
2.25 0.416667 0.0833333
2.25 0.416667 0
2.25 0.5 0
2.33333 0.5 0.0833333
2.25 0.416667 0.166667
2.33333 0.416667 0.166667
2.25 0.5 0.166667
2.33333 0.416667 0.0833333
2.33333 0.416667 0
2.41667 0.5 0.0833333
2.41667 0.416667 0.0833333
2.41667 0.416667 0
2.41667 0.5 0
2.5 0.5 0.0833333
2.41667 0.416667 0.166667
2.5 0.416667 0.166667
2.41667 0.5 0.166667
2.5 0.416667 0.0833333
2.5 0.416667 0
2.58333 0.5 0.0833333
2.58333 0.416667 0.0833333
2.58333 0.416667 0
2.58333 0.5 0
2.66667 0.5 0.0833333
2.58333 0.416667 0.166667
2.66667 0.416667 0.166667
2.58333 0.5 0.166667
2.66667 0.416667 0.0833333
2.66667 0.416667 0
2.75 0.5 0.0833333
2.75 0.416667 0.0833333
2.75 0.416667 0
2.75 0.5 0
2.83333 0.5 0.0833333
2.75 0.416667 0.166667
2.83333 0.416667 0.166667
2.75 0.5 0.166667
2.83333 0.416667 0.0833333
2.83333 0.416667 0
2.91667 0.5 0.0833333
2.91667 0.416667 0.0833333
2.91667 0.416667 0
2.91667 0.5 0
3 0.5 0.0833333
2.91667 0.416667 0.166667
3 0.416667 0.166667
2.91667 0.5 0.166667
3 0.416667 0.0833333
3 0.416667 0
0 0.583333 0
0.0833333 0.666667 0.0833333
0.0833333 0.583333 0.0833333
0.0833333 0.583333 0
0.0833333 0.666667 0
0.166667 0.666667 0.0833333
0.0833333 0.583333 0.166667
0.166667 0.583333 0.166667
0 0.666667 0.0833333
0 0.583333 0.0833333
0.0833333 0.666667 0.166667
0 0.583333 0.166667
0.166667 0.583333 0.0833333
0.166667 0.583333 0
0.25 0.666667 0.0833333
0.25 0.583333 0.0833333
0.25 0.583333 0
0.25 0.666667 0
0.333333 0.666667 0.0833333
0.25 0.583333 0.166667
0.333333 0.583333 0.166667
0.25 0.666667 0.166667
0.333333 0.583333 0.0833333
0.333333 0.583333 0
0.416667 0.666667 0.0833333
0.416667 0.583333 0.0833333
0.416667 0.583333 0
0.416667 0.666667 0
0.5 0.666667 0.0833333
0.416667 0.583333 0.166667
0.5 0.583333 0.166667
0.416667 0.666667 0.166667
0.5 0.583333 0.0833333
0.5 0.583333 0
0.583333 0.666667 0.0833333
0.583333 0.583333 0.0833333
0.583333 0.583333 0
0.583333 0.666667 0
0.666667 0.666667 0.0833333
0.583333 0.583333 0.166667
0.666667 0.583333 0.166667
0.583333 0.666667 0.166667
0.666667 0.583333 0.0833333
0.666667 0.583333 0
0.75 0.666667 0.0833333
0.75 0.583333 0.0833333
0.75 0.583333 0
0.75 0.666667 0
0.833333 0.666667 0.0833333
0.75 0.583333 0.166667
0.833333 0.583333 0.166667
0.75 0.666667 0.166667
0.833333 0.583333 0.0833333
0.833333 0.583333 0
0.916667 0.666667 0.0833333
0.916667 0.583333 0.0833333
0.916667 0.583333 0
0.916667 0.666667 0
1 0.666667 0.0833333
0.916667 0.583333 0.166667
1 0.583333 0.166667
0.916667 0.666667 0.166667
1 0.583333 0.0833333
1 0.583333 0
1.08333 0.666667 0.0833333
1.08333 0.583333 0.0833333
1.08333 0.583333 0
1.08333 0.666667 0
1.16667 0.666667 0.0833333
1.08333 0.583333 0.166667
1.16667 0.583333 0.166667
1.08333 0.666667 0.166667
1.16667 0.583333 0.0833333
1.16667 0.583333 0
1.25 0.666667 0.0833333
1.25 0.583333 0.0833333
1.25 0.583333 0
1.25 0.666667 0
1.33333 0.666667 0.0833333
1.25 0.583333 0.166667
1.33333 0.583333 0.166667
1.25 0.666667 0.166667
1.33333 0.583333 0.0833333
1.33333 0.583333 0
1.41667 0.666667 0.0833333
1.41667 0.583333 0.0833333
1.41667 0.583333 0
1.41667 0.666667 0
1.5 0.666667 0.0833333
1.41667 0.583333 0.166667
1.5 0.583333 0.166667
1.41667 0.666667 0.166667
1.5 0.583333 0.0833333
1.5 0.583333 0
1.58333 0.666667 0.0833333
1.58333 0.583333 0.0833333
1.58333 0.583333 0
1.58333 0.666667 0
1.66667 0.666667 0.0833333
1.58333 0.583333 0.166667
1.66667 0.583333 0.166667
1.58333 0.666667 0.166667
1.66667 0.583333 0.0833333
1.66667 0.583333 0
1.75 0.666667 0.0833333
1.75 0.583333 0.0833333
1.75 0.583333 0
1.75 0.666667 0
1.83333 0.666667 0.0833333
1.75 0.583333 0.166667
1.83333 0.583333 0.166667
1.75 0.666667 0.166667
1.83333 0.583333 0.0833333
1.83333 0.583333 0
1.91667 0.666667 0.0833333
1.91667 0.583333 0.0833333
1.91667 0.583333 0
1.91667 0.666667 0
2 0.666667 0.0833333
1.91667 0.583333 0.166667
2 0.583333 0.166667
1.91667 0.666667 0.166667
2 0.583333 0.0833333
2 0.583333 0
2.08333 0.666667 0.0833333
2.08333 0.583333 0.0833333
2.08333 0.583333 0
2.08333 0.666667 0
2.16667 0.666667 0.0833333
2.08333 0.583333 0.166667
2.16667 0.583333 0.166667
2.08333 0.666667 0.166667
2.16667 0.583333 0.0833333
2.16667 0.583333 0
2.25 0.666667 0.0833333
2.25 0.583333 0.0833333
2.25 0.583333 0
2.25 0.666667 0
2.33333 0.666667 0.0833333
2.25 0.583333 0.166667
2.33333 0.583333 0.166667
2.25 0.666667 0.166667
2.33333 0.583333 0.0833333
2.33333 0.583333 0
2.41667 0.666667 0.0833333
2.41667 0.583333 0.0833333
2.41667 0.583333 0
2.41667 0.666667 0
2.5 0.666667 0.0833333
2.41667 0.583333 0.166667
2.5 0.583333 0.166667
2.41667 0.666667 0.166667
2.5 0.583333 0.0833333
2.5 0.583333 0
2.58333 0.666667 0.0833333
2.58333 0.583333 0.0833333
2.58333 0.583333 0
2.58333 0.666667 0
2.66667 0.666667 0.0833333
2.58333 0.583333 0.166667
2.66667 0.583333 0.166667
2.58333 0.666667 0.166667
2.66667 0.583333 0.0833333
2.66667 0.583333 0
2.75 0.666667 0.0833333
2.75 0.583333 0.0833333
2.75 0.583333 0
2.75 0.666667 0
2.83333 0.666667 0.0833333
2.75 0.583333 0.166667
2.83333 0.583333 0.166667
2.75 0.666667 0.166667
2.83333 0.583333 0.0833333
2.83333 0.583333 0
2.91667 0.666667 0.0833333
2.91667 0.583333 0.0833333
2.91667 0.583333 0
2.91667 0.666667 0
3 0.666667 0.0833333
2.91667 0.583333 0.166667
3 0.583333 0.166667
2.91667 0.666667 0.166667
3 0.583333 0.0833333
3 0.583333 0
0 0.75 0
0.0833333 0.833333 0.0833333
0.0833333 0.75 0.0833333
0.0833333 0.75 0
0.0833333 0.833333 0
0.166667 0.833333 0.0833333
0.0833333 0.75 0.166667
0.166667 0.75 0.166667
0 0.833333 0.0833333
0 0.75 0.0833333
0.0833333 0.833333 0.166667
0 0.75 0.166667
0.166667 0.75 0.0833333
0.166667 0.75 0
0.25 0.833333 0.0833333
0.25 0.75 0.0833333
0.25 0.75 0
0.25 0.833333 0
0.333333 0.833333 0.0833333
0.25 0.75 0.166667
0.333333 0.75 0.166667
0.25 0.833333 0.166667
0.333333 0.75 0.0833333
0.333333 0.75 0
0.416667 0.833333 0.0833333
0.416667 0.75 0.0833333
0.416667 0.75 0
0.416667 0.833333 0
0.5 0.833333 0.0833333
0.416667 0.75 0.166667
0.5 0.75 0.166667
0.416667 0.833333 0.166667
0.5 0.75 0.0833333
0.5 0.75 0
0.583333 0.833333 0.0833333
0.583333 0.75 0.0833333
0.583333 0.75 0
0.583333 0.833333 0
0.666667 0.833333 0.0833333
0.583333 0.75 0.166667
0.666667 0.75 0.166667
0.583333 0.833333 0.166667
0.666667 0.75 0.0833333
0.666667 0.75 0
0.75 0.833333 0.0833333
0.75 0.75 0.0833333
0.75 0.75 0
0.75 0.833333 0
0.833333 0.833333 0.0833333
0.75 0.75 0.166667
0.833333 0.75 0.166667
0.75 0.833333 0.166667
0.833333 0.75 0.0833333
0.833333 0.75 0
0.916667 0.833333 0.0833333
0.916667 0.75 0.0833333
0.916667 0.75 0
0.916667 0.833333 0
1 0.833333 0.0833333
0.916667 0.75 0.166667
1 0.75 0.166667
0.916667 0.833333 0.166667
1 0.75 0.0833333
1 0.75 0
1.08333 0.833333 0.0833333
1.08333 0.75 0.0833333
1.08333 0.75 0
1.08333 0.833333 0
1.16667 0.833333 0.0833333
1.08333 0.75 0.166667
1.16667 0.75 0.166667
1.08333 0.833333 0.166667
1.16667 0.75 0.0833333
1.16667 0.75 0
1.25 0.833333 0.0833333
1.25 0.75 0.0833333
1.25 0.75 0
1.25 0.833333 0
1.33333 0.833333 0.0833333
1.25 0.75 0.166667
1.33333 0.75 0.166667
1.25 0.833333 0.166667
1.33333 0.75 0.0833333
1.33333 0.75 0
1.41667 0.833333 0.0833333
1.41667 0.75 0.0833333
1.41667 0.75 0
1.41667 0.833333 0
1.5 0.833333 0.0833333
1.41667 0.75 0.166667
1.5 0.75 0.166667
1.41667 0.833333 0.166667
1.5 0.75 0.0833333
1.5 0.75 0
1.58333 0.833333 0.0833333
1.58333 0.75 0.0833333
1.58333 0.75 0
1.58333 0.833333 0
1.66667 0.833333 0.0833333
1.58333 0.75 0.166667
1.66667 0.75 0.166667
1.58333 0.833333 0.166667
1.66667 0.75 0.0833333
1.66667 0.75 0
1.75 0.833333 0.0833333
1.75 0.75 0.0833333
1.75 0.75 0
1.75 0.833333 0
1.83333 0.833333 0.0833333
1.75 0.75 0.166667
1.83333 0.75 0.166667
1.75 0.833333 0.166667
1.83333 0.75 0.0833333
1.83333 0.75 0
1.91667 0.833333 0.0833333
1.91667 0.75 0.0833333
1.91667 0.75 0
1.91667 0.833333 0
2 0.833333 0.0833333
1.91667 0.75 0.166667
2 0.75 0.166667
1.91667 0.833333 0.166667
2 0.75 0.0833333
2 0.75 0
2.08333 0.833333 0.0833333
2.08333 0.75 0.0833333
2.08333 0.75 0
2.08333 0.833333 0
2.16667 0.833333 0.0833333
2.08333 0.75 0.166667
2.16667 0.75 0.166667
2.08333 0.833333 0.166667
2.16667 0.75 0.0833333
2.16667 0.75 0
2.25 0.833333 0.0833333
2.25 0.75 0.0833333
2.25 0.75 0
2.25 0.833333 0
2.33333 0.833333 0.0833333
2.25 0.75 0.166667
2.33333 0.75 0.166667
2.25 0.833333 0.166667
2.33333 0.75 0.0833333
2.33333 0.75 0
2.41667 0.833333 0.0833333
2.41667 0.75 0.0833333
2.41667 0.75 0
2.41667 0.833333 0
2.5 0.833333 0.0833333
2.41667 0.75 0.166667
2.5 0.75 0.166667
2.41667 0.833333 0.166667
2.5 0.75 0.0833333
2.5 0.75 0
2.58333 0.833333 0.0833333
2.58333 0.75 0.0833333
2.58333 0.75 0
2.58333 0.833333 0
2.66667 0.833333 0.0833333
2.58333 0.75 0.166667
2.66667 0.75 0.166667
2.58333 0.833333 0.166667
2.66667 0.75 0.0833333
2.66667 0.75 0
2.75 0.833333 0.0833333
2.75 0.75 0.0833333
2.75 0.75 0
2.75 0.833333 0
2.83333 0.833333 0.0833333
2.75 0.75 0.166667
2.83333 0.75 0.166667
2.75 0.833333 0.166667
2.83333 0.75 0.0833333
2.83333 0.75 0
2.91667 0.833333 0.0833333
2.91667 0.75 0.0833333
2.91667 0.75 0
2.91667 0.833333 0
3 0.833333 0.0833333
2.91667 0.75 0.166667
3 0.75 0.166667
2.91667 0.833333 0.166667
3 0.75 0.0833333
3 0.75 0
0 0.916667 0
0.0833333 1 0.0833333
0.0833333 0.916667 0.0833333
0.0833333 0.916667 0
0.0833333 1 0
0.166667 1 0.0833333
0.0833333 0.916667 0.166667
0.166667 0.916667 0.166667
0 1 0.0833333
0 0.916667 0.0833333
0.0833333 1 0.166667
0 0.916667 0.166667
0.166667 0.916667 0.0833333
0.166667 0.916667 0
0.25 1 0.0833333
0.25 0.916667 0.0833333
0.25 0.916667 0
0.25 1 0
0.333333 1 0.0833333
0.25 0.916667 0.166667
0.333333 0.916667 0.166667
0.25 1 0.166667
0.333333 0.916667 0.0833333
0.333333 0.916667 0
0.416667 1 0.0833333
0.416667 0.916667 0.0833333
0.416667 0.916667 0
0.416667 1 0
0.5 1 0.0833333
0.416667 0.916667 0.166667
0.5 0.916667 0.166667
0.416667 1 0.166667
0.5 0.916667 0.0833333
0.5 0.916667 0
0.583333 1 0.0833333
0.583333 0.916667 0.0833333
0.583333 0.916667 0
0.583333 1 0
0.666667 1 0.0833333
0.583333 0.916667 0.166667
0.666667 0.916667 0.166667
0.583333 1 0.166667
0.666667 0.916667 0.0833333
0.666667 0.916667 0
0.75 1 0.0833333
0.75 0.916667 0.0833333
0.75 0.916667 0
0.75 1 0
0.833333 1 0.0833333
0.75 0.916667 0.166667
0.833333 0.916667 0.166667
0.75 1 0.166667
0.833333 0.916667 0.0833333
0.833333 0.916667 0
0.916667 1 0.0833333
0.916667 0.916667 0.0833333
0.916667 0.916667 0
0.916667 1 0
1 1 0.0833333
0.916667 0.916667 0.166667
1 0.916667 0.166667
0.916667 1 0.166667
1 0.916667 0.0833333
1 0.916667 0
1.08333 1 0.0833333
1.08333 0.916667 0.0833333
1.08333 0.916667 0
1.08333 1 0
1.16667 1 0.0833333
1.08333 0.916667 0.166667
1.16667 0.916667 0.166667
1.08333 1 0.166667
1.16667 0.916667 0.0833333
1.16667 0.916667 0
1.25 1 0.0833333
1.25 0.916667 0.0833333
1.25 0.916667 0
1.25 1 0
1.33333 1 0.0833333
1.25 0.916667 0.166667
1.33333 0.916667 0.166667
1.25 1 0.166667
1.33333 0.916667 0.0833333
1.33333 0.916667 0
1.41667 1 0.0833333
1.41667 0.916667 0.0833333
1.41667 0.916667 0
1.41667 1 0
1.5 1 0.0833333
1.41667 0.916667 0.166667
1.5 0.916667 0.166667
1.41667 1 0.166667
1.5 0.916667 0.0833333
1.5 0.916667 0
1.58333 1 0.0833333
1.58333 0.916667 0.0833333
1.58333 0.916667 0
1.58333 1 0
1.66667 1 0.0833333
1.58333 0.916667 0.166667
1.66667 0.916667 0.166667
1.58333 1 0.166667
1.66667 0.916667 0.0833333
1.66667 0.916667 0
1.75 1 0.0833333
1.75 0.916667 0.0833333
1.75 0.916667 0
1.75 1 0
1.83333 1 0.0833333
1.75 0.916667 0.166667
1.83333 0.916667 0.166667
1.75 1 0.166667
1.83333 0.916667 0.0833333
1.83333 0.916667 0
1.91667 1 0.0833333
1.91667 0.916667 0.0833333
1.91667 0.916667 0
1.91667 1 0
2 1 0.0833333
1.91667 0.916667 0.166667
2 0.916667 0.166667
1.91667 1 0.166667
2 0.916667 0.0833333
2 0.916667 0
2.08333 1 0.0833333
2.08333 0.916667 0.0833333
2.08333 0.916667 0
2.08333 1 0
2.16667 1 0.0833333
2.08333 0.916667 0.166667
2.16667 0.916667 0.166667
2.08333 1 0.166667
2.16667 0.916667 0.0833333
2.16667 0.916667 0
2.25 1 0.0833333
2.25 0.916667 0.0833333
2.25 0.916667 0
2.25 1 0
2.33333 1 0.0833333
2.25 0.916667 0.166667
2.33333 0.916667 0.166667
2.25 1 0.166667
2.33333 0.916667 0.0833333
2.33333 0.916667 0
2.41667 1 0.0833333
2.41667 0.916667 0.0833333
2.41667 0.916667 0
2.41667 1 0
2.5 1 0.0833333
2.41667 0.916667 0.166667
2.5 0.916667 0.166667
2.41667 1 0.166667
2.5 0.916667 0.0833333
2.5 0.916667 0
2.58333 1 0.0833333
2.58333 0.916667 0.0833333
2.58333 0.916667 0
2.58333 1 0
2.66667 1 0.0833333
2.58333 0.916667 0.166667
2.66667 0.916667 0.166667
2.58333 1 0.166667
2.66667 0.916667 0.0833333
2.66667 0.916667 0
2.75 1 0.0833333
2.75 0.916667 0.0833333
2.75 0.916667 0
2.75 1 0
2.83333 1 0.0833333
2.75 0.916667 0.166667
2.83333 0.916667 0.166667
2.75 1 0.166667
2.83333 0.916667 0.0833333
2.83333 0.916667 0
2.91667 1 0.0833333
2.91667 0.916667 0.0833333
2.91667 0.916667 0
2.91667 1 0
3 1 0.0833333
2.91667 0.916667 0.166667
3 0.916667 0.166667
2.91667 1 0.166667
3 0.916667 0.0833333
3 0.916667 0
0.0833333 0.166667 0.25
0.0833333 0.0833333 0.25
0.166667 0.166667 0.25
0.0833333 0.0833333 0.333333
0.166667 0.0833333 0.333333
0.0833333 0 0.333333
0 0 0.25
0.0833333 0 0.25
0 0.166667 0.25
0 0.0833333 0.25
0.0833333 0.166667 0.333333
0 0.0833333 0.333333
0.166667 0 0.25
0.166667 0.0833333 0.25
0.25 0.166667 0.25
0.25 0.0833333 0.25
0.333333 0.166667 0.25
0.25 0.0833333 0.333333
0.333333 0.0833333 0.333333
0.25 0 0.333333
0.25 0 0.25
0.25 0.166667 0.333333
0.333333 0 0.25
0.333333 0.0833333 0.25
0.416667 0.166667 0.25
0.416667 0.0833333 0.25
0.5 0.166667 0.25
0.416667 0.0833333 0.333333
0.5 0.0833333 0.333333
0.416667 0 0.333333
0.416667 0 0.25
0.416667 0.166667 0.333333
0.5 0 0.25
0.5 0.0833333 0.25
0.583333 0.166667 0.25
0.583333 0.0833333 0.25
0.666667 0.166667 0.25
0.583333 0.0833333 0.333333
0.666667 0.0833333 0.333333
0.583333 0 0.333333
0.583333 0 0.25
0.583333 0.166667 0.333333
0.666667 0 0.25
0.666667 0.0833333 0.25
0.75 0.166667 0.25
0.75 0.0833333 0.25
0.833333 0.166667 0.25
0.75 0.0833333 0.333333
0.833333 0.0833333 0.333333
0.75 0 0.333333
0.75 0 0.25
0.75 0.166667 0.333333
0.833333 0 0.25
0.833333 0.0833333 0.25
0.916667 0.166667 0.25
0.916667 0.0833333 0.25
1 0.166667 0.25
0.916667 0.0833333 0.333333
1 0.0833333 0.333333
0.916667 0 0.333333
0.916667 0 0.25
0.916667 0.166667 0.333333
1 0 0.25
1 0.0833333 0.25
1.08333 0.166667 0.25
1.08333 0.0833333 0.25
1.16667 0.166667 0.25
1.08333 0.0833333 0.333333
1.16667 0.0833333 0.333333
1.08333 0 0.333333
1.08333 0 0.25
1.08333 0.166667 0.333333
1.16667 0 0.25
1.16667 0.0833333 0.25
1.25 0.166667 0.25
1.25 0.0833333 0.25
1.33333 0.166667 0.25
1.25 0.0833333 0.333333
1.33333 0.0833333 0.333333
1.25 0 0.333333
1.25 0 0.25
1.25 0.166667 0.333333
1.33333 0 0.25
1.33333 0.0833333 0.25
1.41667 0.166667 0.25
1.41667 0.0833333 0.25
1.5 0.166667 0.25
1.41667 0.0833333 0.333333
1.5 0.0833333 0.333333
1.41667 0 0.333333
1.41667 0 0.25
1.41667 0.166667 0.333333
1.5 0 0.25
1.5 0.0833333 0.25
1.58333 0.166667 0.25
1.58333 0.0833333 0.25
1.66667 0.166667 0.25
1.58333 0.0833333 0.333333
1.66667 0.0833333 0.333333
1.58333 0 0.333333
1.58333 0 0.25
1.58333 0.166667 0.333333
1.66667 0 0.25
1.66667 0.0833333 0.25
1.75 0.166667 0.25
1.75 0.0833333 0.25
1.83333 0.166667 0.25
1.75 0.0833333 0.333333
1.83333 0.0833333 0.333333
1.75 0 0.333333
1.75 0 0.25
1.75 0.166667 0.333333
1.83333 0 0.25
1.83333 0.0833333 0.25
1.91667 0.166667 0.25
1.91667 0.0833333 0.25
2 0.166667 0.25
1.91667 0.0833333 0.333333
2 0.0833333 0.333333
1.91667 0 0.333333
1.91667 0 0.25
1.91667 0.166667 0.333333
2 0 0.25
2 0.0833333 0.25
2.08333 0.166667 0.25
2.08333 0.0833333 0.25
2.16667 0.166667 0.25
2.08333 0.0833333 0.333333
2.16667 0.0833333 0.333333
2.08333 0 0.333333
2.08333 0 0.25
2.08333 0.166667 0.333333
2.16667 0 0.25
2.16667 0.0833333 0.25
2.25 0.166667 0.25
2.25 0.0833333 0.25
2.33333 0.166667 0.25
2.25 0.0833333 0.333333
2.33333 0.0833333 0.333333
2.25 0 0.333333
2.25 0 0.25
2.25 0.166667 0.333333
2.33333 0 0.25
2.33333 0.0833333 0.25
2.41667 0.166667 0.25
2.41667 0.0833333 0.25
2.5 0.166667 0.25
2.41667 0.0833333 0.333333
2.5 0.0833333 0.333333
2.41667 0 0.333333
2.41667 0 0.25
2.41667 0.166667 0.333333
2.5 0 0.25
2.5 0.0833333 0.25
2.58333 0.166667 0.25
2.58333 0.0833333 0.25
2.66667 0.166667 0.25
2.58333 0.0833333 0.333333
2.66667 0.0833333 0.333333
2.58333 0 0.333333
2.58333 0 0.25
2.58333 0.166667 0.333333
2.66667 0 0.25
2.66667 0.0833333 0.25
2.75 0.166667 0.25
2.75 0.0833333 0.25
2.83333 0.166667 0.25
2.75 0.0833333 0.333333
2.83333 0.0833333 0.333333
2.75 0 0.333333
2.75 0 0.25
2.75 0.166667 0.333333
2.83333 0 0.25
2.83333 0.0833333 0.25
2.91667 0.166667 0.25
2.91667 0.0833333 0.25
3 0.166667 0.25
2.91667 0.0833333 0.333333
3 0.0833333 0.333333
2.91667 0 0.333333
2.91667 0 0.25
2.91667 0.166667 0.333333
3 0 0.25
3 0.0833333 0.25
0.0833333 0.333333 0.25
0.0833333 0.25 0.25
0.166667 0.333333 0.25
0.0833333 0.25 0.333333
0.166667 0.25 0.333333
0 0.333333 0.25
0 0.25 0.25
0.0833333 0.333333 0.333333
0 0.25 0.333333
0.166667 0.25 0.25
0.25 0.333333 0.25
0.25 0.25 0.25
0.333333 0.333333 0.25
0.25 0.25 0.333333
0.333333 0.25 0.333333
0.25 0.333333 0.333333
0.333333 0.25 0.25
0.416667 0.333333 0.25
0.416667 0.25 0.25
0.5 0.333333 0.25
0.416667 0.25 0.333333
0.5 0.25 0.333333
0.416667 0.333333 0.333333
0.5 0.25 0.25
0.583333 0.333333 0.25
0.583333 0.25 0.25
0.666667 0.333333 0.25
0.583333 0.25 0.333333
0.666667 0.25 0.333333
0.583333 0.333333 0.333333
0.666667 0.25 0.25
0.75 0.333333 0.25
0.75 0.25 0.25
0.833333 0.333333 0.25
0.75 0.25 0.333333
0.833333 0.25 0.333333
0.75 0.333333 0.333333
0.833333 0.25 0.25
0.916667 0.333333 0.25
0.916667 0.25 0.25
1 0.333333 0.25
0.916667 0.25 0.333333
1 0.25 0.333333
0.916667 0.333333 0.333333
1 0.25 0.25
1.08333 0.333333 0.25
1.08333 0.25 0.25
1.16667 0.333333 0.25
1.08333 0.25 0.333333
1.16667 0.25 0.333333
1.08333 0.333333 0.333333
1.16667 0.25 0.25
1.25 0.333333 0.25
1.25 0.25 0.25
1.33333 0.333333 0.25
1.25 0.25 0.333333
1.33333 0.25 0.333333
1.25 0.333333 0.333333
1.33333 0.25 0.25
1.41667 0.333333 0.25
1.41667 0.25 0.25
1.5 0.333333 0.25
1.41667 0.25 0.333333
1.5 0.25 0.333333
1.41667 0.333333 0.333333
1.5 0.25 0.25
1.58333 0.333333 0.25
1.58333 0.25 0.25
1.66667 0.333333 0.25
1.58333 0.25 0.333333
1.66667 0.25 0.333333
1.58333 0.333333 0.333333
1.66667 0.25 0.25
1.75 0.333333 0.25
1.75 0.25 0.25
1.83333 0.333333 0.25
1.75 0.25 0.333333
1.83333 0.25 0.333333
1.75 0.333333 0.333333
1.83333 0.25 0.25
1.91667 0.333333 0.25
1.91667 0.25 0.25
2 0.333333 0.25
1.91667 0.25 0.333333
2 0.25 0.333333
1.91667 0.333333 0.333333
2 0.25 0.25
2.08333 0.333333 0.25
2.08333 0.25 0.25
2.16667 0.333333 0.25
2.08333 0.25 0.333333
2.16667 0.25 0.333333
2.08333 0.333333 0.333333
2.16667 0.25 0.25
2.25 0.333333 0.25
2.25 0.25 0.25
2.33333 0.333333 0.25
2.25 0.25 0.333333
2.33333 0.25 0.333333
2.25 0.333333 0.333333
2.33333 0.25 0.25
2.41667 0.333333 0.25
2.41667 0.25 0.25
2.5 0.333333 0.25
2.41667 0.25 0.333333
2.5 0.25 0.333333
2.41667 0.333333 0.333333
2.5 0.25 0.25
2.58333 0.333333 0.25
2.58333 0.25 0.25
2.66667 0.333333 0.25
2.58333 0.25 0.333333
2.66667 0.25 0.333333
2.58333 0.333333 0.333333
2.66667 0.25 0.25
2.75 0.333333 0.25
2.75 0.25 0.25
2.83333 0.333333 0.25
2.75 0.25 0.333333
2.83333 0.25 0.333333
2.75 0.333333 0.333333
2.83333 0.25 0.25
2.91667 0.333333 0.25
2.91667 0.25 0.25
3 0.333333 0.25
2.91667 0.25 0.333333
3 0.25 0.333333
2.91667 0.333333 0.333333
3 0.25 0.25
0.0833333 0.5 0.25
0.0833333 0.416667 0.25
0.166667 0.5 0.25
0.0833333 0.416667 0.333333
0.166667 0.416667 0.333333
0 0.5 0.25
0 0.416667 0.25
0.0833333 0.5 0.333333
0 0.416667 0.333333
0.166667 0.416667 0.25
0.25 0.5 0.25
0.25 0.416667 0.25
0.333333 0.5 0.25
0.25 0.416667 0.333333
0.333333 0.416667 0.333333
0.25 0.5 0.333333
0.333333 0.416667 0.25
0.416667 0.5 0.25
0.416667 0.416667 0.25
0.5 0.5 0.25
0.416667 0.416667 0.333333
0.5 0.416667 0.333333
0.416667 0.5 0.333333
0.5 0.416667 0.25
0.583333 0.5 0.25
0.583333 0.416667 0.25
0.666667 0.5 0.25
0.583333 0.416667 0.333333
0.666667 0.416667 0.333333
0.583333 0.5 0.333333
0.666667 0.416667 0.25
0.75 0.5 0.25
0.75 0.416667 0.25
0.833333 0.5 0.25
0.75 0.416667 0.333333
0.833333 0.416667 0.333333
0.75 0.5 0.333333
0.833333 0.416667 0.25
0.916667 0.5 0.25
0.916667 0.416667 0.25
1 0.5 0.25
0.916667 0.416667 0.333333
1 0.416667 0.333333
0.916667 0.5 0.333333
1 0.416667 0.25
1.08333 0.5 0.25
1.08333 0.416667 0.25
1.16667 0.5 0.25
1.08333 0.416667 0.333333
1.16667 0.416667 0.333333
1.08333 0.5 0.333333
1.16667 0.416667 0.25
1.25 0.5 0.25
1.25 0.416667 0.25
1.33333 0.5 0.25
1.25 0.416667 0.333333
1.33333 0.416667 0.333333
1.25 0.5 0.333333
1.33333 0.416667 0.25
1.41667 0.5 0.25
1.41667 0.416667 0.25
1.5 0.5 0.25
1.41667 0.416667 0.333333
1.5 0.416667 0.333333
1.41667 0.5 0.333333
1.5 0.416667 0.25
1.58333 0.5 0.25
1.58333 0.416667 0.25
1.66667 0.5 0.25
1.58333 0.416667 0.333333
1.66667 0.416667 0.333333
1.58333 0.5 0.333333
1.66667 0.416667 0.25
1.75 0.5 0.25
1.75 0.416667 0.25
1.83333 0.5 0.25
1.75 0.416667 0.333333
1.83333 0.416667 0.333333
1.75 0.5 0.333333
1.83333 0.416667 0.25
1.91667 0.5 0.25
1.91667 0.416667 0.25
2 0.5 0.25
1.91667 0.416667 0.333333
2 0.416667 0.333333
1.91667 0.5 0.333333
2 0.416667 0.25
2.08333 0.5 0.25
2.08333 0.416667 0.25
2.16667 0.5 0.25
2.08333 0.416667 0.333333
2.16667 0.416667 0.333333
2.08333 0.5 0.333333
2.16667 0.416667 0.25
2.25 0.5 0.25
2.25 0.416667 0.25
2.33333 0.5 0.25
2.25 0.416667 0.333333
2.33333 0.416667 0.333333
2.25 0.5 0.333333
2.33333 0.416667 0.25
2.41667 0.5 0.25
2.41667 0.416667 0.25
2.5 0.5 0.25
2.41667 0.416667 0.333333
2.5 0.416667 0.333333
2.41667 0.5 0.333333
2.5 0.416667 0.25
2.58333 0.5 0.25
2.58333 0.416667 0.25
2.66667 0.5 0.25
2.58333 0.416667 0.333333
2.66667 0.416667 0.333333
2.58333 0.5 0.333333
2.66667 0.416667 0.25
2.75 0.5 0.25
2.75 0.416667 0.25
2.83333 0.5 0.25
2.75 0.416667 0.333333
2.83333 0.416667 0.333333
2.75 0.5 0.333333
2.83333 0.416667 0.25
2.91667 0.5 0.25
2.91667 0.416667 0.25
3 0.5 0.25
2.91667 0.416667 0.333333
3 0.416667 0.333333
2.91667 0.5 0.333333
3 0.416667 0.25
0.0833333 0.666667 0.25
0.0833333 0.583333 0.25
0.166667 0.666667 0.25
0.0833333 0.583333 0.333333
0.166667 0.583333 0.333333
0 0.666667 0.25
0 0.583333 0.25
0.0833333 0.666667 0.333333
0 0.583333 0.333333
0.166667 0.583333 0.25
0.25 0.666667 0.25
0.25 0.583333 0.25
0.333333 0.666667 0.25
0.25 0.583333 0.333333
0.333333 0.583333 0.333333
0.25 0.666667 0.333333
0.333333 0.583333 0.25
0.416667 0.666667 0.25
0.416667 0.583333 0.25
0.5 0.666667 0.25
0.416667 0.583333 0.333333
0.5 0.583333 0.333333
0.416667 0.666667 0.333333
0.5 0.583333 0.25
0.583333 0.666667 0.25
0.583333 0.583333 0.25
0.666667 0.666667 0.25
0.583333 0.583333 0.333333
0.666667 0.583333 0.333333
0.583333 0.666667 0.333333
0.666667 0.583333 0.25
0.75 0.666667 0.25
0.75 0.583333 0.25
0.833333 0.666667 0.25
0.75 0.583333 0.333333
0.833333 0.583333 0.333333
0.75 0.666667 0.333333
0.833333 0.583333 0.25
0.916667 0.666667 0.25
0.916667 0.583333 0.25
1 0.666667 0.25
0.916667 0.583333 0.333333
1 0.583333 0.333333
0.916667 0.666667 0.333333
1 0.583333 0.25
1.08333 0.666667 0.25
1.08333 0.583333 0.25
1.16667 0.666667 0.25
1.08333 0.583333 0.333333
1.16667 0.583333 0.333333
1.08333 0.666667 0.333333
1.16667 0.583333 0.25
1.25 0.666667 0.25
1.25 0.583333 0.25
1.33333 0.666667 0.25
1.25 0.583333 0.333333
1.33333 0.583333 0.333333
1.25 0.666667 0.333333
1.33333 0.583333 0.25
1.41667 0.666667 0.25
1.41667 0.583333 0.25
1.5 0.666667 0.25
1.41667 0.583333 0.333333
1.5 0.583333 0.333333
1.41667 0.666667 0.333333
1.5 0.583333 0.25
1.58333 0.666667 0.25
1.58333 0.583333 0.25
1.66667 0.666667 0.25
1.58333 0.583333 0.333333
1.66667 0.583333 0.333333
1.58333 0.666667 0.333333
1.66667 0.583333 0.25
1.75 0.666667 0.25
1.75 0.583333 0.25
1.83333 0.666667 0.25
1.75 0.583333 0.333333
1.83333 0.583333 0.333333
1.75 0.666667 0.333333
1.83333 0.583333 0.25
1.91667 0.666667 0.25
1.91667 0.583333 0.25
2 0.666667 0.25
1.91667 0.583333 0.333333
2 0.583333 0.333333
1.91667 0.666667 0.333333
2 0.583333 0.25
2.08333 0.666667 0.25
2.08333 0.583333 0.25
2.16667 0.666667 0.25
2.08333 0.583333 0.333333
2.16667 0.583333 0.333333
2.08333 0.666667 0.333333
2.16667 0.583333 0.25
2.25 0.666667 0.25
2.25 0.583333 0.25
2.33333 0.666667 0.25
2.25 0.583333 0.333333
2.33333 0.583333 0.333333
2.25 0.666667 0.333333
2.33333 0.583333 0.25
2.41667 0.666667 0.25
2.41667 0.583333 0.25
2.5 0.666667 0.25
2.41667 0.583333 0.333333
2.5 0.583333 0.333333
2.41667 0.666667 0.333333
2.5 0.583333 0.25
2.58333 0.666667 0.25
2.58333 0.583333 0.25
2.66667 0.666667 0.25
2.58333 0.583333 0.333333
2.66667 0.583333 0.333333
2.58333 0.666667 0.333333
2.66667 0.583333 0.25
2.75 0.666667 0.25
2.75 0.583333 0.25
2.83333 0.666667 0.25
2.75 0.583333 0.333333
2.83333 0.583333 0.333333
2.75 0.666667 0.333333
2.83333 0.583333 0.25
2.91667 0.666667 0.25
2.91667 0.583333 0.25
3 0.666667 0.25
2.91667 0.583333 0.333333
3 0.583333 0.333333
2.91667 0.666667 0.333333
3 0.583333 0.25
0.0833333 0.833333 0.25
0.0833333 0.75 0.25
0.166667 0.833333 0.25
0.0833333 0.75 0.333333
0.166667 0.75 0.333333
0 0.833333 0.25
0 0.75 0.25
0.0833333 0.833333 0.333333
0 0.75 0.333333
0.166667 0.75 0.25
0.25 0.833333 0.25
0.25 0.75 0.25
0.333333 0.833333 0.25
0.25 0.75 0.333333
0.333333 0.75 0.333333
0.25 0.833333 0.333333
0.333333 0.75 0.25
0.416667 0.833333 0.25
0.416667 0.75 0.25
0.5 0.833333 0.25
0.416667 0.75 0.333333
0.5 0.75 0.333333
0.416667 0.833333 0.333333
0.5 0.75 0.25
0.583333 0.833333 0.25
0.583333 0.75 0.25
0.666667 0.833333 0.25
0.583333 0.75 0.333333
0.666667 0.75 0.333333
0.583333 0.833333 0.333333
0.666667 0.75 0.25
0.75 0.833333 0.25
0.75 0.75 0.25
0.833333 0.833333 0.25
0.75 0.75 0.333333
0.833333 0.75 0.333333
0.75 0.833333 0.333333
0.833333 0.75 0.25
0.916667 0.833333 0.25
0.916667 0.75 0.25
1 0.833333 0.25
0.916667 0.75 0.333333
1 0.75 0.333333
0.916667 0.833333 0.333333
1 0.75 0.25
1.08333 0.833333 0.25
1.08333 0.75 0.25
1.16667 0.833333 0.25
1.08333 0.75 0.333333
1.16667 0.75 0.333333
1.08333 0.833333 0.333333
1.16667 0.75 0.25
1.25 0.833333 0.25
1.25 0.75 0.25
1.33333 0.833333 0.25
1.25 0.75 0.333333
1.33333 0.75 0.333333
1.25 0.833333 0.333333
1.33333 0.75 0.25
1.41667 0.833333 0.25
1.41667 0.75 0.25
1.5 0.833333 0.25
1.41667 0.75 0.333333
1.5 0.75 0.333333
1.41667 0.833333 0.333333
1.5 0.75 0.25
1.58333 0.833333 0.25
1.58333 0.75 0.25
1.66667 0.833333 0.25
1.58333 0.75 0.333333
1.66667 0.75 0.333333
1.58333 0.833333 0.333333
1.66667 0.75 0.25
1.75 0.833333 0.25
1.75 0.75 0.25
1.83333 0.833333 0.25
1.75 0.75 0.333333
1.83333 0.75 0.333333
1.75 0.833333 0.333333
1.83333 0.75 0.25
1.91667 0.833333 0.25
1.91667 0.75 0.25
2 0.833333 0.25
1.91667 0.75 0.333333
2 0.75 0.333333
1.91667 0.833333 0.333333
2 0.75 0.25
2.08333 0.833333 0.25
2.08333 0.75 0.25
2.16667 0.833333 0.25
2.08333 0.75 0.333333
2.16667 0.75 0.333333
2.08333 0.833333 0.333333
2.16667 0.75 0.25
2.25 0.833333 0.25
2.25 0.75 0.25
2.33333 0.833333 0.25
2.25 0.75 0.333333
2.33333 0.75 0.333333
2.25 0.833333 0.333333
2.33333 0.75 0.25
2.41667 0.833333 0.25
2.41667 0.75 0.25
2.5 0.833333 0.25
2.41667 0.75 0.333333
2.5 0.75 0.333333
2.41667 0.833333 0.333333
2.5 0.75 0.25
2.58333 0.833333 0.25
2.58333 0.75 0.25
2.66667 0.833333 0.25
2.58333 0.75 0.333333
2.66667 0.75 0.333333
2.58333 0.833333 0.333333
2.66667 0.75 0.25
2.75 0.833333 0.25
2.75 0.75 0.25
2.83333 0.833333 0.25
2.75 0.75 0.333333
2.83333 0.75 0.333333
2.75 0.833333 0.333333
2.83333 0.75 0.25
2.91667 0.833333 0.25
2.91667 0.75 0.25
3 0.833333 0.25
2.91667 0.75 0.333333
3 0.75 0.333333
2.91667 0.833333 0.333333
3 0.75 0.25
0.0833333 1 0.25
0.0833333 0.916667 0.25
0.166667 1 0.25
0.0833333 0.916667 0.333333
0.166667 0.916667 0.333333
0 1 0.25
0 0.916667 0.25
0.0833333 1 0.333333
0 0.916667 0.333333
0.166667 0.916667 0.25
0.25 1 0.25
0.25 0.916667 0.25
0.333333 1 0.25
0.25 0.916667 0.333333
0.333333 0.916667 0.333333
0.25 1 0.333333
0.333333 0.916667 0.25
0.416667 1 0.25
0.416667 0.916667 0.25
0.5 1 0.25
0.416667 0.916667 0.333333
0.5 0.916667 0.333333
0.416667 1 0.333333
0.5 0.916667 0.25
0.583333 1 0.25
0.583333 0.916667 0.25
0.666667 1 0.25
0.583333 0.916667 0.333333
0.666667 0.916667 0.333333
0.583333 1 0.333333
0.666667 0.916667 0.25
0.75 1 0.25
0.75 0.916667 0.25
0.833333 1 0.25
0.75 0.916667 0.333333
0.833333 0.916667 0.333333
0.75 1 0.333333
0.833333 0.916667 0.25
0.916667 1 0.25
0.916667 0.916667 0.25
1 1 0.25
0.916667 0.916667 0.333333
1 0.916667 0.333333
0.916667 1 0.333333
1 0.916667 0.25
1.08333 1 0.25
1.08333 0.916667 0.25
1.16667 1 0.25
1.08333 0.916667 0.333333
1.16667 0.916667 0.333333
1.08333 1 0.333333
1.16667 0.916667 0.25
1.25 1 0.25
1.25 0.916667 0.25
1.33333 1 0.25
1.25 0.916667 0.333333
1.33333 0.916667 0.333333
1.25 1 0.333333
1.33333 0.916667 0.25
1.41667 1 0.25
1.41667 0.916667 0.25
1.5 1 0.25
1.41667 0.916667 0.333333
1.5 0.916667 0.333333
1.41667 1 0.333333
1.5 0.916667 0.25
1.58333 1 0.25
1.58333 0.916667 0.25
1.66667 1 0.25
1.58333 0.916667 0.333333
1.66667 0.916667 0.333333
1.58333 1 0.333333
1.66667 0.916667 0.25
1.75 1 0.25
1.75 0.916667 0.25
1.83333 1 0.25
1.75 0.916667 0.333333
1.83333 0.916667 0.333333
1.75 1 0.333333
1.83333 0.916667 0.25
1.91667 1 0.25
1.91667 0.916667 0.25
2 1 0.25
1.91667 0.916667 0.333333
2 0.916667 0.333333
1.91667 1 0.333333
2 0.916667 0.25
2.08333 1 0.25
2.08333 0.916667 0.25
2.16667 1 0.25
2.08333 0.916667 0.333333
2.16667 0.916667 0.333333
2.08333 1 0.333333
2.16667 0.916667 0.25
2.25 1 0.25
2.25 0.916667 0.25
2.33333 1 0.25
2.25 0.916667 0.333333
2.33333 0.916667 0.333333
2.25 1 0.333333
2.33333 0.916667 0.25
2.41667 1 0.25
2.41667 0.916667 0.25
2.5 1 0.25
2.41667 0.916667 0.333333
2.5 0.916667 0.333333
2.41667 1 0.333333
2.5 0.916667 0.25
2.58333 1 0.25
2.58333 0.916667 0.25
2.66667 1 0.25
2.58333 0.916667 0.333333
2.66667 0.916667 0.333333
2.58333 1 0.333333
2.66667 0.916667 0.25
2.75 1 0.25
2.75 0.916667 0.25
2.83333 1 0.25
2.75 0.916667 0.333333
2.83333 0.916667 0.333333
2.75 1 0.333333
2.83333 0.916667 0.25
2.91667 1 0.25
2.91667 0.916667 0.25
3 1 0.25
2.91667 0.916667 0.333333
3 0.916667 0.333333
2.91667 1 0.333333
3 0.916667 0.25
0.0833333 0.166667 0.416667
0.0833333 0.0833333 0.416667
0.166667 0.166667 0.416667
0.0833333 0.0833333 0.5
0.166667 0.0833333 0.5
0.0833333 0 0.5
0 0 0.416667
0.0833333 0 0.416667
0 0.166667 0.416667
0 0.0833333 0.416667
0.0833333 0.166667 0.5
0 0.0833333 0.5
0.166667 0 0.416667
0.166667 0.0833333 0.416667
0.25 0.166667 0.416667
0.25 0.0833333 0.416667
0.333333 0.166667 0.416667
0.25 0.0833333 0.5
0.333333 0.0833333 0.5
0.25 0 0.5
0.25 0 0.416667
0.25 0.166667 0.5
0.333333 0 0.416667
0.333333 0.0833333 0.416667
0.416667 0.166667 0.416667
0.416667 0.0833333 0.416667
0.5 0.166667 0.416667
0.416667 0.0833333 0.5
0.5 0.0833333 0.5
0.416667 0 0.5
0.416667 0 0.416667
0.416667 0.166667 0.5
0.5 0 0.416667
0.5 0.0833333 0.416667
0.583333 0.166667 0.416667
0.583333 0.0833333 0.416667
0.666667 0.166667 0.416667
0.583333 0.0833333 0.5
0.666667 0.0833333 0.5
0.583333 0 0.5
0.583333 0 0.416667
0.583333 0.166667 0.5
0.666667 0 0.416667
0.666667 0.0833333 0.416667
0.75 0.166667 0.416667
0.75 0.0833333 0.416667
0.833333 0.166667 0.416667
0.75 0.0833333 0.5
0.833333 0.0833333 0.5
0.75 0 0.5
0.75 0 0.416667
0.75 0.166667 0.5
0.833333 0 0.416667
0.833333 0.0833333 0.416667
0.916667 0.166667 0.416667
0.916667 0.0833333 0.416667
1 0.166667 0.416667
0.916667 0.0833333 0.5
1 0.0833333 0.5
0.916667 0 0.5
0.916667 0 0.416667
0.916667 0.166667 0.5
1 0 0.416667
1 0.0833333 0.416667
1.08333 0.166667 0.416667
1.08333 0.0833333 0.416667
1.16667 0.166667 0.416667
1.08333 0.0833333 0.5
1.16667 0.0833333 0.5
1.08333 0 0.5
1.08333 0 0.416667
1.08333 0.166667 0.5
1.16667 0 0.416667
1.16667 0.0833333 0.416667
1.25 0.166667 0.416667
1.25 0.0833333 0.416667
1.33333 0.166667 0.416667
1.25 0.0833333 0.5
1.33333 0.0833333 0.5
1.25 0 0.5
1.25 0 0.416667
1.25 0.166667 0.5
1.33333 0 0.416667
1.33333 0.0833333 0.416667
1.41667 0.166667 0.416667
1.41667 0.0833333 0.416667
1.5 0.166667 0.416667
1.41667 0.0833333 0.5
1.5 0.0833333 0.5
1.41667 0 0.5
1.41667 0 0.416667
1.41667 0.166667 0.5
1.5 0 0.416667
1.5 0.0833333 0.416667
1.58333 0.166667 0.416667
1.58333 0.0833333 0.416667
1.66667 0.166667 0.416667
1.58333 0.0833333 0.5
1.66667 0.0833333 0.5
1.58333 0 0.5
1.58333 0 0.416667
1.58333 0.166667 0.5
1.66667 0 0.416667
1.66667 0.0833333 0.416667
1.75 0.166667 0.416667
1.75 0.0833333 0.416667
1.83333 0.166667 0.416667
1.75 0.0833333 0.5
1.83333 0.0833333 0.5
1.75 0 0.5
1.75 0 0.416667
1.75 0.166667 0.5
1.83333 0 0.416667
1.83333 0.0833333 0.416667
1.91667 0.166667 0.416667
1.91667 0.0833333 0.416667
2 0.166667 0.416667
1.91667 0.0833333 0.5
2 0.0833333 0.5
1.91667 0 0.5
1.91667 0 0.416667
1.91667 0.166667 0.5
2 0 0.416667
2 0.0833333 0.416667
2.08333 0.166667 0.416667
2.08333 0.0833333 0.416667
2.16667 0.166667 0.416667
2.08333 0.0833333 0.5
2.16667 0.0833333 0.5
2.08333 0 0.5
2.08333 0 0.416667
2.08333 0.166667 0.5
2.16667 0 0.416667
2.16667 0.0833333 0.416667
2.25 0.166667 0.416667
2.25 0.0833333 0.416667
2.33333 0.166667 0.416667
2.25 0.0833333 0.5
2.33333 0.0833333 0.5
2.25 0 0.5
2.25 0 0.416667
2.25 0.166667 0.5
2.33333 0 0.416667
2.33333 0.0833333 0.416667
2.41667 0.166667 0.416667
2.41667 0.0833333 0.416667
2.5 0.166667 0.416667
2.41667 0.0833333 0.5
2.5 0.0833333 0.5
2.41667 0 0.5
2.41667 0 0.416667
2.41667 0.166667 0.5
2.5 0 0.416667
2.5 0.0833333 0.416667
2.58333 0.166667 0.416667
2.58333 0.0833333 0.416667
2.66667 0.166667 0.416667
2.58333 0.0833333 0.5
2.66667 0.0833333 0.5
2.58333 0 0.5
2.58333 0 0.416667
2.58333 0.166667 0.5
2.66667 0 0.416667
2.66667 0.0833333 0.416667
2.75 0.166667 0.416667
2.75 0.0833333 0.416667
2.83333 0.166667 0.416667
2.75 0.0833333 0.5
2.83333 0.0833333 0.5
2.75 0 0.5
2.75 0 0.416667
2.75 0.166667 0.5
2.83333 0 0.416667
2.83333 0.0833333 0.416667
2.91667 0.166667 0.416667
2.91667 0.0833333 0.416667
3 0.166667 0.416667
2.91667 0.0833333 0.5
3 0.0833333 0.5
2.91667 0 0.5
2.91667 0 0.416667
2.91667 0.166667 0.5
3 0 0.416667
3 0.0833333 0.416667
0.0833333 0.333333 0.416667
0.0833333 0.25 0.416667
0.166667 0.333333 0.416667
0.0833333 0.25 0.5
0.166667 0.25 0.5
0 0.333333 0.416667
0 0.25 0.416667
0.0833333 0.333333 0.5
0 0.25 0.5
0.166667 0.25 0.416667
0.25 0.333333 0.416667
0.25 0.25 0.416667
0.333333 0.333333 0.416667
0.25 0.25 0.5
0.333333 0.25 0.5
0.25 0.333333 0.5
0.333333 0.25 0.416667
0.416667 0.333333 0.416667
0.416667 0.25 0.416667
0.5 0.333333 0.416667
0.416667 0.25 0.5
0.5 0.25 0.5
0.416667 0.333333 0.5
0.5 0.25 0.416667
0.583333 0.333333 0.416667
0.583333 0.25 0.416667
0.666667 0.333333 0.416667
0.583333 0.25 0.5
0.666667 0.25 0.5
0.583333 0.333333 0.5
0.666667 0.25 0.416667
0.75 0.333333 0.416667
0.75 0.25 0.416667
0.833333 0.333333 0.416667
0.75 0.25 0.5
0.833333 0.25 0.5
0.75 0.333333 0.5
0.833333 0.25 0.416667
0.916667 0.333333 0.416667
0.916667 0.25 0.416667
1 0.333333 0.416667
0.916667 0.25 0.5
1 0.25 0.5
0.916667 0.333333 0.5
1 0.25 0.416667
1.08333 0.333333 0.416667
1.08333 0.25 0.416667
1.16667 0.333333 0.416667
1.08333 0.25 0.5
1.16667 0.25 0.5
1.08333 0.333333 0.5
1.16667 0.25 0.416667
1.25 0.333333 0.416667
1.25 0.25 0.416667
1.33333 0.333333 0.416667
1.25 0.25 0.5
1.33333 0.25 0.5
1.25 0.333333 0.5
1.33333 0.25 0.416667
1.41667 0.333333 0.416667
1.41667 0.25 0.416667
1.5 0.333333 0.416667
1.41667 0.25 0.5
1.5 0.25 0.5
1.41667 0.333333 0.5
1.5 0.25 0.416667
1.58333 0.333333 0.416667
1.58333 0.25 0.416667
1.66667 0.333333 0.416667
1.58333 0.25 0.5
1.66667 0.25 0.5
1.58333 0.333333 0.5
1.66667 0.25 0.416667
1.75 0.333333 0.416667
1.75 0.25 0.416667
1.83333 0.333333 0.416667
1.75 0.25 0.5
1.83333 0.25 0.5
1.75 0.333333 0.5
1.83333 0.25 0.416667
1.91667 0.333333 0.416667
1.91667 0.25 0.416667
2 0.333333 0.416667
1.91667 0.25 0.5
2 0.25 0.5
1.91667 0.333333 0.5
2 0.25 0.416667
2.08333 0.333333 0.416667
2.08333 0.25 0.416667
2.16667 0.333333 0.416667
2.08333 0.25 0.5
2.16667 0.25 0.5
2.08333 0.333333 0.5
2.16667 0.25 0.416667
2.25 0.333333 0.416667
2.25 0.25 0.416667
2.33333 0.333333 0.416667
2.25 0.25 0.5
2.33333 0.25 0.5
2.25 0.333333 0.5
2.33333 0.25 0.416667
2.41667 0.333333 0.416667
2.41667 0.25 0.416667
2.5 0.333333 0.416667
2.41667 0.25 0.5
2.5 0.25 0.5
2.41667 0.333333 0.5
2.5 0.25 0.416667
2.58333 0.333333 0.416667
2.58333 0.25 0.416667
2.66667 0.333333 0.416667
2.58333 0.25 0.5
2.66667 0.25 0.5
2.58333 0.333333 0.5
2.66667 0.25 0.416667
2.75 0.333333 0.416667
2.75 0.25 0.416667
2.83333 0.333333 0.416667
2.75 0.25 0.5
2.83333 0.25 0.5
2.75 0.333333 0.5
2.83333 0.25 0.416667
2.91667 0.333333 0.416667
2.91667 0.25 0.416667
3 0.333333 0.416667
2.91667 0.25 0.5
3 0.25 0.5
2.91667 0.333333 0.5
3 0.25 0.416667
0.0833333 0.5 0.416667
0.0833333 0.416667 0.416667
0.166667 0.5 0.416667
0.0833333 0.416667 0.5
0.166667 0.416667 0.5
0 0.5 0.416667
0 0.416667 0.416667
0.0833333 0.5 0.5
0 0.416667 0.5
0.166667 0.416667 0.416667
0.25 0.5 0.416667
0.25 0.416667 0.416667
0.333333 0.5 0.416667
0.25 0.416667 0.5
0.333333 0.416667 0.5
0.25 0.5 0.5
0.333333 0.416667 0.416667
0.416667 0.5 0.416667
0.416667 0.416667 0.416667
0.5 0.5 0.416667
0.416667 0.416667 0.5
0.5 0.416667 0.5
0.416667 0.5 0.5
0.5 0.416667 0.416667
0.583333 0.5 0.416667
0.583333 0.416667 0.416667
0.666667 0.5 0.416667
0.583333 0.416667 0.5
0.666667 0.416667 0.5
0.583333 0.5 0.5
0.666667 0.416667 0.416667
0.75 0.5 0.416667
0.75 0.416667 0.416667
0.833333 0.5 0.416667
0.75 0.416667 0.5
0.833333 0.416667 0.5
0.75 0.5 0.5
0.833333 0.416667 0.416667
0.916667 0.5 0.416667
0.916667 0.416667 0.416667
1 0.5 0.416667
0.916667 0.416667 0.5
1 0.416667 0.5
0.916667 0.5 0.5
1 0.416667 0.416667
1.08333 0.5 0.416667
1.08333 0.416667 0.416667
1.16667 0.5 0.416667
1.08333 0.416667 0.5
1.16667 0.416667 0.5
1.08333 0.5 0.5
1.16667 0.416667 0.416667
1.25 0.5 0.416667
1.25 0.416667 0.416667
1.33333 0.5 0.416667
1.25 0.416667 0.5
1.33333 0.416667 0.5
1.25 0.5 0.5
1.33333 0.416667 0.416667
1.41667 0.5 0.416667
1.41667 0.416667 0.416667
1.5 0.5 0.416667
1.41667 0.416667 0.5
1.5 0.416667 0.5
1.41667 0.5 0.5
1.5 0.416667 0.416667
1.58333 0.5 0.416667
1.58333 0.416667 0.416667
1.66667 0.5 0.416667
1.58333 0.416667 0.5
1.66667 0.416667 0.5
1.58333 0.5 0.5
1.66667 0.416667 0.416667
1.75 0.5 0.416667
1.75 0.416667 0.416667
1.83333 0.5 0.416667
1.75 0.416667 0.5
1.83333 0.416667 0.5
1.75 0.5 0.5
1.83333 0.416667 0.416667
1.91667 0.5 0.416667
1.91667 0.416667 0.416667
2 0.5 0.416667
1.91667 0.416667 0.5
2 0.416667 0.5
1.91667 0.5 0.5
2 0.416667 0.416667
2.08333 0.5 0.416667
2.08333 0.416667 0.416667
2.16667 0.5 0.416667
2.08333 0.416667 0.5
2.16667 0.416667 0.5
2.08333 0.5 0.5
2.16667 0.416667 0.416667
2.25 0.5 0.416667
2.25 0.416667 0.416667
2.33333 0.5 0.416667
2.25 0.416667 0.5
2.33333 0.416667 0.5
2.25 0.5 0.5
2.33333 0.416667 0.416667
2.41667 0.5 0.416667
2.41667 0.416667 0.416667
2.5 0.5 0.416667
2.41667 0.416667 0.5
2.5 0.416667 0.5
2.41667 0.5 0.5
2.5 0.416667 0.416667
2.58333 0.5 0.416667
2.58333 0.416667 0.416667
2.66667 0.5 0.416667
2.58333 0.416667 0.5
2.66667 0.416667 0.5
2.58333 0.5 0.5
2.66667 0.416667 0.416667
2.75 0.5 0.416667
2.75 0.416667 0.416667
2.83333 0.5 0.416667
2.75 0.416667 0.5
2.83333 0.416667 0.5
2.75 0.5 0.5
2.83333 0.416667 0.416667
2.91667 0.5 0.416667
2.91667 0.416667 0.416667
3 0.5 0.416667
2.91667 0.416667 0.5
3 0.416667 0.5
2.91667 0.5 0.5
3 0.416667 0.416667
0.0833333 0.666667 0.416667
0.0833333 0.583333 0.416667
0.166667 0.666667 0.416667
0.0833333 0.583333 0.5
0.166667 0.583333 0.5
0 0.666667 0.416667
0 0.583333 0.416667
0.0833333 0.666667 0.5
0 0.583333 0.5
0.166667 0.583333 0.416667
0.25 0.666667 0.416667
0.25 0.583333 0.416667
0.333333 0.666667 0.416667
0.25 0.583333 0.5
0.333333 0.583333 0.5
0.25 0.666667 0.5
0.333333 0.583333 0.416667
0.416667 0.666667 0.416667
0.416667 0.583333 0.416667
0.5 0.666667 0.416667
0.416667 0.583333 0.5
0.5 0.583333 0.5
0.416667 0.666667 0.5
0.5 0.583333 0.416667
0.583333 0.666667 0.416667
0.583333 0.583333 0.416667
0.666667 0.666667 0.416667
0.583333 0.583333 0.5
0.666667 0.583333 0.5
0.583333 0.666667 0.5
0.666667 0.583333 0.416667
0.75 0.666667 0.416667
0.75 0.583333 0.416667
0.833333 0.666667 0.416667
0.75 0.583333 0.5
0.833333 0.583333 0.5
0.75 0.666667 0.5
0.833333 0.583333 0.416667
0.916667 0.666667 0.416667
0.916667 0.583333 0.416667
1 0.666667 0.416667
0.916667 0.583333 0.5
1 0.583333 0.5
0.916667 0.666667 0.5
1 0.583333 0.416667
1.08333 0.666667 0.416667
1.08333 0.583333 0.416667
1.16667 0.666667 0.416667
1.08333 0.583333 0.5
1.16667 0.583333 0.5
1.08333 0.666667 0.5
1.16667 0.583333 0.416667
1.25 0.666667 0.416667
1.25 0.583333 0.416667
1.33333 0.666667 0.416667
1.25 0.583333 0.5
1.33333 0.583333 0.5
1.25 0.666667 0.5
1.33333 0.583333 0.416667
1.41667 0.666667 0.416667
1.41667 0.583333 0.416667
1.5 0.666667 0.416667
1.41667 0.583333 0.5
1.5 0.583333 0.5
1.41667 0.666667 0.5
1.5 0.583333 0.416667
1.58333 0.666667 0.416667
1.58333 0.583333 0.416667
1.66667 0.666667 0.416667
1.58333 0.583333 0.5
1.66667 0.583333 0.5
1.58333 0.666667 0.5
1.66667 0.583333 0.416667
1.75 0.666667 0.416667
1.75 0.583333 0.416667
1.83333 0.666667 0.416667
1.75 0.583333 0.5
1.83333 0.583333 0.5
1.75 0.666667 0.5
1.83333 0.583333 0.416667
1.91667 0.666667 0.416667
1.91667 0.583333 0.416667
2 0.666667 0.416667
1.91667 0.583333 0.5
2 0.583333 0.5
1.91667 0.666667 0.5
2 0.583333 0.416667
2.08333 0.666667 0.416667
2.08333 0.583333 0.416667
2.16667 0.666667 0.416667
2.08333 0.583333 0.5
2.16667 0.583333 0.5
2.08333 0.666667 0.5
2.16667 0.583333 0.416667
2.25 0.666667 0.416667
2.25 0.583333 0.416667
2.33333 0.666667 0.416667
2.25 0.583333 0.5
2.33333 0.583333 0.5
2.25 0.666667 0.5
2.33333 0.583333 0.416667
2.41667 0.666667 0.416667
2.41667 0.583333 0.416667
2.5 0.666667 0.416667
2.41667 0.583333 0.5
2.5 0.583333 0.5
2.41667 0.666667 0.5
2.5 0.583333 0.416667
2.58333 0.666667 0.416667
2.58333 0.583333 0.416667
2.66667 0.666667 0.416667
2.58333 0.583333 0.5
2.66667 0.583333 0.5
2.58333 0.666667 0.5
2.66667 0.583333 0.416667
2.75 0.666667 0.416667
2.75 0.583333 0.416667
2.83333 0.666667 0.416667
2.75 0.583333 0.5
2.83333 0.583333 0.5
2.75 0.666667 0.5
2.83333 0.583333 0.416667
2.91667 0.666667 0.416667
2.91667 0.583333 0.416667
3 0.666667 0.416667
2.91667 0.583333 0.5
3 0.583333 0.5
2.91667 0.666667 0.5
3 0.583333 0.416667
0.0833333 0.833333 0.416667
0.0833333 0.75 0.416667
0.166667 0.833333 0.416667
0.0833333 0.75 0.5
0.166667 0.75 0.5
0 0.833333 0.416667
0 0.75 0.416667
0.0833333 0.833333 0.5
0 0.75 0.5
0.166667 0.75 0.416667
0.25 0.833333 0.416667
0.25 0.75 0.416667
0.333333 0.833333 0.416667
0.25 0.75 0.5
0.333333 0.75 0.5
0.25 0.833333 0.5
0.333333 0.75 0.416667
0.416667 0.833333 0.416667
0.416667 0.75 0.416667
0.5 0.833333 0.416667
0.416667 0.75 0.5
0.5 0.75 0.5
0.416667 0.833333 0.5
0.5 0.75 0.416667
0.583333 0.833333 0.416667
0.583333 0.75 0.416667
0.666667 0.833333 0.416667
0.583333 0.75 0.5
0.666667 0.75 0.5
0.583333 0.833333 0.5
0.666667 0.75 0.416667
0.75 0.833333 0.416667
0.75 0.75 0.416667
0.833333 0.833333 0.416667
0.75 0.75 0.5
0.833333 0.75 0.5
0.75 0.833333 0.5
0.833333 0.75 0.416667
0.916667 0.833333 0.416667
0.916667 0.75 0.416667
1 0.833333 0.416667
0.916667 0.75 0.5
1 0.75 0.5
0.916667 0.833333 0.5
1 0.75 0.416667
1.08333 0.833333 0.416667
1.08333 0.75 0.416667
1.16667 0.833333 0.416667
1.08333 0.75 0.5
1.16667 0.75 0.5
1.08333 0.833333 0.5
1.16667 0.75 0.416667
1.25 0.833333 0.416667
1.25 0.75 0.416667
1.33333 0.833333 0.416667
1.25 0.75 0.5
1.33333 0.75 0.5
1.25 0.833333 0.5
1.33333 0.75 0.416667
1.41667 0.833333 0.416667
1.41667 0.75 0.416667
1.5 0.833333 0.416667
1.41667 0.75 0.5
1.5 0.75 0.5
1.41667 0.833333 0.5
1.5 0.75 0.416667
1.58333 0.833333 0.416667
1.58333 0.75 0.416667
1.66667 0.833333 0.416667
1.58333 0.75 0.5
1.66667 0.75 0.5
1.58333 0.833333 0.5
1.66667 0.75 0.416667
1.75 0.833333 0.416667
1.75 0.75 0.416667
1.83333 0.833333 0.416667
1.75 0.75 0.5
1.83333 0.75 0.5
1.75 0.833333 0.5
1.83333 0.75 0.416667
1.91667 0.833333 0.416667
1.91667 0.75 0.416667
2 0.833333 0.416667
1.91667 0.75 0.5
2 0.75 0.5
1.91667 0.833333 0.5
2 0.75 0.416667
2.08333 0.833333 0.416667
2.08333 0.75 0.416667
2.16667 0.833333 0.416667
2.08333 0.75 0.5
2.16667 0.75 0.5
2.08333 0.833333 0.5
2.16667 0.75 0.416667
2.25 0.833333 0.416667
2.25 0.75 0.416667
2.33333 0.833333 0.416667
2.25 0.75 0.5
2.33333 0.75 0.5
2.25 0.833333 0.5
2.33333 0.75 0.416667
2.41667 0.833333 0.416667
2.41667 0.75 0.416667
2.5 0.833333 0.416667
2.41667 0.75 0.5
2.5 0.75 0.5
2.41667 0.833333 0.5
2.5 0.75 0.416667
2.58333 0.833333 0.416667
2.58333 0.75 0.416667
2.66667 0.833333 0.416667
2.58333 0.75 0.5
2.66667 0.75 0.5
2.58333 0.833333 0.5
2.66667 0.75 0.416667
2.75 0.833333 0.416667
2.75 0.75 0.416667
2.83333 0.833333 0.416667
2.75 0.75 0.5
2.83333 0.75 0.5
2.75 0.833333 0.5
2.83333 0.75 0.416667
2.91667 0.833333 0.416667
2.91667 0.75 0.416667
3 0.833333 0.416667
2.91667 0.75 0.5
3 0.75 0.5
2.91667 0.833333 0.5
3 0.75 0.416667
0.0833333 1 0.416667
0.0833333 0.916667 0.416667
0.166667 1 0.416667
0.0833333 0.916667 0.5
0.166667 0.916667 0.5
0 1 0.416667
0 0.916667 0.416667
0.0833333 1 0.5
0 0.916667 0.5
0.166667 0.916667 0.416667
0.25 1 0.416667
0.25 0.916667 0.416667
0.333333 1 0.416667
0.25 0.916667 0.5
0.333333 0.916667 0.5
0.25 1 0.5
0.333333 0.916667 0.416667
0.416667 1 0.416667
0.416667 0.916667 0.416667
0.5 1 0.416667
0.416667 0.916667 0.5
0.5 0.916667 0.5
0.416667 1 0.5
0.5 0.916667 0.416667
0.583333 1 0.416667
0.583333 0.916667 0.416667
0.666667 1 0.416667
0.583333 0.916667 0.5
0.666667 0.916667 0.5
0.583333 1 0.5
0.666667 0.916667 0.416667
0.75 1 0.416667
0.75 0.916667 0.416667
0.833333 1 0.416667
0.75 0.916667 0.5
0.833333 0.916667 0.5
0.75 1 0.5
0.833333 0.916667 0.416667
0.916667 1 0.416667
0.916667 0.916667 0.416667
1 1 0.416667
0.916667 0.916667 0.5
1 0.916667 0.5
0.916667 1 0.5
1 0.916667 0.416667
1.08333 1 0.416667
1.08333 0.916667 0.416667
1.16667 1 0.416667
1.08333 0.916667 0.5
1.16667 0.916667 0.5
1.08333 1 0.5
1.16667 0.916667 0.416667
1.25 1 0.416667
1.25 0.916667 0.416667
1.33333 1 0.416667
1.25 0.916667 0.5
1.33333 0.916667 0.5
1.25 1 0.5
1.33333 0.916667 0.416667
1.41667 1 0.416667
1.41667 0.916667 0.416667
1.5 1 0.416667
1.41667 0.916667 0.5
1.5 0.916667 0.5
1.41667 1 0.5
1.5 0.916667 0.416667
1.58333 1 0.416667
1.58333 0.916667 0.416667
1.66667 1 0.416667
1.58333 0.916667 0.5
1.66667 0.916667 0.5
1.58333 1 0.5
1.66667 0.916667 0.416667
1.75 1 0.416667
1.75 0.916667 0.416667
1.83333 1 0.416667
1.75 0.916667 0.5
1.83333 0.916667 0.5
1.75 1 0.5
1.83333 0.916667 0.416667
1.91667 1 0.416667
1.91667 0.916667 0.416667
2 1 0.416667
1.91667 0.916667 0.5
2 0.916667 0.5
1.91667 1 0.5
2 0.916667 0.416667
2.08333 1 0.416667
2.08333 0.916667 0.416667
2.16667 1 0.416667
2.08333 0.916667 0.5
2.16667 0.916667 0.5
2.08333 1 0.5
2.16667 0.916667 0.416667
2.25 1 0.416667
2.25 0.916667 0.416667
2.33333 1 0.416667
2.25 0.916667 0.5
2.33333 0.916667 0.5
2.25 1 0.5
2.33333 0.916667 0.416667
2.41667 1 0.416667
2.41667 0.916667 0.416667
2.5 1 0.416667
2.41667 0.916667 0.5
2.5 0.916667 0.5
2.41667 1 0.5
2.5 0.916667 0.416667
2.58333 1 0.416667
2.58333 0.916667 0.416667
2.66667 1 0.416667
2.58333 0.916667 0.5
2.66667 0.916667 0.5
2.58333 1 0.5
2.66667 0.916667 0.416667
2.75 1 0.416667
2.75 0.916667 0.416667
2.83333 1 0.416667
2.75 0.916667 0.5
2.83333 0.916667 0.5
2.75 1 0.5
2.83333 0.916667 0.416667
2.91667 1 0.416667
2.91667 0.916667 0.416667
3 1 0.416667
2.91667 0.916667 0.5
3 0.916667 0.5
2.91667 1 0.5
3 0.916667 0.416667
0.0833333 0.166667 0.583333
0.0833333 0.0833333 0.583333
0.166667 0.166667 0.583333
0.0833333 0.0833333 0.666667
0.166667 0.0833333 0.666667
0.0833333 0 0.666667
0 0 0.583333
0.0833333 0 0.583333
0 0.166667 0.583333
0 0.0833333 0.583333
0.0833333 0.166667 0.666667
0 0.0833333 0.666667
0.166667 0 0.583333
0.166667 0.0833333 0.583333
0.25 0.166667 0.583333
0.25 0.0833333 0.583333
0.333333 0.166667 0.583333
0.25 0.0833333 0.666667
0.333333 0.0833333 0.666667
0.25 0 0.666667
0.25 0 0.583333
0.25 0.166667 0.666667
0.333333 0 0.583333
0.333333 0.0833333 0.583333
0.416667 0.166667 0.583333
0.416667 0.0833333 0.583333
0.5 0.166667 0.583333
0.416667 0.0833333 0.666667
0.5 0.0833333 0.666667
0.416667 0 0.666667
0.416667 0 0.583333
0.416667 0.166667 0.666667
0.5 0 0.583333
0.5 0.0833333 0.583333
0.583333 0.166667 0.583333
0.583333 0.0833333 0.583333
0.666667 0.166667 0.583333
0.583333 0.0833333 0.666667
0.666667 0.0833333 0.666667
0.583333 0 0.666667
0.583333 0 0.583333
0.583333 0.166667 0.666667
0.666667 0 0.583333
0.666667 0.0833333 0.583333
0.75 0.166667 0.583333
0.75 0.0833333 0.583333
0.833333 0.166667 0.583333
0.75 0.0833333 0.666667
0.833333 0.0833333 0.666667
0.75 0 0.666667
0.75 0 0.583333
0.75 0.166667 0.666667
0.833333 0 0.583333
0.833333 0.0833333 0.583333
0.916667 0.166667 0.583333
0.916667 0.0833333 0.583333
1 0.166667 0.583333
0.916667 0.0833333 0.666667
1 0.0833333 0.666667
0.916667 0 0.666667
0.916667 0 0.583333
0.916667 0.166667 0.666667
1 0 0.583333
1 0.0833333 0.583333
1.08333 0.166667 0.583333
1.08333 0.0833333 0.583333
1.16667 0.166667 0.583333
1.08333 0.0833333 0.666667
1.16667 0.0833333 0.666667
1.08333 0 0.666667
1.08333 0 0.583333
1.08333 0.166667 0.666667
1.16667 0 0.583333
1.16667 0.0833333 0.583333
1.25 0.166667 0.583333
1.25 0.0833333 0.583333
1.33333 0.166667 0.583333
1.25 0.0833333 0.666667
1.33333 0.0833333 0.666667
1.25 0 0.666667
1.25 0 0.583333
1.25 0.166667 0.666667
1.33333 0 0.583333
1.33333 0.0833333 0.583333
1.41667 0.166667 0.583333
1.41667 0.0833333 0.583333
1.5 0.166667 0.583333
1.41667 0.0833333 0.666667
1.5 0.0833333 0.666667
1.41667 0 0.666667
1.41667 0 0.583333
1.41667 0.166667 0.666667
1.5 0 0.583333
1.5 0.0833333 0.583333
1.58333 0.166667 0.583333
1.58333 0.0833333 0.583333
1.66667 0.166667 0.583333
1.58333 0.0833333 0.666667
1.66667 0.0833333 0.666667
1.58333 0 0.666667
1.58333 0 0.583333
1.58333 0.166667 0.666667
1.66667 0 0.583333
1.66667 0.0833333 0.583333
1.75 0.166667 0.583333
1.75 0.0833333 0.583333
1.83333 0.166667 0.583333
1.75 0.0833333 0.666667
1.83333 0.0833333 0.666667
1.75 0 0.666667
1.75 0 0.583333
1.75 0.166667 0.666667
1.83333 0 0.583333
1.83333 0.0833333 0.583333
1.91667 0.166667 0.583333
1.91667 0.0833333 0.583333
2 0.166667 0.583333
1.91667 0.0833333 0.666667
2 0.0833333 0.666667
1.91667 0 0.666667
1.91667 0 0.583333
1.91667 0.166667 0.666667
2 0 0.583333
2 0.0833333 0.583333
2.08333 0.166667 0.583333
2.08333 0.0833333 0.583333
2.16667 0.166667 0.583333
2.08333 0.0833333 0.666667
2.16667 0.0833333 0.666667
2.08333 0 0.666667
2.08333 0 0.583333
2.08333 0.166667 0.666667
2.16667 0 0.583333
2.16667 0.0833333 0.583333
2.25 0.166667 0.583333
2.25 0.0833333 0.583333
2.33333 0.166667 0.583333
2.25 0.0833333 0.666667
2.33333 0.0833333 0.666667
2.25 0 0.666667
2.25 0 0.583333
2.25 0.166667 0.666667
2.33333 0 0.583333
2.33333 0.0833333 0.583333
2.41667 0.166667 0.583333
2.41667 0.0833333 0.583333
2.5 0.166667 0.583333
2.41667 0.0833333 0.666667
2.5 0.0833333 0.666667
2.41667 0 0.666667
2.41667 0 0.583333
2.41667 0.166667 0.666667
2.5 0 0.583333
2.5 0.0833333 0.583333
2.58333 0.166667 0.583333
2.58333 0.0833333 0.583333
2.66667 0.166667 0.583333
2.58333 0.0833333 0.666667
2.66667 0.0833333 0.666667
2.58333 0 0.666667
2.58333 0 0.583333
2.58333 0.166667 0.666667
2.66667 0 0.583333
2.66667 0.0833333 0.583333
2.75 0.166667 0.583333
2.75 0.0833333 0.583333
2.83333 0.166667 0.583333
2.75 0.0833333 0.666667
2.83333 0.0833333 0.666667
2.75 0 0.666667
2.75 0 0.583333
2.75 0.166667 0.666667
2.83333 0 0.583333
2.83333 0.0833333 0.583333
2.91667 0.166667 0.583333
2.91667 0.0833333 0.583333
3 0.166667 0.583333
2.91667 0.0833333 0.666667
3 0.0833333 0.666667
2.91667 0 0.666667
2.91667 0 0.583333
2.91667 0.166667 0.666667
3 0 0.583333
3 0.0833333 0.583333
0.0833333 0.333333 0.583333
0.0833333 0.25 0.583333
0.166667 0.333333 0.583333
0.0833333 0.25 0.666667
0.166667 0.25 0.666667
0 0.333333 0.583333
0 0.25 0.583333
0.0833333 0.333333 0.666667
0 0.25 0.666667
0.166667 0.25 0.583333
0.25 0.333333 0.583333
0.25 0.25 0.583333
0.333333 0.333333 0.583333
0.25 0.25 0.666667
0.333333 0.25 0.666667
0.25 0.333333 0.666667
0.333333 0.25 0.583333
0.416667 0.333333 0.583333
0.416667 0.25 0.583333
0.5 0.333333 0.583333
0.416667 0.25 0.666667
0.5 0.25 0.666667
0.416667 0.333333 0.666667
0.5 0.25 0.583333
0.583333 0.333333 0.583333
0.583333 0.25 0.583333
0.666667 0.333333 0.583333
0.583333 0.25 0.666667
0.666667 0.25 0.666667
0.583333 0.333333 0.666667
0.666667 0.25 0.583333
0.75 0.333333 0.583333
0.75 0.25 0.583333
0.833333 0.333333 0.583333
0.75 0.25 0.666667
0.833333 0.25 0.666667
0.75 0.333333 0.666667
0.833333 0.25 0.583333
0.916667 0.333333 0.583333
0.916667 0.25 0.583333
1 0.333333 0.583333
0.916667 0.25 0.666667
1 0.25 0.666667
0.916667 0.333333 0.666667
1 0.25 0.583333
1.08333 0.333333 0.583333
1.08333 0.25 0.583333
1.16667 0.333333 0.583333
1.08333 0.25 0.666667
1.16667 0.25 0.666667
1.08333 0.333333 0.666667
1.16667 0.25 0.583333
1.25 0.333333 0.583333
1.25 0.25 0.583333
1.33333 0.333333 0.583333
1.25 0.25 0.666667
1.33333 0.25 0.666667
1.25 0.333333 0.666667
1.33333 0.25 0.583333
1.41667 0.333333 0.583333
1.41667 0.25 0.583333
1.5 0.333333 0.583333
1.41667 0.25 0.666667
1.5 0.25 0.666667
1.41667 0.333333 0.666667
1.5 0.25 0.583333
1.58333 0.333333 0.583333
1.58333 0.25 0.583333
1.66667 0.333333 0.583333
1.58333 0.25 0.666667
1.66667 0.25 0.666667
1.58333 0.333333 0.666667
1.66667 0.25 0.583333
1.75 0.333333 0.583333
1.75 0.25 0.583333
1.83333 0.333333 0.583333
1.75 0.25 0.666667
1.83333 0.25 0.666667
1.75 0.333333 0.666667
1.83333 0.25 0.583333
1.91667 0.333333 0.583333
1.91667 0.25 0.583333
2 0.333333 0.583333
1.91667 0.25 0.666667
2 0.25 0.666667
1.91667 0.333333 0.666667
2 0.25 0.583333
2.08333 0.333333 0.583333
2.08333 0.25 0.583333
2.16667 0.333333 0.583333
2.08333 0.25 0.666667
2.16667 0.25 0.666667
2.08333 0.333333 0.666667
2.16667 0.25 0.583333
2.25 0.333333 0.583333
2.25 0.25 0.583333
2.33333 0.333333 0.583333
2.25 0.25 0.666667
2.33333 0.25 0.666667
2.25 0.333333 0.666667
2.33333 0.25 0.583333
2.41667 0.333333 0.583333
2.41667 0.25 0.583333
2.5 0.333333 0.583333
2.41667 0.25 0.666667
2.5 0.25 0.666667
2.41667 0.333333 0.666667
2.5 0.25 0.583333
2.58333 0.333333 0.583333
2.58333 0.25 0.583333
2.66667 0.333333 0.583333
2.58333 0.25 0.666667
2.66667 0.25 0.666667
2.58333 0.333333 0.666667
2.66667 0.25 0.583333
2.75 0.333333 0.583333
2.75 0.25 0.583333
2.83333 0.333333 0.583333
2.75 0.25 0.666667
2.83333 0.25 0.666667
2.75 0.333333 0.666667
2.83333 0.25 0.583333
2.91667 0.333333 0.583333
2.91667 0.25 0.583333
3 0.333333 0.583333
2.91667 0.25 0.666667
3 0.25 0.666667
2.91667 0.333333 0.666667
3 0.25 0.583333
0.0833333 0.5 0.583333
0.0833333 0.416667 0.583333
0.166667 0.5 0.583333
0.0833333 0.416667 0.666667
0.166667 0.416667 0.666667
0 0.5 0.583333
0 0.416667 0.583333
0.0833333 0.5 0.666667
0 0.416667 0.666667
0.166667 0.416667 0.583333
0.25 0.5 0.583333
0.25 0.416667 0.583333
0.333333 0.5 0.583333
0.25 0.416667 0.666667
0.333333 0.416667 0.666667
0.25 0.5 0.666667
0.333333 0.416667 0.583333
0.416667 0.5 0.583333
0.416667 0.416667 0.583333
0.5 0.5 0.583333
0.416667 0.416667 0.666667
0.5 0.416667 0.666667
0.416667 0.5 0.666667
0.5 0.416667 0.583333
0.583333 0.5 0.583333
0.583333 0.416667 0.583333
0.666667 0.5 0.583333
0.583333 0.416667 0.666667
0.666667 0.416667 0.666667
0.583333 0.5 0.666667
0.666667 0.416667 0.583333
0.75 0.5 0.583333
0.75 0.416667 0.583333
0.833333 0.5 0.583333
0.75 0.416667 0.666667
0.833333 0.416667 0.666667
0.75 0.5 0.666667
0.833333 0.416667 0.583333
0.916667 0.5 0.583333
0.916667 0.416667 0.583333
1 0.5 0.583333
0.916667 0.416667 0.666667
1 0.416667 0.666667
0.916667 0.5 0.666667
1 0.416667 0.583333
1.08333 0.5 0.583333
1.08333 0.416667 0.583333
1.16667 0.5 0.583333
1.08333 0.416667 0.666667
1.16667 0.416667 0.666667
1.08333 0.5 0.666667
1.16667 0.416667 0.583333
1.25 0.5 0.583333
1.25 0.416667 0.583333
1.33333 0.5 0.583333
1.25 0.416667 0.666667
1.33333 0.416667 0.666667
1.25 0.5 0.666667
1.33333 0.416667 0.583333
1.41667 0.5 0.583333
1.41667 0.416667 0.583333
1.5 0.5 0.583333
1.41667 0.416667 0.666667
1.5 0.416667 0.666667
1.41667 0.5 0.666667
1.5 0.416667 0.583333
1.58333 0.5 0.583333
1.58333 0.416667 0.583333
1.66667 0.5 0.583333
1.58333 0.416667 0.666667
1.66667 0.416667 0.666667
1.58333 0.5 0.666667
1.66667 0.416667 0.583333
1.75 0.5 0.583333
1.75 0.416667 0.583333
1.83333 0.5 0.583333
1.75 0.416667 0.666667
1.83333 0.416667 0.666667
1.75 0.5 0.666667
1.83333 0.416667 0.583333
1.91667 0.5 0.583333
1.91667 0.416667 0.583333
2 0.5 0.583333
1.91667 0.416667 0.666667
2 0.416667 0.666667
1.91667 0.5 0.666667
2 0.416667 0.583333
2.08333 0.5 0.583333
2.08333 0.416667 0.583333
2.16667 0.5 0.583333
2.08333 0.416667 0.666667
2.16667 0.416667 0.666667
2.08333 0.5 0.666667
2.16667 0.416667 0.583333
2.25 0.5 0.583333
2.25 0.416667 0.583333
2.33333 0.5 0.583333
2.25 0.416667 0.666667
2.33333 0.416667 0.666667
2.25 0.5 0.666667
2.33333 0.416667 0.583333
2.41667 0.5 0.583333
2.41667 0.416667 0.583333
2.5 0.5 0.583333
2.41667 0.416667 0.666667
2.5 0.416667 0.666667
2.41667 0.5 0.666667
2.5 0.416667 0.583333
2.58333 0.5 0.583333
2.58333 0.416667 0.583333
2.66667 0.5 0.583333
2.58333 0.416667 0.666667
2.66667 0.416667 0.666667
2.58333 0.5 0.666667
2.66667 0.416667 0.583333
2.75 0.5 0.583333
2.75 0.416667 0.583333
2.83333 0.5 0.583333
2.75 0.416667 0.666667
2.83333 0.416667 0.666667
2.75 0.5 0.666667
2.83333 0.416667 0.583333
2.91667 0.5 0.583333
2.91667 0.416667 0.583333
3 0.5 0.583333
2.91667 0.416667 0.666667
3 0.416667 0.666667
2.91667 0.5 0.666667
3 0.416667 0.583333
0.0833333 0.666667 0.583333
0.0833333 0.583333 0.583333
0.166667 0.666667 0.583333
0.0833333 0.583333 0.666667
0.166667 0.583333 0.666667
0 0.666667 0.583333
0 0.583333 0.583333
0.0833333 0.666667 0.666667
0 0.583333 0.666667
0.166667 0.583333 0.583333
0.25 0.666667 0.583333
0.25 0.583333 0.583333
0.333333 0.666667 0.583333
0.25 0.583333 0.666667
0.333333 0.583333 0.666667
0.25 0.666667 0.666667
0.333333 0.583333 0.583333
0.416667 0.666667 0.583333
0.416667 0.583333 0.583333
0.5 0.666667 0.583333
0.416667 0.583333 0.666667
0.5 0.583333 0.666667
0.416667 0.666667 0.666667
0.5 0.583333 0.583333
0.583333 0.666667 0.583333
0.583333 0.583333 0.583333
0.666667 0.666667 0.583333
0.583333 0.583333 0.666667
0.666667 0.583333 0.666667
0.583333 0.666667 0.666667
0.666667 0.583333 0.583333
0.75 0.666667 0.583333
0.75 0.583333 0.583333
0.833333 0.666667 0.583333
0.75 0.583333 0.666667
0.833333 0.583333 0.666667
0.75 0.666667 0.666667
0.833333 0.583333 0.583333
0.916667 0.666667 0.583333
0.916667 0.583333 0.583333
1 0.666667 0.583333
0.916667 0.583333 0.666667
1 0.583333 0.666667
0.916667 0.666667 0.666667
1 0.583333 0.583333
1.08333 0.666667 0.583333
1.08333 0.583333 0.583333
1.16667 0.666667 0.583333
1.08333 0.583333 0.666667
1.16667 0.583333 0.666667
1.08333 0.666667 0.666667
1.16667 0.583333 0.583333
1.25 0.666667 0.583333
1.25 0.583333 0.583333
1.33333 0.666667 0.583333
1.25 0.583333 0.666667
1.33333 0.583333 0.666667
1.25 0.666667 0.666667
1.33333 0.583333 0.583333
1.41667 0.666667 0.583333
1.41667 0.583333 0.583333
1.5 0.666667 0.583333
1.41667 0.583333 0.666667
1.5 0.583333 0.666667
1.41667 0.666667 0.666667
1.5 0.583333 0.583333
1.58333 0.666667 0.583333
1.58333 0.583333 0.583333
1.66667 0.666667 0.583333
1.58333 0.583333 0.666667
1.66667 0.583333 0.666667
1.58333 0.666667 0.666667
1.66667 0.583333 0.583333
1.75 0.666667 0.583333
1.75 0.583333 0.583333
1.83333 0.666667 0.583333
1.75 0.583333 0.666667
1.83333 0.583333 0.666667
1.75 0.666667 0.666667
1.83333 0.583333 0.583333
1.91667 0.666667 0.583333
1.91667 0.583333 0.583333
2 0.666667 0.583333
1.91667 0.583333 0.666667
2 0.583333 0.666667
1.91667 0.666667 0.666667
2 0.583333 0.583333
2.08333 0.666667 0.583333
2.08333 0.583333 0.583333
2.16667 0.666667 0.583333
2.08333 0.583333 0.666667
2.16667 0.583333 0.666667
2.08333 0.666667 0.666667
2.16667 0.583333 0.583333
2.25 0.666667 0.583333
2.25 0.583333 0.583333
2.33333 0.666667 0.583333
2.25 0.583333 0.666667
2.33333 0.583333 0.666667
2.25 0.666667 0.666667
2.33333 0.583333 0.583333
2.41667 0.666667 0.583333
2.41667 0.583333 0.583333
2.5 0.666667 0.583333
2.41667 0.583333 0.666667
2.5 0.583333 0.666667
2.41667 0.666667 0.666667
2.5 0.583333 0.583333
2.58333 0.666667 0.583333
2.58333 0.583333 0.583333
2.66667 0.666667 0.583333
2.58333 0.583333 0.666667
2.66667 0.583333 0.666667
2.58333 0.666667 0.666667
2.66667 0.583333 0.583333
2.75 0.666667 0.583333
2.75 0.583333 0.583333
2.83333 0.666667 0.583333
2.75 0.583333 0.666667
2.83333 0.583333 0.666667
2.75 0.666667 0.666667
2.83333 0.583333 0.583333
2.91667 0.666667 0.583333
2.91667 0.583333 0.583333
3 0.666667 0.583333
2.91667 0.583333 0.666667
3 0.583333 0.666667
2.91667 0.666667 0.666667
3 0.583333 0.583333
0.0833333 0.833333 0.583333
0.0833333 0.75 0.583333
0.166667 0.833333 0.583333
0.0833333 0.75 0.666667
0.166667 0.75 0.666667
0 0.833333 0.583333
0 0.75 0.583333
0.0833333 0.833333 0.666667
0 0.75 0.666667
0.166667 0.75 0.583333
0.25 0.833333 0.583333
0.25 0.75 0.583333
0.333333 0.833333 0.583333
0.25 0.75 0.666667
0.333333 0.75 0.666667
0.25 0.833333 0.666667
0.333333 0.75 0.583333
0.416667 0.833333 0.583333
0.416667 0.75 0.583333
0.5 0.833333 0.583333
0.416667 0.75 0.666667
0.5 0.75 0.666667
0.416667 0.833333 0.666667
0.5 0.75 0.583333
0.583333 0.833333 0.583333
0.583333 0.75 0.583333
0.666667 0.833333 0.583333
0.583333 0.75 0.666667
0.666667 0.75 0.666667
0.583333 0.833333 0.666667
0.666667 0.75 0.583333
0.75 0.833333 0.583333
0.75 0.75 0.583333
0.833333 0.833333 0.583333
0.75 0.75 0.666667
0.833333 0.75 0.666667
0.75 0.833333 0.666667
0.833333 0.75 0.583333
0.916667 0.833333 0.583333
0.916667 0.75 0.583333
1 0.833333 0.583333
0.916667 0.75 0.666667
1 0.75 0.666667
0.916667 0.833333 0.666667
1 0.75 0.583333
1.08333 0.833333 0.583333
1.08333 0.75 0.583333
1.16667 0.833333 0.583333
1.08333 0.75 0.666667
1.16667 0.75 0.666667
1.08333 0.833333 0.666667
1.16667 0.75 0.583333
1.25 0.833333 0.583333
1.25 0.75 0.583333
1.33333 0.833333 0.583333
1.25 0.75 0.666667
1.33333 0.75 0.666667
1.25 0.833333 0.666667
1.33333 0.75 0.583333
1.41667 0.833333 0.583333
1.41667 0.75 0.583333
1.5 0.833333 0.583333
1.41667 0.75 0.666667
1.5 0.75 0.666667
1.41667 0.833333 0.666667
1.5 0.75 0.583333
1.58333 0.833333 0.583333
1.58333 0.75 0.583333
1.66667 0.833333 0.583333
1.58333 0.75 0.666667
1.66667 0.75 0.666667
1.58333 0.833333 0.666667
1.66667 0.75 0.583333
1.75 0.833333 0.583333
1.75 0.75 0.583333
1.83333 0.833333 0.583333
1.75 0.75 0.666667
1.83333 0.75 0.666667
1.75 0.833333 0.666667
1.83333 0.75 0.583333
1.91667 0.833333 0.583333
1.91667 0.75 0.583333
2 0.833333 0.583333
1.91667 0.75 0.666667
2 0.75 0.666667
1.91667 0.833333 0.666667
2 0.75 0.583333
2.08333 0.833333 0.583333
2.08333 0.75 0.583333
2.16667 0.833333 0.583333
2.08333 0.75 0.666667
2.16667 0.75 0.666667
2.08333 0.833333 0.666667
2.16667 0.75 0.583333
2.25 0.833333 0.583333
2.25 0.75 0.583333
2.33333 0.833333 0.583333
2.25 0.75 0.666667
2.33333 0.75 0.666667
2.25 0.833333 0.666667
2.33333 0.75 0.583333
2.41667 0.833333 0.583333
2.41667 0.75 0.583333
2.5 0.833333 0.583333
2.41667 0.75 0.666667
2.5 0.75 0.666667
2.41667 0.833333 0.666667
2.5 0.75 0.583333
2.58333 0.833333 0.583333
2.58333 0.75 0.583333
2.66667 0.833333 0.583333
2.58333 0.75 0.666667
2.66667 0.75 0.666667
2.58333 0.833333 0.666667
2.66667 0.75 0.583333
2.75 0.833333 0.583333
2.75 0.75 0.583333
2.83333 0.833333 0.583333
2.75 0.75 0.666667
2.83333 0.75 0.666667
2.75 0.833333 0.666667
2.83333 0.75 0.583333
2.91667 0.833333 0.583333
2.91667 0.75 0.583333
3 0.833333 0.583333
2.91667 0.75 0.666667
3 0.75 0.666667
2.91667 0.833333 0.666667
3 0.75 0.583333
0.0833333 1 0.583333
0.0833333 0.916667 0.583333
0.166667 1 0.583333
0.0833333 0.916667 0.666667
0.166667 0.916667 0.666667
0 1 0.583333
0 0.916667 0.583333
0.0833333 1 0.666667
0 0.916667 0.666667
0.166667 0.916667 0.583333
0.25 1 0.583333
0.25 0.916667 0.583333
0.333333 1 0.583333
0.25 0.916667 0.666667
0.333333 0.916667 0.666667
0.25 1 0.666667
0.333333 0.916667 0.583333
0.416667 1 0.583333
0.416667 0.916667 0.583333
0.5 1 0.583333
0.416667 0.916667 0.666667
0.5 0.916667 0.666667
0.416667 1 0.666667
0.5 0.916667 0.583333
0.583333 1 0.583333
0.583333 0.916667 0.583333
0.666667 1 0.583333
0.583333 0.916667 0.666667
0.666667 0.916667 0.666667
0.583333 1 0.666667
0.666667 0.916667 0.583333
0.75 1 0.583333
0.75 0.916667 0.583333
0.833333 1 0.583333
0.75 0.916667 0.666667
0.833333 0.916667 0.666667
0.75 1 0.666667
0.833333 0.916667 0.583333
0.916667 1 0.583333
0.916667 0.916667 0.583333
1 1 0.583333
0.916667 0.916667 0.666667
1 0.916667 0.666667
0.916667 1 0.666667
1 0.916667 0.583333
1.08333 1 0.583333
1.08333 0.916667 0.583333
1.16667 1 0.583333
1.08333 0.916667 0.666667
1.16667 0.916667 0.666667
1.08333 1 0.666667
1.16667 0.916667 0.583333
1.25 1 0.583333
1.25 0.916667 0.583333
1.33333 1 0.583333
1.25 0.916667 0.666667
1.33333 0.916667 0.666667
1.25 1 0.666667
1.33333 0.916667 0.583333
1.41667 1 0.583333
1.41667 0.916667 0.583333
1.5 1 0.583333
1.41667 0.916667 0.666667
1.5 0.916667 0.666667
1.41667 1 0.666667
1.5 0.916667 0.583333
1.58333 1 0.583333
1.58333 0.916667 0.583333
1.66667 1 0.583333
1.58333 0.916667 0.666667
1.66667 0.916667 0.666667
1.58333 1 0.666667
1.66667 0.916667 0.583333
1.75 1 0.583333
1.75 0.916667 0.583333
1.83333 1 0.583333
1.75 0.916667 0.666667
1.83333 0.916667 0.666667
1.75 1 0.666667
1.83333 0.916667 0.583333
1.91667 1 0.583333
1.91667 0.916667 0.583333
2 1 0.583333
1.91667 0.916667 0.666667
2 0.916667 0.666667
1.91667 1 0.666667
2 0.916667 0.583333
2.08333 1 0.583333
2.08333 0.916667 0.583333
2.16667 1 0.583333
2.08333 0.916667 0.666667
2.16667 0.916667 0.666667
2.08333 1 0.666667
2.16667 0.916667 0.583333
2.25 1 0.583333
2.25 0.916667 0.583333
2.33333 1 0.583333
2.25 0.916667 0.666667
2.33333 0.916667 0.666667
2.25 1 0.666667
2.33333 0.916667 0.583333
2.41667 1 0.583333
2.41667 0.916667 0.583333
2.5 1 0.583333
2.41667 0.916667 0.666667
2.5 0.916667 0.666667
2.41667 1 0.666667
2.5 0.916667 0.583333
2.58333 1 0.583333
2.58333 0.916667 0.583333
2.66667 1 0.583333
2.58333 0.916667 0.666667
2.66667 0.916667 0.666667
2.58333 1 0.666667
2.66667 0.916667 0.583333
2.75 1 0.583333
2.75 0.916667 0.583333
2.83333 1 0.583333
2.75 0.916667 0.666667
2.83333 0.916667 0.666667
2.75 1 0.666667
2.83333 0.916667 0.583333
2.91667 1 0.583333
2.91667 0.916667 0.583333
3 1 0.583333
2.91667 0.916667 0.666667
3 0.916667 0.666667
2.91667 1 0.666667
3 0.916667 0.583333
0.0833333 0.166667 0.75
0.0833333 0.0833333 0.75
0.166667 0.166667 0.75
0.0833333 0.0833333 0.833333
0.166667 0.0833333 0.833333
0.0833333 0 0.833333
0 0 0.75
0.0833333 0 0.75
0 0.166667 0.75
0 0.0833333 0.75
0.0833333 0.166667 0.833333
0 0.0833333 0.833333
0.166667 0 0.75
0.166667 0.0833333 0.75
0.25 0.166667 0.75
0.25 0.0833333 0.75
0.333333 0.166667 0.75
0.25 0.0833333 0.833333
0.333333 0.0833333 0.833333
0.25 0 0.833333
0.25 0 0.75
0.25 0.166667 0.833333
0.333333 0 0.75
0.333333 0.0833333 0.75
0.416667 0.166667 0.75
0.416667 0.0833333 0.75
0.5 0.166667 0.75
0.416667 0.0833333 0.833333
0.5 0.0833333 0.833333
0.416667 0 0.833333
0.416667 0 0.75
0.416667 0.166667 0.833333
0.5 0 0.75
0.5 0.0833333 0.75
0.583333 0.166667 0.75
0.583333 0.0833333 0.75
0.666667 0.166667 0.75
0.583333 0.0833333 0.833333
0.666667 0.0833333 0.833333
0.583333 0 0.833333
0.583333 0 0.75
0.583333 0.166667 0.833333
0.666667 0 0.75
0.666667 0.0833333 0.75
0.75 0.166667 0.75
0.75 0.0833333 0.75
0.833333 0.166667 0.75
0.75 0.0833333 0.833333
0.833333 0.0833333 0.833333
0.75 0 0.833333
0.75 0 0.75
0.75 0.166667 0.833333
0.833333 0 0.75
0.833333 0.0833333 0.75
0.916667 0.166667 0.75
0.916667 0.0833333 0.75
1 0.166667 0.75
0.916667 0.0833333 0.833333
1 0.0833333 0.833333
0.916667 0 0.833333
0.916667 0 0.75
0.916667 0.166667 0.833333
1 0 0.75
1 0.0833333 0.75
1.08333 0.166667 0.75
1.08333 0.0833333 0.75
1.16667 0.166667 0.75
1.08333 0.0833333 0.833333
1.16667 0.0833333 0.833333
1.08333 0 0.833333
1.08333 0 0.75
1.08333 0.166667 0.833333
1.16667 0 0.75
1.16667 0.0833333 0.75
1.25 0.166667 0.75
1.25 0.0833333 0.75
1.33333 0.166667 0.75
1.25 0.0833333 0.833333
1.33333 0.0833333 0.833333
1.25 0 0.833333
1.25 0 0.75
1.25 0.166667 0.833333
1.33333 0 0.75
1.33333 0.0833333 0.75
1.41667 0.166667 0.75
1.41667 0.0833333 0.75
1.5 0.166667 0.75
1.41667 0.0833333 0.833333
1.5 0.0833333 0.833333
1.41667 0 0.833333
1.41667 0 0.75
1.41667 0.166667 0.833333
1.5 0 0.75
1.5 0.0833333 0.75
1.58333 0.166667 0.75
1.58333 0.0833333 0.75
1.66667 0.166667 0.75
1.58333 0.0833333 0.833333
1.66667 0.0833333 0.833333
1.58333 0 0.833333
1.58333 0 0.75
1.58333 0.166667 0.833333
1.66667 0 0.75
1.66667 0.0833333 0.75
1.75 0.166667 0.75
1.75 0.0833333 0.75
1.83333 0.166667 0.75
1.75 0.0833333 0.833333
1.83333 0.0833333 0.833333
1.75 0 0.833333
1.75 0 0.75
1.75 0.166667 0.833333
1.83333 0 0.75
1.83333 0.0833333 0.75
1.91667 0.166667 0.75
1.91667 0.0833333 0.75
2 0.166667 0.75
1.91667 0.0833333 0.833333
2 0.0833333 0.833333
1.91667 0 0.833333
1.91667 0 0.75
1.91667 0.166667 0.833333
2 0 0.75
2 0.0833333 0.75
2.08333 0.166667 0.75
2.08333 0.0833333 0.75
2.16667 0.166667 0.75
2.08333 0.0833333 0.833333
2.16667 0.0833333 0.833333
2.08333 0 0.833333
2.08333 0 0.75
2.08333 0.166667 0.833333
2.16667 0 0.75
2.16667 0.0833333 0.75
2.25 0.166667 0.75
2.25 0.0833333 0.75
2.33333 0.166667 0.75
2.25 0.0833333 0.833333
2.33333 0.0833333 0.833333
2.25 0 0.833333
2.25 0 0.75
2.25 0.166667 0.833333
2.33333 0 0.75
2.33333 0.0833333 0.75
2.41667 0.166667 0.75
2.41667 0.0833333 0.75
2.5 0.166667 0.75
2.41667 0.0833333 0.833333
2.5 0.0833333 0.833333
2.41667 0 0.833333
2.41667 0 0.75
2.41667 0.166667 0.833333
2.5 0 0.75
2.5 0.0833333 0.75
2.58333 0.166667 0.75
2.58333 0.0833333 0.75
2.66667 0.166667 0.75
2.58333 0.0833333 0.833333
2.66667 0.0833333 0.833333
2.58333 0 0.833333
2.58333 0 0.75
2.58333 0.166667 0.833333
2.66667 0 0.75
2.66667 0.0833333 0.75
2.75 0.166667 0.75
2.75 0.0833333 0.75
2.83333 0.166667 0.75
2.75 0.0833333 0.833333
2.83333 0.0833333 0.833333
2.75 0 0.833333
2.75 0 0.75
2.75 0.166667 0.833333
2.83333 0 0.75
2.83333 0.0833333 0.75
2.91667 0.166667 0.75
2.91667 0.0833333 0.75
3 0.166667 0.75
2.91667 0.0833333 0.833333
3 0.0833333 0.833333
2.91667 0 0.833333
2.91667 0 0.75
2.91667 0.166667 0.833333
3 0 0.75
3 0.0833333 0.75
0.0833333 0.333333 0.75
0.0833333 0.25 0.75
0.166667 0.333333 0.75
0.0833333 0.25 0.833333
0.166667 0.25 0.833333
0 0.333333 0.75
0 0.25 0.75
0.0833333 0.333333 0.833333
0 0.25 0.833333
0.166667 0.25 0.75
0.25 0.333333 0.75
0.25 0.25 0.75
0.333333 0.333333 0.75
0.25 0.25 0.833333
0.333333 0.25 0.833333
0.25 0.333333 0.833333
0.333333 0.25 0.75
0.416667 0.333333 0.75
0.416667 0.25 0.75
0.5 0.333333 0.75
0.416667 0.25 0.833333
0.5 0.25 0.833333
0.416667 0.333333 0.833333
0.5 0.25 0.75
0.583333 0.333333 0.75
0.583333 0.25 0.75
0.666667 0.333333 0.75
0.583333 0.25 0.833333
0.666667 0.25 0.833333
0.583333 0.333333 0.833333
0.666667 0.25 0.75
0.75 0.333333 0.75
0.75 0.25 0.75
0.833333 0.333333 0.75
0.75 0.25 0.833333
0.833333 0.25 0.833333
0.75 0.333333 0.833333
0.833333 0.25 0.75
0.916667 0.333333 0.75
0.916667 0.25 0.75
1 0.333333 0.75
0.916667 0.25 0.833333
1 0.25 0.833333
0.916667 0.333333 0.833333
1 0.25 0.75
1.08333 0.333333 0.75
1.08333 0.25 0.75
1.16667 0.333333 0.75
1.08333 0.25 0.833333
1.16667 0.25 0.833333
1.08333 0.333333 0.833333
1.16667 0.25 0.75
1.25 0.333333 0.75
1.25 0.25 0.75
1.33333 0.333333 0.75
1.25 0.25 0.833333
1.33333 0.25 0.833333
1.25 0.333333 0.833333
1.33333 0.25 0.75
1.41667 0.333333 0.75
1.41667 0.25 0.75
1.5 0.333333 0.75
1.41667 0.25 0.833333
1.5 0.25 0.833333
1.41667 0.333333 0.833333
1.5 0.25 0.75
1.58333 0.333333 0.75
1.58333 0.25 0.75
1.66667 0.333333 0.75
1.58333 0.25 0.833333
1.66667 0.25 0.833333
1.58333 0.333333 0.833333
1.66667 0.25 0.75
1.75 0.333333 0.75
1.75 0.25 0.75
1.83333 0.333333 0.75
1.75 0.25 0.833333
1.83333 0.25 0.833333
1.75 0.333333 0.833333
1.83333 0.25 0.75
1.91667 0.333333 0.75
1.91667 0.25 0.75
2 0.333333 0.75
1.91667 0.25 0.833333
2 0.25 0.833333
1.91667 0.333333 0.833333
2 0.25 0.75
2.08333 0.333333 0.75
2.08333 0.25 0.75
2.16667 0.333333 0.75
2.08333 0.25 0.833333
2.16667 0.25 0.833333
2.08333 0.333333 0.833333
2.16667 0.25 0.75
2.25 0.333333 0.75
2.25 0.25 0.75
2.33333 0.333333 0.75
2.25 0.25 0.833333
2.33333 0.25 0.833333
2.25 0.333333 0.833333
2.33333 0.25 0.75
2.41667 0.333333 0.75
2.41667 0.25 0.75
2.5 0.333333 0.75
2.41667 0.25 0.833333
2.5 0.25 0.833333
2.41667 0.333333 0.833333
2.5 0.25 0.75
2.58333 0.333333 0.75
2.58333 0.25 0.75
2.66667 0.333333 0.75
2.58333 0.25 0.833333
2.66667 0.25 0.833333
2.58333 0.333333 0.833333
2.66667 0.25 0.75
2.75 0.333333 0.75
2.75 0.25 0.75
2.83333 0.333333 0.75
2.75 0.25 0.833333
2.83333 0.25 0.833333
2.75 0.333333 0.833333
2.83333 0.25 0.75
2.91667 0.333333 0.75
2.91667 0.25 0.75
3 0.333333 0.75
2.91667 0.25 0.833333
3 0.25 0.833333
2.91667 0.333333 0.833333
3 0.25 0.75
0.0833333 0.5 0.75
0.0833333 0.416667 0.75
0.166667 0.5 0.75
0.0833333 0.416667 0.833333
0.166667 0.416667 0.833333
0 0.5 0.75
0 0.416667 0.75
0.0833333 0.5 0.833333
0 0.416667 0.833333
0.166667 0.416667 0.75
0.25 0.5 0.75
0.25 0.416667 0.75
0.333333 0.5 0.75
0.25 0.416667 0.833333
0.333333 0.416667 0.833333
0.25 0.5 0.833333
0.333333 0.416667 0.75
0.416667 0.5 0.75
0.416667 0.416667 0.75
0.5 0.5 0.75
0.416667 0.416667 0.833333
0.5 0.416667 0.833333
0.416667 0.5 0.833333
0.5 0.416667 0.75
0.583333 0.5 0.75
0.583333 0.416667 0.75
0.666667 0.5 0.75
0.583333 0.416667 0.833333
0.666667 0.416667 0.833333
0.583333 0.5 0.833333
0.666667 0.416667 0.75
0.75 0.5 0.75
0.75 0.416667 0.75
0.833333 0.5 0.75
0.75 0.416667 0.833333
0.833333 0.416667 0.833333
0.75 0.5 0.833333
0.833333 0.416667 0.75
0.916667 0.5 0.75
0.916667 0.416667 0.75
1 0.5 0.75
0.916667 0.416667 0.833333
1 0.416667 0.833333
0.916667 0.5 0.833333
1 0.416667 0.75
1.08333 0.5 0.75
1.08333 0.416667 0.75
1.16667 0.5 0.75
1.08333 0.416667 0.833333
1.16667 0.416667 0.833333
1.08333 0.5 0.833333
1.16667 0.416667 0.75
1.25 0.5 0.75
1.25 0.416667 0.75
1.33333 0.5 0.75
1.25 0.416667 0.833333
1.33333 0.416667 0.833333
1.25 0.5 0.833333
1.33333 0.416667 0.75
1.41667 0.5 0.75
1.41667 0.416667 0.75
1.5 0.5 0.75
1.41667 0.416667 0.833333
1.5 0.416667 0.833333
1.41667 0.5 0.833333
1.5 0.416667 0.75
1.58333 0.5 0.75
1.58333 0.416667 0.75
1.66667 0.5 0.75
1.58333 0.416667 0.833333
1.66667 0.416667 0.833333
1.58333 0.5 0.833333
1.66667 0.416667 0.75
1.75 0.5 0.75
1.75 0.416667 0.75
1.83333 0.5 0.75
1.75 0.416667 0.833333
1.83333 0.416667 0.833333
1.75 0.5 0.833333
1.83333 0.416667 0.75
1.91667 0.5 0.75
1.91667 0.416667 0.75
2 0.5 0.75
1.91667 0.416667 0.833333
2 0.416667 0.833333
1.91667 0.5 0.833333
2 0.416667 0.75
2.08333 0.5 0.75
2.08333 0.416667 0.75
2.16667 0.5 0.75
2.08333 0.416667 0.833333
2.16667 0.416667 0.833333
2.08333 0.5 0.833333
2.16667 0.416667 0.75
2.25 0.5 0.75
2.25 0.416667 0.75
2.33333 0.5 0.75
2.25 0.416667 0.833333
2.33333 0.416667 0.833333
2.25 0.5 0.833333
2.33333 0.416667 0.75
2.41667 0.5 0.75
2.41667 0.416667 0.75
2.5 0.5 0.75
2.41667 0.416667 0.833333
2.5 0.416667 0.833333
2.41667 0.5 0.833333
2.5 0.416667 0.75
2.58333 0.5 0.75
2.58333 0.416667 0.75
2.66667 0.5 0.75
2.58333 0.416667 0.833333
2.66667 0.416667 0.833333
2.58333 0.5 0.833333
2.66667 0.416667 0.75
2.75 0.5 0.75
2.75 0.416667 0.75
2.83333 0.5 0.75
2.75 0.416667 0.833333
2.83333 0.416667 0.833333
2.75 0.5 0.833333
2.83333 0.416667 0.75
2.91667 0.5 0.75
2.91667 0.416667 0.75
3 0.5 0.75
2.91667 0.416667 0.833333
3 0.416667 0.833333
2.91667 0.5 0.833333
3 0.416667 0.75
0.0833333 0.666667 0.75
0.0833333 0.583333 0.75
0.166667 0.666667 0.75
0.0833333 0.583333 0.833333
0.166667 0.583333 0.833333
0 0.666667 0.75
0 0.583333 0.75
0.0833333 0.666667 0.833333
0 0.583333 0.833333
0.166667 0.583333 0.75
0.25 0.666667 0.75
0.25 0.583333 0.75
0.333333 0.666667 0.75
0.25 0.583333 0.833333
0.333333 0.583333 0.833333
0.25 0.666667 0.833333
0.333333 0.583333 0.75
0.416667 0.666667 0.75
0.416667 0.583333 0.75
0.5 0.666667 0.75
0.416667 0.583333 0.833333
0.5 0.583333 0.833333
0.416667 0.666667 0.833333
0.5 0.583333 0.75
0.583333 0.666667 0.75
0.583333 0.583333 0.75
0.666667 0.666667 0.75
0.583333 0.583333 0.833333
0.666667 0.583333 0.833333
0.583333 0.666667 0.833333
0.666667 0.583333 0.75
0.75 0.666667 0.75
0.75 0.583333 0.75
0.833333 0.666667 0.75
0.75 0.583333 0.833333
0.833333 0.583333 0.833333
0.75 0.666667 0.833333
0.833333 0.583333 0.75
0.916667 0.666667 0.75
0.916667 0.583333 0.75
1 0.666667 0.75
0.916667 0.583333 0.833333
1 0.583333 0.833333
0.916667 0.666667 0.833333
1 0.583333 0.75
1.08333 0.666667 0.75
1.08333 0.583333 0.75
1.16667 0.666667 0.75
1.08333 0.583333 0.833333
1.16667 0.583333 0.833333
1.08333 0.666667 0.833333
1.16667 0.583333 0.75
1.25 0.666667 0.75
1.25 0.583333 0.75
1.33333 0.666667 0.75
1.25 0.583333 0.833333
1.33333 0.583333 0.833333
1.25 0.666667 0.833333
1.33333 0.583333 0.75
1.41667 0.666667 0.75
1.41667 0.583333 0.75
1.5 0.666667 0.75
1.41667 0.583333 0.833333
1.5 0.583333 0.833333
1.41667 0.666667 0.833333
1.5 0.583333 0.75
1.58333 0.666667 0.75
1.58333 0.583333 0.75
1.66667 0.666667 0.75
1.58333 0.583333 0.833333
1.66667 0.583333 0.833333
1.58333 0.666667 0.833333
1.66667 0.583333 0.75
1.75 0.666667 0.75
1.75 0.583333 0.75
1.83333 0.666667 0.75
1.75 0.583333 0.833333
1.83333 0.583333 0.833333
1.75 0.666667 0.833333
1.83333 0.583333 0.75
1.91667 0.666667 0.75
1.91667 0.583333 0.75
2 0.666667 0.75
1.91667 0.583333 0.833333
2 0.583333 0.833333
1.91667 0.666667 0.833333
2 0.583333 0.75
2.08333 0.666667 0.75
2.08333 0.583333 0.75
2.16667 0.666667 0.75
2.08333 0.583333 0.833333
2.16667 0.583333 0.833333
2.08333 0.666667 0.833333
2.16667 0.583333 0.75
2.25 0.666667 0.75
2.25 0.583333 0.75
2.33333 0.666667 0.75
2.25 0.583333 0.833333
2.33333 0.583333 0.833333
2.25 0.666667 0.833333
2.33333 0.583333 0.75
2.41667 0.666667 0.75
2.41667 0.583333 0.75
2.5 0.666667 0.75
2.41667 0.583333 0.833333
2.5 0.583333 0.833333
2.41667 0.666667 0.833333
2.5 0.583333 0.75
2.58333 0.666667 0.75
2.58333 0.583333 0.75
2.66667 0.666667 0.75
2.58333 0.583333 0.833333
2.66667 0.583333 0.833333
2.58333 0.666667 0.833333
2.66667 0.583333 0.75
2.75 0.666667 0.75
2.75 0.583333 0.75
2.83333 0.666667 0.75
2.75 0.583333 0.833333
2.83333 0.583333 0.833333
2.75 0.666667 0.833333
2.83333 0.583333 0.75
2.91667 0.666667 0.75
2.91667 0.583333 0.75
3 0.666667 0.75
2.91667 0.583333 0.833333
3 0.583333 0.833333
2.91667 0.666667 0.833333
3 0.583333 0.75
0.0833333 0.833333 0.75
0.0833333 0.75 0.75
0.166667 0.833333 0.75
0.0833333 0.75 0.833333
0.166667 0.75 0.833333
0 0.833333 0.75
0 0.75 0.75
0.0833333 0.833333 0.833333
0 0.75 0.833333
0.166667 0.75 0.75
0.25 0.833333 0.75
0.25 0.75 0.75
0.333333 0.833333 0.75
0.25 0.75 0.833333
0.333333 0.75 0.833333
0.25 0.833333 0.833333
0.333333 0.75 0.75
0.416667 0.833333 0.75
0.416667 0.75 0.75
0.5 0.833333 0.75
0.416667 0.75 0.833333
0.5 0.75 0.833333
0.416667 0.833333 0.833333
0.5 0.75 0.75
0.583333 0.833333 0.75
0.583333 0.75 0.75
0.666667 0.833333 0.75
0.583333 0.75 0.833333
0.666667 0.75 0.833333
0.583333 0.833333 0.833333
0.666667 0.75 0.75
0.75 0.833333 0.75
0.75 0.75 0.75
0.833333 0.833333 0.75
0.75 0.75 0.833333
0.833333 0.75 0.833333
0.75 0.833333 0.833333
0.833333 0.75 0.75
0.916667 0.833333 0.75
0.916667 0.75 0.75
1 0.833333 0.75
0.916667 0.75 0.833333
1 0.75 0.833333
0.916667 0.833333 0.833333
1 0.75 0.75
1.08333 0.833333 0.75
1.08333 0.75 0.75
1.16667 0.833333 0.75
1.08333 0.75 0.833333
1.16667 0.75 0.833333
1.08333 0.833333 0.833333
1.16667 0.75 0.75
1.25 0.833333 0.75
1.25 0.75 0.75
1.33333 0.833333 0.75
1.25 0.75 0.833333
1.33333 0.75 0.833333
1.25 0.833333 0.833333
1.33333 0.75 0.75
1.41667 0.833333 0.75
1.41667 0.75 0.75
1.5 0.833333 0.75
1.41667 0.75 0.833333
1.5 0.75 0.833333
1.41667 0.833333 0.833333
1.5 0.75 0.75
1.58333 0.833333 0.75
1.58333 0.75 0.75
1.66667 0.833333 0.75
1.58333 0.75 0.833333
1.66667 0.75 0.833333
1.58333 0.833333 0.833333
1.66667 0.75 0.75
1.75 0.833333 0.75
1.75 0.75 0.75
1.83333 0.833333 0.75
1.75 0.75 0.833333
1.83333 0.75 0.833333
1.75 0.833333 0.833333
1.83333 0.75 0.75
1.91667 0.833333 0.75
1.91667 0.75 0.75
2 0.833333 0.75
1.91667 0.75 0.833333
2 0.75 0.833333
1.91667 0.833333 0.833333
2 0.75 0.75
2.08333 0.833333 0.75
2.08333 0.75 0.75
2.16667 0.833333 0.75
2.08333 0.75 0.833333
2.16667 0.75 0.833333
2.08333 0.833333 0.833333
2.16667 0.75 0.75
2.25 0.833333 0.75
2.25 0.75 0.75
2.33333 0.833333 0.75
2.25 0.75 0.833333
2.33333 0.75 0.833333
2.25 0.833333 0.833333
2.33333 0.75 0.75
2.41667 0.833333 0.75
2.41667 0.75 0.75
2.5 0.833333 0.75
2.41667 0.75 0.833333
2.5 0.75 0.833333
2.41667 0.833333 0.833333
2.5 0.75 0.75
2.58333 0.833333 0.75
2.58333 0.75 0.75
2.66667 0.833333 0.75
2.58333 0.75 0.833333
2.66667 0.75 0.833333
2.58333 0.833333 0.833333
2.66667 0.75 0.75
2.75 0.833333 0.75
2.75 0.75 0.75
2.83333 0.833333 0.75
2.75 0.75 0.833333
2.83333 0.75 0.833333
2.75 0.833333 0.833333
2.83333 0.75 0.75
2.91667 0.833333 0.75
2.91667 0.75 0.75
3 0.833333 0.75
2.91667 0.75 0.833333
3 0.75 0.833333
2.91667 0.833333 0.833333
3 0.75 0.75
0.0833333 1 0.75
0.0833333 0.916667 0.75
0.166667 1 0.75
0.0833333 0.916667 0.833333
0.166667 0.916667 0.833333
0 1 0.75
0 0.916667 0.75
0.0833333 1 0.833333
0 0.916667 0.833333
0.166667 0.916667 0.75
0.25 1 0.75
0.25 0.916667 0.75
0.333333 1 0.75
0.25 0.916667 0.833333
0.333333 0.916667 0.833333
0.25 1 0.833333
0.333333 0.916667 0.75
0.416667 1 0.75
0.416667 0.916667 0.75
0.5 1 0.75
0.416667 0.916667 0.833333
0.5 0.916667 0.833333
0.416667 1 0.833333
0.5 0.916667 0.75
0.583333 1 0.75
0.583333 0.916667 0.75
0.666667 1 0.75
0.583333 0.916667 0.833333
0.666667 0.916667 0.833333
0.583333 1 0.833333
0.666667 0.916667 0.75
0.75 1 0.75
0.75 0.916667 0.75
0.833333 1 0.75
0.75 0.916667 0.833333
0.833333 0.916667 0.833333
0.75 1 0.833333
0.833333 0.916667 0.75
0.916667 1 0.75
0.916667 0.916667 0.75
1 1 0.75
0.916667 0.916667 0.833333
1 0.916667 0.833333
0.916667 1 0.833333
1 0.916667 0.75
1.08333 1 0.75
1.08333 0.916667 0.75
1.16667 1 0.75
1.08333 0.916667 0.833333
1.16667 0.916667 0.833333
1.08333 1 0.833333
1.16667 0.916667 0.75
1.25 1 0.75
1.25 0.916667 0.75
1.33333 1 0.75
1.25 0.916667 0.833333
1.33333 0.916667 0.833333
1.25 1 0.833333
1.33333 0.916667 0.75
1.41667 1 0.75
1.41667 0.916667 0.75
1.5 1 0.75
1.41667 0.916667 0.833333
1.5 0.916667 0.833333
1.41667 1 0.833333
1.5 0.916667 0.75
1.58333 1 0.75
1.58333 0.916667 0.75
1.66667 1 0.75
1.58333 0.916667 0.833333
1.66667 0.916667 0.833333
1.58333 1 0.833333
1.66667 0.916667 0.75
1.75 1 0.75
1.75 0.916667 0.75
1.83333 1 0.75
1.75 0.916667 0.833333
1.83333 0.916667 0.833333
1.75 1 0.833333
1.83333 0.916667 0.75
1.91667 1 0.75
1.91667 0.916667 0.75
2 1 0.75
1.91667 0.916667 0.833333
2 0.916667 0.833333
1.91667 1 0.833333
2 0.916667 0.75
2.08333 1 0.75
2.08333 0.916667 0.75
2.16667 1 0.75
2.08333 0.916667 0.833333
2.16667 0.916667 0.833333
2.08333 1 0.833333
2.16667 0.916667 0.75
2.25 1 0.75
2.25 0.916667 0.75
2.33333 1 0.75
2.25 0.916667 0.833333
2.33333 0.916667 0.833333
2.25 1 0.833333
2.33333 0.916667 0.75
2.41667 1 0.75
2.41667 0.916667 0.75
2.5 1 0.75
2.41667 0.916667 0.833333
2.5 0.916667 0.833333
2.41667 1 0.833333
2.5 0.916667 0.75
2.58333 1 0.75
2.58333 0.916667 0.75
2.66667 1 0.75
2.58333 0.916667 0.833333
2.66667 0.916667 0.833333
2.58333 1 0.833333
2.66667 0.916667 0.75
2.75 1 0.75
2.75 0.916667 0.75
2.83333 1 0.75
2.75 0.916667 0.833333
2.83333 0.916667 0.833333
2.75 1 0.833333
2.83333 0.916667 0.75
2.91667 1 0.75
2.91667 0.916667 0.75
3 1 0.75
2.91667 0.916667 0.833333
3 0.916667 0.833333
2.91667 1 0.833333
3 0.916667 0.75
0.0833333 0.166667 0.916667
0.0833333 0.0833333 0.916667
0.166667 0.166667 0.916667
0.0833333 0.0833333 1
0.166667 0.0833333 1
0.0833333 0 1
0 0 0.916667
0.0833333 0 0.916667
0 0.166667 0.916667
0 0.0833333 0.916667
0.0833333 0.166667 1
0 0.0833333 1
0.166667 0 0.916667
0.166667 0.0833333 0.916667
0.25 0.166667 0.916667
0.25 0.0833333 0.916667
0.333333 0.166667 0.916667
0.25 0.0833333 1
0.333333 0.0833333 1
0.25 0 1
0.25 0 0.916667
0.25 0.166667 1
0.333333 0 0.916667
0.333333 0.0833333 0.916667
0.416667 0.166667 0.916667
0.416667 0.0833333 0.916667
0.5 0.166667 0.916667
0.416667 0.0833333 1
0.5 0.0833333 1
0.416667 0 1
0.416667 0 0.916667
0.416667 0.166667 1
0.5 0 0.916667
0.5 0.0833333 0.916667
0.583333 0.166667 0.916667
0.583333 0.0833333 0.916667
0.666667 0.166667 0.916667
0.583333 0.0833333 1
0.666667 0.0833333 1
0.583333 0 1
0.583333 0 0.916667
0.583333 0.166667 1
0.666667 0 0.916667
0.666667 0.0833333 0.916667
0.75 0.166667 0.916667
0.75 0.0833333 0.916667
0.833333 0.166667 0.916667
0.75 0.0833333 1
0.833333 0.0833333 1
0.75 0 1
0.75 0 0.916667
0.75 0.166667 1
0.833333 0 0.916667
0.833333 0.0833333 0.916667
0.916667 0.166667 0.916667
0.916667 0.0833333 0.916667
1 0.166667 0.916667
0.916667 0.0833333 1
1 0.0833333 1
0.916667 0 1
0.916667 0 0.916667
0.916667 0.166667 1
1 0 0.916667
1 0.0833333 0.916667
1.08333 0.166667 0.916667
1.08333 0.0833333 0.916667
1.16667 0.166667 0.916667
1.08333 0.0833333 1
1.16667 0.0833333 1
1.08333 0 1
1.08333 0 0.916667
1.08333 0.166667 1
1.16667 0 0.916667
1.16667 0.0833333 0.916667
1.25 0.166667 0.916667
1.25 0.0833333 0.916667
1.33333 0.166667 0.916667
1.25 0.0833333 1
1.33333 0.0833333 1
1.25 0 1
1.25 0 0.916667
1.25 0.166667 1
1.33333 0 0.916667
1.33333 0.0833333 0.916667
1.41667 0.166667 0.916667
1.41667 0.0833333 0.916667
1.5 0.166667 0.916667
1.41667 0.0833333 1
1.5 0.0833333 1
1.41667 0 1
1.41667 0 0.916667
1.41667 0.166667 1
1.5 0 0.916667
1.5 0.0833333 0.916667
1.58333 0.166667 0.916667
1.58333 0.0833333 0.916667
1.66667 0.166667 0.916667
1.58333 0.0833333 1
1.66667 0.0833333 1
1.58333 0 1
1.58333 0 0.916667
1.58333 0.166667 1
1.66667 0 0.916667
1.66667 0.0833333 0.916667
1.75 0.166667 0.916667
1.75 0.0833333 0.916667
1.83333 0.166667 0.916667
1.75 0.0833333 1
1.83333 0.0833333 1
1.75 0 1
1.75 0 0.916667
1.75 0.166667 1
1.83333 0 0.916667
1.83333 0.0833333 0.916667
1.91667 0.166667 0.916667
1.91667 0.0833333 0.916667
2 0.166667 0.916667
1.91667 0.0833333 1
2 0.0833333 1
1.91667 0 1
1.91667 0 0.916667
1.91667 0.166667 1
2 0 0.916667
2 0.0833333 0.916667
2.08333 0.166667 0.916667
2.08333 0.0833333 0.916667
2.16667 0.166667 0.916667
2.08333 0.0833333 1
2.16667 0.0833333 1
2.08333 0 1
2.08333 0 0.916667
2.08333 0.166667 1
2.16667 0 0.916667
2.16667 0.0833333 0.916667
2.25 0.166667 0.916667
2.25 0.0833333 0.916667
2.33333 0.166667 0.916667
2.25 0.0833333 1
2.33333 0.0833333 1
2.25 0 1
2.25 0 0.916667
2.25 0.166667 1
2.33333 0 0.916667
2.33333 0.0833333 0.916667
2.41667 0.166667 0.916667
2.41667 0.0833333 0.916667
2.5 0.166667 0.916667
2.41667 0.0833333 1
2.5 0.0833333 1
2.41667 0 1
2.41667 0 0.916667
2.41667 0.166667 1
2.5 0 0.916667
2.5 0.0833333 0.916667
2.58333 0.166667 0.916667
2.58333 0.0833333 0.916667
2.66667 0.166667 0.916667
2.58333 0.0833333 1
2.66667 0.0833333 1
2.58333 0 1
2.58333 0 0.916667
2.58333 0.166667 1
2.66667 0 0.916667
2.66667 0.0833333 0.916667
2.75 0.166667 0.916667
2.75 0.0833333 0.916667
2.83333 0.166667 0.916667
2.75 0.0833333 1
2.83333 0.0833333 1
2.75 0 1
2.75 0 0.916667
2.75 0.166667 1
2.83333 0 0.916667
2.83333 0.0833333 0.916667
2.91667 0.166667 0.916667
2.91667 0.0833333 0.916667
3 0.166667 0.916667
2.91667 0.0833333 1
3 0.0833333 1
2.91667 0 1
2.91667 0 0.916667
2.91667 0.166667 1
3 0 0.916667
3 0.0833333 0.916667
0.0833333 0.333333 0.916667
0.0833333 0.25 0.916667
0.166667 0.333333 0.916667
0.0833333 0.25 1
0.166667 0.25 1
0 0.333333 0.916667
0 0.25 0.916667
0.0833333 0.333333 1
0 0.25 1
0.166667 0.25 0.916667
0.25 0.333333 0.916667
0.25 0.25 0.916667
0.333333 0.333333 0.916667
0.25 0.25 1
0.333333 0.25 1
0.25 0.333333 1
0.333333 0.25 0.916667
0.416667 0.333333 0.916667
0.416667 0.25 0.916667
0.5 0.333333 0.916667
0.416667 0.25 1
0.5 0.25 1
0.416667 0.333333 1
0.5 0.25 0.916667
0.583333 0.333333 0.916667
0.583333 0.25 0.916667
0.666667 0.333333 0.916667
0.583333 0.25 1
0.666667 0.25 1
0.583333 0.333333 1
0.666667 0.25 0.916667
0.75 0.333333 0.916667
0.75 0.25 0.916667
0.833333 0.333333 0.916667
0.75 0.25 1
0.833333 0.25 1
0.75 0.333333 1
0.833333 0.25 0.916667
0.916667 0.333333 0.916667
0.916667 0.25 0.916667
1 0.333333 0.916667
0.916667 0.25 1
1 0.25 1
0.916667 0.333333 1
1 0.25 0.916667
1.08333 0.333333 0.916667
1.08333 0.25 0.916667
1.16667 0.333333 0.916667
1.08333 0.25 1
1.16667 0.25 1
1.08333 0.333333 1
1.16667 0.25 0.916667
1.25 0.333333 0.916667
1.25 0.25 0.916667
1.33333 0.333333 0.916667
1.25 0.25 1
1.33333 0.25 1
1.25 0.333333 1
1.33333 0.25 0.916667
1.41667 0.333333 0.916667
1.41667 0.25 0.916667
1.5 0.333333 0.916667
1.41667 0.25 1
1.5 0.25 1
1.41667 0.333333 1
1.5 0.25 0.916667
1.58333 0.333333 0.916667
1.58333 0.25 0.916667
1.66667 0.333333 0.916667
1.58333 0.25 1
1.66667 0.25 1
1.58333 0.333333 1
1.66667 0.25 0.916667
1.75 0.333333 0.916667
1.75 0.25 0.916667
1.83333 0.333333 0.916667
1.75 0.25 1
1.83333 0.25 1
1.75 0.333333 1
1.83333 0.25 0.916667
1.91667 0.333333 0.916667
1.91667 0.25 0.916667
2 0.333333 0.916667
1.91667 0.25 1
2 0.25 1
1.91667 0.333333 1
2 0.25 0.916667
2.08333 0.333333 0.916667
2.08333 0.25 0.916667
2.16667 0.333333 0.916667
2.08333 0.25 1
2.16667 0.25 1
2.08333 0.333333 1
2.16667 0.25 0.916667
2.25 0.333333 0.916667
2.25 0.25 0.916667
2.33333 0.333333 0.916667
2.25 0.25 1
2.33333 0.25 1
2.25 0.333333 1
2.33333 0.25 0.916667
2.41667 0.333333 0.916667
2.41667 0.25 0.916667
2.5 0.333333 0.916667
2.41667 0.25 1
2.5 0.25 1
2.41667 0.333333 1
2.5 0.25 0.916667
2.58333 0.333333 0.916667
2.58333 0.25 0.916667
2.66667 0.333333 0.916667
2.58333 0.25 1
2.66667 0.25 1
2.58333 0.333333 1
2.66667 0.25 0.916667
2.75 0.333333 0.916667
2.75 0.25 0.916667
2.83333 0.333333 0.916667
2.75 0.25 1
2.83333 0.25 1
2.75 0.333333 1
2.83333 0.25 0.916667
2.91667 0.333333 0.916667
2.91667 0.25 0.916667
3 0.333333 0.916667
2.91667 0.25 1
3 0.25 1
2.91667 0.333333 1
3 0.25 0.916667
0.0833333 0.5 0.916667
0.0833333 0.416667 0.916667
0.166667 0.5 0.916667
0.0833333 0.416667 1
0.166667 0.416667 1
0 0.5 0.916667
0 0.416667 0.916667
0.0833333 0.5 1
0 0.416667 1
0.166667 0.416667 0.916667
0.25 0.5 0.916667
0.25 0.416667 0.916667
0.333333 0.5 0.916667
0.25 0.416667 1
0.333333 0.416667 1
0.25 0.5 1
0.333333 0.416667 0.916667
0.416667 0.5 0.916667
0.416667 0.416667 0.916667
0.5 0.5 0.916667
0.416667 0.416667 1
0.5 0.416667 1
0.416667 0.5 1
0.5 0.416667 0.916667
0.583333 0.5 0.916667
0.583333 0.416667 0.916667
0.666667 0.5 0.916667
0.583333 0.416667 1
0.666667 0.416667 1
0.583333 0.5 1
0.666667 0.416667 0.916667
0.75 0.5 0.916667
0.75 0.416667 0.916667
0.833333 0.5 0.916667
0.75 0.416667 1
0.833333 0.416667 1
0.75 0.5 1
0.833333 0.416667 0.916667
0.916667 0.5 0.916667
0.916667 0.416667 0.916667
1 0.5 0.916667
0.916667 0.416667 1
1 0.416667 1
0.916667 0.5 1
1 0.416667 0.916667
1.08333 0.5 0.916667
1.08333 0.416667 0.916667
1.16667 0.5 0.916667
1.08333 0.416667 1
1.16667 0.416667 1
1.08333 0.5 1
1.16667 0.416667 0.916667
1.25 0.5 0.916667
1.25 0.416667 0.916667
1.33333 0.5 0.916667
1.25 0.416667 1
1.33333 0.416667 1
1.25 0.5 1
1.33333 0.416667 0.916667
1.41667 0.5 0.916667
1.41667 0.416667 0.916667
1.5 0.5 0.916667
1.41667 0.416667 1
1.5 0.416667 1
1.41667 0.5 1
1.5 0.416667 0.916667
1.58333 0.5 0.916667
1.58333 0.416667 0.916667
1.66667 0.5 0.916667
1.58333 0.416667 1
1.66667 0.416667 1
1.58333 0.5 1
1.66667 0.416667 0.916667
1.75 0.5 0.916667
1.75 0.416667 0.916667
1.83333 0.5 0.916667
1.75 0.416667 1
1.83333 0.416667 1
1.75 0.5 1
1.83333 0.416667 0.916667
1.91667 0.5 0.916667
1.91667 0.416667 0.916667
2 0.5 0.916667
1.91667 0.416667 1
2 0.416667 1
1.91667 0.5 1
2 0.416667 0.916667
2.08333 0.5 0.916667
2.08333 0.416667 0.916667
2.16667 0.5 0.916667
2.08333 0.416667 1
2.16667 0.416667 1
2.08333 0.5 1
2.16667 0.416667 0.916667
2.25 0.5 0.916667
2.25 0.416667 0.916667
2.33333 0.5 0.916667
2.25 0.416667 1
2.33333 0.416667 1
2.25 0.5 1
2.33333 0.416667 0.916667
2.41667 0.5 0.916667
2.41667 0.416667 0.916667
2.5 0.5 0.916667
2.41667 0.416667 1
2.5 0.416667 1
2.41667 0.5 1
2.5 0.416667 0.916667
2.58333 0.5 0.916667
2.58333 0.416667 0.916667
2.66667 0.5 0.916667
2.58333 0.416667 1
2.66667 0.416667 1
2.58333 0.5 1
2.66667 0.416667 0.916667
2.75 0.5 0.916667
2.75 0.416667 0.916667
2.83333 0.5 0.916667
2.75 0.416667 1
2.83333 0.416667 1
2.75 0.5 1
2.83333 0.416667 0.916667
2.91667 0.5 0.916667
2.91667 0.416667 0.916667
3 0.5 0.916667
2.91667 0.416667 1
3 0.416667 1
2.91667 0.5 1
3 0.416667 0.916667
0.0833333 0.666667 0.916667
0.0833333 0.583333 0.916667
0.166667 0.666667 0.916667
0.0833333 0.583333 1
0.166667 0.583333 1
0 0.666667 0.916667
0 0.583333 0.916667
0.0833333 0.666667 1
0 0.583333 1
0.166667 0.583333 0.916667
0.25 0.666667 0.916667
0.25 0.583333 0.916667
0.333333 0.666667 0.916667
0.25 0.583333 1
0.333333 0.583333 1
0.25 0.666667 1
0.333333 0.583333 0.916667
0.416667 0.666667 0.916667
0.416667 0.583333 0.916667
0.5 0.666667 0.916667
0.416667 0.583333 1
0.5 0.583333 1
0.416667 0.666667 1
0.5 0.583333 0.916667
0.583333 0.666667 0.916667
0.583333 0.583333 0.916667
0.666667 0.666667 0.916667
0.583333 0.583333 1
0.666667 0.583333 1
0.583333 0.666667 1
0.666667 0.583333 0.916667
0.75 0.666667 0.916667
0.75 0.583333 0.916667
0.833333 0.666667 0.916667
0.75 0.583333 1
0.833333 0.583333 1
0.75 0.666667 1
0.833333 0.583333 0.916667
0.916667 0.666667 0.916667
0.916667 0.583333 0.916667
1 0.666667 0.916667
0.916667 0.583333 1
1 0.583333 1
0.916667 0.666667 1
1 0.583333 0.916667
1.08333 0.666667 0.916667
1.08333 0.583333 0.916667
1.16667 0.666667 0.916667
1.08333 0.583333 1
1.16667 0.583333 1
1.08333 0.666667 1
1.16667 0.583333 0.916667
1.25 0.666667 0.916667
1.25 0.583333 0.916667
1.33333 0.666667 0.916667
1.25 0.583333 1
1.33333 0.583333 1
1.25 0.666667 1
1.33333 0.583333 0.916667
1.41667 0.666667 0.916667
1.41667 0.583333 0.916667
1.5 0.666667 0.916667
1.41667 0.583333 1
1.5 0.583333 1
1.41667 0.666667 1
1.5 0.583333 0.916667
1.58333 0.666667 0.916667
1.58333 0.583333 0.916667
1.66667 0.666667 0.916667
1.58333 0.583333 1
1.66667 0.583333 1
1.58333 0.666667 1
1.66667 0.583333 0.916667
1.75 0.666667 0.916667
1.75 0.583333 0.916667
1.83333 0.666667 0.916667
1.75 0.583333 1
1.83333 0.583333 1
1.75 0.666667 1
1.83333 0.583333 0.916667
1.91667 0.666667 0.916667
1.91667 0.583333 0.916667
2 0.666667 0.916667
1.91667 0.583333 1
2 0.583333 1
1.91667 0.666667 1
2 0.583333 0.916667
2.08333 0.666667 0.916667
2.08333 0.583333 0.916667
2.16667 0.666667 0.916667
2.08333 0.583333 1
2.16667 0.583333 1
2.08333 0.666667 1
2.16667 0.583333 0.916667
2.25 0.666667 0.916667
2.25 0.583333 0.916667
2.33333 0.666667 0.916667
2.25 0.583333 1
2.33333 0.583333 1
2.25 0.666667 1
2.33333 0.583333 0.916667
2.41667 0.666667 0.916667
2.41667 0.583333 0.916667
2.5 0.666667 0.916667
2.41667 0.583333 1
2.5 0.583333 1
2.41667 0.666667 1
2.5 0.583333 0.916667
2.58333 0.666667 0.916667
2.58333 0.583333 0.916667
2.66667 0.666667 0.916667
2.58333 0.583333 1
2.66667 0.583333 1
2.58333 0.666667 1
2.66667 0.583333 0.916667
2.75 0.666667 0.916667
2.75 0.583333 0.916667
2.83333 0.666667 0.916667
2.75 0.583333 1
2.83333 0.583333 1
2.75 0.666667 1
2.83333 0.583333 0.916667
2.91667 0.666667 0.916667
2.91667 0.583333 0.916667
3 0.666667 0.916667
2.91667 0.583333 1
3 0.583333 1
2.91667 0.666667 1
3 0.583333 0.916667
0.0833333 0.833333 0.916667
0.0833333 0.75 0.916667
0.166667 0.833333 0.916667
0.0833333 0.75 1
0.166667 0.75 1
0 0.833333 0.916667
0 0.75 0.916667
0.0833333 0.833333 1
0 0.75 1
0.166667 0.75 0.916667
0.25 0.833333 0.916667
0.25 0.75 0.916667
0.333333 0.833333 0.916667
0.25 0.75 1
0.333333 0.75 1
0.25 0.833333 1
0.333333 0.75 0.916667
0.416667 0.833333 0.916667
0.416667 0.75 0.916667
0.5 0.833333 0.916667
0.416667 0.75 1
0.5 0.75 1
0.416667 0.833333 1
0.5 0.75 0.916667
0.583333 0.833333 0.916667
0.583333 0.75 0.916667
0.666667 0.833333 0.916667
0.583333 0.75 1
0.666667 0.75 1
0.583333 0.833333 1
0.666667 0.75 0.916667
0.75 0.833333 0.916667
0.75 0.75 0.916667
0.833333 0.833333 0.916667
0.75 0.75 1
0.833333 0.75 1
0.75 0.833333 1
0.833333 0.75 0.916667
0.916667 0.833333 0.916667
0.916667 0.75 0.916667
1 0.833333 0.916667
0.916667 0.75 1
1 0.75 1
0.916667 0.833333 1
1 0.75 0.916667
1.08333 0.833333 0.916667
1.08333 0.75 0.916667
1.16667 0.833333 0.916667
1.08333 0.75 1
1.16667 0.75 1
1.08333 0.833333 1
1.16667 0.75 0.916667
1.25 0.833333 0.916667
1.25 0.75 0.916667
1.33333 0.833333 0.916667
1.25 0.75 1
1.33333 0.75 1
1.25 0.833333 1
1.33333 0.75 0.916667
1.41667 0.833333 0.916667
1.41667 0.75 0.916667
1.5 0.833333 0.916667
1.41667 0.75 1
1.5 0.75 1
1.41667 0.833333 1
1.5 0.75 0.916667
1.58333 0.833333 0.916667
1.58333 0.75 0.916667
1.66667 0.833333 0.916667
1.58333 0.75 1
1.66667 0.75 1
1.58333 0.833333 1
1.66667 0.75 0.916667
1.75 0.833333 0.916667
1.75 0.75 0.916667
1.83333 0.833333 0.916667
1.75 0.75 1
1.83333 0.75 1
1.75 0.833333 1
1.83333 0.75 0.916667
1.91667 0.833333 0.916667
1.91667 0.75 0.916667
2 0.833333 0.916667
1.91667 0.75 1
2 0.75 1
1.91667 0.833333 1
2 0.75 0.916667
2.08333 0.833333 0.916667
2.08333 0.75 0.916667
2.16667 0.833333 0.916667
2.08333 0.75 1
2.16667 0.75 1
2.08333 0.833333 1
2.16667 0.75 0.916667
2.25 0.833333 0.916667
2.25 0.75 0.916667
2.33333 0.833333 0.916667
2.25 0.75 1
2.33333 0.75 1
2.25 0.833333 1
2.33333 0.75 0.916667
2.41667 0.833333 0.916667
2.41667 0.75 0.916667
2.5 0.833333 0.916667
2.41667 0.75 1
2.5 0.75 1
2.41667 0.833333 1
2.5 0.75 0.916667
2.58333 0.833333 0.916667
2.58333 0.75 0.916667
2.66667 0.833333 0.916667
2.58333 0.75 1
2.66667 0.75 1
2.58333 0.833333 1
2.66667 0.75 0.916667
2.75 0.833333 0.916667
2.75 0.75 0.916667
2.83333 0.833333 0.916667
2.75 0.75 1
2.83333 0.75 1
2.75 0.833333 1
2.83333 0.75 0.916667
2.91667 0.833333 0.916667
2.91667 0.75 0.916667
3 0.833333 0.916667
2.91667 0.75 1
3 0.75 1
2.91667 0.833333 1
3 0.75 0.916667
0.0833333 1 0.916667
0.0833333 0.916667 0.916667
0.166667 1 0.916667
0.0833333 0.916667 1
0.166667 0.916667 1
0 1 0.916667
0 0.916667 0.916667
0.0833333 1 1
0 0.916667 1
0.166667 0.916667 0.916667
0.25 1 0.916667
0.25 0.916667 0.916667
0.333333 1 0.916667
0.25 0.916667 1
0.333333 0.916667 1
0.25 1 1
0.333333 0.916667 0.916667
0.416667 1 0.916667
0.416667 0.916667 0.916667
0.5 1 0.916667
0.416667 0.916667 1
0.5 0.916667 1
0.416667 1 1
0.5 0.916667 0.916667
0.583333 1 0.916667
0.583333 0.916667 0.916667
0.666667 1 0.916667
0.583333 0.916667 1
0.666667 0.916667 1
0.583333 1 1
0.666667 0.916667 0.916667
0.75 1 0.916667
0.75 0.916667 0.916667
0.833333 1 0.916667
0.75 0.916667 1
0.833333 0.916667 1
0.75 1 1
0.833333 0.916667 0.916667
0.916667 1 0.916667
0.916667 0.916667 0.916667
1 1 0.916667
0.916667 0.916667 1
1 0.916667 1
0.916667 1 1
1 0.916667 0.916667
1.08333 1 0.916667
1.08333 0.916667 0.916667
1.16667 1 0.916667
1.08333 0.916667 1
1.16667 0.916667 1
1.08333 1 1
1.16667 0.916667 0.916667
1.25 1 0.916667
1.25 0.916667 0.916667
1.33333 1 0.916667
1.25 0.916667 1
1.33333 0.916667 1
1.25 1 1
1.33333 0.916667 0.916667
1.41667 1 0.916667
1.41667 0.916667 0.916667
1.5 1 0.916667
1.41667 0.916667 1
1.5 0.916667 1
1.41667 1 1
1.5 0.916667 0.916667
1.58333 1 0.916667
1.58333 0.916667 0.916667
1.66667 1 0.916667
1.58333 0.916667 1
1.66667 0.916667 1
1.58333 1 1
1.66667 0.916667 0.916667
1.75 1 0.916667
1.75 0.916667 0.916667
1.83333 1 0.916667
1.75 0.916667 1
1.83333 0.916667 1
1.75 1 1
1.83333 0.916667 0.916667
1.91667 1 0.916667
1.91667 0.916667 0.916667
2 1 0.916667
1.91667 0.916667 1
2 0.916667 1
1.91667 1 1
2 0.916667 0.916667
2.08333 1 0.916667
2.08333 0.916667 0.916667
2.16667 1 0.916667
2.08333 0.916667 1
2.16667 0.916667 1
2.08333 1 1
2.16667 0.916667 0.916667
2.25 1 0.916667
2.25 0.916667 0.916667
2.33333 1 0.916667
2.25 0.916667 1
2.33333 0.916667 1
2.25 1 1
2.33333 0.916667 0.916667
2.41667 1 0.916667
2.41667 0.916667 0.916667
2.5 1 0.916667
2.41667 0.916667 1
2.5 0.916667 1
2.41667 1 1
2.5 0.916667 0.916667
2.58333 1 0.916667
2.58333 0.916667 0.916667
2.66667 1 0.916667
2.58333 0.916667 1
2.66667 0.916667 1
2.58333 1 1
2.66667 0.916667 0.916667
2.75 1 0.916667
2.75 0.916667 0.916667
2.83333 1 0.916667
2.75 0.916667 1
2.83333 0.916667 1
2.75 1 1
2.83333 0.916667 0.916667
2.91667 1 0.916667
2.91667 0.916667 0.916667
3 1 0.916667
2.91667 0.916667 1
3 0.916667 1
2.91667 1 1
3 0.916667 0.916667

CELLS 3889 38880
OFFSETS vtktypeint64
0 10 20 30 40 50 60 70 80 90 100 110 120 130 140 150 160 170 180 190 200 210 220 230 240 250 260 270 280 290 300 310 320 330 340 350 360 370 380 390 400 410 420 430 440 450 460 470 480 490 500 510 520 530 540 550 560 570 580 590 600 610 620 630 640 650 660 670 680 690 700 710 720 730 740 750 760 770 780 790 800 810 820 830 840 850 860 870 880 890 900 910 920 930 940 950 960 970 980 990 1000 1010 1020 1030 1040 1050 1060 1070 1080 1090 1100 1110 1120 1130 1140 1150 1160 1170 1180 1190 1200 1210 1220 1230 1240 1250 1260 1270 1280 1290 1300 1310 1320 1330 1340 1350 1360 1370 1380 1390 1400 1410 1420 1430 1440 1450 1460 1470 1480 1490 1500 1510 1520 1530 1540 1550 1560 1570 1580 1590 1600 1610 1620 1630 1640 1650 1660 1670 1680 1690 1700 1710 1720 1730 1740 1750 1760 1770 1780 1790 1800 1810 1820 1830 1840 1850 1860 1870 1880 1890 1900 1910 1920 1930 1940 1950 1960 1970 1980 1990 2000 2010 2020 2030 2040 2050 2060 2070 2080 2090 2100 2110 2120 2130 2140 2150 2160 2170 2180 2190 2200 2210 2220 2230 2240 2250 2260 2270 2280 2290 2300 2310 2320 2330 2340 2350 2360 2370 2380 2390 2400 2410 2420 2430 2440 2450 2460 2470 2480 2490 2500 2510 2520 2530 2540 2550 2560 2570 2580 2590 2600 2610 2620 2630 2640 2650 2660 2670 2680 2690 2700 2710 2720 2730 2740 2750 2760 2770 2780 2790 2800 2810 2820 2830 2840 2850 2860 2870 2880 2890 2900 2910 2920 2930 2940 2950 2960 2970 2980 2990 3000 3010 3020 3030 3040 3050 3060 3070 3080 3090 3100 3110 3120 3130 3140 3150 3160 3170 3180 3190 3200 3210 3220 3230 3240 3250 3260 3270 3280 3290 3300 3310 3320 3330 3340 3350 3360 3370 3380 3390 3400 3410 3420 3430 3440 3450 3460 3470 3480 3490 3500 3510 3520 3530 3540 3550 3560 3570 3580 3590 3600 3610 3620 3630 3640 3650 3660 3670 3680 3690 3700 3710 3720 3730 3740 3750 3760 3770 3780 3790 3800 3810 3820 3830 3840 3850 3860 3870 3880 3890 3900 3910 3920 3930 3940 3950 3960 3970 3980 3990 4000 4010 4020 4030 4040 4050 4060 4070 4080 4090 4100 4110 4120 4130 4140 4150 4160 4170 4180 4190 4200 4210 4220 4230 4240 4250 4260 4270 4280 4290 4300 4310 4320 4330 4340 4350 4360 4370 4380 4390 4400 4410 4420 4430 4440 4450 4460 4470 4480 4490 4500 4510 4520 4530 4540 4550 4560 4570 4580 4590 4600 4610 4620 4630 4640 4650 4660 4670 4680 4690 4700 4710 4720 4730 4740 4750 4760 4770 4780 4790 4800 4810 4820 4830 4840 4850 4860 4870 4880 4890 4900 4910 4920 4930 4940 4950 4960 4970 4980 4990 5000 5010 5020 5030 5040 5050 5060 5070 5080 5090 5100 5110 5120 5130 5140 5150 5160 5170 5180 5190 5200 5210 5220 5230 5240 5250 5260 5270 5280 5290 5300 5310 5320 5330 5340 5350 5360 5370 5380 5390 5400 5410 5420 5430 5440 5450 5460 5470 5480 5490 5500 5510 5520 5530 5540 5550 5560 5570 5580 5590 5600 5610 5620 5630 5640 5650 5660 5670 5680 5690 5700 5710 5720 5730 5740 5750 5760 5770 5780 5790 5800 5810 5820 5830 5840 5850 5860 5870 5880 5890 5900 5910 5920 5930 5940 5950 5960 5970 5980 5990 6000 6010 6020 6030 6040 6050 6060 6070 6080 6090 6100 6110 6120 6130 6140 6150 6160 6170 6180 6190 6200 6210 6220 6230 6240 6250 6260 6270 6280 6290 6300 6310 6320 6330 6340 6350 6360 6370 6380 6390 6400 6410 6420 6430 6440 6450 6460 6470 6480 6490 6500 6510 6520 6530 6540 6550 6560 6570 6580 6590 6600 6610 6620 6630 6640 6650 6660 6670 6680 6690 6700 6710 6720 6730 6740 6750 6760 6770 6780 6790 6800 6810 6820 6830 6840 6850 6860 6870 6880 6890 6900 6910 6920 6930 6940 6950 6960 6970 6980 6990 7000 7010 7020 7030 7040 7050 7060 7070 7080 7090 7100 7110 7120 7130 7140 7150 7160 7170 7180 7190 7200 7210 7220 7230 7240 7250 7260 7270 7280 7290 7300 7310 7320 7330 7340 7350 7360 7370 7380 7390 7400 7410 7420 7430 7440 7450 7460 7470 7480 7490 7500 7510 7520 7530 7540 7550 7560 7570 7580 7590 7600 7610 7620 7630 7640 7650 7660 7670 7680 7690 7700 7710 7720 7730 7740 7750 7760 7770 7780 7790 7800 7810 7820 7830 7840 7850 7860 7870 7880 7890 7900 7910 7920 7930 7940 7950 7960 7970 7980 7990 8000 8010 8020 8030 8040 8050 8060 8070 8080 8090 8100 8110 8120 8130 8140 8150 8160 8170 8180 8190 8200 8210 8220 8230 8240 8250 8260 8270 8280 8290 8300 8310 8320 8330 8340 8350 8360 8370 8380 8390 8400 8410 8420 8430 8440 8450 8460 8470 8480 8490 8500 8510 8520 8530 8540 8550 8560 8570 8580 8590 8600 8610 8620 8630 8640 8650 8660 8670 8680 8690 8700 8710 8720 8730 8740 8750 8760 8770 8780 8790 8800 8810 8820 8830 8840 8850 8860 8870 8880 8890 8900 8910 8920 8930 8940 8950 8960 8970 8980 8990 9000 9010 9020 9030 9040 9050 9060 9070 9080 9090 9100 9110 9120 9130 9140 9150 9160 9170 9180 9190 9200 9210 9220 9230 9240 9250 9260 9270 9280 9290 9300 9310 9320 9330 9340 9350 9360 9370 9380 9390 9400 9410 9420 9430 9440 9450 9460 9470 9480 9490 9500 9510 9520 9530 9540 9550 9560 9570 9580 9590 9600 9610 9620 9630 9640 9650 9660 9670 9680 9690 9700 9710 9720 9730 9740 9750 9760 9770 9780 9790 9800 9810 9820 9830 9840 9850 9860 9870 9880 9890 9900 9910 9920 9930 9940 9950 9960 9970 9980 9990 10000 10010 10020 10030 10040 10050 10060 10070 10080 10090 10100 10110 10120 10130 10140 10150 10160 10170 10180 10190 10200 10210 10220 10230 10240 10250 10260 10270 10280 10290 10300 10310 10320 10330 10340 10350 10360 10370 10380 10390 10400 10410 10420 10430 10440 10450 10460 10470 10480 10490 10500 10510 10520 10530 10540 10550 10560 10570 10580 10590 10600 10610 10620 10630 10640 10650 10660 10670 10680 10690 10700 10710 10720 10730 10740 10750 10760 10770 10780 10790 10800 10810 10820 10830 10840 10850 10860 10870 10880 10890 10900 10910 10920 10930 10940 10950 10960 10970 10980 10990 11000 11010 11020 11030 11040 11050 11060 11070 11080 11090 11100 11110 11120 11130 11140 11150 11160 11170 11180 11190 11200 11210 11220 11230 11240 11250 11260 11270 11280 11290 11300 11310 11320 11330 11340 11350 11360 11370 11380 11390 11400 11410 11420 11430 11440 11450 11460 11470 11480 11490 11500 11510 11520 11530 11540 11550 11560 11570 11580 11590 11600 11610 11620 11630 11640 11650 11660 11670 11680 11690 11700 11710 11720 11730 11740 11750 11760 11770 11780 11790 11800 11810 11820 11830 11840 11850 11860 11870 11880 11890 11900 11910 11920 11930 11940 11950 11960 11970 11980 11990 12000 12010 12020 12030 12040 12050 12060 12070 12080 12090 12100 12110 12120 12130 12140 12150 12160 12170 12180 12190 12200 12210 12220 12230 12240 12250 12260 12270 12280 12290 12300 12310 12320 12330 12340 12350 12360 12370 12380 12390 12400 12410 12420 12430 12440 12450 12460 12470 12480 12490 12500 12510 12520 12530 12540 12550 12560 12570 12580 12590 12600 12610 12620 12630 12640 12650 12660 12670 12680 12690 12700 12710 12720 12730 12740 12750 12760 12770 12780 12790 12800 12810 12820 12830 12840 12850 12860 12870 12880 12890 12900 12910 12920 12930 12940 12950 12960 12970 12980 12990 13000 13010 13020 13030 13040 13050 13060 13070 13080 13090 13100 13110 13120 13130 13140 13150 13160 13170 13180 13190 13200 13210 13220 13230 13240 13250 13260 13270 13280 13290 13300 13310 13320 13330 13340 13350 13360 13370 13380 13390 13400 13410 13420 13430 13440 13450 13460 13470 13480 13490 13500 13510 13520 13530 13540 13550 13560 13570 13580 13590 13600 13610 13620 13630 13640 13650 13660 13670 13680 13690 13700 13710 13720 13730 13740 13750 13760 13770 13780 13790 13800 13810 13820 13830 13840 13850 13860 13870 13880 13890 13900 13910 13920 13930 13940 13950 13960 13970 13980 13990 14000 14010 14020 14030 14040 14050 14060 14070 14080 14090 14100 14110 14120 14130 14140 14150 14160 14170 14180 14190 14200 14210 14220 14230 14240 14250 14260 14270 14280 14290 14300 14310 14320 14330 14340 14350 14360 14370 14380 14390 14400 14410 14420 14430 14440 14450 14460 14470 14480 14490 14500 14510 14520 14530 14540 14550 14560 14570 14580 14590 14600 14610 14620 14630 14640 14650 14660 14670 14680 14690 14700 14710 14720 14730 14740 14750 14760 14770 14780 14790 14800 14810 14820 14830 14840 14850 14860 14870 14880 14890 14900 14910 14920 14930 14940 14950 14960 14970 14980 14990 15000 15010 15020 15030 15040 15050 15060 15070 15080 15090 15100 15110 15120 15130 15140 15150 15160 15170 15180 15190 15200 15210 15220 15230 15240 15250 15260 15270 15280 15290 15300 15310 15320 15330 15340 15350 15360 15370 15380 15390 15400 15410 15420 15430 15440 15450 15460 15470 15480 15490 15500 15510 15520 15530 15540 15550 15560 15570 15580 15590 15600 15610 15620 15630 15640 15650 15660 15670 15680 15690 15700 15710 15720 15730 15740 15750 15760 15770 15780 15790 15800 15810 15820 15830 15840 15850 15860 15870 15880 15890 15900 15910 15920 15930 15940 15950 15960 15970 15980 15990 16000 16010 16020 16030 16040 16050 16060 16070 16080 16090 16100 16110 16120 16130 16140 16150 16160 16170 16180 16190 16200 16210 16220 16230 16240 16250 16260 16270 16280 16290 16300 16310 16320 16330 16340 16350 16360 16370 16380 16390 16400 16410 16420 16430 16440 16450 16460 16470 16480 16490 16500 16510 16520 16530 16540 16550 16560 16570 16580 16590 16600 16610 16620 16630 16640 16650 16660 16670 16680 16690 16700 16710 16720 16730 16740 16750 16760 16770 16780 16790 16800 16810 16820 16830 16840 16850 16860 16870 16880 16890 16900 16910 16920 16930 16940 16950 16960 16970 16980 16990 17000 17010 17020 17030 17040 17050 17060 17070 17080 17090 17100 17110 17120 17130 17140 17150 17160 17170 17180 17190 17200 17210 17220 17230 17240 17250 17260 17270 17280 17290 17300 17310 17320 17330 17340 17350 17360 17370 17380 17390 17400 17410 17420 17430 17440 17450 17460 17470 17480 17490 17500 17510 17520 17530 17540 17550 17560 17570 17580 17590 17600 17610 17620 17630 17640 17650 17660 17670 17680 17690 17700 17710 17720 17730 17740 17750 17760 17770 17780 17790 17800 17810 17820 17830 17840 17850 17860 17870 17880 17890 17900 17910 17920 17930 17940 17950 17960 17970 17980 17990 18000 18010 18020 18030 18040 18050 18060 18070 18080 18090 18100 18110 18120 18130 18140 18150 18160 18170 18180 18190 18200 18210 18220 18230 18240 18250 18260 18270 18280 18290 18300 18310 18320 18330 18340 18350 18360 18370 18380 18390 18400 18410 18420 18430 18440 18450 18460 18470 18480 18490 18500 18510 18520 18530 18540 18550 18560 18570 18580 18590 18600 18610 18620 18630 18640 18650 18660 18670 18680 18690 18700 18710 18720 18730 18740 18750 18760 18770 18780 18790 18800 18810 18820 18830 18840 18850 18860 18870 18880 18890 18900 18910 18920 18930 18940 18950 18960 18970 18980 18990 19000 19010 19020 19030 19040 19050 19060 19070 19080 19090 19100 19110 19120 19130 19140 19150 19160 19170 19180 19190 19200 19210 19220 19230 19240 19250 19260 19270 19280 19290 19300 19310 19320 19330 19340 19350 19360 19370 19380 19390 19400 19410 19420 19430 19440 19450 19460 19470 19480 19490 19500 19510 19520 19530 19540 19550 19560 19570 19580 19590 19600 19610 19620 19630 19640 19650 19660 19670 19680 19690 19700 19710 19720 19730 19740 19750 19760 19770 19780 19790 19800 19810 19820 19830 19840 19850 19860 19870 19880 19890 19900 19910 19920 19930 19940 19950 19960 19970 19980 19990 20000 20010 20020 20030 20040 20050 20060 20070 20080 20090 20100 20110 20120 20130 20140 20150 20160 20170 20180 20190 20200 20210 20220 20230 20240 20250 20260 20270 20280 20290 20300 20310 20320 20330 20340 20350 20360 20370 20380 20390 20400 20410 20420 20430 20440 20450 20460 20470 20480 20490 20500 20510 20520 20530 20540 20550 20560 20570 20580 20590 20600 20610 20620 20630 20640 20650 20660 20670 20680 20690 20700 20710 20720 20730 20740 20750 20760 20770 20780 20790 20800 20810 20820 20830 20840 20850 20860 20870 20880 20890 20900 20910 20920 20930 20940 20950 20960 20970 20980 20990 21000 21010 21020 21030 21040 21050 21060 21070 21080 21090 21100 21110 21120 21130 21140 21150 21160 21170 21180 21190 21200 21210 21220 21230 21240 21250 21260 21270 21280 21290 21300 21310 21320 21330 21340 21350 21360 21370 21380 21390 21400 21410 21420 21430 21440 21450 21460 21470 21480 21490 21500 21510 21520 21530 21540 21550 21560 21570 21580 21590 21600 21610 21620 21630 21640 21650 21660 21670 21680 21690 21700 21710 21720 21730 21740 21750 21760 21770 21780 21790 21800 21810 21820 21830 21840 21850 21860 21870 21880 21890 21900 21910 21920 21930 21940 21950 21960 21970 21980 21990 22000 22010 22020 22030 22040 22050 22060 22070 22080 22090 22100 22110 22120 22130 22140 22150 22160 22170 22180 22190 22200 22210 22220 22230 22240 22250 22260 22270 22280 22290 22300 22310 22320 22330 22340 22350 22360 22370 22380 22390 22400 22410 22420 22430 22440 22450 22460 22470 22480 22490 22500 22510 22520 22530 22540 22550 22560 22570 22580 22590 22600 22610 22620 22630 22640 22650 22660 22670 22680 22690 22700 22710 22720 22730 22740 22750 22760 22770 22780 22790 22800 22810 22820 22830 22840 22850 22860 22870 22880 22890 22900 22910 22920 22930 22940 22950 22960 22970 22980 22990 23000 23010 23020 23030 23040 23050 23060 23070 23080 23090 23100 23110 23120 23130 23140 23150 23160 23170 23180 23190 23200 23210 23220 23230 23240 23250 23260 23270 23280 23290 23300 23310 23320 23330 23340 23350 23360 23370 23380 23390 23400 23410 23420 23430 23440 23450 23460 23470 23480 23490 23500 23510 23520 23530 23540 23550 23560 23570 23580 23590 23600 23610 23620 23630 23640 23650 23660 23670 23680 23690 23700 23710 23720 23730 23740 23750 23760 23770 23780 23790 23800 23810 23820 23830 23840 23850 23860 23870 23880 23890 23900 23910 23920 23930 23940 23950 23960 23970 23980 23990 24000 24010 24020 24030 24040 24050 24060 24070 24080 24090 24100 24110 24120 24130 24140 24150 24160 24170 24180 24190 24200 24210 24220 24230 24240 24250 24260 24270 24280 24290 24300 24310 24320 24330 24340 24350 24360 24370 24380 24390 24400 24410 24420 24430 24440 24450 24460 24470 24480 24490 24500 24510 24520 24530 24540 24550 24560 24570 24580 24590 24600 24610 24620 24630 24640 24650 24660 24670 24680 24690 24700 24710 24720 24730 24740 24750 24760 24770 24780 24790 24800 24810 24820 24830 24840 24850 24860 24870 24880 24890 24900 24910 24920 24930 24940 24950 24960 24970 24980 24990 25000 25010 25020 25030 25040 25050 25060 25070 25080 25090 25100 25110 25120 25130 25140 25150 25160 25170 25180 25190 25200 25210 25220 25230 25240 25250 25260 25270 25280 25290 25300 25310 25320 25330 25340 25350 25360 25370 25380 25390 25400 25410 25420 25430 25440 25450 25460 25470 25480 25490 25500 25510 25520 25530 25540 25550 25560 25570 25580 25590 25600 25610 25620 25630 25640 25650 25660 25670 25680 25690 25700 25710 25720 25730 25740 25750 25760 25770 25780 25790 25800 25810 25820 25830 25840 25850 25860 25870 25880 25890 25900 25910 25920 25930 25940 25950 25960 25970 25980 25990 26000 26010 26020 26030 26040 26050 26060 26070 26080 26090 26100 26110 26120 26130 26140 26150 26160 26170 26180 26190 26200 26210 26220 26230 26240 26250 26260 26270 26280 26290 26300 26310 26320 26330 26340 26350 26360 26370 26380 26390 26400 26410 26420 26430 26440 26450 26460 26470 26480 26490 26500 26510 26520 26530 26540 26550 26560 26570 26580 26590 26600 26610 26620 26630 26640 26650 26660 26670 26680 26690 26700 26710 26720 26730 26740 26750 26760 26770 26780 26790 26800 26810 26820 26830 26840 26850 26860 26870 26880 26890 26900 26910 26920 26930 26940 26950 26960 26970 26980 26990 27000 27010 27020 27030 27040 27050 27060 27070 27080 27090 27100 27110 27120 27130 27140 27150 27160 27170 27180 27190 27200 27210 27220 27230 27240 27250 27260 27270 27280 27290 27300 27310 27320 27330 27340 27350 27360 27370 27380 27390 27400 27410 27420 27430 27440 27450 27460 27470 27480 27490 27500 27510 27520 27530 27540 27550 27560 27570 27580 27590 27600 27610 27620 27630 27640 27650 27660 27670 27680 27690 27700 27710 27720 27730 27740 27750 27760 27770 27780 27790 27800 27810 27820 27830 27840 27850 27860 27870 27880 27890 27900 27910 27920 27930 27940 27950 27960 27970 27980 27990 28000 28010 28020 28030 28040 28050 28060 28070 28080 28090 28100 28110 28120 28130 28140 28150 28160 28170 28180 28190 28200 28210 28220 28230 28240 28250 28260 28270 28280 28290 28300 28310 28320 28330 28340 28350 28360 28370 28380 28390 28400 28410 28420 28430 28440 28450 28460 28470 28480 28490 28500 28510 28520 28530 28540 28550 28560 28570 28580 28590 28600 28610 28620 28630 28640 28650 28660 28670 28680 28690 28700 28710 28720 28730 28740 28750 28760 28770 28780 28790 28800 28810 28820 28830 28840 28850 28860 28870 28880 28890 28900 28910 28920 28930 28940 28950 28960 28970 28980 28990 29000 29010 29020 29030 29040 29050 29060 29070 29080 29090 29100 29110 29120 29130 29140 29150 29160 29170 29180 29190 29200 29210 29220 29230 29240 29250 29260 29270 29280 29290 29300 29310 29320 29330 29340 29350 29360 29370 29380 29390 29400 29410 29420 29430 29440 29450 29460 29470 29480 29490 29500 29510 29520 29530 29540 29550 29560 29570 29580 29590 29600 29610 29620 29630 29640 29650 29660 29670 29680 29690 29700 29710 29720 29730 29740 29750 29760 29770 29780 29790 29800 29810 29820 29830 29840 29850 29860 29870 29880 29890 29900 29910 29920 29930 29940 29950 29960 29970 29980 29990 30000 30010 30020 30030 30040 30050 30060 30070 30080 30090 30100 30110 30120 30130 30140 30150 30160 30170 30180 30190 30200 30210 30220 30230 30240 30250 30260 30270 30280 30290 30300 30310 30320 30330 30340 30350 30360 30370 30380 30390 30400 30410 30420 30430 30440 30450 30460 30470 30480 30490 30500 30510 30520 30530 30540 30550 30560 30570 30580 30590 30600 30610 30620 30630 30640 30650 30660 30670 30680 30690 30700 30710 30720 30730 30740 30750 30760 30770 30780 30790 30800 30810 30820 30830 30840 30850 30860 30870 30880 30890 30900 30910 30920 30930 30940 30950 30960 30970 30980 30990 31000 31010 31020 31030 31040 31050 31060 31070 31080 31090 31100 31110 31120 31130 31140 31150 31160 31170 31180 31190 31200 31210 31220 31230 31240 31250 31260 31270 31280 31290 31300 31310 31320 31330 31340 31350 31360 31370 31380 31390 31400 31410 31420 31430 31440 31450 31460 31470 31480 31490 31500 31510 31520 31530 31540 31550 31560 31570 31580 31590 31600 31610 31620 31630 31640 31650 31660 31670 31680 31690 31700 31710 31720 31730 31740 31750 31760 31770 31780 31790 31800 31810 31820 31830 31840 31850 31860 31870 31880 31890 31900 31910 31920 31930 31940 31950 31960 31970 31980 31990 32000 32010 32020 32030 32040 32050 32060 32070 32080 32090 32100 32110 32120 32130 32140 32150 32160 32170 32180 32190 32200 32210 32220 32230 32240 32250 32260 32270 32280 32290 32300 32310 32320 32330 32340 32350 32360 32370 32380 32390 32400 32410 32420 32430 32440 32450 32460 32470 32480 32490 32500 32510 32520 32530 32540 32550 32560 32570 32580 32590 32600 32610 32620 32630 32640 32650 32660 32670 32680 32690 32700 32710 32720 32730 32740 32750 32760 32770 32780 32790 32800 32810 32820 32830 32840 32850 32860 32870 32880 32890 32900 32910 32920 32930 32940 32950 32960 32970 32980 32990 33000 33010 33020 33030 33040 33050 33060 33070 33080 33090 33100 33110 33120 33130 33140 33150 33160 33170 33180 33190 33200 33210 33220 33230 33240 33250 33260 33270 33280 33290 33300 33310 33320 33330 33340 33350 33360 33370 33380 33390 33400 33410 33420 33430 33440 33450 33460 33470 33480 33490 33500 33510 33520 33530 33540 33550 33560 33570 33580 33590 33600 33610 33620 33630 33640 33650 33660 33670 33680 33690 33700 33710 33720 33730 33740 33750 33760 33770 33780 33790 33800 33810 33820 33830 33840 33850 33860 33870 33880 33890 33900 33910 33920 33930 33940 33950 33960 33970 33980 33990 34000 34010 34020 34030 34040 34050 34060 34070 34080 34090 34100 34110 34120 34130 34140 34150 34160 34170 34180 34190 34200 34210 34220 34230 34240 34250 34260 34270 34280 34290 34300 34310 34320 34330 34340 34350 34360 34370 34380 34390 34400 34410 34420 34430 34440 34450 34460 34470 34480 34490 34500 34510 34520 34530 34540 34550 34560 34570 34580 34590 34600 34610 34620 34630 34640 34650 34660 34670 34680 34690 34700 34710 34720 34730 34740 34750 34760 34770 34780 34790 34800 34810 34820 34830 34840 34850 34860 34870 34880 34890 34900 34910 34920 34930 34940 34950 34960 34970 34980 34990 35000 35010 35020 35030 35040 35050 35060 35070 35080 35090 35100 35110 35120 35130 35140 35150 35160 35170 35180 35190 35200 35210 35220 35230 35240 35250 35260 35270 35280 35290 35300 35310 35320 35330 35340 35350 35360 35370 35380 35390 35400 35410 35420 35430 35440 35450 35460 35470 35480 35490 35500 35510 35520 35530 35540 35550 35560 35570 35580 35590 35600 35610 35620 35630 35640 35650 35660 35670 35680 35690 35700 35710 35720 35730 35740 35750 35760 35770 35780 35790 35800 35810 35820 35830 35840 35850 35860 35870 35880 35890 35900 35910 35920 35930 35940 35950 35960 35970 35980 35990 36000 36010 36020 36030 36040 36050 36060 36070 36080 36090 36100 36110 36120 36130 36140 36150 36160 36170 36180 36190 36200 36210 36220 36230 36240 36250 36260 36270 36280 36290 36300 36310 36320 36330 36340 36350 36360 36370 36380 36390 36400 36410 36420 36430 36440 36450 36460 36470 36480 36490 36500 36510 36520 36530 36540 36550 36560 36570 36580 36590 36600 36610 36620 36630 36640 36650 36660 36670 36680 36690 36700 36710 36720 36730 36740 36750 36760 36770 36780 36790 36800 36810 36820 36830 36840 36850 36860 36870 36880 36890 36900 36910 36920 36930 36940 36950 36960 36970 36980 36990 37000 37010 37020 37030 37040 37050 37060 37070 37080 37090 37100 37110 37120 37130 37140 37150 37160 37170 37180 37190 37200 37210 37220 37230 37240 37250 37260 37270 37280 37290 37300 37310 37320 37330 37340 37350 37360 37370 37380 37390 37400 37410 37420 37430 37440 37450 37460 37470 37480 37490 37500 37510 37520 37530 37540 37550 37560 37570 37580 37590 37600 37610 37620 37630 37640 37650 37660 37670 37680 37690 37700 37710 37720 37730 37740 37750 37760 37770 37780 37790 37800 37810 37820 37830 37840 37850 37860 37870 37880 37890 37900 37910 37920 37930 37940 37950 37960 37970 37980 37990 38000 38010 38020 38030 38040 38050 38060 38070 38080 38090 38100 38110 38120 38130 38140 38150 38160 38170 38180 38190 38200 38210 38220 38230 38240 38250 38260 38270 38280 38290 38300 38310 38320 38330 38340 38350 38360 38370 38380 38390 38400 38410 38420 38430 38440 38450 38460 38470 38480 38490 38500 38510 38520 38530 38540 38550 38560 38570 38580 38590 38600 38610 38620 38630 38640 38650 38660 38670 38680 38690 38700 38710 38720 38730 38740 38750 38760 38770 38780 38790 38800 38810 38820 38830 38840 38850 38860 38870 38880 
CONNECTIVITY vtktypeint64
0 19 153 20 931 932 933 934 935 936 
133 153 134 0 937 938 939 940 933 941 
0 19 152 153 931 942 943 933 932 944 
133 153 0 152 937 933 940 945 944 943 
134 0 153 1 941 933 938 946 947 948 
153 0 20 1 933 934 936 948 947 949 
1 20 154 21 949 950 951 952 953 954 
134 154 135 1 955 956 957 946 951 958 
1 20 153 154 949 936 948 951 950 959 
134 154 1 153 955 951 946 938 959 948 
135 1 154 2 958 951 956 960 961 962 
154 1 21 2 951 952 954 962 961 963 
2 21 155 22 963 964 965 966 967 968 
135 155 136 2 969 970 971 960 965 972 
2 21 154 155 963 954 962 965 964 973 
135 155 2 154 969 965 960 956 973 962 
136 2 155 3 972 965 970 974 975 976 
155 2 22 3 965 966 968 976 975 977 
3 22 156 23 977 978 979 980 981 982 
136 156 137 3 983 984 985 974 979 986 
3 22 155 156 977 968 976 979 978 987 
136 156 3 155 983 979 974 970 987 976 
137 3 156 4 986 979 984 988 989 990 
156 3 23 4 979 980 982 990 989 991 
4 23 157 24 991 992 993 994 995 996 
137 157 138 4 997 998 999 988 993 1000 
4 23 156 157 991 982 990 993 992 1001 
137 157 4 156 997 993 988 984 1001 990 
138 4 157 5 1000 993 998 1002 1003 1004 
157 4 24 5 993 994 996 1004 1003 1005 
5 24 158 25 1005 1006 1007 1008 1009 1010 
138 158 139 5 1011 1012 1013 1002 1007 1014 
5 24 157 158 1005 996 1004 1007 1006 1015 
138 158 5 157 1011 1007 1002 998 1015 1004 
139 5 158 6 1014 1007 1012 1016 1017 1018 
158 5 25 6 1007 1008 1010 1018 1017 1019 
6 25 159 26 1019 1020 1021 1022 1023 1024 
139 159 140 6 1025 1026 1027 1016 1021 1028 
6 25 158 159 1019 1010 1018 1021 1020 1029 
139 159 6 158 1025 1021 1016 1012 1029 1018 
140 6 159 7 1028 1021 1026 1030 1031 1032 
159 6 26 7 1021 1022 1024 1032 1031 1033 
7 26 160 27 1033 1034 1035 1036 1037 1038 
140 160 141 7 1039 1040 1041 1030 1035 1042 
7 26 159 160 1033 1024 1032 1035 1034 1043 
140 160 7 159 1039 1035 1030 1026 1043 1032 
141 7 160 8 1042 1035 1040 1044 1045 1046 
160 7 27 8 1035 1036 1038 1046 1045 1047 
8 27 161 28 1047 1048 1049 1050 1051 1052 
141 161 142 8 1053 1054 1055 1044 1049 1056 
8 27 160 161 1047 1038 1046 1049 1048 1057 
141 161 8 160 1053 1049 1044 1040 1057 1046 
142 8 161 9 1056 1049 1054 1058 1059 1060 
161 8 28 9 1049 1050 1052 1060 1059 1061 
9 28 162 29 1061 1062 1063 1064 1065 1066 
142 162 143 9 1067 1068 1069 1058 1063 1070 
9 28 161 162 1061 1052 1060 1063 1062 1071 
142 162 9 161 1067 1063 1058 1054 1071 1060 
143 9 162 10 1070 1063 1068 1072 1073 1074 
162 9 29 10 1063 1064 1066 1074 1073 1075 
10 29 163 30 1075 1076 1077 1078 1079 1080 
143 163 144 10 1081 1082 1083 1072 1077 1084 
10 29 162 163 1075 1066 1074 1077 1076 1085 
143 163 10 162 1081 1077 1072 1068 1085 1074 
144 10 163 11 1084 1077 1082 1086 1087 1088 
163 10 30 11 1077 1078 1080 1088 1087 1089 
11 30 164 31 1089 1090 1091 1092 1093 1094 
144 164 145 11 1095 1096 1097 1086 1091 1098 
11 30 163 164 1089 1080 1088 1091 1090 1099 
144 164 11 163 1095 1091 1086 1082 1099 1088 
145 11 164 12 1098 1091 1096 1100 1101 1102 
164 11 31 12 1091 1092 1094 1102 1101 1103 
12 31 165 32 1103 1104 1105 1106 1107 1108 
145 165 146 12 1109 1110 1111 1100 1105 1112 
12 31 164 165 1103 1094 1102 1105 1104 1113 
145 165 12 164 1109 1105 1100 1096 1113 1102 
146 12 165 13 1112 1105 1110 1114 1115 1116 
165 12 32 13 1105 1106 1108 1116 1115 1117 
13 32 166 33 1117 1118 1119 1120 1121 1122 
146 166 147 13 1123 1124 1125 1114 1119 1126 
13 32 165 166 1117 1108 1116 1119 1118 1127 
146 166 13 165 1123 1119 1114 1110 1127 1116 
147 13 166 14 1126 1119 1124 1128 1129 1130 
166 13 33 14 1119 1120 1122 1130 1129 1131 
14 33 167 34 1131 1132 1133 1134 1135 1136 
147 167 148 14 1137 1138 1139 1128 1133 1140 
14 33 166 167 1131 1122 1130 1133 1132 1141 
147 167 14 166 1137 1133 1128 1124 1141 1130 
148 14 167 15 1140 1133 1138 1142 1143 1144 
167 14 34 15 1133 1134 1136 1144 1143 1145 
15 34 168 35 1145 1146 1147 1148 1149 1150 
148 168 149 15 1151 1152 1153 1142 1147 1154 
15 34 167 168 1145 1136 1144 1147 1146 1155 
148 168 15 167 1151 1147 1142 1138 1155 1144 
149 15 168 16 1154 1147 1152 1156 1157 1158 
168 15 35 16 1147 1148 1150 1158 1157 1159 
16 35 169 36 1159 1160 1161 1162 1163 1164 
149 169 150 16 1165 1166 1167 1156 1161 1168 
16 35 168 169 1159 1150 1158 1161 1160 1169 
149 169 16 168 1165 1161 1156 1152 1169 1158 
150 16 169 17 1168 1161 1166 1170 1171 1172 
169 16 36 17 1161 1162 1164 1172 1171 1173 
17 36 170 37 1173 1174 1175 1176 1177 1178 
150 170 151 17 1179 1180 1181 1170 1175 1182 
17 36 169 170 1173 1164 1172 1175 1174 1183 
150 170 17 169 1179 1175 1170 1166 1183 1172 
151 17 170 18 1182 1175 1180 1184 1185 1186 
170 17 37 18 1175 1176 1178 1186 1185 1187 
19 38 172 39 1188 1189 1190 1191 1192 1193 
152 172 153 19 1194 1195 944 942 1190 932 
19 38 171 172 1188 1196 1197 1190 1189 1198 
152 172 19 171 1194 1190 942 1199 1198 1197 
153 19 172 20 932 1190 1195 936 935 1200 
172 19 39 20 1190 1191 1193 1200 935 1201 
20 39 173 40 1201 1202 1203 1204 1205 1206 
153 173 154 20 1207 1208 959 936 1203 950 
20 39 172 173 1201 1193 1200 1203 1202 1209 
153 173 20 172 1207 1203 936 1195 1209 1200 
154 20 173 21 950 1203 1208 954 953 1210 
173 20 40 21 1203 1204 1206 1210 953 1211 
21 40 174 41 1211 1212 1213 1214 1215 1216 
154 174 155 21 1217 1218 973 954 1213 964 
21 40 173 174 1211 1206 1210 1213 1212 1219 
154 174 21 173 1217 1213 954 1208 1219 1210 
155 21 174 22 964 1213 1218 968 967 1220 
174 21 41 22 1213 1214 1216 1220 967 1221 
22 41 175 42 1221 1222 1223 1224 1225 1226 
155 175 156 22 1227 1228 987 968 1223 978 
22 41 174 175 1221 1216 1220 1223 1222 1229 
155 175 22 174 1227 1223 968 1218 1229 1220 
156 22 175 23 978 1223 1228 982 981 1230 
175 22 42 23 1223 1224 1226 1230 981 1231 
23 42 176 43 1231 1232 1233 1234 1235 1236 
156 176 157 23 1237 1238 1001 982 1233 992 
23 42 175 176 1231 1226 1230 1233 1232 1239 
156 176 23 175 1237 1233 982 1228 1239 1230 
157 23 176 24 992 1233 1238 996 995 1240 
176 23 43 24 1233 1234 1236 1240 995 1241 
24 43 177 44 1241 1242 1243 1244 1245 1246 
157 177 158 24 1247 1248 1015 996 1243 1006 
24 43 176 177 1241 1236 1240 1243 1242 1249 
157 177 24 176 1247 1243 996 1238 1249 1240 
158 24 177 25 1006 1243 1248 1010 1009 1250 
177 24 44 25 1243 1244 1246 1250 1009 1251 
25 44 178 45 1251 1252 1253 1254 1255 1256 
158 178 159 25 1257 1258 1029 1010 1253 1020 
25 44 177 178 1251 1246 1250 1253 1252 1259 
158 178 25 177 1257 1253 1010 1248 1259 1250 
159 25 178 26 1020 1253 1258 1024 1023 1260 
178 25 45 26 1253 1254 1256 1260 1023 1261 
26 45 179 46 1261 1262 1263 1264 1265 1266 
159 179 160 26 1267 1268 1043 1024 1263 1034 
26 45 178 179 1261 1256 1260 1263 1262 1269 
159 179 26 178 1267 1263 1024 1258 1269 1260 
160 26 179 27 1034 1263 1268 1038 1037 1270 
179 26 46 27 1263 1264 1266 1270 1037 1271 
27 46 180 47 1271 1272 1273 1274 1275 1276 
160 180 161 27 1277 1278 1057 1038 1273 1048 
27 46 179 180 1271 1266 1270 1273 1272 1279 
160 180 27 179 1277 1273 1038 1268 1279 1270 
161 27 180 28 1048 1273 1278 1052 1051 1280 
180 27 47 28 1273 1274 1276 1280 1051 1281 
28 47 181 48 1281 1282 1283 1284 1285 1286 
161 181 162 28 1287 1288 1071 1052 1283 1062 
28 47 180 181 1281 1276 1280 1283 1282 1289 
161 181 28 180 1287 1283 1052 1278 1289 1280 
162 28 181 29 1062 1283 1288 1066 1065 1290 
181 28 48 29 1283 1284 1286 1290 1065 1291 
29 48 182 49 1291 1292 1293 1294 1295 1296 
162 182 163 29 1297 1298 1085 1066 1293 1076 
29 48 181 182 1291 1286 1290 1293 1292 1299 
162 182 29 181 1297 1293 1066 1288 1299 1290 
163 29 182 30 1076 1293 1298 1080 1079 1300 
182 29 49 30 1293 1294 1296 1300 1079 1301 
30 49 183 50 1301 1302 1303 1304 1305 1306 
163 183 164 30 1307 1308 1099 1080 1303 1090 
30 49 182 183 1301 1296 1300 1303 1302 1309 
163 183 30 182 1307 1303 1080 1298 1309 1300 
164 30 183 31 1090 1303 1308 1094 1093 1310 
183 30 50 31 1303 1304 1306 1310 1093 1311 
31 50 184 51 1311 1312 1313 1314 1315 1316 
164 184 165 31 1317 1318 1113 1094 1313 1104 
31 50 183 184 1311 1306 1310 1313 1312 1319 
164 184 31 183 1317 1313 1094 1308 1319 1310 
165 31 184 32 1104 1313 1318 1108 1107 1320 
184 31 51 32 1313 1314 1316 1320 1107 1321 
32 51 185 52 1321 1322 1323 1324 1325 1326 
165 185 166 32 1327 1328 1127 1108 1323 1118 
32 51 184 185 1321 1316 1320 1323 1322 1329 
165 185 32 184 1327 1323 1108 1318 1329 1320 
166 32 185 33 1118 1323 1328 1122 1121 1330 
185 32 52 33 1323 1324 1326 1330 1121 1331 
33 52 186 53 1331 1332 1333 1334 1335 1336 
166 186 167 33 1337 1338 1141 1122 1333 1132 
33 52 185 186 1331 1326 1330 1333 1332 1339 
166 186 33 185 1337 1333 1122 1328 1339 1330 
167 33 186 34 1132 1333 1338 1136 1135 1340 
186 33 53 34 1333 1334 1336 1340 1135 1341 
34 53 187 54 1341 1342 1343 1344 1345 1346 
167 187 168 34 1347 1348 1155 1136 1343 1146 
34 53 186 187 1341 1336 1340 1343 1342 1349 
167 187 34 186 1347 1343 1136 1338 1349 1340 
168 34 187 35 1146 1343 1348 1150 1149 1350 
187 34 54 35 1343 1344 1346 1350 1149 1351 
35 54 188 55 1351 1352 1353 1354 1355 1356 
168 188 169 35 1357 1358 1169 1150 1353 1160 
35 54 187 188 1351 1346 1350 1353 1352 1359 
168 188 35 187 1357 1353 1150 1348 1359 1350 
169 35 188 36 1160 1353 1358 1164 1163 1360 
188 35 55 36 1353 1354 1356 1360 1163 1361 
36 55 189 56 1361 1362 1363 1364 1365 1366 
169 189 170 36 1367 1368 1183 1164 1363 1174 
36 55 188 189 1361 1356 1360 1363 1362 1369 
169 189 36 188 1367 1363 1164 1358 1369 1360 
170 36 189 37 1174 1363 1368 1178 1177 1370 
189 36 56 37 1363 1364 1366 1370 1177 1371 
38 57 191 58 1372 1373 1374 1375 1376 1377 
171 191 172 38 1378 1379 1198 1196 1374 1189 
38 57 190 191 1372 1380 1381 1374 1373 1382 
171 191 38 190 1378 1374 1196 1383 1382 1381 
172 38 191 39 1189 1374 1379 1193 1192 1384 
191 38 58 39 1374 1375 1377 1384 1192 1385 
39 58 192 59 1385 1386 1387 1388 1389 1390 
172 192 173 39 1391 1392 1209 1193 1387 1202 
39 58 191 192 1385 1377 1384 1387 1386 1393 
172 192 39 191 1391 1387 1193 1379 1393 1384 
173 39 192 40 1202 1387 1392 1206 1205 1394 
192 39 59 40 1387 1388 1390 1394 1205 1395 
40 59 193 60 1395 1396 1397 1398 1399 1400 
173 193 174 40 1401 1402 1219 1206 1397 1212 
40 59 192 193 1395 1390 1394 1397 1396 1403 
173 193 40 192 1401 1397 1206 1392 1403 1394 
174 40 193 41 1212 1397 1402 1216 1215 1404 
193 40 60 41 1397 1398 1400 1404 1215 1405 
41 60 194 61 1405 1406 1407 1408 1409 1410 
174 194 175 41 1411 1412 1229 1216 1407 1222 
41 60 193 194 1405 1400 1404 1407 1406 1413 
174 194 41 193 1411 1407 1216 1402 1413 1404 
175 41 194 42 1222 1407 1412 1226 1225 1414 
194 41 61 42 1407 1408 1410 1414 1225 1415 
42 61 195 62 1415 1416 1417 1418 1419 1420 
175 195 176 42 1421 1422 1239 1226 1417 1232 
42 61 194 195 1415 1410 1414 1417 1416 1423 
175 195 42 194 1421 1417 1226 1412 1423 1414 
176 42 195 43 1232 1417 1422 1236 1235 1424 
195 42 62 43 1417 1418 1420 1424 1235 1425 
43 62 196 63 1425 1426 1427 1428 1429 1430 
176 196 177 43 1431 1432 1249 1236 1427 1242 
43 62 195 196 1425 1420 1424 1427 1426 1433 
176 196 43 195 1431 1427 1236 1422 1433 1424 
177 43 196 44 1242 1427 1432 1246 1245 1434 
196 43 63 44 1427 1428 1430 1434 1245 1435 
44 63 197 64 1435 1436 1437 1438 1439 1440 
177 197 178 44 1441 1442 1259 1246 1437 1252 
44 63 196 197 1435 1430 1434 1437 1436 1443 
177 197 44 196 1441 1437 1246 1432 1443 1434 
178 44 197 45 1252 1437 1442 1256 1255 1444 
197 44 64 45 1437 1438 1440 1444 1255 1445 
45 64 198 65 1445 1446 1447 1448 1449 1450 
178 198 179 45 1451 1452 1269 1256 1447 1262 
45 64 197 198 1445 1440 1444 1447 1446 1453 
178 198 45 197 1451 1447 1256 1442 1453 1444 
179 45 198 46 1262 1447 1452 1266 1265 1454 
198 45 65 46 1447 1448 1450 1454 1265 1455 
46 65 199 66 1455 1456 1457 1458 1459 1460 
179 199 180 46 1461 1462 1279 1266 1457 1272 
46 65 198 199 1455 1450 1454 1457 1456 1463 
179 199 46 198 1461 1457 1266 1452 1463 1454 
180 46 199 47 1272 1457 1462 1276 1275 1464 
199 46 66 47 1457 1458 1460 1464 1275 1465 
47 66 200 67 1465 1466 1467 1468 1469 1470 
180 200 181 47 1471 1472 1289 1276 1467 1282 
47 66 199 200 1465 1460 1464 1467 1466 1473 
180 200 47 199 1471 1467 1276 1462 1473 1464 
181 47 200 48 1282 1467 1472 1286 1285 1474 
200 47 67 48 1467 1468 1470 1474 1285 1475 
48 67 201 68 1475 1476 1477 1478 1479 1480 
181 201 182 48 1481 1482 1299 1286 1477 1292 
48 67 200 201 1475 1470 1474 1477 1476 1483 
181 201 48 200 1481 1477 1286 1472 1483 1474 
182 48 201 49 1292 1477 1482 1296 1295 1484 
201 48 68 49 1477 1478 1480 1484 1295 1485 
49 68 202 69 1485 1486 1487 1488 1489 1490 
182 202 183 49 1491 1492 1309 1296 1487 1302 
49 68 201 202 1485 1480 1484 1487 1486 1493 
182 202 49 201 1491 1487 1296 1482 1493 1484 
183 49 202 50 1302 1487 1492 1306 1305 1494 
202 49 69 50 1487 1488 1490 1494 1305 1495 
50 69 203 70 1495 1496 1497 1498 1499 1500 
183 203 184 50 1501 1502 1319 1306 1497 1312 
50 69 202 203 1495 1490 1494 1497 1496 1503 
183 203 50 202 1501 1497 1306 1492 1503 1494 
184 50 203 51 1312 1497 1502 1316 1315 1504 
203 50 70 51 1497 1498 1500 1504 1315 1505 
51 70 204 71 1505 1506 1507 1508 1509 1510 
184 204 185 51 1511 1512 1329 1316 1507 1322 
51 70 203 204 1505 1500 1504 1507 1506 1513 
184 204 51 203 1511 1507 1316 1502 1513 1504 
185 51 204 52 1322 1507 1512 1326 1325 1514 
204 51 71 52 1507 1508 1510 1514 1325 1515 
52 71 205 72 1515 1516 1517 1518 1519 1520 
185 205 186 52 1521 1522 1339 1326 1517 1332 
52 71 204 205 1515 1510 1514 1517 1516 1523 
185 205 52 204 1521 1517 1326 1512 1523 1514 
186 52 205 53 1332 1517 1522 1336 1335 1524 
205 52 72 53 1517 1518 1520 1524 1335 1525 
53 72 206 73 1525 1526 1527 1528 1529 1530 
186 206 187 53 1531 1532 1349 1336 1527 1342 
53 72 205 206 1525 1520 1524 1527 1526 1533 
186 206 53 205 1531 1527 1336 1522 1533 1524 
187 53 206 54 1342 1527 1532 1346 1345 1534 
206 53 73 54 1527 1528 1530 1534 1345 1535 
54 73 207 74 1535 1536 1537 1538 1539 1540 
187 207 188 54 1541 1542 1359 1346 1537 1352 
54 73 206 207 1535 1530 1534 1537 1536 1543 
187 207 54 206 1541 1537 1346 1532 1543 1534 
188 54 207 55 1352 1537 1542 1356 1355 1544 
207 54 74 55 1537 1538 1540 1544 1355 1545 
55 74 208 75 1545 1546 1547 1548 1549 1550 
188 208 189 55 1551 1552 1369 1356 1547 1362 
55 74 207 208 1545 1540 1544 1547 1546 1553 
188 208 55 207 1551 1547 1356 1542 1553 1544 
189 55 208 56 1362 1547 1552 1366 1365 1554 
208 55 75 56 1547 1548 1550 1554 1365 1555 
57 76 210 77 1556 1557 1558 1559 1560 1561 
190 210 191 57 1562 1563 1382 1380 1558 1373 
57 76 209 210 1556 1564 1565 1558 1557 1566 
190 210 57 209 1562 1558 1380 1567 1566 1565 
191 57 210 58 1373 1558 1563 1377 1376 1568 
210 57 77 58 1558 1559 1561 1568 1376 1569 
58 77 211 78 1569 1570 1571 1572 1573 1574 
191 211 192 58 1575 1576 1393 1377 1571 1386 
58 77 210 211 1569 1561 1568 1571 1570 1577 
191 211 58 210 1575 1571 1377 1563 1577 1568 
192 58 211 59 1386 1571 1576 1390 1389 1578 
211 58 78 59 1571 1572 1574 1578 1389 1579 
59 78 212 79 1579 1580 1581 1582 1583 1584 
192 212 193 59 1585 1586 1403 1390 1581 1396 
59 78 211 212 1579 1574 1578 1581 1580 1587 
192 212 59 211 1585 1581 1390 1576 1587 1578 
193 59 212 60 1396 1581 1586 1400 1399 1588 
212 59 79 60 1581 1582 1584 1588 1399 1589 
60 79 213 80 1589 1590 1591 1592 1593 1594 
193 213 194 60 1595 1596 1413 1400 1591 1406 
60 79 212 213 1589 1584 1588 1591 1590 1597 
193 213 60 212 1595 1591 1400 1586 1597 1588 
194 60 213 61 1406 1591 1596 1410 1409 1598 
213 60 80 61 1591 1592 1594 1598 1409 1599 
61 80 214 81 1599 1600 1601 1602 1603 1604 
194 214 195 61 1605 1606 1423 1410 1601 1416 
61 80 213 214 1599 1594 1598 1601 1600 1607 
194 214 61 213 1605 1601 1410 1596 1607 1598 
195 61 214 62 1416 1601 1606 1420 1419 1608 
214 61 81 62 1601 1602 1604 1608 1419 1609 
62 81 215 82 1609 1610 1611 1612 1613 1614 
195 215 196 62 1615 1616 1433 1420 1611 1426 
62 81 214 215 1609 1604 1608 1611 1610 1617 
195 215 62 214 1615 1611 1420 1606 1617 1608 
196 62 215 63 1426 1611 1616 1430 1429 1618 
215 62 82 63 1611 1612 1614 1618 1429 1619 
63 82 216 83 1619 1620 1621 1622 1623 1624 
196 216 197 63 1625 1626 1443 1430 1621 1436 
63 82 215 216 1619 1614 1618 1621 1620 1627 
196 216 63 215 1625 1621 1430 1616 1627 1618 
197 63 216 64 1436 1621 1626 1440 1439 1628 
216 63 83 64 1621 1622 1624 1628 1439 1629 
64 83 217 84 1629 1630 1631 1632 1633 1634 
197 217 198 64 1635 1636 1453 1440 1631 1446 
64 83 216 217 1629 1624 1628 1631 1630 1637 
197 217 64 216 1635 1631 1440 1626 1637 1628 
198 64 217 65 1446 1631 1636 1450 1449 1638 
217 64 84 65 1631 1632 1634 1638 1449 1639 
65 84 218 85 1639 1640 1641 1642 1643 1644 
198 218 199 65 1645 1646 1463 1450 1641 1456 
65 84 217 218 1639 1634 1638 1641 1640 1647 
198 218 65 217 1645 1641 1450 1636 1647 1638 
199 65 218 66 1456 1641 1646 1460 1459 1648 
218 65 85 66 1641 1642 1644 1648 1459 1649 
66 85 219 86 1649 1650 1651 1652 1653 1654 
199 219 200 66 1655 1656 1473 1460 1651 1466 
66 85 218 219 1649 1644 1648 1651 1650 1657 
199 219 66 218 1655 1651 1460 1646 1657 1648 
200 66 219 67 1466 1651 1656 1470 1469 1658 
219 66 86 67 1651 1652 1654 1658 1469 1659 
67 86 220 87 1659 1660 1661 1662 1663 1664 
200 220 201 67 1665 1666 1483 1470 1661 1476 
67 86 219 220 1659 1654 1658 1661 1660 1667 
200 220 67 219 1665 1661 1470 1656 1667 1658 
201 67 220 68 1476 1661 1666 1480 1479 1668 
220 67 87 68 1661 1662 1664 1668 1479 1669 
68 87 221 88 1669 1670 1671 1672 1673 1674 
201 221 202 68 1675 1676 1493 1480 1671 1486 
68 87 220 221 1669 1664 1668 1671 1670 1677 
201 221 68 220 1675 1671 1480 1666 1677 1668 
202 68 221 69 1486 1671 1676 1490 1489 1678 
221 68 88 69 1671 1672 1674 1678 1489 1679 
69 88 222 89 1679 1680 1681 1682 1683 1684 
202 222 203 69 1685 1686 1503 1490 1681 1496 
69 88 221 222 1679 1674 1678 1681 1680 1687 
202 222 69 221 1685 1681 1490 1676 1687 1678 
203 69 222 70 1496 1681 1686 1500 1499 1688 
222 69 89 70 1681 1682 1684 1688 1499 1689 
70 89 223 90 1689 1690 1691 1692 1693 1694 
203 223 204 70 1695 1696 1513 1500 1691 1506 
70 89 222 223 1689 1684 1688 1691 1690 1697 
203 223 70 222 1695 1691 1500 1686 1697 1688 
204 70 223 71 1506 1691 1696 1510 1509 1698 
223 70 90 71 1691 1692 1694 1698 1509 1699 
71 90 224 91 1699 1700 1701 1702 1703 1704 
204 224 205 71 1705 1706 1523 1510 1701 1516 
71 90 223 224 1699 1694 1698 1701 1700 1707 
204 224 71 223 1705 1701 1510 1696 1707 1698 
205 71 224 72 1516 1701 1706 1520 1519 1708 
224 71 91 72 1701 1702 1704 1708 1519 1709 
72 91 225 92 1709 1710 1711 1712 1713 1714 
205 225 206 72 1715 1716 1533 1520 1711 1526 
72 91 224 225 1709 1704 1708 1711 1710 1717 
205 225 72 224 1715 1711 1520 1706 1717 1708 
206 72 225 73 1526 1711 1716 1530 1529 1718 
225 72 92 73 1711 1712 1714 1718 1529 1719 
73 92 226 93 1719 1720 1721 1722 1723 1724 
206 226 207 73 1725 1726 1543 1530 1721 1536 
73 92 225 226 1719 1714 1718 1721 1720 1727 
206 226 73 225 1725 1721 1530 1716 1727 1718 
207 73 226 74 1536 1721 1726 1540 1539 1728 
226 73 93 74 1721 1722 1724 1728 1539 1729 
74 93 227 94 1729 1730 1731 1732 1733 1734 
207 227 208 74 1735 1736 1553 1540 1731 1546 
74 93 226 227 1729 1724 1728 1731 1730 1737 
207 227 74 226 1735 1731 1540 1726 1737 1728 
208 74 227 75 1546 1731 1736 1550 1549 1738 
227 74 94 75 1731 1732 1734 1738 1549 1739 
76 95 229 96 1740 1741 1742 1743 1744 1745 
209 229 210 76 1746 1747 1566 1564 1742 1557 
76 95 228 229 1740 1748 1749 1742 1741 1750 
209 229 76 228 1746 1742 1564 1751 1750 1749 
210 76 229 77 1557 1742 1747 1561 1560 1752 
229 76 96 77 1742 1743 1745 1752 1560 1753 
77 96 230 97 1753 1754 1755 1756 1757 1758 
210 230 211 77 1759 1760 1577 1561 1755 1570 
77 96 229 230 1753 1745 1752 1755 1754 1761 
210 230 77 229 1759 1755 1561 1747 1761 1752 
211 77 230 78 1570 1755 1760 1574 1573 1762 
230 77 97 78 1755 1756 1758 1762 1573 1763 
78 97 231 98 1763 1764 1765 1766 1767 1768 
211 231 212 78 1769 1770 1587 1574 1765 1580 
78 97 230 231 1763 1758 1762 1765 1764 1771 
211 231 78 230 1769 1765 1574 1760 1771 1762 
212 78 231 79 1580 1765 1770 1584 1583 1772 
231 78 98 79 1765 1766 1768 1772 1583 1773 
79 98 232 99 1773 1774 1775 1776 1777 1778 
212 232 213 79 1779 1780 1597 1584 1775 1590 
79 98 231 232 1773 1768 1772 1775 1774 1781 
212 232 79 231 1779 1775 1584 1770 1781 1772 
213 79 232 80 1590 1775 1780 1594 1593 1782 
232 79 99 80 1775 1776 1778 1782 1593 1783 
80 99 233 100 1783 1784 1785 1786 1787 1788 
213 233 214 80 1789 1790 1607 1594 1785 1600 
80 99 232 233 1783 1778 1782 1785 1784 1791 
213 233 80 232 1789 1785 1594 1780 1791 1782 
214 80 233 81 1600 1785 1790 1604 1603 1792 
233 80 100 81 1785 1786 1788 1792 1603 1793 
81 100 234 101 1793 1794 1795 1796 1797 1798 
214 234 215 81 1799 1800 1617 1604 1795 1610 
81 100 233 234 1793 1788 1792 1795 1794 1801 
214 234 81 233 1799 1795 1604 1790 1801 1792 
215 81 234 82 1610 1795 1800 1614 1613 1802 
234 81 101 82 1795 1796 1798 1802 1613 1803 
82 101 235 102 1803 1804 1805 1806 1807 1808 
215 235 216 82 1809 1810 1627 1614 1805 1620 
82 101 234 235 1803 1798 1802 1805 1804 1811 
215 235 82 234 1809 1805 1614 1800 1811 1802 
216 82 235 83 1620 1805 1810 1624 1623 1812 
235 82 102 83 1805 1806 1808 1812 1623 1813 
83 102 236 103 1813 1814 1815 1816 1817 1818 
216 236 217 83 1819 1820 1637 1624 1815 1630 
83 102 235 236 1813 1808 1812 1815 1814 1821 
216 236 83 235 1819 1815 1624 1810 1821 1812 
217 83 236 84 1630 1815 1820 1634 1633 1822 
236 83 103 84 1815 1816 1818 1822 1633 1823 
84 103 237 104 1823 1824 1825 1826 1827 1828 
217 237 218 84 1829 1830 1647 1634 1825 1640 
84 103 236 237 1823 1818 1822 1825 1824 1831 
217 237 84 236 1829 1825 1634 1820 1831 1822 
218 84 237 85 1640 1825 1830 1644 1643 1832 
237 84 104 85 1825 1826 1828 1832 1643 1833 
85 104 238 105 1833 1834 1835 1836 1837 1838 
218 238 219 85 1839 1840 1657 1644 1835 1650 
85 104 237 238 1833 1828 1832 1835 1834 1841 
218 238 85 237 1839 1835 1644 1830 1841 1832 
219 85 238 86 1650 1835 1840 1654 1653 1842 
238 85 105 86 1835 1836 1838 1842 1653 1843 
86 105 239 106 1843 1844 1845 1846 1847 1848 
219 239 220 86 1849 1850 1667 1654 1845 1660 
86 105 238 239 1843 1838 1842 1845 1844 1851 
219 239 86 238 1849 1845 1654 1840 1851 1842 
220 86 239 87 1660 1845 1850 1664 1663 1852 
239 86 106 87 1845 1846 1848 1852 1663 1853 
87 106 240 107 1853 1854 1855 1856 1857 1858 
220 240 221 87 1859 1860 1677 1664 1855 1670 
87 106 239 240 1853 1848 1852 1855 1854 1861 
220 240 87 239 1859 1855 1664 1850 1861 1852 
221 87 240 88 1670 1855 1860 1674 1673 1862 
240 87 107 88 1855 1856 1858 1862 1673 1863 
88 107 241 108 1863 1864 1865 1866 1867 1868 
221 241 222 88 1869 1870 1687 1674 1865 1680 
88 107 240 241 1863 1858 1862 1865 1864 1871 
221 241 88 240 1869 1865 1674 1860 1871 1862 
222 88 241 89 1680 1865 1870 1684 1683 1872 
241 88 108 89 1865 1866 1868 1872 1683 1873 
89 108 242 109 1873 1874 1875 1876 1877 1878 
222 242 223 89 1879 1880 1697 1684 1875 1690 
89 108 241 242 1873 1868 1872 1875 1874 1881 
222 242 89 241 1879 1875 1684 1870 1881 1872 
223 89 242 90 1690 1875 1880 1694 1693 1882 
242 89 109 90 1875 1876 1878 1882 1693 1883 
90 109 243 110 1883 1884 1885 1886 1887 1888 
223 243 224 90 1889 1890 1707 1694 1885 1700 
90 109 242 243 1883 1878 1882 1885 1884 1891 
223 243 90 242 1889 1885 1694 1880 1891 1882 
224 90 243 91 1700 1885 1890 1704 1703 1892 
243 90 110 91 1885 1886 1888 1892 1703 1893 
91 110 244 111 1893 1894 1895 1896 1897 1898 
224 244 225 91 1899 1900 1717 1704 1895 1710 
91 110 243 244 1893 1888 1892 1895 1894 1901 
224 244 91 243 1899 1895 1704 1890 1901 1892 
225 91 244 92 1710 1895 1900 1714 1713 1902 
244 91 111 92 1895 1896 1898 1902 1713 1903 
92 111 245 112 1903 1904 1905 1906 1907 1908 
225 245 226 92 1909 1910 1727 1714 1905 1720 
92 111 244 245 1903 1898 1902 1905 1904 1911 
225 245 92 244 1909 1905 1714 1900 1911 1902 
226 92 245 93 1720 1905 1910 1724 1723 1912 
245 92 112 93 1905 1906 1908 1912 1723 1913 
93 112 246 113 1913 1914 1915 1916 1917 1918 
226 246 227 93 1919 1920 1737 1724 1915 1730 
93 112 245 246 1913 1908 1912 1915 1914 1921 
226 246 93 245 1919 1915 1724 1910 1921 1912 
227 93 246 94 1730 1915 1920 1734 1733 1922 
246 93 113 94 1915 1916 1918 1922 1733 1923 
95 114 248 115 1924 1925 1926 1927 1928 1929 
228 248 229 95 1930 1931 1750 1748 1926 1741 
95 114 247 248 1924 1932 1933 1926 1925 1934 
228 248 95 247 1930 1926 1748 1935 1934 1933 
229 95 248 96 1741 1926 1931 1745 1744 1936 
248 95 115 96 1926 1927 1929 1936 1744 1937 
96 115 249 116 1937 1938 1939 1940 1941 1942 
229 249 230 96 1943 1944 1761 1745 1939 1754 
96 115 248 249 1937 1929 1936 1939 1938 1945 
229 249 96 248 1943 1939 1745 1931 1945 1936 
230 96 249 97 1754 1939 1944 1758 1757 1946 
249 96 116 97 1939 1940 1942 1946 1757 1947 
97 116 250 117 1947 1948 1949 1950 1951 1952 
230 250 231 97 1953 1954 1771 1758 1949 1764 
97 116 249 250 1947 1942 1946 1949 1948 1955 
230 250 97 249 1953 1949 1758 1944 1955 1946 
231 97 250 98 1764 1949 1954 1768 1767 1956 
250 97 117 98 1949 1950 1952 1956 1767 1957 
98 117 251 118 1957 1958 1959 1960 1961 1962 
231 251 232 98 1963 1964 1781 1768 1959 1774 
98 117 250 251 1957 1952 1956 1959 1958 1965 
231 251 98 250 1963 1959 1768 1954 1965 1956 
232 98 251 99 1774 1959 1964 1778 1777 1966 
251 98 118 99 1959 1960 1962 1966 1777 1967 
99 118 252 119 1967 1968 1969 1970 1971 1972 
232 252 233 99 1973 1974 1791 1778 1969 1784 
99 118 251 252 1967 1962 1966 1969 1968 1975 
232 252 99 251 1973 1969 1778 1964 1975 1966 
233 99 252 100 1784 1969 1974 1788 1787 1976 
252 99 119 100 1969 1970 1972 1976 1787 1977 
100 119 253 120 1977 1978 1979 1980 1981 1982 
233 253 234 100 1983 1984 1801 1788 1979 1794 
100 119 252 253 1977 1972 1976 1979 1978 1985 
233 253 100 252 1983 1979 1788 1974 1985 1976 
234 100 253 101 1794 1979 1984 1798 1797 1986 
253 100 120 101 1979 1980 1982 1986 1797 1987 
101 120 254 121 1987 1988 1989 1990 1991 1992 
234 254 235 101 1993 1994 1811 1798 1989 1804 
101 120 253 254 1987 1982 1986 1989 1988 1995 
234 254 101 253 1993 1989 1798 1984 1995 1986 
235 101 254 102 1804 1989 1994 1808 1807 1996 
254 101 121 102 1989 1990 1992 1996 1807 1997 
102 121 255 122 1997 1998 1999 2000 2001 2002 
235 255 236 102 2003 2004 1821 1808 1999 1814 
102 121 254 255 1997 1992 1996 1999 1998 2005 
235 255 102 254 2003 1999 1808 1994 2005 1996 
236 102 255 103 1814 1999 2004 1818 1817 2006 
255 102 122 103 1999 2000 2002 2006 1817 2007 
103 122 256 123 2007 2008 2009 2010 2011 2012 
236 256 237 103 2013 2014 1831 1818 2009 1824 
103 122 255 256 2007 2002 2006 2009 2008 2015 
236 256 103 255 2013 2009 1818 2004 2015 2006 
237 103 256 104 1824 2009 2014 1828 1827 2016 
256 103 123 104 2009 2010 2012 2016 1827 2017 
104 123 257 124 2017 2018 2019 2020 2021 2022 
237 257 238 104 2023 2024 1841 1828 2019 1834 
104 123 256 257 2017 2012 2016 2019 2018 2025 
237 257 104 256 2023 2019 1828 2014 2025 2016 
238 104 257 105 1834 2019 2024 1838 1837 2026 
257 104 124 105 2019 2020 2022 2026 1837 2027 
105 124 258 125 2027 2028 2029 2030 2031 2032 
238 258 239 105 2033 2034 1851 1838 2029 1844 
105 124 257 258 2027 2022 2026 2029 2028 2035 
238 258 105 257 2033 2029 1838 2024 2035 2026 
239 105 258 106 1844 2029 2034 1848 1847 2036 
258 105 125 106 2029 2030 2032 2036 1847 2037 
106 125 259 126 2037 2038 2039 2040 2041 2042 
239 259 240 106 2043 2044 1861 1848 2039 1854 
106 125 258 259 2037 2032 2036 2039 2038 2045 
239 259 106 258 2043 2039 1848 2034 2045 2036 
240 106 259 107 1854 2039 2044 1858 1857 2046 
259 106 126 107 2039 2040 2042 2046 1857 2047 
107 126 260 127 2047 2048 2049 2050 2051 2052 
240 260 241 107 2053 2054 1871 1858 2049 1864 
107 126 259 260 2047 2042 2046 2049 2048 2055 
240 260 107 259 2053 2049 1858 2044 2055 2046 
241 107 260 108 1864 2049 2054 1868 1867 2056 
260 107 127 108 2049 2050 2052 2056 1867 2057 
108 127 261 128 2057 2058 2059 2060 2061 2062 
241 261 242 108 2063 2064 1881 1868 2059 1874 
108 127 260 261 2057 2052 2056 2059 2058 2065 
241 261 108 260 2063 2059 1868 2054 2065 2056 
242 108 261 109 1874 2059 2064 1878 1877 2066 
261 108 128 109 2059 2060 2062 2066 1877 2067 
109 128 262 129 2067 2068 2069 2070 2071 2072 
242 262 243 109 2073 2074 1891 1878 2069 1884 
109 128 261 262 2067 2062 2066 2069 2068 2075 
242 262 109 261 2073 2069 1878 2064 2075 2066 
243 109 262 110 1884 2069 2074 1888 1887 2076 
262 109 129 110 2069 2070 2072 2076 1887 2077 
110 129 263 130 2077 2078 2079 2080 2081 2082 
243 263 244 110 2083 2084 1901 1888 2079 1894 
110 129 262 263 2077 2072 2076 2079 2078 2085 
243 263 110 262 2083 2079 1888 2074 2085 2076 
244 110 263 111 1894 2079 2084 1898 1897 2086 
263 110 130 111 2079 2080 2082 2086 1897 2087 
111 130 264 131 2087 2088 2089 2090 2091 2092 
244 264 245 111 2093 2094 1911 1898 2089 1904 
111 130 263 264 2087 2082 2086 2089 2088 2095 
244 264 111 263 2093 2089 1898 2084 2095 2086 
245 111 264 112 1904 2089 2094 1908 1907 2096 
264 111 131 112 2089 2090 2092 2096 1907 2097 
112 131 265 132 2097 2098 2099 2100 2101 2102 
245 265 246 112 2103 2104 1921 1908 2099 1914 
112 131 264 265 2097 2092 2096 2099 2098 2105 
245 265 112 264 2103 2099 1908 2094 2105 2096 
246 112 265 113 1914 2099 2104 1918 1917 2106 
265 112 132 113 2099 2100 2102 2106 1917 2107 
133 152 286 153 945 2108 2109 937 944 2110 
266 286 267 133 2111 2112 2113 2114 2109 2115 
133 152 285 286 945 2116 2117 2109 2108 2118 
266 286 133 285 2111 2109 2114 2119 2118 2117 
267 133 286 134 2115 2109 2112 2120 939 2121 
286 133 153 134 2109 937 2110 2121 939 938 
134 153 287 154 938 2122 2123 955 959 2124 
267 287 268 134 2125 2126 2127 2120 2123 2128 
134 153 286 287 938 2110 2121 2123 2122 2129 
267 287 134 286 2125 2123 2120 2112 2129 2121 
268 134 287 135 2128 2123 2126 2130 957 2131 
287 134 154 135 2123 955 2124 2131 957 956 
135 154 288 155 956 2132 2133 969 973 2134 
268 288 269 135 2135 2136 2137 2130 2133 2138 
135 154 287 288 956 2124 2131 2133 2132 2139 
268 288 135 287 2135 2133 2130 2126 2139 2131 
269 135 288 136 2138 2133 2136 2140 971 2141 
288 135 155 136 2133 969 2134 2141 971 970 
136 155 289 156 970 2142 2143 983 987 2144 
269 289 270 136 2145 2146 2147 2140 2143 2148 
136 155 288 289 970 2134 2141 2143 2142 2149 
269 289 136 288 2145 2143 2140 2136 2149 2141 
270 136 289 137 2148 2143 2146 2150 985 2151 
289 136 156 137 2143 983 2144 2151 985 984 
137 156 290 157 984 2152 2153 997 1001 2154 
270 290 271 137 2155 2156 2157 2150 2153 2158 
137 156 289 290 984 2144 2151 2153 2152 2159 
270 290 137 289 2155 2153 2150 2146 2159 2151 
271 137 290 138 2158 2153 2156 2160 999 2161 
290 137 157 138 2153 997 2154 2161 999 998 
138 157 291 158 998 2162 2163 1011 1015 2164 
271 291 272 138 2165 2166 2167 2160 2163 2168 
138 157 290 291 998 2154 2161 2163 2162 2169 
271 291 138 290 2165 2163 2160 2156 2169 2161 
272 138 291 139 2168 2163 2166 2170 1013 2171 
291 138 158 139 2163 1011 2164 2171 1013 1012 
139 158 292 159 1012 2172 2173 1025 1029 2174 
272 292 273 139 2175 2176 2177 2170 2173 2178 
139 158 291 292 1012 2164 2171 2173 2172 2179 
272 292 139 291 2175 2173 2170 2166 2179 2171 
273 139 292 140 2178 2173 2176 2180 1027 2181 
292 139 159 140 2173 1025 2174 2181 1027 1026 
140 159 293 160 1026 2182 2183 1039 1043 2184 
273 293 274 140 2185 2186 2187 2180 2183 2188 
140 159 292 293 1026 2174 2181 2183 2182 2189 
273 293 140 292 2185 2183 2180 2176 2189 2181 
274 140 293 141 2188 2183 2186 2190 1041 2191 
293 140 160 141 2183 1039 2184 2191 1041 1040 
141 160 294 161 1040 2192 2193 1053 1057 2194 
274 294 275 141 2195 2196 2197 2190 2193 2198 
141 160 293 294 1040 2184 2191 2193 2192 2199 
274 294 141 293 2195 2193 2190 2186 2199 2191 
275 141 294 142 2198 2193 2196 2200 1055 2201 
294 141 161 142 2193 1053 2194 2201 1055 1054 
142 161 295 162 1054 2202 2203 1067 1071 2204 
275 295 276 142 2205 2206 2207 2200 2203 2208 
142 161 294 295 1054 2194 2201 2203 2202 2209 
275 295 142 294 2205 2203 2200 2196 2209 2201 
276 142 295 143 2208 2203 2206 2210 1069 2211 
295 142 162 143 2203 1067 2204 2211 1069 1068 
143 162 296 163 1068 2212 2213 1081 1085 2214 
276 296 277 143 2215 2216 2217 2210 2213 2218 
143 162 295 296 1068 2204 2211 2213 2212 2219 
276 296 143 295 2215 2213 2210 2206 2219 2211 
277 143 296 144 2218 2213 2216 2220 1083 2221 
296 143 163 144 2213 1081 2214 2221 1083 1082 
144 163 297 164 1082 2222 2223 1095 1099 2224 
277 297 278 144 2225 2226 2227 2220 2223 2228 
144 163 296 297 1082 2214 2221 2223 2222 2229 
277 297 144 296 2225 2223 2220 2216 2229 2221 
278 144 297 145 2228 2223 2226 2230 1097 2231 
297 144 164 145 2223 1095 2224 2231 1097 1096 
145 164 298 165 1096 2232 2233 1109 1113 2234 
278 298 279 145 2235 2236 2237 2230 2233 2238 
145 164 297 298 1096 2224 2231 2233 2232 2239 
278 298 145 297 2235 2233 2230 2226 2239 2231 
279 145 298 146 2238 2233 2236 2240 1111 2241 
298 145 165 146 2233 1109 2234 2241 1111 1110 
146 165 299 166 1110 2242 2243 1123 1127 2244 
279 299 280 146 2245 2246 2247 2240 2243 2248 
146 165 298 299 1110 2234 2241 2243 2242 2249 
279 299 146 298 2245 2243 2240 2236 2249 2241 
280 146 299 147 2248 2243 2246 2250 1125 2251 
299 146 166 147 2243 1123 2244 2251 1125 1124 
147 166 300 167 1124 2252 2253 1137 1141 2254 
280 300 281 147 2255 2256 2257 2250 2253 2258 
147 166 299 300 1124 2244 2251 2253 2252 2259 
280 300 147 299 2255 2253 2250 2246 2259 2251 
281 147 300 148 2258 2253 2256 2260 1139 2261 
300 147 167 148 2253 1137 2254 2261 1139 1138 
148 167 301 168 1138 2262 2263 1151 1155 2264 
281 301 282 148 2265 2266 2267 2260 2263 2268 
148 167 300 301 1138 2254 2261 2263 2262 2269 
281 301 148 300 2265 2263 2260 2256 2269 2261 
282 148 301 149 2268 2263 2266 2270 1153 2271 
301 148 168 149 2263 1151 2264 2271 1153 1152 
149 168 302 169 1152 2272 2273 1165 1169 2274 
282 302 283 149 2275 2276 2277 2270 2273 2278 
149 168 301 302 1152 2264 2271 2273 2272 2279 
282 302 149 301 2275 2273 2270 2266 2279 2271 
283 149 302 150 2278 2273 2276 2280 1167 2281 
302 149 169 150 2273 1165 2274 2281 1167 1166 
150 169 303 170 1166 2282 2283 1179 1183 2284 
283 303 284 150 2285 2286 2287 2280 2283 2288 
150 169 302 303 1166 2274 2281 2283 2282 2289 
283 303 150 302 2285 2283 2280 2276 2289 2281 
284 150 303 151 2288 2283 2286 2290 1181 2291 
303 150 170 151 2283 1179 2284 2291 1181 1180 
152 171 305 172 1199 2292 2293 1194 1198 2294 
285 305 286 152 2295 2296 2118 2116 2293 2108 
152 171 304 305 1199 2297 2298 2293 2292 2299 
285 305 152 304 2295 2293 2116 2300 2299 2298 
286 152 305 153 2108 2293 2296 2110 944 2301 
305 152 172 153 2293 1194 2294 2301 944 1195 
153 172 306 173 1195 2302 2303 1207 1209 2304 
286 306 287 153 2305 2306 2129 2110 2303 2122 
153 172 305 306 1195 2294 2301 2303 2302 2307 
286 306 153 305 2305 2303 2110 2296 2307 2301 
287 153 306 154 2122 2303 2306 2124 959 2308 
306 153 173 154 2303 1207 2304 2308 959 1208 
154 173 307 174 1208 2309 2310 1217 1219 2311 
287 307 288 154 2312 2313 2139 2124 2310 2132 
154 173 306 307 1208 2304 2308 2310 2309 2314 
287 307 154 306 2312 2310 2124 2306 2314 2308 
288 154 307 155 2132 2310 2313 2134 973 2315 
307 154 174 155 2310 1217 2311 2315 973 1218 
155 174 308 175 1218 2316 2317 1227 1229 2318 
288 308 289 155 2319 2320 2149 2134 2317 2142 
155 174 307 308 1218 2311 2315 2317 2316 2321 
288 308 155 307 2319 2317 2134 2313 2321 2315 
289 155 308 156 2142 2317 2320 2144 987 2322 
308 155 175 156 2317 1227 2318 2322 987 1228 
156 175 309 176 1228 2323 2324 1237 1239 2325 
289 309 290 156 2326 2327 2159 2144 2324 2152 
156 175 308 309 1228 2318 2322 2324 2323 2328 
289 309 156 308 2326 2324 2144 2320 2328 2322 
290 156 309 157 2152 2324 2327 2154 1001 2329 
309 156 176 157 2324 1237 2325 2329 1001 1238 
157 176 310 177 1238 2330 2331 1247 1249 2332 
290 310 291 157 2333 2334 2169 2154 2331 2162 
157 176 309 310 1238 2325 2329 2331 2330 2335 
290 310 157 309 2333 2331 2154 2327 2335 2329 
291 157 310 158 2162 2331 2334 2164 1015 2336 
310 157 177 158 2331 1247 2332 2336 1015 1248 
158 177 311 178 1248 2337 2338 1257 1259 2339 
291 311 292 158 2340 2341 2179 2164 2338 2172 
158 177 310 311 1248 2332 2336 2338 2337 2342 
291 311 158 310 2340 2338 2164 2334 2342 2336 
292 158 311 159 2172 2338 2341 2174 1029 2343 
311 158 178 159 2338 1257 2339 2343 1029 1258 
159 178 312 179 1258 2344 2345 1267 1269 2346 
292 312 293 159 2347 2348 2189 2174 2345 2182 
159 178 311 312 1258 2339 2343 2345 2344 2349 
292 312 159 311 2347 2345 2174 2341 2349 2343 
293 159 312 160 2182 2345 2348 2184 1043 2350 
312 159 179 160 2345 1267 2346 2350 1043 1268 
160 179 313 180 1268 2351 2352 1277 1279 2353 
293 313 294 160 2354 2355 2199 2184 2352 2192 
160 179 312 313 1268 2346 2350 2352 2351 2356 
293 313 160 312 2354 2352 2184 2348 2356 2350 
294 160 313 161 2192 2352 2355 2194 1057 2357 
313 160 180 161 2352 1277 2353 2357 1057 1278 
161 180 314 181 1278 2358 2359 1287 1289 2360 
294 314 295 161 2361 2362 2209 2194 2359 2202 
161 180 313 314 1278 2353 2357 2359 2358 2363 
294 314 161 313 2361 2359 2194 2355 2363 2357 
295 161 314 162 2202 2359 2362 2204 1071 2364 
314 161 181 162 2359 1287 2360 2364 1071 1288 
162 181 315 182 1288 2365 2366 1297 1299 2367 
295 315 296 162 2368 2369 2219 2204 2366 2212 
162 181 314 315 1288 2360 2364 2366 2365 2370 
295 315 162 314 2368 2366 2204 2362 2370 2364 
296 162 315 163 2212 2366 2369 2214 1085 2371 
315 162 182 163 2366 1297 2367 2371 1085 1298 
163 182 316 183 1298 2372 2373 1307 1309 2374 
296 316 297 163 2375 2376 2229 2214 2373 2222 
163 182 315 316 1298 2367 2371 2373 2372 2377 
296 316 163 315 2375 2373 2214 2369 2377 2371 
297 163 316 164 2222 2373 2376 2224 1099 2378 
316 163 183 164 2373 1307 2374 2378 1099 1308 
164 183 317 184 1308 2379 2380 1317 1319 2381 
297 317 298 164 2382 2383 2239 2224 2380 2232 
164 183 316 317 1308 2374 2378 2380 2379 2384 
297 317 164 316 2382 2380 2224 2376 2384 2378 
298 164 317 165 2232 2380 2383 2234 1113 2385 
317 164 184 165 2380 1317 2381 2385 1113 1318 
165 184 318 185 1318 2386 2387 1327 1329 2388 
298 318 299 165 2389 2390 2249 2234 2387 2242 
165 184 317 318 1318 2381 2385 2387 2386 2391 
298 318 165 317 2389 2387 2234 2383 2391 2385 
299 165 318 166 2242 2387 2390 2244 1127 2392 
318 165 185 166 2387 1327 2388 2392 1127 1328 
166 185 319 186 1328 2393 2394 1337 1339 2395 
299 319 300 166 2396 2397 2259 2244 2394 2252 
166 185 318 319 1328 2388 2392 2394 2393 2398 
299 319 166 318 2396 2394 2244 2390 2398 2392 
300 166 319 167 2252 2394 2397 2254 1141 2399 
319 166 186 167 2394 1337 2395 2399 1141 1338 
167 186 320 187 1338 2400 2401 1347 1349 2402 
300 320 301 167 2403 2404 2269 2254 2401 2262 
167 186 319 320 1338 2395 2399 2401 2400 2405 
300 320 167 319 2403 2401 2254 2397 2405 2399 
301 167 320 168 2262 2401 2404 2264 1155 2406 
320 167 187 168 2401 1347 2402 2406 1155 1348 
168 187 321 188 1348 2407 2408 1357 1359 2409 
301 321 302 168 2410 2411 2279 2264 2408 2272 
168 187 320 321 1348 2402 2406 2408 2407 2412 
301 321 168 320 2410 2408 2264 2404 2412 2406 
302 168 321 169 2272 2408 2411 2274 1169 2413 
321 168 188 169 2408 1357 2409 2413 1169 1358 
169 188 322 189 1358 2414 2415 1367 1369 2416 
302 322 303 169 2417 2418 2289 2274 2415 2282 
169 188 321 322 1358 2409 2413 2415 2414 2419 
302 322 169 321 2417 2415 2274 2411 2419 2413 
303 169 322 170 2282 2415 2418 2284 1183 2420 
322 169 189 170 2415 1367 2416 2420 1183 1368 
171 190 324 191 1383 2421 2422 1378 1382 2423 
304 324 305 171 2424 2425 2299 2297 2422 2292 
171 190 323 324 1383 2426 2427 2422 2421 2428 
304 324 171 323 2424 2422 2297 2429 2428 2427 
305 171 324 172 2292 2422 2425 2294 1198 2430 
324 171 191 172 2422 1378 2423 2430 1198 1379 
172 191 325 192 1379 2431 2432 1391 1393 2433 
305 325 306 172 2434 2435 2307 2294 2432 2302 
172 191 324 325 1379 2423 2430 2432 2431 2436 
305 325 172 324 2434 2432 2294 2425 2436 2430 
306 172 325 173 2302 2432 2435 2304 1209 2437 
325 172 192 173 2432 1391 2433 2437 1209 1392 
173 192 326 193 1392 2438 2439 1401 1403 2440 
306 326 307 173 2441 2442 2314 2304 2439 2309 
173 192 325 326 1392 2433 2437 2439 2438 2443 
306 326 173 325 2441 2439 2304 2435 2443 2437 
307 173 326 174 2309 2439 2442 2311 1219 2444 
326 173 193 174 2439 1401 2440 2444 1219 1402 
174 193 327 194 1402 2445 2446 1411 1413 2447 
307 327 308 174 2448 2449 2321 2311 2446 2316 
174 193 326 327 1402 2440 2444 2446 2445 2450 
307 327 174 326 2448 2446 2311 2442 2450 2444 
308 174 327 175 2316 2446 2449 2318 1229 2451 
327 174 194 175 2446 1411 2447 2451 1229 1412 
175 194 328 195 1412 2452 2453 1421 1423 2454 
308 328 309 175 2455 2456 2328 2318 2453 2323 
175 194 327 328 1412 2447 2451 2453 2452 2457 
308 328 175 327 2455 2453 2318 2449 2457 2451 
309 175 328 176 2323 2453 2456 2325 1239 2458 
328 175 195 176 2453 1421 2454 2458 1239 1422 
176 195 329 196 1422 2459 2460 1431 1433 2461 
309 329 310 176 2462 2463 2335 2325 2460 2330 
176 195 328 329 1422 2454 2458 2460 2459 2464 
309 329 176 328 2462 2460 2325 2456 2464 2458 
310 176 329 177 2330 2460 2463 2332 1249 2465 
329 176 196 177 2460 1431 2461 2465 1249 1432 
177 196 330 197 1432 2466 2467 1441 1443 2468 
310 330 311 177 2469 2470 2342 2332 2467 2337 
177 196 329 330 1432 2461 2465 2467 2466 2471 
310 330 177 329 2469 2467 2332 2463 2471 2465 
311 177 330 178 2337 2467 2470 2339 1259 2472 
330 177 197 178 2467 1441 2468 2472 1259 1442 
178 197 331 198 1442 2473 2474 1451 1453 2475 
311 331 312 178 2476 2477 2349 2339 2474 2344 
178 197 330 331 1442 2468 2472 2474 2473 2478 
311 331 178 330 2476 2474 2339 2470 2478 2472 
312 178 331 179 2344 2474 2477 2346 1269 2479 
331 178 198 179 2474 1451 2475 2479 1269 1452 
179 198 332 199 1452 2480 2481 1461 1463 2482 
312 332 313 179 2483 2484 2356 2346 2481 2351 
179 198 331 332 1452 2475 2479 2481 2480 2485 
312 332 179 331 2483 2481 2346 2477 2485 2479 
313 179 332 180 2351 2481 2484 2353 1279 2486 
332 179 199 180 2481 1461 2482 2486 1279 1462 
180 199 333 200 1462 2487 2488 1471 1473 2489 
313 333 314 180 2490 2491 2363 2353 2488 2358 
180 199 332 333 1462 2482 2486 2488 2487 2492 
313 333 180 332 2490 2488 2353 2484 2492 2486 
314 180 333 181 2358 2488 2491 2360 1289 2493 
333 180 200 181 2488 1471 2489 2493 1289 1472 
181 200 334 201 1472 2494 2495 1481 1483 2496 
314 334 315 181 2497 2498 2370 2360 2495 2365 
181 200 333 334 1472 2489 2493 2495 2494 2499 
314 334 181 333 2497 2495 2360 2491 2499 2493 
315 181 334 182 2365 2495 2498 2367 1299 2500 
334 181 201 182 2495 1481 2496 2500 1299 1482 
182 201 335 202 1482 2501 2502 1491 1493 2503 
315 335 316 182 2504 2505 2377 2367 2502 2372 
182 201 334 335 1482 2496 2500 2502 2501 2506 
315 335 182 334 2504 2502 2367 2498 2506 2500 
316 182 335 183 2372 2502 2505 2374 1309 2507 
335 182 202 183 2502 1491 2503 2507 1309 1492 
183 202 336 203 1492 2508 2509 1501 1503 2510 
316 336 317 183 2511 2512 2384 2374 2509 2379 
183 202 335 336 1492 2503 2507 2509 2508 2513 
316 336 183 335 2511 2509 2374 2505 2513 2507 
317 183 336 184 2379 2509 2512 2381 1319 2514 
336 183 203 184 2509 1501 2510 2514 1319 1502 
184 203 337 204 1502 2515 2516 1511 1513 2517 
317 337 318 184 2518 2519 2391 2381 2516 2386 
184 203 336 337 1502 2510 2514 2516 2515 2520 
317 337 184 336 2518 2516 2381 2512 2520 2514 
318 184 337 185 2386 2516 2519 2388 1329 2521 
337 184 204 185 2516 1511 2517 2521 1329 1512 
185 204 338 205 1512 2522 2523 1521 1523 2524 
318 338 319 185 2525 2526 2398 2388 2523 2393 
185 204 337 338 1512 2517 2521 2523 2522 2527 
318 338 185 337 2525 2523 2388 2519 2527 2521 
319 185 338 186 2393 2523 2526 2395 1339 2528 
338 185 205 186 2523 1521 2524 2528 1339 1522 
186 205 339 206 1522 2529 2530 1531 1533 2531 
319 339 320 186 2532 2533 2405 2395 2530 2400 
186 205 338 339 1522 2524 2528 2530 2529 2534 
319 339 186 338 2532 2530 2395 2526 2534 2528 
320 186 339 187 2400 2530 2533 2402 1349 2535 
339 186 206 187 2530 1531 2531 2535 1349 1532 
187 206 340 207 1532 2536 2537 1541 1543 2538 
320 340 321 187 2539 2540 2412 2402 2537 2407 
187 206 339 340 1532 2531 2535 2537 2536 2541 
320 340 187 339 2539 2537 2402 2533 2541 2535 
321 187 340 188 2407 2537 2540 2409 1359 2542 
340 187 207 188 2537 1541 2538 2542 1359 1542 
188 207 341 208 1542 2543 2544 1551 1553 2545 
321 341 322 188 2546 2547 2419 2409 2544 2414 
188 207 340 341 1542 2538 2542 2544 2543 2548 
321 341 188 340 2546 2544 2409 2540 2548 2542 
322 188 341 189 2414 2544 2547 2416 1369 2549 
341 188 208 189 2544 1551 2545 2549 1369 1552 
190 209 343 210 1567 2550 2551 1562 1566 2552 
323 343 324 190 2553 2554 2428 2426 2551 2421 
190 209 342 343 1567 2555 2556 2551 2550 2557 
323 343 190 342 2553 2551 2426 2558 2557 2556 
324 190 343 191 2421 2551 2554 2423 1382 2559 
343 190 210 191 2551 1562 2552 2559 1382 1563 
191 210 344 211 1563 2560 2561 1575 1577 2562 
324 344 325 191 2563 2564 2436 2423 2561 2431 
191 210 343 344 1563 2552 2559 2561 2560 2565 
324 344 191 343 2563 2561 2423 2554 2565 2559 
325 191 344 192 2431 2561 2564 2433 1393 2566 
344 191 211 192 2561 1575 2562 2566 1393 1576 
192 211 345 212 1576 2567 2568 1585 1587 2569 
325 345 326 192 2570 2571 2443 2433 2568 2438 
192 211 344 345 1576 2562 2566 2568 2567 2572 
325 345 192 344 2570 2568 2433 2564 2572 2566 
326 192 345 193 2438 2568 2571 2440 1403 2573 
345 192 212 193 2568 1585 2569 2573 1403 1586 
193 212 346 213 1586 2574 2575 1595 1597 2576 
326 346 327 193 2577 2578 2450 2440 2575 2445 
193 212 345 346 1586 2569 2573 2575 2574 2579 
326 346 193 345 2577 2575 2440 2571 2579 2573 
327 193 346 194 2445 2575 2578 2447 1413 2580 
346 193 213 194 2575 1595 2576 2580 1413 1596 
194 213 347 214 1596 2581 2582 1605 1607 2583 
327 347 328 194 2584 2585 2457 2447 2582 2452 
194 213 346 347 1596 2576 2580 2582 2581 2586 
327 347 194 346 2584 2582 2447 2578 2586 2580 
328 194 347 195 2452 2582 2585 2454 1423 2587 
347 194 214 195 2582 1605 2583 2587 1423 1606 
195 214 348 215 1606 2588 2589 1615 1617 2590 
328 348 329 195 2591 2592 2464 2454 2589 2459 
195 214 347 348 1606 2583 2587 2589 2588 2593 
328 348 195 347 2591 2589 2454 2585 2593 2587 
329 195 348 196 2459 2589 2592 2461 1433 2594 
348 195 215 196 2589 1615 2590 2594 1433 1616 
196 215 349 216 1616 2595 2596 1625 1627 2597 
329 349 330 196 2598 2599 2471 2461 2596 2466 
196 215 348 349 1616 2590 2594 2596 2595 2600 
329 349 196 348 2598 2596 2461 2592 2600 2594 
330 196 349 197 2466 2596 2599 2468 1443 2601 
349 196 216 197 2596 1625 2597 2601 1443 1626 
197 216 350 217 1626 2602 2603 1635 1637 2604 
330 350 331 197 2605 2606 2478 2468 2603 2473 
197 216 349 350 1626 2597 2601 2603 2602 2607 
330 350 197 349 2605 2603 2468 2599 2607 2601 
331 197 350 198 2473 2603 2606 2475 1453 2608 
350 197 217 198 2603 1635 2604 2608 1453 1636 
198 217 351 218 1636 2609 2610 1645 1647 2611 
331 351 332 198 2612 2613 2485 2475 2610 2480 
198 217 350 351 1636 2604 2608 2610 2609 2614 
331 351 198 350 2612 2610 2475 2606 2614 2608 
332 198 351 199 2480 2610 2613 2482 1463 2615 
351 198 218 199 2610 1645 2611 2615 1463 1646 
199 218 352 219 1646 2616 2617 1655 1657 2618 
332 352 333 199 2619 2620 2492 2482 2617 2487 
199 218 351 352 1646 2611 2615 2617 2616 2621 
332 352 199 351 2619 2617 2482 2613 2621 2615 
333 199 352 200 2487 2617 2620 2489 1473 2622 
352 199 219 200 2617 1655 2618 2622 1473 1656 
200 219 353 220 1656 2623 2624 1665 1667 2625 
333 353 334 200 2626 2627 2499 2489 2624 2494 
200 219 352 353 1656 2618 2622 2624 2623 2628 
333 353 200 352 2626 2624 2489 2620 2628 2622 
334 200 353 201 2494 2624 2627 2496 1483 2629 
353 200 220 201 2624 1665 2625 2629 1483 1666 
201 220 354 221 1666 2630 2631 1675 1677 2632 
334 354 335 201 2633 2634 2506 2496 2631 2501 
201 220 353 354 1666 2625 2629 2631 2630 2635 
334 354 201 353 2633 2631 2496 2627 2635 2629 
335 201 354 202 2501 2631 2634 2503 1493 2636 
354 201 221 202 2631 1675 2632 2636 1493 1676 
202 221 355 222 1676 2637 2638 1685 1687 2639 
335 355 336 202 2640 2641 2513 2503 2638 2508 
202 221 354 355 1676 2632 2636 2638 2637 2642 
335 355 202 354 2640 2638 2503 2634 2642 2636 
336 202 355 203 2508 2638 2641 2510 1503 2643 
355 202 222 203 2638 1685 2639 2643 1503 1686 
203 222 356 223 1686 2644 2645 1695 1697 2646 
336 356 337 203 2647 2648 2520 2510 2645 2515 
203 222 355 356 1686 2639 2643 2645 2644 2649 
336 356 203 355 2647 2645 2510 2641 2649 2643 
337 203 356 204 2515 2645 2648 2517 1513 2650 
356 203 223 204 2645 1695 2646 2650 1513 1696 
204 223 357 224 1696 2651 2652 1705 1707 2653 
337 357 338 204 2654 2655 2527 2517 2652 2522 
204 223 356 357 1696 2646 2650 2652 2651 2656 
337 357 204 356 2654 2652 2517 2648 2656 2650 
338 204 357 205 2522 2652 2655 2524 1523 2657 
357 204 224 205 2652 1705 2653 2657 1523 1706 
205 224 358 225 1706 2658 2659 1715 1717 2660 
338 358 339 205 2661 2662 2534 2524 2659 2529 
205 224 357 358 1706 2653 2657 2659 2658 2663 
338 358 205 357 2661 2659 2524 2655 2663 2657 
339 205 358 206 2529 2659 2662 2531 1533 2664 
358 205 225 206 2659 1715 2660 2664 1533 1716 
206 225 359 226 1716 2665 2666 1725 1727 2667 
339 359 340 206 2668 2669 2541 2531 2666 2536 
206 225 358 359 1716 2660 2664 2666 2665 2670 
339 359 206 358 2668 2666 2531 2662 2670 2664 
340 206 359 207 2536 2666 2669 2538 1543 2671 
359 206 226 207 2666 1725 2667 2671 1543 1726 
207 226 360 227 1726 2672 2673 1735 1737 2674 
340 360 341 207 2675 2676 2548 2538 2673 2543 
207 226 359 360 1726 2667 2671 2673 2672 2677 
340 360 207 359 2675 2673 2538 2669 2677 2671 
341 207 360 208 2543 2673 2676 2545 1553 2678 
360 207 227 208 2673 1735 2674 2678 1553 1736 
209 228 362 229 1751 2679 2680 1746 1750 2681 
342 362 343 209 2682 2683 2557 2555 2680 2550 
209 228 361 362 1751 2684 2685 2680 2679 2686 
342 362 209 361 2682 2680 2555 2687 2686 2685 
343 209 362 210 2550 2680 2683 2552 1566 2688 
362 209 229 210 2680 1746 2681 2688 1566 1747 
210 229 363 230 1747 2689 2690 1759 1761 2691 
343 363 344 210 2692 2693 2565 2552 2690 2560 
210 229 362 363 1747 2681 2688 2690 2689 2694 
343 363 210 362 2692 2690 2552 2683 2694 2688 
344 210 363 211 2560 2690 2693 2562 1577 2695 
363 210 230 211 2690 1759 2691 2695 1577 1760 
211 230 364 231 1760 2696 2697 1769 1771 2698 
344 364 345 211 2699 2700 2572 2562 2697 2567 
211 230 363 364 1760 2691 2695 2697 2696 2701 
344 364 211 363 2699 2697 2562 2693 2701 2695 
345 211 364 212 2567 2697 2700 2569 1587 2702 
364 211 231 212 2697 1769 2698 2702 1587 1770 
212 231 365 232 1770 2703 2704 1779 1781 2705 
345 365 346 212 2706 2707 2579 2569 2704 2574 
212 231 364 365 1770 2698 2702 2704 2703 2708 
345 365 212 364 2706 2704 2569 2700 2708 2702 
346 212 365 213 2574 2704 2707 2576 1597 2709 
365 212 232 213 2704 1779 2705 2709 1597 1780 
213 232 366 233 1780 2710 2711 1789 1791 2712 
346 366 347 213 2713 2714 2586 2576 2711 2581 
213 232 365 366 1780 2705 2709 2711 2710 2715 
346 366 213 365 2713 2711 2576 2707 2715 2709 
347 213 366 214 2581 2711 2714 2583 1607 2716 
366 213 233 214 2711 1789 2712 2716 1607 1790 
214 233 367 234 1790 2717 2718 1799 1801 2719 
347 367 348 214 2720 2721 2593 2583 2718 2588 
214 233 366 367 1790 2712 2716 2718 2717 2722 
347 367 214 366 2720 2718 2583 2714 2722 2716 
348 214 367 215 2588 2718 2721 2590 1617 2723 
367 214 234 215 2718 1799 2719 2723 1617 1800 
215 234 368 235 1800 2724 2725 1809 1811 2726 
348 368 349 215 2727 2728 2600 2590 2725 2595 
215 234 367 368 1800 2719 2723 2725 2724 2729 
348 368 215 367 2727 2725 2590 2721 2729 2723 
349 215 368 216 2595 2725 2728 2597 1627 2730 
368 215 235 216 2725 1809 2726 2730 1627 1810 
216 235 369 236 1810 2731 2732 1819 1821 2733 
349 369 350 216 2734 2735 2607 2597 2732 2602 
216 235 368 369 1810 2726 2730 2732 2731 2736 
349 369 216 368 2734 2732 2597 2728 2736 2730 
350 216 369 217 2602 2732 2735 2604 1637 2737 
369 216 236 217 2732 1819 2733 2737 1637 1820 
217 236 370 237 1820 2738 2739 1829 1831 2740 
350 370 351 217 2741 2742 2614 2604 2739 2609 
217 236 369 370 1820 2733 2737 2739 2738 2743 
350 370 217 369 2741 2739 2604 2735 2743 2737 
351 217 370 218 2609 2739 2742 2611 1647 2744 
370 217 237 218 2739 1829 2740 2744 1647 1830 
218 237 371 238 1830 2745 2746 1839 1841 2747 
351 371 352 218 2748 2749 2621 2611 2746 2616 
218 237 370 371 1830 2740 2744 2746 2745 2750 
351 371 218 370 2748 2746 2611 2742 2750 2744 
352 218 371 219 2616 2746 2749 2618 1657 2751 
371 218 238 219 2746 1839 2747 2751 1657 1840 
219 238 372 239 1840 2752 2753 1849 1851 2754 
352 372 353 219 2755 2756 2628 2618 2753 2623 
219 238 371 372 1840 2747 2751 2753 2752 2757 
352 372 219 371 2755 2753 2618 2749 2757 2751 
353 219 372 220 2623 2753 2756 2625 1667 2758 
372 219 239 220 2753 1849 2754 2758 1667 1850 
220 239 373 240 1850 2759 2760 1859 1861 2761 
353 373 354 220 2762 2763 2635 2625 2760 2630 
220 239 372 373 1850 2754 2758 2760 2759 2764 
353 373 220 372 2762 2760 2625 2756 2764 2758 
354 220 373 221 2630 2760 2763 2632 1677 2765 
373 220 240 221 2760 1859 2761 2765 1677 1860 
221 240 374 241 1860 2766 2767 1869 1871 2768 
354 374 355 221 2769 2770 2642 2632 2767 2637 
221 240 373 374 1860 2761 2765 2767 2766 2771 
354 374 221 373 2769 2767 2632 2763 2771 2765 
355 221 374 222 2637 2767 2770 2639 1687 2772 
374 221 241 222 2767 1869 2768 2772 1687 1870 
222 241 375 242 1870 2773 2774 1879 1881 2775 
355 375 356 222 2776 2777 2649 2639 2774 2644 
222 241 374 375 1870 2768 2772 2774 2773 2778 
355 375 222 374 2776 2774 2639 2770 2778 2772 
356 222 375 223 2644 2774 2777 2646 1697 2779 
375 222 242 223 2774 1879 2775 2779 1697 1880 
223 242 376 243 1880 2780 2781 1889 1891 2782 
356 376 357 223 2783 2784 2656 2646 2781 2651 
223 242 375 376 1880 2775 2779 2781 2780 2785 
356 376 223 375 2783 2781 2646 2777 2785 2779 
357 223 376 224 2651 2781 2784 2653 1707 2786 
376 223 243 224 2781 1889 2782 2786 1707 1890 
224 243 377 244 1890 2787 2788 1899 1901 2789 
357 377 358 224 2790 2791 2663 2653 2788 2658 
224 243 376 377 1890 2782 2786 2788 2787 2792 
357 377 224 376 2790 2788 2653 2784 2792 2786 
358 224 377 225 2658 2788 2791 2660 1717 2793 
377 224 244 225 2788 1899 2789 2793 1717 1900 
225 244 378 245 1900 2794 2795 1909 1911 2796 
358 378 359 225 2797 2798 2670 2660 2795 2665 
225 244 377 378 1900 2789 2793 2795 2794 2799 
358 378 225 377 2797 2795 2660 2791 2799 2793 
359 225 378 226 2665 2795 2798 2667 1727 2800 
378 225 245 226 2795 1909 2796 2800 1727 1910 
226 245 379 246 1910 2801 2802 1919 1921 2803 
359 379 360 226 2804 2805 2677 2667 2802 2672 
226 245 378 379 1910 2796 2800 2802 2801 2806 
359 379 226 378 2804 2802 2667 2798 2806 2800 
360 226 379 227 2672 2802 2805 2674 1737 2807 
379 226 246 227 2802 1919 2803 2807 1737 1920 
228 247 381 248 1935 2808 2809 1930 1934 2810 
361 381 362 228 2811 2812 2686 2684 2809 2679 
228 247 380 381 1935 2813 2814 2809 2808 2815 
361 381 228 380 2811 2809 2684 2816 2815 2814 
362 228 381 229 2679 2809 2812 2681 1750 2817 
381 228 248 229 2809 1930 2810 2817 1750 1931 
229 248 382 249 1931 2818 2819 1943 1945 2820 
362 382 363 229 2821 2822 2694 2681 2819 2689 
229 248 381 382 1931 2810 2817 2819 2818 2823 
362 382 229 381 2821 2819 2681 2812 2823 2817 
363 229 382 230 2689 2819 2822 2691 1761 2824 
382 229 249 230 2819 1943 2820 2824 1761 1944 
230 249 383 250 1944 2825 2826 1953 1955 2827 
363 383 364 230 2828 2829 2701 2691 2826 2696 
230 249 382 383 1944 2820 2824 2826 2825 2830 
363 383 230 382 2828 2826 2691 2822 2830 2824 
364 230 383 231 2696 2826 2829 2698 1771 2831 
383 230 250 231 2826 1953 2827 2831 1771 1954 
231 250 384 251 1954 2832 2833 1963 1965 2834 
364 384 365 231 2835 2836 2708 2698 2833 2703 
231 250 383 384 1954 2827 2831 2833 2832 2837 
364 384 231 383 2835 2833 2698 2829 2837 2831 
365 231 384 232 2703 2833 2836 2705 1781 2838 
384 231 251 232 2833 1963 2834 2838 1781 1964 
232 251 385 252 1964 2839 2840 1973 1975 2841 
365 385 366 232 2842 2843 2715 2705 2840 2710 
232 251 384 385 1964 2834 2838 2840 2839 2844 
365 385 232 384 2842 2840 2705 2836 2844 2838 
366 232 385 233 2710 2840 2843 2712 1791 2845 
385 232 252 233 2840 1973 2841 2845 1791 1974 
233 252 386 253 1974 2846 2847 1983 1985 2848 
366 386 367 233 2849 2850 2722 2712 2847 2717 
233 252 385 386 1974 2841 2845 2847 2846 2851 
366 386 233 385 2849 2847 2712 2843 2851 2845 
367 233 386 234 2717 2847 2850 2719 1801 2852 
386 233 253 234 2847 1983 2848 2852 1801 1984 
234 253 387 254 1984 2853 2854 1993 1995 2855 
367 387 368 234 2856 2857 2729 2719 2854 2724 
234 253 386 387 1984 2848 2852 2854 2853 2858 
367 387 234 386 2856 2854 2719 2850 2858 2852 
368 234 387 235 2724 2854 2857 2726 1811 2859 
387 234 254 235 2854 1993 2855 2859 1811 1994 
235 254 388 255 1994 2860 2861 2003 2005 2862 
368 388 369 235 2863 2864 2736 2726 2861 2731 
235 254 387 388 1994 2855 2859 2861 2860 2865 
368 388 235 387 2863 2861 2726 2857 2865 2859 
369 235 388 236 2731 2861 2864 2733 1821 2866 
388 235 255 236 2861 2003 2862 2866 1821 2004 
236 255 389 256 2004 2867 2868 2013 2015 2869 
369 389 370 236 2870 2871 2743 2733 2868 2738 
236 255 388 389 2004 2862 2866 2868 2867 2872 
369 389 236 388 2870 2868 2733 2864 2872 2866 
370 236 389 237 2738 2868 2871 2740 1831 2873 
389 236 256 237 2868 2013 2869 2873 1831 2014 
237 256 390 257 2014 2874 2875 2023 2025 2876 
370 390 371 237 2877 2878 2750 2740 2875 2745 
237 256 389 390 2014 2869 2873 2875 2874 2879 
370 390 237 389 2877 2875 2740 2871 2879 2873 
371 237 390 238 2745 2875 2878 2747 1841 2880 
390 237 257 238 2875 2023 2876 2880 1841 2024 
238 257 391 258 2024 2881 2882 2033 2035 2883 
371 391 372 238 2884 2885 2757 2747 2882 2752 
238 257 390 391 2024 2876 2880 2882 2881 2886 
371 391 238 390 2884 2882 2747 2878 2886 2880 
372 238 391 239 2752 2882 2885 2754 1851 2887 
391 238 258 239 2882 2033 2883 2887 1851 2034 
239 258 392 259 2034 2888 2889 2043 2045 2890 
372 392 373 239 2891 2892 2764 2754 2889 2759 
239 258 391 392 2034 2883 2887 2889 2888 2893 
372 392 239 391 2891 2889 2754 2885 2893 2887 
373 239 392 240 2759 2889 2892 2761 1861 2894 
392 239 259 240 2889 2043 2890 2894 1861 2044 
240 259 393 260 2044 2895 2896 2053 2055 2897 
373 393 374 240 2898 2899 2771 2761 2896 2766 
240 259 392 393 2044 2890 2894 2896 2895 2900 
373 393 240 392 2898 2896 2761 2892 2900 2894 
374 240 393 241 2766 2896 2899 2768 1871 2901 
393 240 260 241 2896 2053 2897 2901 1871 2054 
241 260 394 261 2054 2902 2903 2063 2065 2904 
374 394 375 241 2905 2906 2778 2768 2903 2773 
241 260 393 394 2054 2897 2901 2903 2902 2907 
374 394 241 393 2905 2903 2768 2899 2907 2901 
375 241 394 242 2773 2903 2906 2775 1881 2908 
394 241 261 242 2903 2063 2904 2908 1881 2064 
242 261 395 262 2064 2909 2910 2073 2075 2911 
375 395 376 242 2912 2913 2785 2775 2910 2780 
242 261 394 395 2064 2904 2908 2910 2909 2914 
375 395 242 394 2912 2910 2775 2906 2914 2908 
376 242 395 243 2780 2910 2913 2782 1891 2915 
395 242 262 243 2910 2073 2911 2915 1891 2074 
243 262 396 263 2074 2916 2917 2083 2085 2918 
376 396 377 243 2919 2920 2792 2782 2917 2787 
243 262 395 396 2074 2911 2915 2917 2916 2921 
376 396 243 395 2919 2917 2782 2913 2921 2915 
377 243 396 244 2787 2917 2920 2789 1901 2922 
396 243 263 244 2917 2083 2918 2922 1901 2084 
244 263 397 264 2084 2923 2924 2093 2095 2925 
377 397 378 244 2926 2927 2799 2789 2924 2794 
244 263 396 397 2084 2918 2922 2924 2923 2928 
377 397 244 396 2926 2924 2789 2920 2928 2922 
378 244 397 245 2794 2924 2927 2796 1911 2929 
397 244 264 245 2924 2093 2925 2929 1911 2094 
245 264 398 265 2094 2930 2931 2103 2105 2932 
378 398 379 245 2933 2934 2806 2796 2931 2801 
245 264 397 398 2094 2925 2929 2931 2930 2935 
378 398 245 397 2933 2931 2796 2927 2935 2929 
379 245 398 246 2801 2931 2934 2803 1921 2936 
398 245 265 246 2931 2103 2932 2936 1921 2104 
266 285 419 286 2119 2937 2938 2111 2118 2939 
399 419 400 266 2940 2941 2942 2943 2938 2944 
266 285 418 419 2119 2945 2946 2938 2937 2947 
399 419 266 418 2940 2938 2943 2948 2947 2946 
400 266 419 267 2944 2938 2941 2949 2113 2950 
419 266 286 267 2938 2111 2939 2950 2113 2112 
267 286 420 287 2112 2951 2952 2125 2129 2953 
400 420 401 267 2954 2955 2956 2949 2952 2957 
267 286 419 420 2112 2939 2950 2952 2951 2958 
400 420 267 419 2954 2952 2949 2941 2958 2950 
401 267 420 268 2957 2952 2955 2959 2127 2960 
420 267 287 268 2952 2125 2953 2960 2127 2126 
268 287 421 288 2126 2961 2962 2135 2139 2963 
401 421 402 268 2964 2965 2966 2959 2962 2967 
268 287 420 421 2126 2953 2960 2962 2961 2968 
401 421 268 420 2964 2962 2959 2955 2968 2960 
402 268 421 269 2967 2962 2965 2969 2137 2970 
421 268 288 269 2962 2135 2963 2970 2137 2136 
269 288 422 289 2136 2971 2972 2145 2149 2973 
402 422 403 269 2974 2975 2976 2969 2972 2977 
269 288 421 422 2136 2963 2970 2972 2971 2978 
402 422 269 421 2974 2972 2969 2965 2978 2970 
403 269 422 270 2977 2972 2975 2979 2147 2980 
422 269 289 270 2972 2145 2973 2980 2147 2146 
270 289 423 290 2146 2981 2982 2155 2159 2983 
403 423 404 270 2984 2985 2986 2979 2982 2987 
270 289 422 423 2146 2973 2980 2982 2981 2988 
403 423 270 422 2984 2982 2979 2975 2988 2980 
404 270 423 271 2987 2982 2985 2989 2157 2990 
423 270 290 271 2982 2155 2983 2990 2157 2156 
271 290 424 291 2156 2991 2992 2165 2169 2993 
404 424 405 271 2994 2995 2996 2989 2992 2997 
271 290 423 424 2156 2983 2990 2992 2991 2998 
404 424 271 423 2994 2992 2989 2985 2998 2990 
405 271 424 272 2997 2992 2995 2999 2167 3000 
424 271 291 272 2992 2165 2993 3000 2167 2166 
272 291 425 292 2166 3001 3002 2175 2179 3003 
405 425 406 272 3004 3005 3006 2999 3002 3007 
272 291 424 425 2166 2993 3000 3002 3001 3008 
405 425 272 424 3004 3002 2999 2995 3008 3000 
406 272 425 273 3007 3002 3005 3009 2177 3010 
425 272 292 273 3002 2175 3003 3010 2177 2176 
273 292 426 293 2176 3011 3012 2185 2189 3013 
406 426 407 273 3014 3015 3016 3009 3012 3017 
273 292 425 426 2176 3003 3010 3012 3011 3018 
406 426 273 425 3014 3012 3009 3005 3018 3010 
407 273 426 274 3017 3012 3015 3019 2187 3020 
426 273 293 274 3012 2185 3013 3020 2187 2186 
274 293 427 294 2186 3021 3022 2195 2199 3023 
407 427 408 274 3024 3025 3026 3019 3022 3027 
274 293 426 427 2186 3013 3020 3022 3021 3028 
407 427 274 426 3024 3022 3019 3015 3028 3020 
408 274 427 275 3027 3022 3025 3029 2197 3030 
427 274 294 275 3022 2195 3023 3030 2197 2196 
275 294 428 295 2196 3031 3032 2205 2209 3033 
408 428 409 275 3034 3035 3036 3029 3032 3037 
275 294 427 428 2196 3023 3030 3032 3031 3038 
408 428 275 427 3034 3032 3029 3025 3038 3030 
409 275 428 276 3037 3032 3035 3039 2207 3040 
428 275 295 276 3032 2205 3033 3040 2207 2206 
276 295 429 296 2206 3041 3042 2215 2219 3043 
409 429 410 276 3044 3045 3046 3039 3042 3047 
276 295 428 429 2206 3033 3040 3042 3041 3048 
409 429 276 428 3044 3042 3039 3035 3048 3040 
410 276 429 277 3047 3042 3045 3049 2217 3050 
429 276 296 277 3042 2215 3043 3050 2217 2216 
277 296 430 297 2216 3051 3052 2225 2229 3053 
410 430 411 277 3054 3055 3056 3049 3052 3057 
277 296 429 430 2216 3043 3050 3052 3051 3058 
410 430 277 429 3054 3052 3049 3045 3058 3050 
411 277 430 278 3057 3052 3055 3059 2227 3060 
430 277 297 278 3052 2225 3053 3060 2227 2226 
278 297 431 298 2226 3061 3062 2235 2239 3063 
411 431 412 278 3064 3065 3066 3059 3062 3067 
278 297 430 431 2226 3053 3060 3062 3061 3068 
411 431 278 430 3064 3062 3059 3055 3068 3060 
412 278 431 279 3067 3062 3065 3069 2237 3070 
431 278 298 279 3062 2235 3063 3070 2237 2236 
279 298 432 299 2236 3071 3072 2245 2249 3073 
412 432 413 279 3074 3075 3076 3069 3072 3077 
279 298 431 432 2236 3063 3070 3072 3071 3078 
412 432 279 431 3074 3072 3069 3065 3078 3070 
413 279 432 280 3077 3072 3075 3079 2247 3080 
432 279 299 280 3072 2245 3073 3080 2247 2246 
280 299 433 300 2246 3081 3082 2255 2259 3083 
413 433 414 280 3084 3085 3086 3079 3082 3087 
280 299 432 433 2246 3073 3080 3082 3081 3088 
413 433 280 432 3084 3082 3079 3075 3088 3080 
414 280 433 281 3087 3082 3085 3089 2257 3090 
433 280 300 281 3082 2255 3083 3090 2257 2256 
281 300 434 301 2256 3091 3092 2265 2269 3093 
414 434 415 281 3094 3095 3096 3089 3092 3097 
281 300 433 434 2256 3083 3090 3092 3091 3098 
414 434 281 433 3094 3092 3089 3085 3098 3090 
415 281 434 282 3097 3092 3095 3099 2267 3100 
434 281 301 282 3092 2265 3093 3100 2267 2266 
282 301 435 302 2266 3101 3102 2275 2279 3103 
415 435 416 282 3104 3105 3106 3099 3102 3107 
282 301 434 435 2266 3093 3100 3102 3101 3108 
415 435 282 434 3104 3102 3099 3095 3108 3100 
416 282 435 283 3107 3102 3105 3109 2277 3110 
435 282 302 283 3102 2275 3103 3110 2277 2276 
283 302 436 303 2276 3111 3112 2285 2289 3113 
416 436 417 283 3114 3115 3116 3109 3112 3117 
283 302 435 436 2276 3103 3110 3112 3111 3118 
416 436 283 435 3114 3112 3109 3105 3118 3110 
417 283 436 284 3117 3112 3115 3119 2287 3120 
436 283 303 284 3112 2285 3113 3120 2287 2286 
285 304 438 305 2300 3121 3122 2295 2299 3123 
418 438 419 285 3124 3125 2947 2945 3122 2937 
285 304 437 438 2300 3126 3127 3122 3121 3128 
418 438 285 437 3124 3122 2945 3129 3128 3127 
419 285 438 286 2937 3122 3125 2939 2118 3130 
438 285 305 286 3122 2295 3123 3130 2118 2296 
286 305 439 306 2296 3131 3132 2305 2307 3133 
419 439 420 286 3134 3135 2958 2939 3132 2951 
286 305 438 439 2296 3123 3130 3132 3131 3136 
419 439 286 438 3134 3132 2939 3125 3136 3130 
420 286 439 287 2951 3132 3135 2953 2129 3137 
439 286 306 287 3132 2305 3133 3137 2129 2306 
287 306 440 307 2306 3138 3139 2312 2314 3140 
420 440 421 287 3141 3142 2968 2953 3139 2961 
287 306 439 440 2306 3133 3137 3139 3138 3143 
420 440 287 439 3141 3139 2953 3135 3143 3137 
421 287 440 288 2961 3139 3142 2963 2139 3144 
440 287 307 288 3139 2312 3140 3144 2139 2313 
288 307 441 308 2313 3145 3146 2319 2321 3147 
421 441 422 288 3148 3149 2978 2963 3146 2971 
288 307 440 441 2313 3140 3144 3146 3145 3150 
421 441 288 440 3148 3146 2963 3142 3150 3144 
422 288 441 289 2971 3146 3149 2973 2149 3151 
441 288 308 289 3146 2319 3147 3151 2149 2320 
289 308 442 309 2320 3152 3153 2326 2328 3154 
422 442 423 289 3155 3156 2988 2973 3153 2981 
289 308 441 442 2320 3147 3151 3153 3152 3157 
422 442 289 441 3155 3153 2973 3149 3157 3151 
423 289 442 290 2981 3153 3156 2983 2159 3158 
442 289 309 290 3153 2326 3154 3158 2159 2327 
290 309 443 310 2327 3159 3160 2333 2335 3161 
423 443 424 290 3162 3163 2998 2983 3160 2991 
290 309 442 443 2327 3154 3158 3160 3159 3164 
423 443 290 442 3162 3160 2983 3156 3164 3158 
424 290 443 291 2991 3160 3163 2993 2169 3165 
443 290 310 291 3160 2333 3161 3165 2169 2334 
291 310 444 311 2334 3166 3167 2340 2342 3168 
424 444 425 291 3169 3170 3008 2993 3167 3001 
291 310 443 444 2334 3161 3165 3167 3166 3171 
424 444 291 443 3169 3167 2993 3163 3171 3165 
425 291 444 292 3001 3167 3170 3003 2179 3172 
444 291 311 292 3167 2340 3168 3172 2179 2341 
292 311 445 312 2341 3173 3174 2347 2349 3175 
425 445 426 292 3176 3177 3018 3003 3174 3011 
292 311 444 445 2341 3168 3172 3174 3173 3178 
425 445 292 444 3176 3174 3003 3170 3178 3172 
426 292 445 293 3011 3174 3177 3013 2189 3179 
445 292 312 293 3174 2347 3175 3179 2189 2348 
293 312 446 313 2348 3180 3181 2354 2356 3182 
426 446 427 293 3183 3184 3028 3013 3181 3021 
293 312 445 446 2348 3175 3179 3181 3180 3185 
426 446 293 445 3183 3181 3013 3177 3185 3179 
427 293 446 294 3021 3181 3184 3023 2199 3186 
446 293 313 294 3181 2354 3182 3186 2199 2355 
294 313 447 314 2355 3187 3188 2361 2363 3189 
427 447 428 294 3190 3191 3038 3023 3188 3031 
294 313 446 447 2355 3182 3186 3188 3187 3192 
427 447 294 446 3190 3188 3023 3184 3192 3186 
428 294 447 295 3031 3188 3191 3033 2209 3193 
447 294 314 295 3188 2361 3189 3193 2209 2362 
295 314 448 315 2362 3194 3195 2368 2370 3196 
428 448 429 295 3197 3198 3048 3033 3195 3041 
295 314 447 448 2362 3189 3193 3195 3194 3199 
428 448 295 447 3197 3195 3033 3191 3199 3193 
429 295 448 296 3041 3195 3198 3043 2219 3200 
448 295 315 296 3195 2368 3196 3200 2219 2369 
296 315 449 316 2369 3201 3202 2375 2377 3203 
429 449 430 296 3204 3205 3058 3043 3202 3051 
296 315 448 449 2369 3196 3200 3202 3201 3206 
429 449 296 448 3204 3202 3043 3198 3206 3200 
430 296 449 297 3051 3202 3205 3053 2229 3207 
449 296 316 297 3202 2375 3203 3207 2229 2376 
297 316 450 317 2376 3208 3209 2382 2384 3210 
430 450 431 297 3211 3212 3068 3053 3209 3061 
297 316 449 450 2376 3203 3207 3209 3208 3213 
430 450 297 449 3211 3209 3053 3205 3213 3207 
431 297 450 298 3061 3209 3212 3063 2239 3214 
450 297 317 298 3209 2382 3210 3214 2239 2383 
298 317 451 318 2383 3215 3216 2389 2391 3217 
431 451 432 298 3218 3219 3078 3063 3216 3071 
298 317 450 451 2383 3210 3214 3216 3215 3220 
431 451 298 450 3218 3216 3063 3212 3220 3214 
432 298 451 299 3071 3216 3219 3073 2249 3221 
451 298 318 299 3216 2389 3217 3221 2249 2390 
299 318 452 319 2390 3222 3223 2396 2398 3224 
432 452 433 299 3225 3226 3088 3073 3223 3081 
299 318 451 452 2390 3217 3221 3223 3222 3227 
432 452 299 451 3225 3223 3073 3219 3227 3221 
433 299 452 300 3081 3223 3226 3083 2259 3228 
452 299 319 300 3223 2396 3224 3228 2259 2397 
300 319 453 320 2397 3229 3230 2403 2405 3231 
433 453 434 300 3232 3233 3098 3083 3230 3091 
300 319 452 453 2397 3224 3228 3230 3229 3234 
433 453 300 452 3232 3230 3083 3226 3234 3228 
434 300 453 301 3091 3230 3233 3093 2269 3235 
453 300 320 301 3230 2403 3231 3235 2269 2404 
301 320 454 321 2404 3236 3237 2410 2412 3238 
434 454 435 301 3239 3240 3108 3093 3237 3101 
301 320 453 454 2404 3231 3235 3237 3236 3241 
434 454 301 453 3239 3237 3093 3233 3241 3235 
435 301 454 302 3101 3237 3240 3103 2279 3242 
454 301 321 302 3237 2410 3238 3242 2279 2411 
302 321 455 322 2411 3243 3244 2417 2419 3245 
435 455 436 302 3246 3247 3118 3103 3244 3111 
302 321 454 455 2411 3238 3242 3244 3243 3248 
435 455 302 454 3246 3244 3103 3240 3248 3242 
436 302 455 303 3111 3244 3247 3113 2289 3249 
455 302 322 303 3244 2417 3245 3249 2289 2418 
304 323 457 324 2429 3250 3251 2424 2428 3252 
437 457 438 304 3253 3254 3128 3126 3251 3121 
304 323 456 457 2429 3255 3256 3251 3250 3257 
437 457 304 456 3253 3251 3126 3258 3257 3256 
438 304 457 305 3121 3251 3254 3123 2299 3259 
457 304 324 305 3251 2424 3252 3259 2299 2425 
305 324 458 325 2425 3260 3261 2434 2436 3262 
438 458 439 305 3263 3264 3136 3123 3261 3131 
305 324 457 458 2425 3252 3259 3261 3260 3265 
438 458 305 457 3263 3261 3123 3254 3265 3259 
439 305 458 306 3131 3261 3264 3133 2307 3266 
458 305 325 306 3261 2434 3262 3266 2307 2435 
306 325 459 326 2435 3267 3268 2441 2443 3269 
439 459 440 306 3270 3271 3143 3133 3268 3138 
306 325 458 459 2435 3262 3266 3268 3267 3272 
439 459 306 458 3270 3268 3133 3264 3272 3266 
440 306 459 307 3138 3268 3271 3140 2314 3273 
459 306 326 307 3268 2441 3269 3273 2314 2442 
307 326 460 327 2442 3274 3275 2448 2450 3276 
440 460 441 307 3277 3278 3150 3140 3275 3145 
307 326 459 460 2442 3269 3273 3275 3274 3279 
440 460 307 459 3277 3275 3140 3271 3279 3273 
441 307 460 308 3145 3275 3278 3147 2321 3280 
460 307 327 308 3275 2448 3276 3280 2321 2449 
308 327 461 328 2449 3281 3282 2455 2457 3283 
441 461 442 308 3284 3285 3157 3147 3282 3152 
308 327 460 461 2449 3276 3280 3282 3281 3286 
441 461 308 460 3284 3282 3147 3278 3286 3280 
442 308 461 309 3152 3282 3285 3154 2328 3287 
461 308 328 309 3282 2455 3283 3287 2328 2456 
309 328 462 329 2456 3288 3289 2462 2464 3290 
442 462 443 309 3291 3292 3164 3154 3289 3159 
309 328 461 462 2456 3283 3287 3289 3288 3293 
442 462 309 461 3291 3289 3154 3285 3293 3287 
443 309 462 310 3159 3289 3292 3161 2335 3294 
462 309 329 310 3289 2462 3290 3294 2335 2463 
310 329 463 330 2463 3295 3296 2469 2471 3297 
443 463 444 310 3298 3299 3171 3161 3296 3166 
310 329 462 463 2463 3290 3294 3296 3295 3300 
443 463 310 462 3298 3296 3161 3292 3300 3294 
444 310 463 311 3166 3296 3299 3168 2342 3301 
463 310 330 311 3296 2469 3297 3301 2342 2470 
311 330 464 331 2470 3302 3303 2476 2478 3304 
444 464 445 311 3305 3306 3178 3168 3303 3173 
311 330 463 464 2470 3297 3301 3303 3302 3307 
444 464 311 463 3305 3303 3168 3299 3307 3301 
445 311 464 312 3173 3303 3306 3175 2349 3308 
464 311 331 312 3303 2476 3304 3308 2349 2477 
312 331 465 332 2477 3309 3310 2483 2485 3311 
445 465 446 312 3312 3313 3185 3175 3310 3180 
312 331 464 465 2477 3304 3308 3310 3309 3314 
445 465 312 464 3312 3310 3175 3306 3314 3308 
446 312 465 313 3180 3310 3313 3182 2356 3315 
465 312 332 313 3310 2483 3311 3315 2356 2484 
313 332 466 333 2484 3316 3317 2490 2492 3318 
446 466 447 313 3319 3320 3192 3182 3317 3187 
313 332 465 466 2484 3311 3315 3317 3316 3321 
446 466 313 465 3319 3317 3182 3313 3321 3315 
447 313 466 314 3187 3317 3320 3189 2363 3322 
466 313 333 314 3317 2490 3318 3322 2363 2491 
314 333 467 334 2491 3323 3324 2497 2499 3325 
447 467 448 314 3326 3327 3199 3189 3324 3194 
314 333 466 467 2491 3318 3322 3324 3323 3328 
447 467 314 466 3326 3324 3189 3320 3328 3322 
448 314 467 315 3194 3324 3327 3196 2370 3329 
467 314 334 315 3324 2497 3325 3329 2370 2498 
315 334 468 335 2498 3330 3331 2504 2506 3332 
448 468 449 315 3333 3334 3206 3196 3331 3201 
315 334 467 468 2498 3325 3329 3331 3330 3335 
448 468 315 467 3333 3331 3196 3327 3335 3329 
449 315 468 316 3201 3331 3334 3203 2377 3336 
468 315 335 316 3331 2504 3332 3336 2377 2505 
316 335 469 336 2505 3337 3338 2511 2513 3339 
449 469 450 316 3340 3341 3213 3203 3338 3208 
316 335 468 469 2505 3332 3336 3338 3337 3342 
449 469 316 468 3340 3338 3203 3334 3342 3336 
450 316 469 317 3208 3338 3341 3210 2384 3343 
469 316 336 317 3338 2511 3339 3343 2384 2512 
317 336 470 337 2512 3344 3345 2518 2520 3346 
450 470 451 317 3347 3348 3220 3210 3345 3215 
317 336 469 470 2512 3339 3343 3345 3344 3349 
450 470 317 469 3347 3345 3210 3341 3349 3343 
451 317 470 318 3215 3345 3348 3217 2391 3350 
470 317 337 318 3345 2518 3346 3350 2391 2519 
318 337 471 338 2519 3351 3352 2525 2527 3353 
451 471 452 318 3354 3355 3227 3217 3352 3222 
318 337 470 471 2519 3346 3350 3352 3351 3356 
451 471 318 470 3354 3352 3217 3348 3356 3350 
452 318 471 319 3222 3352 3355 3224 2398 3357 
471 318 338 319 3352 2525 3353 3357 2398 2526 
319 338 472 339 2526 3358 3359 2532 2534 3360 
452 472 453 319 3361 3362 3234 3224 3359 3229 
319 338 471 472 2526 3353 3357 3359 3358 3363 
452 472 319 471 3361 3359 3224 3355 3363 3357 
453 319 472 320 3229 3359 3362 3231 2405 3364 
472 319 339 320 3359 2532 3360 3364 2405 2533 
320 339 473 340 2533 3365 3366 2539 2541 3367 
453 473 454 320 3368 3369 3241 3231 3366 3236 
320 339 472 473 2533 3360 3364 3366 3365 3370 
453 473 320 472 3368 3366 3231 3362 3370 3364 
454 320 473 321 3236 3366 3369 3238 2412 3371 
473 320 340 321 3366 2539 3367 3371 2412 2540 
321 340 474 341 2540 3372 3373 2546 2548 3374 
454 474 455 321 3375 3376 3248 3238 3373 3243 
321 340 473 474 2540 3367 3371 3373 3372 3377 
454 474 321 473 3375 3373 3238 3369 3377 3371 
455 321 474 322 3243 3373 3376 3245 2419 3378 
474 321 341 322 3373 2546 3374 3378 2419 2547 
323 342 476 343 2558 3379 3380 2553 2557 3381 
456 476 457 323 3382 3383 3257 3255 3380 3250 
323 342 475 476 2558 3384 3385 3380 3379 3386 
456 476 323 475 3382 3380 3255 3387 3386 3385 
457 323 476 324 3250 3380 3383 3252 2428 3388 
476 323 343 324 3380 2553 3381 3388 2428 2554 
324 343 477 344 2554 3389 3390 2563 2565 3391 
457 477 458 324 3392 3393 3265 3252 3390 3260 
324 343 476 477 2554 3381 3388 3390 3389 3394 
457 477 324 476 3392 3390 3252 3383 3394 3388 
458 324 477 325 3260 3390 3393 3262 2436 3395 
477 324 344 325 3390 2563 3391 3395 2436 2564 
325 344 478 345 2564 3396 3397 2570 2572 3398 
458 478 459 325 3399 3400 3272 3262 3397 3267 
325 344 477 478 2564 3391 3395 3397 3396 3401 
458 478 325 477 3399 3397 3262 3393 3401 3395 
459 325 478 326 3267 3397 3400 3269 2443 3402 
478 325 345 326 3397 2570 3398 3402 2443 2571 
326 345 479 346 2571 3403 3404 2577 2579 3405 
459 479 460 326 3406 3407 3279 3269 3404 3274 
326 345 478 479 2571 3398 3402 3404 3403 3408 
459 479 326 478 3406 3404 3269 3400 3408 3402 
460 326 479 327 3274 3404 3407 3276 2450 3409 
479 326 346 327 3404 2577 3405 3409 2450 2578 
327 346 480 347 2578 3410 3411 2584 2586 3412 
460 480 461 327 3413 3414 3286 3276 3411 3281 
327 346 479 480 2578 3405 3409 3411 3410 3415 
460 480 327 479 3413 3411 3276 3407 3415 3409 
461 327 480 328 3281 3411 3414 3283 2457 3416 
480 327 347 328 3411 2584 3412 3416 2457 2585 
328 347 481 348 2585 3417 3418 2591 2593 3419 
461 481 462 328 3420 3421 3293 3283 3418 3288 
328 347 480 481 2585 3412 3416 3418 3417 3422 
461 481 328 480 3420 3418 3283 3414 3422 3416 
462 328 481 329 3288 3418 3421 3290 2464 3423 
481 328 348 329 3418 2591 3419 3423 2464 2592 
329 348 482 349 2592 3424 3425 2598 2600 3426 
462 482 463 329 3427 3428 3300 3290 3425 3295 
329 348 481 482 2592 3419 3423 3425 3424 3429 
462 482 329 481 3427 3425 3290 3421 3429 3423 
463 329 482 330 3295 3425 3428 3297 2471 3430 
482 329 349 330 3425 2598 3426 3430 2471 2599 
330 349 483 350 2599 3431 3432 2605 2607 3433 
463 483 464 330 3434 3435 3307 3297 3432 3302 
330 349 482 483 2599 3426 3430 3432 3431 3436 
463 483 330 482 3434 3432 3297 3428 3436 3430 
464 330 483 331 3302 3432 3435 3304 2478 3437 
483 330 350 331 3432 2605 3433 3437 2478 2606 
331 350 484 351 2606 3438 3439 2612 2614 3440 
464 484 465 331 3441 3442 3314 3304 3439 3309 
331 350 483 484 2606 3433 3437 3439 3438 3443 
464 484 331 483 3441 3439 3304 3435 3443 3437 
465 331 484 332 3309 3439 3442 3311 2485 3444 
484 331 351 332 3439 2612 3440 3444 2485 2613 
332 351 485 352 2613 3445 3446 2619 2621 3447 
465 485 466 332 3448 3449 3321 3311 3446 3316 
332 351 484 485 2613 3440 3444 3446 3445 3450 
465 485 332 484 3448 3446 3311 3442 3450 3444 
466 332 485 333 3316 3446 3449 3318 2492 3451 
485 332 352 333 3446 2619 3447 3451 2492 2620 
333 352 486 353 2620 3452 3453 2626 2628 3454 
466 486 467 333 3455 3456 3328 3318 3453 3323 
333 352 485 486 2620 3447 3451 3453 3452 3457 
466 486 333 485 3455 3453 3318 3449 3457 3451 
467 333 486 334 3323 3453 3456 3325 2499 3458 
486 333 353 334 3453 2626 3454 3458 2499 2627 
334 353 487 354 2627 3459 3460 2633 2635 3461 
467 487 468 334 3462 3463 3335 3325 3460 3330 
334 353 486 487 2627 3454 3458 3460 3459 3464 
467 487 334 486 3462 3460 3325 3456 3464 3458 
468 334 487 335 3330 3460 3463 3332 2506 3465 
487 334 354 335 3460 2633 3461 3465 2506 2634 
335 354 488 355 2634 3466 3467 2640 2642 3468 
468 488 469 335 3469 3470 3342 3332 3467 3337 
335 354 487 488 2634 3461 3465 3467 3466 3471 
468 488 335 487 3469 3467 3332 3463 3471 3465 
469 335 488 336 3337 3467 3470 3339 2513 3472 
488 335 355 336 3467 2640 3468 3472 2513 2641 
336 355 489 356 2641 3473 3474 2647 2649 3475 
469 489 470 336 3476 3477 3349 3339 3474 3344 
336 355 488 489 2641 3468 3472 3474 3473 3478 
469 489 336 488 3476 3474 3339 3470 3478 3472 
470 336 489 337 3344 3474 3477 3346 2520 3479 
489 336 356 337 3474 2647 3475 3479 2520 2648 
337 356 490 357 2648 3480 3481 2654 2656 3482 
470 490 471 337 3483 3484 3356 3346 3481 3351 
337 356 489 490 2648 3475 3479 3481 3480 3485 
470 490 337 489 3483 3481 3346 3477 3485 3479 
471 337 490 338 3351 3481 3484 3353 2527 3486 
490 337 357 338 3481 2654 3482 3486 2527 2655 
338 357 491 358 2655 3487 3488 2661 2663 3489 
471 491 472 338 3490 3491 3363 3353 3488 3358 
338 357 490 491 2655 3482 3486 3488 3487 3492 
471 491 338 490 3490 3488 3353 3484 3492 3486 
472 338 491 339 3358 3488 3491 3360 2534 3493 
491 338 358 339 3488 2661 3489 3493 2534 2662 
339 358 492 359 2662 3494 3495 2668 2670 3496 
472 492 473 339 3497 3498 3370 3360 3495 3365 
339 358 491 492 2662 3489 3493 3495 3494 3499 
472 492 339 491 3497 3495 3360 3491 3499 3493 
473 339 492 340 3365 3495 3498 3367 2541 3500 
492 339 359 340 3495 2668 3496 3500 2541 2669 
340 359 493 360 2669 3501 3502 2675 2677 3503 
473 493 474 340 3504 3505 3377 3367 3502 3372 
340 359 492 493 2669 3496 3500 3502 3501 3506 
473 493 340 492 3504 3502 3367 3498 3506 3500 
474 340 493 341 3372 3502 3505 3374 2548 3507 
493 340 360 341 3502 2675 3503 3507 2548 2676 
342 361 495 362 2687 3508 3509 2682 2686 3510 
475 495 476 342 3511 3512 3386 3384 3509 3379 
342 361 494 495 2687 3513 3514 3509 3508 3515 
475 495 342 494 3511 3509 3384 3516 3515 3514 
476 342 495 343 3379 3509 3512 3381 2557 3517 
495 342 362 343 3509 2682 3510 3517 2557 2683 
343 362 496 363 2683 3518 3519 2692 2694 3520 
476 496 477 343 3521 3522 3394 3381 3519 3389 
343 362 495 496 2683 3510 3517 3519 3518 3523 
476 496 343 495 3521 3519 3381 3512 3523 3517 
477 343 496 344 3389 3519 3522 3391 2565 3524 
496 343 363 344 3519 2692 3520 3524 2565 2693 
344 363 497 364 2693 3525 3526 2699 2701 3527 
477 497 478 344 3528 3529 3401 3391 3526 3396 
344 363 496 497 2693 3520 3524 3526 3525 3530 
477 497 344 496 3528 3526 3391 3522 3530 3524 
478 344 497 345 3396 3526 3529 3398 2572 3531 
497 344 364 345 3526 2699 3527 3531 2572 2700 
345 364 498 365 2700 3532 3533 2706 2708 3534 
478 498 479 345 3535 3536 3408 3398 3533 3403 
345 364 497 498 2700 3527 3531 3533 3532 3537 
478 498 345 497 3535 3533 3398 3529 3537 3531 
479 345 498 346 3403 3533 3536 3405 2579 3538 
498 345 365 346 3533 2706 3534 3538 2579 2707 
346 365 499 366 2707 3539 3540 2713 2715 3541 
479 499 480 346 3542 3543 3415 3405 3540 3410 
346 365 498 499 2707 3534 3538 3540 3539 3544 
479 499 346 498 3542 3540 3405 3536 3544 3538 
480 346 499 347 3410 3540 3543 3412 2586 3545 
499 346 366 347 3540 2713 3541 3545 2586 2714 
347 366 500 367 2714 3546 3547 2720 2722 3548 
480 500 481 347 3549 3550 3422 3412 3547 3417 
347 366 499 500 2714 3541 3545 3547 3546 3551 
480 500 347 499 3549 3547 3412 3543 3551 3545 
481 347 500 348 3417 3547 3550 3419 2593 3552 
500 347 367 348 3547 2720 3548 3552 2593 2721 
348 367 501 368 2721 3553 3554 2727 2729 3555 
481 501 482 348 3556 3557 3429 3419 3554 3424 
348 367 500 501 2721 3548 3552 3554 3553 3558 
481 501 348 500 3556 3554 3419 3550 3558 3552 
482 348 501 349 3424 3554 3557 3426 2600 3559 
501 348 368 349 3554 2727 3555 3559 2600 2728 
349 368 502 369 2728 3560 3561 2734 2736 3562 
482 502 483 349 3563 3564 3436 3426 3561 3431 
349 368 501 502 2728 3555 3559 3561 3560 3565 
482 502 349 501 3563 3561 3426 3557 3565 3559 
483 349 502 350 3431 3561 3564 3433 2607 3566 
502 349 369 350 3561 2734 3562 3566 2607 2735 
350 369 503 370 2735 3567 3568 2741 2743 3569 
483 503 484 350 3570 3571 3443 3433 3568 3438 
350 369 502 503 2735 3562 3566 3568 3567 3572 
483 503 350 502 3570 3568 3433 3564 3572 3566 
484 350 503 351 3438 3568 3571 3440 2614 3573 
503 350 370 351 3568 2741 3569 3573 2614 2742 
351 370 504 371 2742 3574 3575 2748 2750 3576 
484 504 485 351 3577 3578 3450 3440 3575 3445 
351 370 503 504 2742 3569 3573 3575 3574 3579 
484 504 351 503 3577 3575 3440 3571 3579 3573 
485 351 504 352 3445 3575 3578 3447 2621 3580 
504 351 371 352 3575 2748 3576 3580 2621 2749 
352 371 505 372 2749 3581 3582 2755 2757 3583 
485 505 486 352 3584 3585 3457 3447 3582 3452 
352 371 504 505 2749 3576 3580 3582 3581 3586 
485 505 352 504 3584 3582 3447 3578 3586 3580 
486 352 505 353 3452 3582 3585 3454 2628 3587 
505 352 372 353 3582 2755 3583 3587 2628 2756 
353 372 506 373 2756 3588 3589 2762 2764 3590 
486 506 487 353 3591 3592 3464 3454 3589 3459 
353 372 505 506 2756 3583 3587 3589 3588 3593 
486 506 353 505 3591 3589 3454 3585 3593 3587 
487 353 506 354 3459 3589 3592 3461 2635 3594 
506 353 373 354 3589 2762 3590 3594 2635 2763 
354 373 507 374 2763 3595 3596 2769 2771 3597 
487 507 488 354 3598 3599 3471 3461 3596 3466 
354 373 506 507 2763 3590 3594 3596 3595 3600 
487 507 354 506 3598 3596 3461 3592 3600 3594 
488 354 507 355 3466 3596 3599 3468 2642 3601 
507 354 374 355 3596 2769 3597 3601 2642 2770 
355 374 508 375 2770 3602 3603 2776 2778 3604 
488 508 489 355 3605 3606 3478 3468 3603 3473 
355 374 507 508 2770 3597 3601 3603 3602 3607 
488 508 355 507 3605 3603 3468 3599 3607 3601 
489 355 508 356 3473 3603 3606 3475 2649 3608 
508 355 375 356 3603 2776 3604 3608 2649 2777 
356 375 509 376 2777 3609 3610 2783 2785 3611 
489 509 490 356 3612 3613 3485 3475 3610 3480 
356 375 508 509 2777 3604 3608 3610 3609 3614 
489 509 356 508 3612 3610 3475 3606 3614 3608 
490 356 509 357 3480 3610 3613 3482 2656 3615 
509 356 376 357 3610 2783 3611 3615 2656 2784 
357 376 510 377 2784 3616 3617 2790 2792 3618 
490 510 491 357 3619 3620 3492 3482 3617 3487 
357 376 509 510 2784 3611 3615 3617 3616 3621 
490 510 357 509 3619 3617 3482 3613 3621 3615 
491 357 510 358 3487 3617 3620 3489 2663 3622 
510 357 377 358 3617 2790 3618 3622 2663 2791 
358 377 511 378 2791 3623 3624 2797 2799 3625 
491 511 492 358 3626 3627 3499 3489 3624 3494 
358 377 510 511 2791 3618 3622 3624 3623 3628 
491 511 358 510 3626 3624 3489 3620 3628 3622 
492 358 511 359 3494 3624 3627 3496 2670 3629 
511 358 378 359 3624 2797 3625 3629 2670 2798 
359 378 512 379 2798 3630 3631 2804 2806 3632 
492 512 493 359 3633 3634 3506 3496 3631 3501 
359 378 511 512 2798 3625 3629 3631 3630 3635 
492 512 359 511 3633 3631 3496 3627 3635 3629 
493 359 512 360 3501 3631 3634 3503 2677 3636 
512 359 379 360 3631 2804 3632 3636 2677 2805 
361 380 514 381 2816 3637 3638 2811 2815 3639 
494 514 495 361 3640 3641 3515 3513 3638 3508 
361 380 513 514 2816 3642 3643 3638 3637 3644 
494 514 361 513 3640 3638 3513 3645 3644 3643 
495 361 514 362 3508 3638 3641 3510 2686 3646 
514 361 381 362 3638 2811 3639 3646 2686 2812 
362 381 515 382 2812 3647 3648 2821 2823 3649 
495 515 496 362 3650 3651 3523 3510 3648 3518 
362 381 514 515 2812 3639 3646 3648 3647 3652 
495 515 362 514 3650 3648 3510 3641 3652 3646 
496 362 515 363 3518 3648 3651 3520 2694 3653 
515 362 382 363 3648 2821 3649 3653 2694 2822 
363 382 516 383 2822 3654 3655 2828 2830 3656 
496 516 497 363 3657 3658 3530 3520 3655 3525 
363 382 515 516 2822 3649 3653 3655 3654 3659 
496 516 363 515 3657 3655 3520 3651 3659 3653 
497 363 516 364 3525 3655 3658 3527 2701 3660 
516 363 383 364 3655 2828 3656 3660 2701 2829 
364 383 517 384 2829 3661 3662 2835 2837 3663 
497 517 498 364 3664 3665 3537 3527 3662 3532 
364 383 516 517 2829 3656 3660 3662 3661 3666 
497 517 364 516 3664 3662 3527 3658 3666 3660 
498 364 517 365 3532 3662 3665 3534 2708 3667 
517 364 384 365 3662 2835 3663 3667 2708 2836 
365 384 518 385 2836 3668 3669 2842 2844 3670 
498 518 499 365 3671 3672 3544 3534 3669 3539 
365 384 517 518 2836 3663 3667 3669 3668 3673 
498 518 365 517 3671 3669 3534 3665 3673 3667 
499 365 518 366 3539 3669 3672 3541 2715 3674 
518 365 385 366 3669 2842 3670 3674 2715 2843 
366 385 519 386 2843 3675 3676 2849 2851 3677 
499 519 500 366 3678 3679 3551 3541 3676 3546 
366 385 518 519 2843 3670 3674 3676 3675 3680 
499 519 366 518 3678 3676 3541 3672 3680 3674 
500 366 519 367 3546 3676 3679 3548 2722 3681 
519 366 386 367 3676 2849 3677 3681 2722 2850 
367 386 520 387 2850 3682 3683 2856 2858 3684 
500 520 501 367 3685 3686 3558 3548 3683 3553 
367 386 519 520 2850 3677 3681 3683 3682 3687 
500 520 367 519 3685 3683 3548 3679 3687 3681 
501 367 520 368 3553 3683 3686 3555 2729 3688 
520 367 387 368 3683 2856 3684 3688 2729 2857 
368 387 521 388 2857 3689 3690 2863 2865 3691 
501 521 502 368 3692 3693 3565 3555 3690 3560 
368 387 520 521 2857 3684 3688 3690 3689 3694 
501 521 368 520 3692 3690 3555 3686 3694 3688 
502 368 521 369 3560 3690 3693 3562 2736 3695 
521 368 388 369 3690 2863 3691 3695 2736 2864 
369 388 522 389 2864 3696 3697 2870 2872 3698 
502 522 503 369 3699 3700 3572 3562 3697 3567 
369 388 521 522 2864 3691 3695 3697 3696 3701 
502 522 369 521 3699 3697 3562 3693 3701 3695 
503 369 522 370 3567 3697 3700 3569 2743 3702 
522 369 389 370 3697 2870 3698 3702 2743 2871 
370 389 523 390 2871 3703 3704 2877 2879 3705 
503 523 504 370 3706 3707 3579 3569 3704 3574 
370 389 522 523 2871 3698 3702 3704 3703 3708 
503 523 370 522 3706 3704 3569 3700 3708 3702 
504 370 523 371 3574 3704 3707 3576 2750 3709 
523 370 390 371 3704 2877 3705 3709 2750 2878 
371 390 524 391 2878 3710 3711 2884 2886 3712 
504 524 505 371 3713 3714 3586 3576 3711 3581 
371 390 523 524 2878 3705 3709 3711 3710 3715 
504 524 371 523 3713 3711 3576 3707 3715 3709 
505 371 524 372 3581 3711 3714 3583 2757 3716 
524 371 391 372 3711 2884 3712 3716 2757 2885 
372 391 525 392 2885 3717 3718 2891 2893 3719 
505 525 506 372 3720 3721 3593 3583 3718 3588 
372 391 524 525 2885 3712 3716 3718 3717 3722 
505 525 372 524 3720 3718 3583 3714 3722 3716 
506 372 525 373 3588 3718 3721 3590 2764 3723 
525 372 392 373 3718 2891 3719 3723 2764 2892 
373 392 526 393 2892 3724 3725 2898 2900 3726 
506 526 507 373 3727 3728 3600 3590 3725 3595 
373 392 525 526 2892 3719 3723 3725 3724 3729 
506 526 373 525 3727 3725 3590 3721 3729 3723 
507 373 526 374 3595 3725 3728 3597 2771 3730 
526 373 393 374 3725 2898 3726 3730 2771 2899 
374 393 527 394 2899 3731 3732 2905 2907 3733 
507 527 508 374 3734 3735 3607 3597 3732 3602 
374 393 526 527 2899 3726 3730 3732 3731 3736 
507 527 374 526 3734 3732 3597 3728 3736 3730 
508 374 527 375 3602 3732 3735 3604 2778 3737 
527 374 394 375 3732 2905 3733 3737 2778 2906 
375 394 528 395 2906 3738 3739 2912 2914 3740 
508 528 509 375 3741 3742 3614 3604 3739 3609 
375 394 527 528 2906 3733 3737 3739 3738 3743 
508 528 375 527 3741 3739 3604 3735 3743 3737 
509 375 528 376 3609 3739 3742 3611 2785 3744 
528 375 395 376 3739 2912 3740 3744 2785 2913 
376 395 529 396 2913 3745 3746 2919 2921 3747 
509 529 510 376 3748 3749 3621 3611 3746 3616 
376 395 528 529 2913 3740 3744 3746 3745 3750 
509 529 376 528 3748 3746 3611 3742 3750 3744 
510 376 529 377 3616 3746 3749 3618 2792 3751 
529 376 396 377 3746 2919 3747 3751 2792 2920 
377 396 530 397 2920 3752 3753 2926 2928 3754 
510 530 511 377 3755 3756 3628 3618 3753 3623 
377 396 529 530 2920 3747 3751 3753 3752 3757 
510 530 377 529 3755 3753 3618 3749 3757 3751 
511 377 530 378 3623 3753 3756 3625 2799 3758 
530 377 397 378 3753 2926 3754 3758 2799 2927 
378 397 531 398 2927 3759 3760 2933 2935 3761 
511 531 512 378 3762 3763 3635 3625 3760 3630 
378 397 530 531 2927 3754 3758 3760 3759 3764 
511 531 378 530 3762 3760 3625 3756 3764 3758 
512 378 531 379 3630 3760 3763 3632 2806 3765 
531 378 398 379 3760 2933 3761 3765 2806 2934 
399 418 552 419 2948 3766 3767 2940 2947 3768 
532 552 533 399 3769 3770 3771 3772 3767 3773 
399 418 551 552 2948 3774 3775 3767 3766 3776 
532 552 399 551 3769 3767 3772 3777 3776 3775 
533 399 552 400 3773 3767 3770 3778 2942 3779 
552 399 419 400 3767 2940 3768 3779 2942 2941 
400 419 553 420 2941 3780 3781 2954 2958 3782 
533 553 534 400 3783 3784 3785 3778 3781 3786 
400 419 552 553 2941 3768 3779 3781 3780 3787 
533 553 400 552 3783 3781 3778 3770 3787 3779 
534 400 553 401 3786 3781 3784 3788 2956 3789 
553 400 420 401 3781 2954 3782 3789 2956 2955 
401 420 554 421 2955 3790 3791 2964 2968 3792 
534 554 535 401 3793 3794 3795 3788 3791 3796 
401 420 553 554 2955 3782 3789 3791 3790 3797 
534 554 401 553 3793 3791 3788 3784 3797 3789 
535 401 554 402 3796 3791 3794 3798 2966 3799 
554 401 421 402 3791 2964 3792 3799 2966 2965 
402 421 555 422 2965 3800 3801 2974 2978 3802 
535 555 536 402 3803 3804 3805 3798 3801 3806 
402 421 554 555 2965 3792 3799 3801 3800 3807 
535 555 402 554 3803 3801 3798 3794 3807 3799 
536 402 555 403 3806 3801 3804 3808 2976 3809 
555 402 422 403 3801 2974 3802 3809 2976 2975 
403 422 556 423 2975 3810 3811 2984 2988 3812 
536 556 537 403 3813 3814 3815 3808 3811 3816 
403 422 555 556 2975 3802 3809 3811 3810 3817 
536 556 403 555 3813 3811 3808 3804 3817 3809 
537 403 556 404 3816 3811 3814 3818 2986 3819 
556 403 423 404 3811 2984 3812 3819 2986 2985 
404 423 557 424 2985 3820 3821 2994 2998 3822 
537 557 538 404 3823 3824 3825 3818 3821 3826 
404 423 556 557 2985 3812 3819 3821 3820 3827 
537 557 404 556 3823 3821 3818 3814 3827 3819 
538 404 557 405 3826 3821 3824 3828 2996 3829 
557 404 424 405 3821 2994 3822 3829 2996 2995 
405 424 558 425 2995 3830 3831 3004 3008 3832 
538 558 539 405 3833 3834 3835 3828 3831 3836 
405 424 557 558 2995 3822 3829 3831 3830 3837 
538 558 405 557 3833 3831 3828 3824 3837 3829 
539 405 558 406 3836 3831 3834 3838 3006 3839 
558 405 425 406 3831 3004 3832 3839 3006 3005 
406 425 559 426 3005 3840 3841 3014 3018 3842 
539 559 540 406 3843 3844 3845 3838 3841 3846 
406 425 558 559 3005 3832 3839 3841 3840 3847 
539 559 406 558 3843 3841 3838 3834 3847 3839 
540 406 559 407 3846 3841 3844 3848 3016 3849 
559 406 426 407 3841 3014 3842 3849 3016 3015 
407 426 560 427 3015 3850 3851 3024 3028 3852 
540 560 541 407 3853 3854 3855 3848 3851 3856 
407 426 559 560 3015 3842 3849 3851 3850 3857 
540 560 407 559 3853 3851 3848 3844 3857 3849 
541 407 560 408 3856 3851 3854 3858 3026 3859 
560 407 427 408 3851 3024 3852 3859 3026 3025 
408 427 561 428 3025 3860 3861 3034 3038 3862 
541 561 542 408 3863 3864 3865 3858 3861 3866 
408 427 560 561 3025 3852 3859 3861 3860 3867 
541 561 408 560 3863 3861 3858 3854 3867 3859 
542 408 561 409 3866 3861 3864 3868 3036 3869 
561 408 428 409 3861 3034 3862 3869 3036 3035 
409 428 562 429 3035 3870 3871 3044 3048 3872 
542 562 543 409 3873 3874 3875 3868 3871 3876 
409 428 561 562 3035 3862 3869 3871 3870 3877 
542 562 409 561 3873 3871 3868 3864 3877 3869 
543 409 562 410 3876 3871 3874 3878 3046 3879 
562 409 429 410 3871 3044 3872 3879 3046 3045 
410 429 563 430 3045 3880 3881 3054 3058 3882 
543 563 544 410 3883 3884 3885 3878 3881 3886 
410 429 562 563 3045 3872 3879 3881 3880 3887 
543 563 410 562 3883 3881 3878 3874 3887 3879 
544 410 563 411 3886 3881 3884 3888 3056 3889 
563 410 430 411 3881 3054 3882 3889 3056 3055 
411 430 564 431 3055 3890 3891 3064 3068 3892 
544 564 545 411 3893 3894 3895 3888 3891 3896 
411 430 563 564 3055 3882 3889 3891 3890 3897 
544 564 411 563 3893 3891 3888 3884 3897 3889 
545 411 564 412 3896 3891 3894 3898 3066 3899 
564 411 431 412 3891 3064 3892 3899 3066 3065 
412 431 565 432 3065 3900 3901 3074 3078 3902 
545 565 546 412 3903 3904 3905 3898 3901 3906 
412 431 564 565 3065 3892 3899 3901 3900 3907 
545 565 412 564 3903 3901 3898 3894 3907 3899 
546 412 565 413 3906 3901 3904 3908 3076 3909 
565 412 432 413 3901 3074 3902 3909 3076 3075 
413 432 566 433 3075 3910 3911 3084 3088 3912 
546 566 547 413 3913 3914 3915 3908 3911 3916 
413 432 565 566 3075 3902 3909 3911 3910 3917 
546 566 413 565 3913 3911 3908 3904 3917 3909 
547 413 566 414 3916 3911 3914 3918 3086 3919 
566 413 433 414 3911 3084 3912 3919 3086 3085 
414 433 567 434 3085 3920 3921 3094 3098 3922 
547 567 548 414 3923 3924 3925 3918 3921 3926 
414 433 566 567 3085 3912 3919 3921 3920 3927 
547 567 414 566 3923 3921 3918 3914 3927 3919 
548 414 567 415 3926 3921 3924 3928 3096 3929 
567 414 434 415 3921 3094 3922 3929 3096 3095 
415 434 568 435 3095 3930 3931 3104 3108 3932 
548 568 549 415 3933 3934 3935 3928 3931 3936 
415 434 567 568 3095 3922 3929 3931 3930 3937 
548 568 415 567 3933 3931 3928 3924 3937 3929 
549 415 568 416 3936 3931 3934 3938 3106 3939 
568 415 435 416 3931 3104 3932 3939 3106 3105 
416 435 569 436 3105 3940 3941 3114 3118 3942 
549 569 550 416 3943 3944 3945 3938 3941 3946 
416 435 568 569 3105 3932 3939 3941 3940 3947 
549 569 416 568 3943 3941 3938 3934 3947 3939 
550 416 569 417 3946 3941 3944 3948 3116 3949 
569 416 436 417 3941 3114 3942 3949 3116 3115 
418 437 571 438 3129 3950 3951 3124 3128 3952 
551 571 552 418 3953 3954 3776 3774 3951 3766 
418 437 570 571 3129 3955 3956 3951 3950 3957 
551 571 418 570 3953 3951 3774 3958 3957 3956 
552 418 571 419 3766 3951 3954 3768 2947 3959 
571 418 438 419 3951 3124 3952 3959 2947 3125 
419 438 572 439 3125 3960 3961 3134 3136 3962 
552 572 553 419 3963 3964 3787 3768 3961 3780 
419 438 571 572 3125 3952 3959 3961 3960 3965 
552 572 419 571 3963 3961 3768 3954 3965 3959 
553 419 572 420 3780 3961 3964 3782 2958 3966 
572 419 439 420 3961 3134 3962 3966 2958 3135 
420 439 573 440 3135 3967 3968 3141 3143 3969 
553 573 554 420 3970 3971 3797 3782 3968 3790 
420 439 572 573 3135 3962 3966 3968 3967 3972 
553 573 420 572 3970 3968 3782 3964 3972 3966 
554 420 573 421 3790 3968 3971 3792 2968 3973 
573 420 440 421 3968 3141 3969 3973 2968 3142 
421 440 574 441 3142 3974 3975 3148 3150 3976 
554 574 555 421 3977 3978 3807 3792 3975 3800 
421 440 573 574 3142 3969 3973 3975 3974 3979 
554 574 421 573 3977 3975 3792 3971 3979 3973 
555 421 574 422 3800 3975 3978 3802 2978 3980 
574 421 441 422 3975 3148 3976 3980 2978 3149 
422 441 575 442 3149 3981 3982 3155 3157 3983 
555 575 556 422 3984 3985 3817 3802 3982 3810 
422 441 574 575 3149 3976 3980 3982 3981 3986 
555 575 422 574 3984 3982 3802 3978 3986 3980 
556 422 575 423 3810 3982 3985 3812 2988 3987 
575 422 442 423 3982 3155 3983 3987 2988 3156 
423 442 576 443 3156 3988 3989 3162 3164 3990 
556 576 557 423 3991 3992 3827 3812 3989 3820 
423 442 575 576 3156 3983 3987 3989 3988 3993 
556 576 423 575 3991 3989 3812 3985 3993 3987 
557 423 576 424 3820 3989 3992 3822 2998 3994 
576 423 443 424 3989 3162 3990 3994 2998 3163 
424 443 577 444 3163 3995 3996 3169 3171 3997 
557 577 558 424 3998 3999 3837 3822 3996 3830 
424 443 576 577 3163 3990 3994 3996 3995 4000 
557 577 424 576 3998 3996 3822 3992 4000 3994 
558 424 577 425 3830 3996 3999 3832 3008 4001 
577 424 444 425 3996 3169 3997 4001 3008 3170 
425 444 578 445 3170 4002 4003 3176 3178 4004 
558 578 559 425 4005 4006 3847 3832 4003 3840 
425 444 577 578 3170 3997 4001 4003 4002 4007 
558 578 425 577 4005 4003 3832 3999 4007 4001 
559 425 578 426 3840 4003 4006 3842 3018 4008 
578 425 445 426 4003 3176 4004 4008 3018 3177 
426 445 579 446 3177 4009 4010 3183 3185 4011 
559 579 560 426 4012 4013 3857 3842 4010 3850 
426 445 578 579 3177 4004 4008 4010 4009 4014 
559 579 426 578 4012 4010 3842 4006 4014 4008 
560 426 579 427 3850 4010 4013 3852 3028 4015 
579 426 446 427 4010 3183 4011 4015 3028 3184 
427 446 580 447 3184 4016 4017 3190 3192 4018 
560 580 561 427 4019 4020 3867 3852 4017 3860 
427 446 579 580 3184 4011 4015 4017 4016 4021 
560 580 427 579 4019 4017 3852 4013 4021 4015 
561 427 580 428 3860 4017 4020 3862 3038 4022 
580 427 447 428 4017 3190 4018 4022 3038 3191 
428 447 581 448 3191 4023 4024 3197 3199 4025 
561 581 562 428 4026 4027 3877 3862 4024 3870 
428 447 580 581 3191 4018 4022 4024 4023 4028 
561 581 428 580 4026 4024 3862 4020 4028 4022 
562 428 581 429 3870 4024 4027 3872 3048 4029 
581 428 448 429 4024 3197 4025 4029 3048 3198 
429 448 582 449 3198 4030 4031 3204 3206 4032 
562 582 563 429 4033 4034 3887 3872 4031 3880 
429 448 581 582 3198 4025 4029 4031 4030 4035 
562 582 429 581 4033 4031 3872 4027 4035 4029 
563 429 582 430 3880 4031 4034 3882 3058 4036 
582 429 449 430 4031 3204 4032 4036 3058 3205 
430 449 583 450 3205 4037 4038 3211 3213 4039 
563 583 564 430 4040 4041 3897 3882 4038 3890 
430 449 582 583 3205 4032 4036 4038 4037 4042 
563 583 430 582 4040 4038 3882 4034 4042 4036 
564 430 583 431 3890 4038 4041 3892 3068 4043 
583 430 450 431 4038 3211 4039 4043 3068 3212 
431 450 584 451 3212 4044 4045 3218 3220 4046 
564 584 565 431 4047 4048 3907 3892 4045 3900 
431 450 583 584 3212 4039 4043 4045 4044 4049 
564 584 431 583 4047 4045 3892 4041 4049 4043 
565 431 584 432 3900 4045 4048 3902 3078 4050 
584 431 451 432 4045 3218 4046 4050 3078 3219 
432 451 585 452 3219 4051 4052 3225 3227 4053 
565 585 566 432 4054 4055 3917 3902 4052 3910 
432 451 584 585 3219 4046 4050 4052 4051 4056 
565 585 432 584 4054 4052 3902 4048 4056 4050 
566 432 585 433 3910 4052 4055 3912 3088 4057 
585 432 452 433 4052 3225 4053 4057 3088 3226 
433 452 586 453 3226 4058 4059 3232 3234 4060 
566 586 567 433 4061 4062 3927 3912 4059 3920 
433 452 585 586 3226 4053 4057 4059 4058 4063 
566 586 433 585 4061 4059 3912 4055 4063 4057 
567 433 586 434 3920 4059 4062 3922 3098 4064 
586 433 453 434 4059 3232 4060 4064 3098 3233 
434 453 587 454 3233 4065 4066 3239 3241 4067 
567 587 568 434 4068 4069 3937 3922 4066 3930 
434 453 586 587 3233 4060 4064 4066 4065 4070 
567 587 434 586 4068 4066 3922 4062 4070 4064 
568 434 587 435 3930 4066 4069 3932 3108 4071 
587 434 454 435 4066 3239 4067 4071 3108 3240 
435 454 588 455 3240 4072 4073 3246 3248 4074 
568 588 569 435 4075 4076 3947 3932 4073 3940 
435 454 587 588 3240 4067 4071 4073 4072 4077 
568 588 435 587 4075 4073 3932 4069 4077 4071 
569 435 588 436 3940 4073 4076 3942 3118 4078 
588 435 455 436 4073 3246 4074 4078 3118 3247 
437 456 590 457 3258 4079 4080 3253 3257 4081 
570 590 571 437 4082 4083 3957 3955 4080 3950 
437 456 589 590 3258 4084 4085 4080 4079 4086 
570 590 437 589 4082 4080 3955 4087 4086 4085 
571 437 590 438 3950 4080 4083 3952 3128 4088 
590 437 457 438 4080 3253 4081 4088 3128 3254 
438 457 591 458 3254 4089 4090 3263 3265 4091 
571 591 572 438 4092 4093 3965 3952 4090 3960 
438 457 590 591 3254 4081 4088 4090 4089 4094 
571 591 438 590 4092 4090 3952 4083 4094 4088 
572 438 591 439 3960 4090 4093 3962 3136 4095 
591 438 458 439 4090 3263 4091 4095 3136 3264 
439 458 592 459 3264 4096 4097 3270 3272 4098 
572 592 573 439 4099 4100 3972 3962 4097 3967 
439 458 591 592 3264 4091 4095 4097 4096 4101 
572 592 439 591 4099 4097 3962 4093 4101 4095 
573 439 592 440 3967 4097 4100 3969 3143 4102 
592 439 459 440 4097 3270 4098 4102 3143 3271 
440 459 593 460 3271 4103 4104 3277 3279 4105 
573 593 574 440 4106 4107 3979 3969 4104 3974 
440 459 592 593 3271 4098 4102 4104 4103 4108 
573 593 440 592 4106 4104 3969 4100 4108 4102 
574 440 593 441 3974 4104 4107 3976 3150 4109 
593 440 460 441 4104 3277 4105 4109 3150 3278 
441 460 594 461 3278 4110 4111 3284 3286 4112 
574 594 575 441 4113 4114 3986 3976 4111 3981 
441 460 593 594 3278 4105 4109 4111 4110 4115 
574 594 441 593 4113 4111 3976 4107 4115 4109 
575 441 594 442 3981 4111 4114 3983 3157 4116 
594 441 461 442 4111 3284 4112 4116 3157 3285 
442 461 595 462 3285 4117 4118 3291 3293 4119 
575 595 576 442 4120 4121 3993 3983 4118 3988 
442 461 594 595 3285 4112 4116 4118 4117 4122 
575 595 442 594 4120 4118 3983 4114 4122 4116 
576 442 595 443 3988 4118 4121 3990 3164 4123 
595 442 462 443 4118 3291 4119 4123 3164 3292 
443 462 596 463 3292 4124 4125 3298 3300 4126 
576 596 577 443 4127 4128 4000 3990 4125 3995 
443 462 595 596 3292 4119 4123 4125 4124 4129 
576 596 443 595 4127 4125 3990 4121 4129 4123 
577 443 596 444 3995 4125 4128 3997 3171 4130 
596 443 463 444 4125 3298 4126 4130 3171 3299 
444 463 597 464 3299 4131 4132 3305 3307 4133 
577 597 578 444 4134 4135 4007 3997 4132 4002 
444 463 596 597 3299 4126 4130 4132 4131 4136 
577 597 444 596 4134 4132 3997 4128 4136 4130 
578 444 597 445 4002 4132 4135 4004 3178 4137 
597 444 464 445 4132 3305 4133 4137 3178 3306 
445 464 598 465 3306 4138 4139 3312 3314 4140 
578 598 579 445 4141 4142 4014 4004 4139 4009 
445 464 597 598 3306 4133 4137 4139 4138 4143 
578 598 445 597 4141 4139 4004 4135 4143 4137 
579 445 598 446 4009 4139 4142 4011 3185 4144 
598 445 465 446 4139 3312 4140 4144 3185 3313 
446 465 599 466 3313 4145 4146 3319 3321 4147 
579 599 580 446 4148 4149 4021 4011 4146 4016 
446 465 598 599 3313 4140 4144 4146 4145 4150 
579 599 446 598 4148 4146 4011 4142 4150 4144 
580 446 599 447 4016 4146 4149 4018 3192 4151 
599 446 466 447 4146 3319 4147 4151 3192 3320 
447 466 600 467 3320 4152 4153 3326 3328 4154 
580 600 581 447 4155 4156 4028 4018 4153 4023 
447 466 599 600 3320 4147 4151 4153 4152 4157 
580 600 447 599 4155 4153 4018 4149 4157 4151 
581 447 600 448 4023 4153 4156 4025 3199 4158 
600 447 467 448 4153 3326 4154 4158 3199 3327 
448 467 601 468 3327 4159 4160 3333 3335 4161 
581 601 582 448 4162 4163 4035 4025 4160 4030 
448 467 600 601 3327 4154 4158 4160 4159 4164 
581 601 448 600 4162 4160 4025 4156 4164 4158 
582 448 601 449 4030 4160 4163 4032 3206 4165 
601 448 468 449 4160 3333 4161 4165 3206 3334 
449 468 602 469 3334 4166 4167 3340 3342 4168 
582 602 583 449 4169 4170 4042 4032 4167 4037 
449 468 601 602 3334 4161 4165 4167 4166 4171 
582 602 449 601 4169 4167 4032 4163 4171 4165 
583 449 602 450 4037 4167 4170 4039 3213 4172 
602 449 469 450 4167 3340 4168 4172 3213 3341 
450 469 603 470 3341 4173 4174 3347 3349 4175 
583 603 584 450 4176 4177 4049 4039 4174 4044 
450 469 602 603 3341 4168 4172 4174 4173 4178 
583 603 450 602 4176 4174 4039 4170 4178 4172 
584 450 603 451 4044 4174 4177 4046 3220 4179 
603 450 470 451 4174 3347 4175 4179 3220 3348 
451 470 604 471 3348 4180 4181 3354 3356 4182 
584 604 585 451 4183 4184 4056 4046 4181 4051 
451 470 603 604 3348 4175 4179 4181 4180 4185 
584 604 451 603 4183 4181 4046 4177 4185 4179 
585 451 604 452 4051 4181 4184 4053 3227 4186 
604 451 471 452 4181 3354 4182 4186 3227 3355 
452 471 605 472 3355 4187 4188 3361 3363 4189 
585 605 586 452 4190 4191 4063 4053 4188 4058 
452 471 604 605 3355 4182 4186 4188 4187 4192 
585 605 452 604 4190 4188 4053 4184 4192 4186 
586 452 605 453 4058 4188 4191 4060 3234 4193 
605 452 472 453 4188 3361 4189 4193 3234 3362 
453 472 606 473 3362 4194 4195 3368 3370 4196 
586 606 587 453 4197 4198 4070 4060 4195 4065 
453 472 605 606 3362 4189 4193 4195 4194 4199 
586 606 453 605 4197 4195 4060 4191 4199 4193 
587 453 606 454 4065 4195 4198 4067 3241 4200 
606 453 473 454 4195 3368 4196 4200 3241 3369 
454 473 607 474 3369 4201 4202 3375 3377 4203 
587 607 588 454 4204 4205 4077 4067 4202 4072 
454 473 606 607 3369 4196 4200 4202 4201 4206 
587 607 454 606 4204 4202 4067 4198 4206 4200 
588 454 607 455 4072 4202 4205 4074 3248 4207 
607 454 474 455 4202 3375 4203 4207 3248 3376 
456 475 609 476 3387 4208 4209 3382 3386 4210 
589 609 590 456 4211 4212 4086 4084 4209 4079 
456 475 608 609 3387 4213 4214 4209 4208 4215 
589 609 456 608 4211 4209 4084 4216 4215 4214 
590 456 609 457 4079 4209 4212 4081 3257 4217 
609 456 476 457 4209 3382 4210 4217 3257 3383 
457 476 610 477 3383 4218 4219 3392 3394 4220 
590 610 591 457 4221 4222 4094 4081 4219 4089 
457 476 609 610 3383 4210 4217 4219 4218 4223 
590 610 457 609 4221 4219 4081 4212 4223 4217 
591 457 610 458 4089 4219 4222 4091 3265 4224 
610 457 477 458 4219 3392 4220 4224 3265 3393 
458 477 611 478 3393 4225 4226 3399 3401 4227 
591 611 592 458 4228 4229 4101 4091 4226 4096 
458 477 610 611 3393 4220 4224 4226 4225 4230 
591 611 458 610 4228 4226 4091 4222 4230 4224 
592 458 611 459 4096 4226 4229 4098 3272 4231 
611 458 478 459 4226 3399 4227 4231 3272 3400 
459 478 612 479 3400 4232 4233 3406 3408 4234 
592 612 593 459 4235 4236 4108 4098 4233 4103 
459 478 611 612 3400 4227 4231 4233 4232 4237 
592 612 459 611 4235 4233 4098 4229 4237 4231 
593 459 612 460 4103 4233 4236 4105 3279 4238 
612 459 479 460 4233 3406 4234 4238 3279 3407 
460 479 613 480 3407 4239 4240 3413 3415 4241 
593 613 594 460 4242 4243 4115 4105 4240 4110 
460 479 612 613 3407 4234 4238 4240 4239 4244 
593 613 460 612 4242 4240 4105 4236 4244 4238 
594 460 613 461 4110 4240 4243 4112 3286 4245 
613 460 480 461 4240 3413 4241 4245 3286 3414 
461 480 614 481 3414 4246 4247 3420 3422 4248 
594 614 595 461 4249 4250 4122 4112 4247 4117 
461 480 613 614 3414 4241 4245 4247 4246 4251 
594 614 461 613 4249 4247 4112 4243 4251 4245 
595 461 614 462 4117 4247 4250 4119 3293 4252 
614 461 481 462 4247 3420 4248 4252 3293 3421 
462 481 615 482 3421 4253 4254 3427 3429 4255 
595 615 596 462 4256 4257 4129 4119 4254 4124 
462 481 614 615 3421 4248 4252 4254 4253 4258 
595 615 462 614 4256 4254 4119 4250 4258 4252 
596 462 615 463 4124 4254 4257 4126 3300 4259 
615 462 482 463 4254 3427 4255 4259 3300 3428 
463 482 616 483 3428 4260 4261 3434 3436 4262 
596 616 597 463 4263 4264 4136 4126 4261 4131 
463 482 615 616 3428 4255 4259 4261 4260 4265 
596 616 463 615 4263 4261 4126 4257 4265 4259 
597 463 616 464 4131 4261 4264 4133 3307 4266 
616 463 483 464 4261 3434 4262 4266 3307 3435 
464 483 617 484 3435 4267 4268 3441 3443 4269 
597 617 598 464 4270 4271 4143 4133 4268 4138 
464 483 616 617 3435 4262 4266 4268 4267 4272 
597 617 464 616 4270 4268 4133 4264 4272 4266 
598 464 617 465 4138 4268 4271 4140 3314 4273 
617 464 484 465 4268 3441 4269 4273 3314 3442 
465 484 618 485 3442 4274 4275 3448 3450 4276 
598 618 599 465 4277 4278 4150 4140 4275 4145 
465 484 617 618 3442 4269 4273 4275 4274 4279 
598 618 465 617 4277 4275 4140 4271 4279 4273 
599 465 618 466 4145 4275 4278 4147 3321 4280 
618 465 485 466 4275 3448 4276 4280 3321 3449 
466 485 619 486 3449 4281 4282 3455 3457 4283 
599 619 600 466 4284 4285 4157 4147 4282 4152 
466 485 618 619 3449 4276 4280 4282 4281 4286 
599 619 466 618 4284 4282 4147 4278 4286 4280 
600 466 619 467 4152 4282 4285 4154 3328 4287 
619 466 486 467 4282 3455 4283 4287 3328 3456 
467 486 620 487 3456 4288 4289 3462 3464 4290 
600 620 601 467 4291 4292 4164 4154 4289 4159 
467 486 619 620 3456 4283 4287 4289 4288 4293 
600 620 467 619 4291 4289 4154 4285 4293 4287 
601 467 620 468 4159 4289 4292 4161 3335 4294 
620 467 487 468 4289 3462 4290 4294 3335 3463 
468 487 621 488 3463 4295 4296 3469 3471 4297 
601 621 602 468 4298 4299 4171 4161 4296 4166 
468 487 620 621 3463 4290 4294 4296 4295 4300 
601 621 468 620 4298 4296 4161 4292 4300 4294 
602 468 621 469 4166 4296 4299 4168 3342 4301 
621 468 488 469 4296 3469 4297 4301 3342 3470 
469 488 622 489 3470 4302 4303 3476 3478 4304 
602 622 603 469 4305 4306 4178 4168 4303 4173 
469 488 621 622 3470 4297 4301 4303 4302 4307 
602 622 469 621 4305 4303 4168 4299 4307 4301 
603 469 622 470 4173 4303 4306 4175 3349 4308 
622 469 489 470 4303 3476 4304 4308 3349 3477 
470 489 623 490 3477 4309 4310 3483 3485 4311 
603 623 604 470 4312 4313 4185 4175 4310 4180 
470 489 622 623 3477 4304 4308 4310 4309 4314 
603 623 470 622 4312 4310 4175 4306 4314 4308 
604 470 623 471 4180 4310 4313 4182 3356 4315 
623 470 490 471 4310 3483 4311 4315 3356 3484 
471 490 624 491 3484 4316 4317 3490 3492 4318 
604 624 605 471 4319 4320 4192 4182 4317 4187 
471 490 623 624 3484 4311 4315 4317 4316 4321 
604 624 471 623 4319 4317 4182 4313 4321 4315 
605 471 624 472 4187 4317 4320 4189 3363 4322 
624 471 491 472 4317 3490 4318 4322 3363 3491 
472 491 625 492 3491 4323 4324 3497 3499 4325 
605 625 606 472 4326 4327 4199 4189 4324 4194 
472 491 624 625 3491 4318 4322 4324 4323 4328 
605 625 472 624 4326 4324 4189 4320 4328 4322 
606 472 625 473 4194 4324 4327 4196 3370 4329 
625 472 492 473 4324 3497 4325 4329 3370 3498 
473 492 626 493 3498 4330 4331 3504 3506 4332 
606 626 607 473 4333 4334 4206 4196 4331 4201 
473 492 625 626 3498 4325 4329 4331 4330 4335 
606 626 473 625 4333 4331 4196 4327 4335 4329 
607 473 626 474 4201 4331 4334 4203 3377 4336 
626 473 493 474 4331 3504 4332 4336 3377 3505 
475 494 628 495 3516 4337 4338 3511 3515 4339 
608 628 609 475 4340 4341 4215 4213 4338 4208 
475 494 627 628 3516 4342 4343 4338 4337 4344 
608 628 475 627 4340 4338 4213 4345 4344 4343 
609 475 628 476 4208 4338 4341 4210 3386 4346 
628 475 495 476 4338 3511 4339 4346 3386 3512 
476 495 629 496 3512 4347 4348 3521 3523 4349 
609 629 610 476 4350 4351 4223 4210 4348 4218 
476 495 628 629 3512 4339 4346 4348 4347 4352 
609 629 476 628 4350 4348 4210 4341 4352 4346 
610 476 629 477 4218 4348 4351 4220 3394 4353 
629 476 496 477 4348 3521 4349 4353 3394 3522 
477 496 630 497 3522 4354 4355 3528 3530 4356 
610 630 611 477 4357 4358 4230 4220 4355 4225 
477 496 629 630 3522 4349 4353 4355 4354 4359 
610 630 477 629 4357 4355 4220 4351 4359 4353 
611 477 630 478 4225 4355 4358 4227 3401 4360 
630 477 497 478 4355 3528 4356 4360 3401 3529 
478 497 631 498 3529 4361 4362 3535 3537 4363 
611 631 612 478 4364 4365 4237 4227 4362 4232 
478 497 630 631 3529 4356 4360 4362 4361 4366 
611 631 478 630 4364 4362 4227 4358 4366 4360 
612 478 631 479 4232 4362 4365 4234 3408 4367 
631 478 498 479 4362 3535 4363 4367 3408 3536 
479 498 632 499 3536 4368 4369 3542 3544 4370 
612 632 613 479 4371 4372 4244 4234 4369 4239 
479 498 631 632 3536 4363 4367 4369 4368 4373 
612 632 479 631 4371 4369 4234 4365 4373 4367 
613 479 632 480 4239 4369 4372 4241 3415 4374 
632 479 499 480 4369 3542 4370 4374 3415 3543 
480 499 633 500 3543 4375 4376 3549 3551 4377 
613 633 614 480 4378 4379 4251 4241 4376 4246 
480 499 632 633 3543 4370 4374 4376 4375 4380 
613 633 480 632 4378 4376 4241 4372 4380 4374 
614 480 633 481 4246 4376 4379 4248 3422 4381 
633 480 500 481 4376 3549 4377 4381 3422 3550 
481 500 634 501 3550 4382 4383 3556 3558 4384 
614 634 615 481 4385 4386 4258 4248 4383 4253 
481 500 633 634 3550 4377 4381 4383 4382 4387 
614 634 481 633 4385 4383 4248 4379 4387 4381 
615 481 634 482 4253 4383 4386 4255 3429 4388 
634 481 501 482 4383 3556 4384 4388 3429 3557 
482 501 635 502 3557 4389 4390 3563 3565 4391 
615 635 616 482 4392 4393 4265 4255 4390 4260 
482 501 634 635 3557 4384 4388 4390 4389 4394 
615 635 482 634 4392 4390 4255 4386 4394 4388 
616 482 635 483 4260 4390 4393 4262 3436 4395 
635 482 502 483 4390 3563 4391 4395 3436 3564 
483 502 636 503 3564 4396 4397 3570 3572 4398 
616 636 617 483 4399 4400 4272 4262 4397 4267 
483 502 635 636 3564 4391 4395 4397 4396 4401 
616 636 483 635 4399 4397 4262 4393 4401 4395 
617 483 636 484 4267 4397 4400 4269 3443 4402 
636 483 503 484 4397 3570 4398 4402 3443 3571 
484 503 637 504 3571 4403 4404 3577 3579 4405 
617 637 618 484 4406 4407 4279 4269 4404 4274 
484 503 636 637 3571 4398 4402 4404 4403 4408 
617 637 484 636 4406 4404 4269 4400 4408 4402 
618 484 637 485 4274 4404 4407 4276 3450 4409 
637 484 504 485 4404 3577 4405 4409 3450 3578 
485 504 638 505 3578 4410 4411 3584 3586 4412 
618 638 619 485 4413 4414 4286 4276 4411 4281 
485 504 637 638 3578 4405 4409 4411 4410 4415 
618 638 485 637 4413 4411 4276 4407 4415 4409 
619 485 638 486 4281 4411 4414 4283 3457 4416 
638 485 505 486 4411 3584 4412 4416 3457 3585 
486 505 639 506 3585 4417 4418 3591 3593 4419 
619 639 620 486 4420 4421 4293 4283 4418 4288 
486 505 638 639 3585 4412 4416 4418 4417 4422 
619 639 486 638 4420 4418 4283 4414 4422 4416 
620 486 639 487 4288 4418 4421 4290 3464 4423 
639 486 506 487 4418 3591 4419 4423 3464 3592 
487 506 640 507 3592 4424 4425 3598 3600 4426 
620 640 621 487 4427 4428 4300 4290 4425 4295 
487 506 639 640 3592 4419 4423 4425 4424 4429 
620 640 487 639 4427 4425 4290 4421 4429 4423 
621 487 640 488 4295 4425 4428 4297 3471 4430 
640 487 507 488 4425 3598 4426 4430 3471 3599 
488 507 641 508 3599 4431 4432 3605 3607 4433 
621 641 622 488 4434 4435 4307 4297 4432 4302 
488 507 640 641 3599 4426 4430 4432 4431 4436 
621 641 488 640 4434 4432 4297 4428 4436 4430 
622 488 641 489 4302 4432 4435 4304 3478 4437 
641 488 508 489 4432 3605 4433 4437 3478 3606 
489 508 642 509 3606 4438 4439 3612 3614 4440 
622 642 623 489 4441 4442 4314 4304 4439 4309 
489 508 641 642 3606 4433 4437 4439 4438 4443 
622 642 489 641 4441 4439 4304 4435 4443 4437 
623 489 642 490 4309 4439 4442 4311 3485 4444 
642 489 509 490 4439 3612 4440 4444 3485 3613 
490 509 643 510 3613 4445 4446 3619 3621 4447 
623 643 624 490 4448 4449 4321 4311 4446 4316 
490 509 642 643 3613 4440 4444 4446 4445 4450 
623 643 490 642 4448 4446 4311 4442 4450 4444 
624 490 643 491 4316 4446 4449 4318 3492 4451 
643 490 510 491 4446 3619 4447 4451 3492 3620 
491 510 644 511 3620 4452 4453 3626 3628 4454 
624 644 625 491 4455 4456 4328 4318 4453 4323 
491 510 643 644 3620 4447 4451 4453 4452 4457 
624 644 491 643 4455 4453 4318 4449 4457 4451 
625 491 644 492 4323 4453 4456 4325 3499 4458 
644 491 511 492 4453 3626 4454 4458 3499 3627 
492 511 645 512 3627 4459 4460 3633 3635 4461 
625 645 626 492 4462 4463 4335 4325 4460 4330 
492 511 644 645 3627 4454 4458 4460 4459 4464 
625 645 492 644 4462 4460 4325 4456 4464 4458 
626 492 645 493 4330 4460 4463 4332 3506 4465 
645 492 512 493 4460 3633 4461 4465 3506 3634 
494 513 647 514 3645 4466 4467 3640 3644 4468 
627 647 628 494 4469 4470 4344 4342 4467 4337 
494 513 646 647 3645 4471 4472 4467 4466 4473 
627 647 494 646 4469 4467 4342 4474 4473 4472 
628 494 647 495 4337 4467 4470 4339 3515 4475 
647 494 514 495 4467 3640 4468 4475 3515 3641 
495 514 648 515 3641 4476 4477 3650 3652 4478 
628 648 629 495 4479 4480 4352 4339 4477 4347 
495 514 647 648 3641 4468 4475 4477 4476 4481 
628 648 495 647 4479 4477 4339 4470 4481 4475 
629 495 648 496 4347 4477 4480 4349 3523 4482 
648 495 515 496 4477 3650 4478 4482 3523 3651 
496 515 649 516 3651 4483 4484 3657 3659 4485 
629 649 630 496 4486 4487 4359 4349 4484 4354 
496 515 648 649 3651 4478 4482 4484 4483 4488 
629 649 496 648 4486 4484 4349 4480 4488 4482 
630 496 649 497 4354 4484 4487 4356 3530 4489 
649 496 516 497 4484 3657 4485 4489 3530 3658 
497 516 650 517 3658 4490 4491 3664 3666 4492 
630 650 631 497 4493 4494 4366 4356 4491 4361 
497 516 649 650 3658 4485 4489 4491 4490 4495 
630 650 497 649 4493 4491 4356 4487 4495 4489 
631 497 650 498 4361 4491 4494 4363 3537 4496 
650 497 517 498 4491 3664 4492 4496 3537 3665 
498 517 651 518 3665 4497 4498 3671 3673 4499 
631 651 632 498 4500 4501 4373 4363 4498 4368 
498 517 650 651 3665 4492 4496 4498 4497 4502 
631 651 498 650 4500 4498 4363 4494 4502 4496 
632 498 651 499 4368 4498 4501 4370 3544 4503 
651 498 518 499 4498 3671 4499 4503 3544 3672 
499 518 652 519 3672 4504 4505 3678 3680 4506 
632 652 633 499 4507 4508 4380 4370 4505 4375 
499 518 651 652 3672 4499 4503 4505 4504 4509 
632 652 499 651 4507 4505 4370 4501 4509 4503 
633 499 652 500 4375 4505 4508 4377 3551 4510 
652 499 519 500 4505 3678 4506 4510 3551 3679 
500 519 653 520 3679 4511 4512 3685 3687 4513 
633 653 634 500 4514 4515 4387 4377 4512 4382 
500 519 652 653 3679 4506 4510 4512 4511 4516 
633 653 500 652 4514 4512 4377 4508 4516 4510 
634 500 653 501 4382 4512 4515 4384 3558 4517 
653 500 520 501 4512 3685 4513 4517 3558 3686 
501 520 654 521 3686 4518 4519 3692 3694 4520 
634 654 635 501 4521 4522 4394 4384 4519 4389 
501 520 653 654 3686 4513 4517 4519 4518 4523 
634 654 501 653 4521 4519 4384 4515 4523 4517 
635 501 654 502 4389 4519 4522 4391 3565 4524 
654 501 521 502 4519 3692 4520 4524 3565 3693 
502 521 655 522 3693 4525 4526 3699 3701 4527 
635 655 636 502 4528 4529 4401 4391 4526 4396 
502 521 654 655 3693 4520 4524 4526 4525 4530 
635 655 502 654 4528 4526 4391 4522 4530 4524 
636 502 655 503 4396 4526 4529 4398 3572 4531 
655 502 522 503 4526 3699 4527 4531 3572 3700 
503 522 656 523 3700 4532 4533 3706 3708 4534 
636 656 637 503 4535 4536 4408 4398 4533 4403 
503 522 655 656 3700 4527 4531 4533 4532 4537 
636 656 503 655 4535 4533 4398 4529 4537 4531 
637 503 656 504 4403 4533 4536 4405 3579 4538 
656 503 523 504 4533 3706 4534 4538 3579 3707 
504 523 657 524 3707 4539 4540 3713 3715 4541 
637 657 638 504 4542 4543 4415 4405 4540 4410 
504 523 656 657 3707 4534 4538 4540 4539 4544 
637 657 504 656 4542 4540 4405 4536 4544 4538 
638 504 657 505 4410 4540 4543 4412 3586 4545 
657 504 524 505 4540 3713 4541 4545 3586 3714 
505 524 658 525 3714 4546 4547 3720 3722 4548 
638 658 639 505 4549 4550 4422 4412 4547 4417 
505 524 657 658 3714 4541 4545 4547 4546 4551 
638 658 505 657 4549 4547 4412 4543 4551 4545 
639 505 658 506 4417 4547 4550 4419 3593 4552 
658 505 525 506 4547 3720 4548 4552 3593 3721 
506 525 659 526 3721 4553 4554 3727 3729 4555 
639 659 640 506 4556 4557 4429 4419 4554 4424 
506 525 658 659 3721 4548 4552 4554 4553 4558 
639 659 506 658 4556 4554 4419 4550 4558 4552 
640 506 659 507 4424 4554 4557 4426 3600 4559 
659 506 526 507 4554 3727 4555 4559 3600 3728 
507 526 660 527 3728 4560 4561 3734 3736 4562 
640 660 641 507 4563 4564 4436 4426 4561 4431 
507 526 659 660 3728 4555 4559 4561 4560 4565 
640 660 507 659 4563 4561 4426 4557 4565 4559 
641 507 660 508 4431 4561 4564 4433 3607 4566 
660 507 527 508 4561 3734 4562 4566 3607 3735 
508 527 661 528 3735 4567 4568 3741 3743 4569 
641 661 642 508 4570 4571 4443 4433 4568 4438 
508 527 660 661 3735 4562 4566 4568 4567 4572 
641 661 508 660 4570 4568 4433 4564 4572 4566 
642 508 661 509 4438 4568 4571 4440 3614 4573 
661 508 528 509 4568 3741 4569 4573 3614 3742 
509 528 662 529 3742 4574 4575 3748 3750 4576 
642 662 643 509 4577 4578 4450 4440 4575 4445 
509 528 661 662 3742 4569 4573 4575 4574 4579 
642 662 509 661 4577 4575 4440 4571 4579 4573 
643 509 662 510 4445 4575 4578 4447 3621 4580 
662 509 529 510 4575 3748 4576 4580 3621 3749 
510 529 663 530 3749 4581 4582 3755 3757 4583 
643 663 644 510 4584 4585 4457 4447 4582 4452 
510 529 662 663 3749 4576 4580 4582 4581 4586 
643 663 510 662 4584 4582 4447 4578 4586 4580 
644 510 663 511 4452 4582 4585 4454 3628 4587 
663 510 530 511 4582 3755 4583 4587 3628 3756 
511 530 664 531 3756 4588 4589 3762 3764 4590 
644 664 645 511 4591 4592 4464 4454 4589 4459 
511 530 663 664 3756 4583 4587 4589 4588 4593 
644 664 511 663 4591 4589 4454 4585 4593 4587 
645 511 664 512 4459 4589 4592 4461 3635 4594 
664 511 531 512 4589 3762 4590 4594 3635 3763 
532 551 685 552 3777 4595 4596 3769 3776 4597 
665 685 666 532 4598 4599 4600 4601 4596 4602 
532 551 684 685 3777 4603 4604 4596 4595 4605 
665 685 532 684 4598 4596 4601 4606 4605 4604 
666 532 685 533 4602 4596 4599 4607 3771 4608 
685 532 552 533 4596 3769 4597 4608 3771 3770 
533 552 686 553 3770 4609 4610 3783 3787 4611 
666 686 667 533 4612 4613 4614 4607 4610 4615 
533 552 685 686 3770 4597 4608 4610 4609 4616 
666 686 533 685 4612 4610 4607 4599 4616 4608 
667 533 686 534 4615 4610 4613 4617 3785 4618 
686 533 553 534 4610 3783 4611 4618 3785 3784 
534 553 687 554 3784 4619 4620 3793 3797 4621 
667 687 668 534 4622 4623 4624 4617 4620 4625 
534 553 686 687 3784 4611 4618 4620 4619 4626 
667 687 534 686 4622 4620 4617 4613 4626 4618 
668 534 687 535 4625 4620 4623 4627 3795 4628 
687 534 554 535 4620 3793 4621 4628 3795 3794 
535 554 688 555 3794 4629 4630 3803 3807 4631 
668 688 669 535 4632 4633 4634 4627 4630 4635 
535 554 687 688 3794 4621 4628 4630 4629 4636 
668 688 535 687 4632 4630 4627 4623 4636 4628 
669 535 688 536 4635 4630 4633 4637 3805 4638 
688 535 555 536 4630 3803 4631 4638 3805 3804 
536 555 689 556 3804 4639 4640 3813 3817 4641 
669 689 670 536 4642 4643 4644 4637 4640 4645 
536 555 688 689 3804 4631 4638 4640 4639 4646 
669 689 536 688 4642 4640 4637 4633 4646 4638 
670 536 689 537 4645 4640 4643 4647 3815 4648 
689 536 556 537 4640 3813 4641 4648 3815 3814 
537 556 690 557 3814 4649 4650 3823 3827 4651 
670 690 671 537 4652 4653 4654 4647 4650 4655 
537 556 689 690 3814 4641 4648 4650 4649 4656 
670 690 537 689 4652 4650 4647 4643 4656 4648 
671 537 690 538 4655 4650 4653 4657 3825 4658 
690 537 557 538 4650 3823 4651 4658 3825 3824 
538 557 691 558 3824 4659 4660 3833 3837 4661 
671 691 672 538 4662 4663 4664 4657 4660 4665 
538 557 690 691 3824 4651 4658 4660 4659 4666 
671 691 538 690 4662 4660 4657 4653 4666 4658 
672 538 691 539 4665 4660 4663 4667 3835 4668 
691 538 558 539 4660 3833 4661 4668 3835 3834 
539 558 692 559 3834 4669 4670 3843 3847 4671 
672 692 673 539 4672 4673 4674 4667 4670 4675 
539 558 691 692 3834 4661 4668 4670 4669 4676 
672 692 539 691 4672 4670 4667 4663 4676 4668 
673 539 692 540 4675 4670 4673 4677 3845 4678 
692 539 559 540 4670 3843 4671 4678 3845 3844 
540 559 693 560 3844 4679 4680 3853 3857 4681 
673 693 674 540 4682 4683 4684 4677 4680 4685 
540 559 692 693 3844 4671 4678 4680 4679 4686 
673 693 540 692 4682 4680 4677 4673 4686 4678 
674 540 693 541 4685 4680 4683 4687 3855 4688 
693 540 560 541 4680 3853 4681 4688 3855 3854 
541 560 694 561 3854 4689 4690 3863 3867 4691 
674 694 675 541 4692 4693 4694 4687 4690 4695 
541 560 693 694 3854 4681 4688 4690 4689 4696 
674 694 541 693 4692 4690 4687 4683 4696 4688 
675 541 694 542 4695 4690 4693 4697 3865 4698 
694 541 561 542 4690 3863 4691 4698 3865 3864 
542 561 695 562 3864 4699 4700 3873 3877 4701 
675 695 676 542 4702 4703 4704 4697 4700 4705 
542 561 694 695 3864 4691 4698 4700 4699 4706 
675 695 542 694 4702 4700 4697 4693 4706 4698 
676 542 695 543 4705 4700 4703 4707 3875 4708 
695 542 562 543 4700 3873 4701 4708 3875 3874 
543 562 696 563 3874 4709 4710 3883 3887 4711 
676 696 677 543 4712 4713 4714 4707 4710 4715 
543 562 695 696 3874 4701 4708 4710 4709 4716 
676 696 543 695 4712 4710 4707 4703 4716 4708 
677 543 696 544 4715 4710 4713 4717 3885 4718 
696 543 563 544 4710 3883 4711 4718 3885 3884 
544 563 697 564 3884 4719 4720 3893 3897 4721 
677 697 678 544 4722 4723 4724 4717 4720 4725 
544 563 696 697 3884 4711 4718 4720 4719 4726 
677 697 544 696 4722 4720 4717 4713 4726 4718 
678 544 697 545 4725 4720 4723 4727 3895 4728 
697 544 564 545 4720 3893 4721 4728 3895 3894 
545 564 698 565 3894 4729 4730 3903 3907 4731 
678 698 679 545 4732 4733 4734 4727 4730 4735 
545 564 697 698 3894 4721 4728 4730 4729 4736 
678 698 545 697 4732 4730 4727 4723 4736 4728 
679 545 698 546 4735 4730 4733 4737 3905 4738 
698 545 565 546 4730 3903 4731 4738 3905 3904 
546 565 699 566 3904 4739 4740 3913 3917 4741 
679 699 680 546 4742 4743 4744 4737 4740 4745 
546 565 698 699 3904 4731 4738 4740 4739 4746 
679 699 546 698 4742 4740 4737 4733 4746 4738 
680 546 699 547 4745 4740 4743 4747 3915 4748 
699 546 566 547 4740 3913 4741 4748 3915 3914 
547 566 700 567 3914 4749 4750 3923 3927 4751 
680 700 681 547 4752 4753 4754 4747 4750 4755 
547 566 699 700 3914 4741 4748 4750 4749 4756 
680 700 547 699 4752 4750 4747 4743 4756 4748 
681 547 700 548 4755 4750 4753 4757 3925 4758 
700 547 567 548 4750 3923 4751 4758 3925 3924 
548 567 701 568 3924 4759 4760 3933 3937 4761 
681 701 682 548 4762 4763 4764 4757 4760 4765 
548 567 700 701 3924 4751 4758 4760 4759 4766 
681 701 548 700 4762 4760 4757 4753 4766 4758 
682 548 701 549 4765 4760 4763 4767 3935 4768 
701 548 568 549 4760 3933 4761 4768 3935 3934 
549 568 702 569 3934 4769 4770 3943 3947 4771 
682 702 683 549 4772 4773 4774 4767 4770 4775 
549 568 701 702 3934 4761 4768 4770 4769 4776 
682 702 549 701 4772 4770 4767 4763 4776 4768 
683 549 702 550 4775 4770 4773 4777 3945 4778 
702 549 569 550 4770 3943 4771 4778 3945 3944 
551 570 704 571 3958 4779 4780 3953 3957 4781 
684 704 685 551 4782 4783 4605 4603 4780 4595 
551 570 703 704 3958 4784 4785 4780 4779 4786 
684 704 551 703 4782 4780 4603 4787 4786 4785 
685 551 704 552 4595 4780 4783 4597 3776 4788 
704 551 571 552 4780 3953 4781 4788 3776 3954 
552 571 705 572 3954 4789 4790 3963 3965 4791 
685 705 686 552 4792 4793 4616 4597 4790 4609 
552 571 704 705 3954 4781 4788 4790 4789 4794 
685 705 552 704 4792 4790 4597 4783 4794 4788 
686 552 705 553 4609 4790 4793 4611 3787 4795 
705 552 572 553 4790 3963 4791 4795 3787 3964 
553 572 706 573 3964 4796 4797 3970 3972 4798 
686 706 687 553 4799 4800 4626 4611 4797 4619 
553 572 705 706 3964 4791 4795 4797 4796 4801 
686 706 553 705 4799 4797 4611 4793 4801 4795 
687 553 706 554 4619 4797 4800 4621 3797 4802 
706 553 573 554 4797 3970 4798 4802 3797 3971 
554 573 707 574 3971 4803 4804 3977 3979 4805 
687 707 688 554 4806 4807 4636 4621 4804 4629 
554 573 706 707 3971 4798 4802 4804 4803 4808 
687 707 554 706 4806 4804 4621 4800 4808 4802 
688 554 707 555 4629 4804 4807 4631 3807 4809 
707 554 574 555 4804 3977 4805 4809 3807 3978 
555 574 708 575 3978 4810 4811 3984 3986 4812 
688 708 689 555 4813 4814 4646 4631 4811 4639 
555 574 707 708 3978 4805 4809 4811 4810 4815 
688 708 555 707 4813 4811 4631 4807 4815 4809 
689 555 708 556 4639 4811 4814 4641 3817 4816 
708 555 575 556 4811 3984 4812 4816 3817 3985 
556 575 709 576 3985 4817 4818 3991 3993 4819 
689 709 690 556 4820 4821 4656 4641 4818 4649 
556 575 708 709 3985 4812 4816 4818 4817 4822 
689 709 556 708 4820 4818 4641 4814 4822 4816 
690 556 709 557 4649 4818 4821 4651 3827 4823 
709 556 576 557 4818 3991 4819 4823 3827 3992 
557 576 710 577 3992 4824 4825 3998 4000 4826 
690 710 691 557 4827 4828 4666 4651 4825 4659 
557 576 709 710 3992 4819 4823 4825 4824 4829 
690 710 557 709 4827 4825 4651 4821 4829 4823 
691 557 710 558 4659 4825 4828 4661 3837 4830 
710 557 577 558 4825 3998 4826 4830 3837 3999 
558 577 711 578 3999 4831 4832 4005 4007 4833 
691 711 692 558 4834 4835 4676 4661 4832 4669 
558 577 710 711 3999 4826 4830 4832 4831 4836 
691 711 558 710 4834 4832 4661 4828 4836 4830 
692 558 711 559 4669 4832 4835 4671 3847 4837 
711 558 578 559 4832 4005 4833 4837 3847 4006 
559 578 712 579 4006 4838 4839 4012 4014 4840 
692 712 693 559 4841 4842 4686 4671 4839 4679 
559 578 711 712 4006 4833 4837 4839 4838 4843 
692 712 559 711 4841 4839 4671 4835 4843 4837 
693 559 712 560 4679 4839 4842 4681 3857 4844 
712 559 579 560 4839 4012 4840 4844 3857 4013 
560 579 713 580 4013 4845 4846 4019 4021 4847 
693 713 694 560 4848 4849 4696 4681 4846 4689 
560 579 712 713 4013 4840 4844 4846 4845 4850 
693 713 560 712 4848 4846 4681 4842 4850 4844 
694 560 713 561 4689 4846 4849 4691 3867 4851 
713 560 580 561 4846 4019 4847 4851 3867 4020 
561 580 714 581 4020 4852 4853 4026 4028 4854 
694 714 695 561 4855 4856 4706 4691 4853 4699 
561 580 713 714 4020 4847 4851 4853 4852 4857 
694 714 561 713 4855 4853 4691 4849 4857 4851 
695 561 714 562 4699 4853 4856 4701 3877 4858 
714 561 581 562 4853 4026 4854 4858 3877 4027 
562 581 715 582 4027 4859 4860 4033 4035 4861 
695 715 696 562 4862 4863 4716 4701 4860 4709 
562 581 714 715 4027 4854 4858 4860 4859 4864 
695 715 562 714 4862 4860 4701 4856 4864 4858 
696 562 715 563 4709 4860 4863 4711 3887 4865 
715 562 582 563 4860 4033 4861 4865 3887 4034 
563 582 716 583 4034 4866 4867 4040 4042 4868 
696 716 697 563 4869 4870 4726 4711 4867 4719 
563 582 715 716 4034 4861 4865 4867 4866 4871 
696 716 563 715 4869 4867 4711 4863 4871 4865 
697 563 716 564 4719 4867 4870 4721 3897 4872 
716 563 583 564 4867 4040 4868 4872 3897 4041 
564 583 717 584 4041 4873 4874 4047 4049 4875 
697 717 698 564 4876 4877 4736 4721 4874 4729 
564 583 716 717 4041 4868 4872 4874 4873 4878 
697 717 564 716 4876 4874 4721 4870 4878 4872 
698 564 717 565 4729 4874 4877 4731 3907 4879 
717 564 584 565 4874 4047 4875 4879 3907 4048 
565 584 718 585 4048 4880 4881 4054 4056 4882 
698 718 699 565 4883 4884 4746 4731 4881 4739 
565 584 717 718 4048 4875 4879 4881 4880 4885 
698 718 565 717 4883 4881 4731 4877 4885 4879 
699 565 718 566 4739 4881 4884 4741 3917 4886 
718 565 585 566 4881 4054 4882 4886 3917 4055 
566 585 719 586 4055 4887 4888 4061 4063 4889 
699 719 700 566 4890 4891 4756 4741 4888 4749 
566 585 718 719 4055 4882 4886 4888 4887 4892 
699 719 566 718 4890 4888 4741 4884 4892 4886 
700 566 719 567 4749 4888 4891 4751 3927 4893 
719 566 586 567 4888 4061 4889 4893 3927 4062 
567 586 720 587 4062 4894 4895 4068 4070 4896 
700 720 701 567 4897 4898 4766 4751 4895 4759 
567 586 719 720 4062 4889 4893 4895 4894 4899 
700 720 567 719 4897 4895 4751 4891 4899 4893 
701 567 720 568 4759 4895 4898 4761 3937 4900 
720 567 587 568 4895 4068 4896 4900 3937 4069 
568 587 721 588 4069 4901 4902 4075 4077 4903 
701 721 702 568 4904 4905 4776 4761 4902 4769 
568 587 720 721 4069 4896 4900 4902 4901 4906 
701 721 568 720 4904 4902 4761 4898 4906 4900 
702 568 721 569 4769 4902 4905 4771 3947 4907 
721 568 588 569 4902 4075 4903 4907 3947 4076 
570 589 723 590 4087 4908 4909 4082 4086 4910 
703 723 704 570 4911 4912 4786 4784 4909 4779 
570 589 722 723 4087 4913 4914 4909 4908 4915 
703 723 570 722 4911 4909 4784 4916 4915 4914 
704 570 723 571 4779 4909 4912 4781 3957 4917 
723 570 590 571 4909 4082 4910 4917 3957 4083 
571 590 724 591 4083 4918 4919 4092 4094 4920 
704 724 705 571 4921 4922 4794 4781 4919 4789 
571 590 723 724 4083 4910 4917 4919 4918 4923 
704 724 571 723 4921 4919 4781 4912 4923 4917 
705 571 724 572 4789 4919 4922 4791 3965 4924 
724 571 591 572 4919 4092 4920 4924 3965 4093 
572 591 725 592 4093 4925 4926 4099 4101 4927 
705 725 706 572 4928 4929 4801 4791 4926 4796 
572 591 724 725 4093 4920 4924 4926 4925 4930 
705 725 572 724 4928 4926 4791 4922 4930 4924 
706 572 725 573 4796 4926 4929 4798 3972 4931 
725 572 592 573 4926 4099 4927 4931 3972 4100 
573 592 726 593 4100 4932 4933 4106 4108 4934 
706 726 707 573 4935 4936 4808 4798 4933 4803 
573 592 725 726 4100 4927 4931 4933 4932 4937 
706 726 573 725 4935 4933 4798 4929 4937 4931 
707 573 726 574 4803 4933 4936 4805 3979 4938 
726 573 593 574 4933 4106 4934 4938 3979 4107 
574 593 727 594 4107 4939 4940 4113 4115 4941 
707 727 708 574 4942 4943 4815 4805 4940 4810 
574 593 726 727 4107 4934 4938 4940 4939 4944 
707 727 574 726 4942 4940 4805 4936 4944 4938 
708 574 727 575 4810 4940 4943 4812 3986 4945 
727 574 594 575 4940 4113 4941 4945 3986 4114 
575 594 728 595 4114 4946 4947 4120 4122 4948 
708 728 709 575 4949 4950 4822 4812 4947 4817 
575 594 727 728 4114 4941 4945 4947 4946 4951 
708 728 575 727 4949 4947 4812 4943 4951 4945 
709 575 728 576 4817 4947 4950 4819 3993 4952 
728 575 595 576 4947 4120 4948 4952 3993 4121 
576 595 729 596 4121 4953 4954 4127 4129 4955 
709 729 710 576 4956 4957 4829 4819 4954 4824 
576 595 728 729 4121 4948 4952 4954 4953 4958 
709 729 576 728 4956 4954 4819 4950 4958 4952 
710 576 729 577 4824 4954 4957 4826 4000 4959 
729 576 596 577 4954 4127 4955 4959 4000 4128 
577 596 730 597 4128 4960 4961 4134 4136 4962 
710 730 711 577 4963 4964 4836 4826 4961 4831 
577 596 729 730 4128 4955 4959 4961 4960 4965 
710 730 577 729 4963 4961 4826 4957 4965 4959 
711 577 730 578 4831 4961 4964 4833 4007 4966 
730 577 597 578 4961 4134 4962 4966 4007 4135 
578 597 731 598 4135 4967 4968 4141 4143 4969 
711 731 712 578 4970 4971 4843 4833 4968 4838 
578 597 730 731 4135 4962 4966 4968 4967 4972 
711 731 578 730 4970 4968 4833 4964 4972 4966 
712 578 731 579 4838 4968 4971 4840 4014 4973 
731 578 598 579 4968 4141 4969 4973 4014 4142 
579 598 732 599 4142 4974 4975 4148 4150 4976 
712 732 713 579 4977 4978 4850 4840 4975 4845 
579 598 731 732 4142 4969 4973 4975 4974 4979 
712 732 579 731 4977 4975 4840 4971 4979 4973 
713 579 732 580 4845 4975 4978 4847 4021 4980 
732 579 599 580 4975 4148 4976 4980 4021 4149 
580 599 733 600 4149 4981 4982 4155 4157 4983 
713 733 714 580 4984 4985 4857 4847 4982 4852 
580 599 732 733 4149 4976 4980 4982 4981 4986 
713 733 580 732 4984 4982 4847 4978 4986 4980 
714 580 733 581 4852 4982 4985 4854 4028 4987 
733 580 600 581 4982 4155 4983 4987 4028 4156 
581 600 734 601 4156 4988 4989 4162 4164 4990 
714 734 715 581 4991 4992 4864 4854 4989 4859 
581 600 733 734 4156 4983 4987 4989 4988 4993 
714 734 581 733 4991 4989 4854 4985 4993 4987 
715 581 734 582 4859 4989 4992 4861 4035 4994 
734 581 601 582 4989 4162 4990 4994 4035 4163 
582 601 735 602 4163 4995 4996 4169 4171 4997 
715 735 716 582 4998 4999 4871 4861 4996 4866 
582 601 734 735 4163 4990 4994 4996 4995 5000 
715 735 582 734 4998 4996 4861 4992 5000 4994 
716 582 735 583 4866 4996 4999 4868 4042 5001 
735 582 602 583 4996 4169 4997 5001 4042 4170 
583 602 736 603 4170 5002 5003 4176 4178 5004 
716 736 717 583 5005 5006 4878 4868 5003 4873 
583 602 735 736 4170 4997 5001 5003 5002 5007 
716 736 583 735 5005 5003 4868 4999 5007 5001 
717 583 736 584 4873 5003 5006 4875 4049 5008 
736 583 603 584 5003 4176 5004 5008 4049 4177 
584 603 737 604 4177 5009 5010 4183 4185 5011 
717 737 718 584 5012 5013 4885 4875 5010 4880 
584 603 736 737 4177 5004 5008 5010 5009 5014 
717 737 584 736 5012 5010 4875 5006 5014 5008 
718 584 737 585 4880 5010 5013 4882 4056 5015 
737 584 604 585 5010 4183 5011 5015 4056 4184 
585 604 738 605 4184 5016 5017 4190 4192 5018 
718 738 719 585 5019 5020 4892 4882 5017 4887 
585 604 737 738 4184 5011 5015 5017 5016 5021 
718 738 585 737 5019 5017 4882 5013 5021 5015 
719 585 738 586 4887 5017 5020 4889 4063 5022 
738 585 605 586 5017 4190 5018 5022 4063 4191 
586 605 739 606 4191 5023 5024 4197 4199 5025 
719 739 720 586 5026 5027 4899 4889 5024 4894 
586 605 738 739 4191 5018 5022 5024 5023 5028 
719 739 586 738 5026 5024 4889 5020 5028 5022 
720 586 739 587 4894 5024 5027 4896 4070 5029 
739 586 606 587 5024 4197 5025 5029 4070 4198 
587 606 740 607 4198 5030 5031 4204 4206 5032 
720 740 721 587 5033 5034 4906 4896 5031 4901 
587 606 739 740 4198 5025 5029 5031 5030 5035 
720 740 587 739 5033 5031 4896 5027 5035 5029 
721 587 740 588 4901 5031 5034 4903 4077 5036 
740 587 607 588 5031 4204 5032 5036 4077 4205 
589 608 742 609 4216 5037 5038 4211 4215 5039 
722 742 723 589 5040 5041 4915 4913 5038 4908 
589 608 741 742 4216 5042 5043 5038 5037 5044 
722 742 589 741 5040 5038 4913 5045 5044 5043 
723 589 742 590 4908 5038 5041 4910 4086 5046 
742 589 609 590 5038 4211 5039 5046 4086 4212 
590 609 743 610 4212 5047 5048 4221 4223 5049 
723 743 724 590 5050 5051 4923 4910 5048 4918 
590 609 742 743 4212 5039 5046 5048 5047 5052 
723 743 590 742 5050 5048 4910 5041 5052 5046 
724 590 743 591 4918 5048 5051 4920 4094 5053 
743 590 610 591 5048 4221 5049 5053 4094 4222 
591 610 744 611 4222 5054 5055 4228 4230 5056 
724 744 725 591 5057 5058 4930 4920 5055 4925 
591 610 743 744 4222 5049 5053 5055 5054 5059 
724 744 591 743 5057 5055 4920 5051 5059 5053 
725 591 744 592 4925 5055 5058 4927 4101 5060 
744 591 611 592 5055 4228 5056 5060 4101 4229 
592 611 745 612 4229 5061 5062 4235 4237 5063 
725 745 726 592 5064 5065 4937 4927 5062 4932 
592 611 744 745 4229 5056 5060 5062 5061 5066 
725 745 592 744 5064 5062 4927 5058 5066 5060 
726 592 745 593 4932 5062 5065 4934 4108 5067 
745 592 612 593 5062 4235 5063 5067 4108 4236 
593 612 746 613 4236 5068 5069 4242 4244 5070 
726 746 727 593 5071 5072 4944 4934 5069 4939 
593 612 745 746 4236 5063 5067 5069 5068 5073 
726 746 593 745 5071 5069 4934 5065 5073 5067 
727 593 746 594 4939 5069 5072 4941 4115 5074 
746 593 613 594 5069 4242 5070 5074 4115 4243 
594 613 747 614 4243 5075 5076 4249 4251 5077 
727 747 728 594 5078 5079 4951 4941 5076 4946 
594 613 746 747 4243 5070 5074 5076 5075 5080 
727 747 594 746 5078 5076 4941 5072 5080 5074 
728 594 747 595 4946 5076 5079 4948 4122 5081 
747 594 614 595 5076 4249 5077 5081 4122 4250 
595 614 748 615 4250 5082 5083 4256 4258 5084 
728 748 729 595 5085 5086 4958 4948 5083 4953 
595 614 747 748 4250 5077 5081 5083 5082 5087 
728 748 595 747 5085 5083 4948 5079 5087 5081 
729 595 748 596 4953 5083 5086 4955 4129 5088 
748 595 615 596 5083 4256 5084 5088 4129 4257 
596 615 749 616 4257 5089 5090 4263 4265 5091 
729 749 730 596 5092 5093 4965 4955 5090 4960 
596 615 748 749 4257 5084 5088 5090 5089 5094 
729 749 596 748 5092 5090 4955 5086 5094 5088 
730 596 749 597 4960 5090 5093 4962 4136 5095 
749 596 616 597 5090 4263 5091 5095 4136 4264 
597 616 750 617 4264 5096 5097 4270 4272 5098 
730 750 731 597 5099 5100 4972 4962 5097 4967 
597 616 749 750 4264 5091 5095 5097 5096 5101 
730 750 597 749 5099 5097 4962 5093 5101 5095 
731 597 750 598 4967 5097 5100 4969 4143 5102 
750 597 617 598 5097 4270 5098 5102 4143 4271 
598 617 751 618 4271 5103 5104 4277 4279 5105 
731 751 732 598 5106 5107 4979 4969 5104 4974 
598 617 750 751 4271 5098 5102 5104 5103 5108 
731 751 598 750 5106 5104 4969 5100 5108 5102 
732 598 751 599 4974 5104 5107 4976 4150 5109 
751 598 618 599 5104 4277 5105 5109 4150 4278 
599 618 752 619 4278 5110 5111 4284 4286 5112 
732 752 733 599 5113 5114 4986 4976 5111 4981 
599 618 751 752 4278 5105 5109 5111 5110 5115 
732 752 599 751 5113 5111 4976 5107 5115 5109 
733 599 752 600 4981 5111 5114 4983 4157 5116 
752 599 619 600 5111 4284 5112 5116 4157 4285 
600 619 753 620 4285 5117 5118 4291 4293 5119 
733 753 734 600 5120 5121 4993 4983 5118 4988 
600 619 752 753 4285 5112 5116 5118 5117 5122 
733 753 600 752 5120 5118 4983 5114 5122 5116 
734 600 753 601 4988 5118 5121 4990 4164 5123 
753 600 620 601 5118 4291 5119 5123 4164 4292 
601 620 754 621 4292 5124 5125 4298 4300 5126 
734 754 735 601 5127 5128 5000 4990 5125 4995 
601 620 753 754 4292 5119 5123 5125 5124 5129 
734 754 601 753 5127 5125 4990 5121 5129 5123 
735 601 754 602 4995 5125 5128 4997 4171 5130 
754 601 621 602 5125 4298 5126 5130 4171 4299 
602 621 755 622 4299 5131 5132 4305 4307 5133 
735 755 736 602 5134 5135 5007 4997 5132 5002 
602 621 754 755 4299 5126 5130 5132 5131 5136 
735 755 602 754 5134 5132 4997 5128 5136 5130 
736 602 755 603 5002 5132 5135 5004 4178 5137 
755 602 622 603 5132 4305 5133 5137 4178 4306 
603 622 756 623 4306 5138 5139 4312 4314 5140 
736 756 737 603 5141 5142 5014 5004 5139 5009 
603 622 755 756 4306 5133 5137 5139 5138 5143 
736 756 603 755 5141 5139 5004 5135 5143 5137 
737 603 756 604 5009 5139 5142 5011 4185 5144 
756 603 623 604 5139 4312 5140 5144 4185 4313 
604 623 757 624 4313 5145 5146 4319 4321 5147 
737 757 738 604 5148 5149 5021 5011 5146 5016 
604 623 756 757 4313 5140 5144 5146 5145 5150 
737 757 604 756 5148 5146 5011 5142 5150 5144 
738 604 757 605 5016 5146 5149 5018 4192 5151 
757 604 624 605 5146 4319 5147 5151 4192 4320 
605 624 758 625 4320 5152 5153 4326 4328 5154 
738 758 739 605 5155 5156 5028 5018 5153 5023 
605 624 757 758 4320 5147 5151 5153 5152 5157 
738 758 605 757 5155 5153 5018 5149 5157 5151 
739 605 758 606 5023 5153 5156 5025 4199 5158 
758 605 625 606 5153 4326 5154 5158 4199 4327 
606 625 759 626 4327 5159 5160 4333 4335 5161 
739 759 740 606 5162 5163 5035 5025 5160 5030 
606 625 758 759 4327 5154 5158 5160 5159 5164 
739 759 606 758 5162 5160 5025 5156 5164 5158 
740 606 759 607 5030 5160 5163 5032 4206 5165 
759 606 626 607 5160 4333 5161 5165 4206 4334 
608 627 761 628 4345 5166 5167 4340 4344 5168 
741 761 742 608 5169 5170 5044 5042 5167 5037 
608 627 760 761 4345 5171 5172 5167 5166 5173 
741 761 608 760 5169 5167 5042 5174 5173 5172 
742 608 761 609 5037 5167 5170 5039 4215 5175 
761 608 628 609 5167 4340 5168 5175 4215 4341 
609 628 762 629 4341 5176 5177 4350 4352 5178 
742 762 743 609 5179 5180 5052 5039 5177 5047 
609 628 761 762 4341 5168 5175 5177 5176 5181 
742 762 609 761 5179 5177 5039 5170 5181 5175 
743 609 762 610 5047 5177 5180 5049 4223 5182 
762 609 629 610 5177 4350 5178 5182 4223 4351 
610 629 763 630 4351 5183 5184 4357 4359 5185 
743 763 744 610 5186 5187 5059 5049 5184 5054 
610 629 762 763 4351 5178 5182 5184 5183 5188 
743 763 610 762 5186 5184 5049 5180 5188 5182 
744 610 763 611 5054 5184 5187 5056 4230 5189 
763 610 630 611 5184 4357 5185 5189 4230 4358 
611 630 764 631 4358 5190 5191 4364 4366 5192 
744 764 745 611 5193 5194 5066 5056 5191 5061 
611 630 763 764 4358 5185 5189 5191 5190 5195 
744 764 611 763 5193 5191 5056 5187 5195 5189 
745 611 764 612 5061 5191 5194 5063 4237 5196 
764 611 631 612 5191 4364 5192 5196 4237 4365 
612 631 765 632 4365 5197 5198 4371 4373 5199 
745 765 746 612 5200 5201 5073 5063 5198 5068 
612 631 764 765 4365 5192 5196 5198 5197 5202 
745 765 612 764 5200 5198 5063 5194 5202 5196 
746 612 765 613 5068 5198 5201 5070 4244 5203 
765 612 632 613 5198 4371 5199 5203 4244 4372 
613 632 766 633 4372 5204 5205 4378 4380 5206 
746 766 747 613 5207 5208 5080 5070 5205 5075 
613 632 765 766 4372 5199 5203 5205 5204 5209 
746 766 613 765 5207 5205 5070 5201 5209 5203 
747 613 766 614 5075 5205 5208 5077 4251 5210 
766 613 633 614 5205 4378 5206 5210 4251 4379 
614 633 767 634 4379 5211 5212 4385 4387 5213 
747 767 748 614 5214 5215 5087 5077 5212 5082 
614 633 766 767 4379 5206 5210 5212 5211 5216 
747 767 614 766 5214 5212 5077 5208 5216 5210 
748 614 767 615 5082 5212 5215 5084 4258 5217 
767 614 634 615 5212 4385 5213 5217 4258 4386 
615 634 768 635 4386 5218 5219 4392 4394 5220 
748 768 749 615 5221 5222 5094 5084 5219 5089 
615 634 767 768 4386 5213 5217 5219 5218 5223 
748 768 615 767 5221 5219 5084 5215 5223 5217 
749 615 768 616 5089 5219 5222 5091 4265 5224 
768 615 635 616 5219 4392 5220 5224 4265 4393 
616 635 769 636 4393 5225 5226 4399 4401 5227 
749 769 750 616 5228 5229 5101 5091 5226 5096 
616 635 768 769 4393 5220 5224 5226 5225 5230 
749 769 616 768 5228 5226 5091 5222 5230 5224 
750 616 769 617 5096 5226 5229 5098 4272 5231 
769 616 636 617 5226 4399 5227 5231 4272 4400 
617 636 770 637 4400 5232 5233 4406 4408 5234 
750 770 751 617 5235 5236 5108 5098 5233 5103 
617 636 769 770 4400 5227 5231 5233 5232 5237 
750 770 617 769 5235 5233 5098 5229 5237 5231 
751 617 770 618 5103 5233 5236 5105 4279 5238 
770 617 637 618 5233 4406 5234 5238 4279 4407 
618 637 771 638 4407 5239 5240 4413 4415 5241 
751 771 752 618 5242 5243 5115 5105 5240 5110 
618 637 770 771 4407 5234 5238 5240 5239 5244 
751 771 618 770 5242 5240 5105 5236 5244 5238 
752 618 771 619 5110 5240 5243 5112 4286 5245 
771 618 638 619 5240 4413 5241 5245 4286 4414 
619 638 772 639 4414 5246 5247 4420 4422 5248 
752 772 753 619 5249 5250 5122 5112 5247 5117 
619 638 771 772 4414 5241 5245 5247 5246 5251 
752 772 619 771 5249 5247 5112 5243 5251 5245 
753 619 772 620 5117 5247 5250 5119 4293 5252 
772 619 639 620 5247 4420 5248 5252 4293 4421 
620 639 773 640 4421 5253 5254 4427 4429 5255 
753 773 754 620 5256 5257 5129 5119 5254 5124 
620 639 772 773 4421 5248 5252 5254 5253 5258 
753 773 620 772 5256 5254 5119 5250 5258 5252 
754 620 773 621 5124 5254 5257 5126 4300 5259 
773 620 640 621 5254 4427 5255 5259 4300 4428 
621 640 774 641 4428 5260 5261 4434 4436 5262 
754 774 755 621 5263 5264 5136 5126 5261 5131 
621 640 773 774 4428 5255 5259 5261 5260 5265 
754 774 621 773 5263 5261 5126 5257 5265 5259 
755 621 774 622 5131 5261 5264 5133 4307 5266 
774 621 641 622 5261 4434 5262 5266 4307 4435 
622 641 775 642 4435 5267 5268 4441 4443 5269 
755 775 756 622 5270 5271 5143 5133 5268 5138 
622 641 774 775 4435 5262 5266 5268 5267 5272 
755 775 622 774 5270 5268 5133 5264 5272 5266 
756 622 775 623 5138 5268 5271 5140 4314 5273 
775 622 642 623 5268 4441 5269 5273 4314 4442 
623 642 776 643 4442 5274 5275 4448 4450 5276 
756 776 757 623 5277 5278 5150 5140 5275 5145 
623 642 775 776 4442 5269 5273 5275 5274 5279 
756 776 623 775 5277 5275 5140 5271 5279 5273 
757 623 776 624 5145 5275 5278 5147 4321 5280 
776 623 643 624 5275 4448 5276 5280 4321 4449 
624 643 777 644 4449 5281 5282 4455 4457 5283 
757 777 758 624 5284 5285 5157 5147 5282 5152 
624 643 776 777 4449 5276 5280 5282 5281 5286 
757 777 624 776 5284 5282 5147 5278 5286 5280 
758 624 777 625 5152 5282 5285 5154 4328 5287 
777 624 644 625 5282 4455 5283 5287 4328 4456 
625 644 778 645 4456 5288 5289 4462 4464 5290 
758 778 759 625 5291 5292 5164 5154 5289 5159 
625 644 777 778 4456 5283 5287 5289 5288 5293 
758 778 625 777 5291 5289 5154 5285 5293 5287 
759 625 778 626 5159 5289 5292 5161 4335 5294 
778 625 645 626 5289 4462 5290 5294 4335 4463 
627 646 780 647 4474 5295 5296 4469 4473 5297 
760 780 761 627 5298 5299 5173 5171 5296 5166 
627 646 779 780 4474 5300 5301 5296 5295 5302 
760 780 627 779 5298 5296 5171 5303 5302 5301 
761 627 780 628 5166 5296 5299 5168 4344 5304 
780 627 647 628 5296 4469 5297 5304 4344 4470 
628 647 781 648 4470 5305 5306 4479 4481 5307 
761 781 762 628 5308 5309 5181 5168 5306 5176 
628 647 780 781 4470 5297 5304 5306 5305 5310 
761 781 628 780 5308 5306 5168 5299 5310 5304 
762 628 781 629 5176 5306 5309 5178 4352 5311 
781 628 648 629 5306 4479 5307 5311 4352 4480 
629 648 782 649 4480 5312 5313 4486 4488 5314 
762 782 763 629 5315 5316 5188 5178 5313 5183 
629 648 781 782 4480 5307 5311 5313 5312 5317 
762 782 629 781 5315 5313 5178 5309 5317 5311 
763 629 782 630 5183 5313 5316 5185 4359 5318 
782 629 649 630 5313 4486 5314 5318 4359 4487 
630 649 783 650 4487 5319 5320 4493 4495 5321 
763 783 764 630 5322 5323 5195 5185 5320 5190 
630 649 782 783 4487 5314 5318 5320 5319 5324 
763 783 630 782 5322 5320 5185 5316 5324 5318 
764 630 783 631 5190 5320 5323 5192 4366 5325 
783 630 650 631 5320 4493 5321 5325 4366 4494 
631 650 784 651 4494 5326 5327 4500 4502 5328 
764 784 765 631 5329 5330 5202 5192 5327 5197 
631 650 783 784 4494 5321 5325 5327 5326 5331 
764 784 631 783 5329 5327 5192 5323 5331 5325 
765 631 784 632 5197 5327 5330 5199 4373 5332 
784 631 651 632 5327 4500 5328 5332 4373 4501 
632 651 785 652 4501 5333 5334 4507 4509 5335 
765 785 766 632 5336 5337 5209 5199 5334 5204 
632 651 784 785 4501 5328 5332 5334 5333 5338 
765 785 632 784 5336 5334 5199 5330 5338 5332 
766 632 785 633 5204 5334 5337 5206 4380 5339 
785 632 652 633 5334 4507 5335 5339 4380 4508 
633 652 786 653 4508 5340 5341 4514 4516 5342 
766 786 767 633 5343 5344 5216 5206 5341 5211 
633 652 785 786 4508 5335 5339 5341 5340 5345 
766 786 633 785 5343 5341 5206 5337 5345 5339 
767 633 786 634 5211 5341 5344 5213 4387 5346 
786 633 653 634 5341 4514 5342 5346 4387 4515 
634 653 787 654 4515 5347 5348 4521 4523 5349 
767 787 768 634 5350 5351 5223 5213 5348 5218 
634 653 786 787 4515 5342 5346 5348 5347 5352 
767 787 634 786 5350 5348 5213 5344 5352 5346 
768 634 787 635 5218 5348 5351 5220 4394 5353 
787 634 654 635 5348 4521 5349 5353 4394 4522 
635 654 788 655 4522 5354 5355 4528 4530 5356 
768 788 769 635 5357 5358 5230 5220 5355 5225 
635 654 787 788 4522 5349 5353 5355 5354 5359 
768 788 635 787 5357 5355 5220 5351 5359 5353 
769 635 788 636 5225 5355 5358 5227 4401 5360 
788 635 655 636 5355 4528 5356 5360 4401 4529 
636 655 789 656 4529 5361 5362 4535 4537 5363 
769 789 770 636 5364 5365 5237 5227 5362 5232 
636 655 788 789 4529 5356 5360 5362 5361 5366 
769 789 636 788 5364 5362 5227 5358 5366 5360 
770 636 789 637 5232 5362 5365 5234 4408 5367 
789 636 656 637 5362 4535 5363 5367 4408 4536 
637 656 790 657 4536 5368 5369 4542 4544 5370 
770 790 771 637 5371 5372 5244 5234 5369 5239 
637 656 789 790 4536 5363 5367 5369 5368 5373 
770 790 637 789 5371 5369 5234 5365 5373 5367 
771 637 790 638 5239 5369 5372 5241 4415 5374 
790 637 657 638 5369 4542 5370 5374 4415 4543 
638 657 791 658 4543 5375 5376 4549 4551 5377 
771 791 772 638 5378 5379 5251 5241 5376 5246 
638 657 790 791 4543 5370 5374 5376 5375 5380 
771 791 638 790 5378 5376 5241 5372 5380 5374 
772 638 791 639 5246 5376 5379 5248 4422 5381 
791 638 658 639 5376 4549 5377 5381 4422 4550 
639 658 792 659 4550 5382 5383 4556 4558 5384 
772 792 773 639 5385 5386 5258 5248 5383 5253 
639 658 791 792 4550 5377 5381 5383 5382 5387 
772 792 639 791 5385 5383 5248 5379 5387 5381 
773 639 792 640 5253 5383 5386 5255 4429 5388 
792 639 659 640 5383 4556 5384 5388 4429 4557 
640 659 793 660 4557 5389 5390 4563 4565 5391 
773 793 774 640 5392 5393 5265 5255 5390 5260 
640 659 792 793 4557 5384 5388 5390 5389 5394 
773 793 640 792 5392 5390 5255 5386 5394 5388 
774 640 793 641 5260 5390 5393 5262 4436 5395 
793 640 660 641 5390 4563 5391 5395 4436 4564 
641 660 794 661 4564 5396 5397 4570 4572 5398 
774 794 775 641 5399 5400 5272 5262 5397 5267 
641 660 793 794 4564 5391 5395 5397 5396 5401 
774 794 641 793 5399 5397 5262 5393 5401 5395 
775 641 794 642 5267 5397 5400 5269 4443 5402 
794 641 661 642 5397 4570 5398 5402 4443 4571 
642 661 795 662 4571 5403 5404 4577 4579 5405 
775 795 776 642 5406 5407 5279 5269 5404 5274 
642 661 794 795 4571 5398 5402 5404 5403 5408 
775 795 642 794 5406 5404 5269 5400 5408 5402 
776 642 795 643 5274 5404 5407 5276 4450 5409 
795 642 662 643 5404 4577 5405 5409 4450 4578 
643 662 796 663 4578 5410 5411 4584 4586 5412 
776 796 777 643 5413 5414 5286 5276 5411 5281 
643 662 795 796 4578 5405 5409 5411 5410 5415 
776 796 643 795 5413 5411 5276 5407 5415 5409 
777 643 796 644 5281 5411 5414 5283 4457 5416 
796 643 663 644 5411 4584 5412 5416 4457 4585 
644 663 797 664 4585 5417 5418 4591 4593 5419 
777 797 778 644 5420 5421 5293 5283 5418 5288 
644 663 796 797 4585 5412 5416 5418 5417 5422 
777 797 644 796 5420 5418 5283 5414 5422 5416 
778 644 797 645 5288 5418 5421 5290 4464 5423 
797 644 664 645 5418 4591 5419 5423 4464 4592 
665 684 818 685 4606 5424 5425 4598 4605 5426 
798 818 799 665 5427 5428 5429 5430 5425 5431 
665 684 817 818 4606 5432 5433 5425 5424 5434 
798 818 665 817 5427 5425 5430 5435 5434 5433 
799 665 818 666 5431 5425 5428 5436 4600 5437 
818 665 685 666 5425 4598 5426 5437 4600 4599 
666 685 819 686 4599 5438 5439 4612 4616 5440 
799 819 800 666 5441 5442 5443 5436 5439 5444 
666 685 818 819 4599 5426 5437 5439 5438 5445 
799 819 666 818 5441 5439 5436 5428 5445 5437 
800 666 819 667 5444 5439 5442 5446 4614 5447 
819 666 686 667 5439 4612 5440 5447 4614 4613 
667 686 820 687 4613 5448 5449 4622 4626 5450 
800 820 801 667 5451 5452 5453 5446 5449 5454 
667 686 819 820 4613 5440 5447 5449 5448 5455 
800 820 667 819 5451 5449 5446 5442 5455 5447 
801 667 820 668 5454 5449 5452 5456 4624 5457 
820 667 687 668 5449 4622 5450 5457 4624 4623 
668 687 821 688 4623 5458 5459 4632 4636 5460 
801 821 802 668 5461 5462 5463 5456 5459 5464 
668 687 820 821 4623 5450 5457 5459 5458 5465 
801 821 668 820 5461 5459 5456 5452 5465 5457 
802 668 821 669 5464 5459 5462 5466 4634 5467 
821 668 688 669 5459 4632 5460 5467 4634 4633 
669 688 822 689 4633 5468 5469 4642 4646 5470 
802 822 803 669 5471 5472 5473 5466 5469 5474 
669 688 821 822 4633 5460 5467 5469 5468 5475 
802 822 669 821 5471 5469 5466 5462 5475 5467 
803 669 822 670 5474 5469 5472 5476 4644 5477 
822 669 689 670 5469 4642 5470 5477 4644 4643 
670 689 823 690 4643 5478 5479 4652 4656 5480 
803 823 804 670 5481 5482 5483 5476 5479 5484 
670 689 822 823 4643 5470 5477 5479 5478 5485 
803 823 670 822 5481 5479 5476 5472 5485 5477 
804 670 823 671 5484 5479 5482 5486 4654 5487 
823 670 690 671 5479 4652 5480 5487 4654 4653 
671 690 824 691 4653 5488 5489 4662 4666 5490 
804 824 805 671 5491 5492 5493 5486 5489 5494 
671 690 823 824 4653 5480 5487 5489 5488 5495 
804 824 671 823 5491 5489 5486 5482 5495 5487 
805 671 824 672 5494 5489 5492 5496 4664 5497 
824 671 691 672 5489 4662 5490 5497 4664 4663 
672 691 825 692 4663 5498 5499 4672 4676 5500 
805 825 806 672 5501 5502 5503 5496 5499 5504 
672 691 824 825 4663 5490 5497 5499 5498 5505 
805 825 672 824 5501 5499 5496 5492 5505 5497 
806 672 825 673 5504 5499 5502 5506 4674 5507 
825 672 692 673 5499 4672 5500 5507 4674 4673 
673 692 826 693 4673 5508 5509 4682 4686 5510 
806 826 807 673 5511 5512 5513 5506 5509 5514 
673 692 825 826 4673 5500 5507 5509 5508 5515 
806 826 673 825 5511 5509 5506 5502 5515 5507 
807 673 826 674 5514 5509 5512 5516 4684 5517 
826 673 693 674 5509 4682 5510 5517 4684 4683 
674 693 827 694 4683 5518 5519 4692 4696 5520 
807 827 808 674 5521 5522 5523 5516 5519 5524 
674 693 826 827 4683 5510 5517 5519 5518 5525 
807 827 674 826 5521 5519 5516 5512 5525 5517 
808 674 827 675 5524 5519 5522 5526 4694 5527 
827 674 694 675 5519 4692 5520 5527 4694 4693 
675 694 828 695 4693 5528 5529 4702 4706 5530 
808 828 809 675 5531 5532 5533 5526 5529 5534 
675 694 827 828 4693 5520 5527 5529 5528 5535 
808 828 675 827 5531 5529 5526 5522 5535 5527 
809 675 828 676 5534 5529 5532 5536 4704 5537 
828 675 695 676 5529 4702 5530 5537 4704 4703 
676 695 829 696 4703 5538 5539 4712 4716 5540 
809 829 810 676 5541 5542 5543 5536 5539 5544 
676 695 828 829 4703 5530 5537 5539 5538 5545 
809 829 676 828 5541 5539 5536 5532 5545 5537 
810 676 829 677 5544 5539 5542 5546 4714 5547 
829 676 696 677 5539 4712 5540 5547 4714 4713 
677 696 830 697 4713 5548 5549 4722 4726 5550 
810 830 811 677 5551 5552 5553 5546 5549 5554 
677 696 829 830 4713 5540 5547 5549 5548 5555 
810 830 677 829 5551 5549 5546 5542 5555 5547 
811 677 830 678 5554 5549 5552 5556 4724 5557 
830 677 697 678 5549 4722 5550 5557 4724 4723 
678 697 831 698 4723 5558 5559 4732 4736 5560 
811 831 812 678 5561 5562 5563 5556 5559 5564 
678 697 830 831 4723 5550 5557 5559 5558 5565 
811 831 678 830 5561 5559 5556 5552 5565 5557 
812 678 831 679 5564 5559 5562 5566 4734 5567 
831 678 698 679 5559 4732 5560 5567 4734 4733 
679 698 832 699 4733 5568 5569 4742 4746 5570 
812 832 813 679 5571 5572 5573 5566 5569 5574 
679 698 831 832 4733 5560 5567 5569 5568 5575 
812 832 679 831 5571 5569 5566 5562 5575 5567 
813 679 832 680 5574 5569 5572 5576 4744 5577 
832 679 699 680 5569 4742 5570 5577 4744 4743 
680 699 833 700 4743 5578 5579 4752 4756 5580 
813 833 814 680 5581 5582 5583 5576 5579 5584 
680 699 832 833 4743 5570 5577 5579 5578 5585 
813 833 680 832 5581 5579 5576 5572 5585 5577 
814 680 833 681 5584 5579 5582 5586 4754 5587 
833 680 700 681 5579 4752 5580 5587 4754 4753 
681 700 834 701 4753 5588 5589 4762 4766 5590 
814 834 815 681 5591 5592 5593 5586 5589 5594 
681 700 833 834 4753 5580 5587 5589 5588 5595 
814 834 681 833 5591 5589 5586 5582 5595 5587 
815 681 834 682 5594 5589 5592 5596 4764 5597 
834 681 701 682 5589 4762 5590 5597 4764 4763 
682 701 835 702 4763 5598 5599 4772 4776 5600 
815 835 816 682 5601 5602 5603 5596 5599 5604 
682 701 834 835 4763 5590 5597 5599 5598 5605 
815 835 682 834 5601 5599 5596 5592 5605 5597 
816 682 835 683 5604 5599 5602 5606 4774 5607 
835 682 702 683 5599 4772 5600 5607 4774 4773 
684 703 837 704 4787 5608 5609 4782 4786 5610 
817 837 818 684 5611 5612 5434 5432 5609 5424 
684 703 836 837 4787 5613 5614 5609 5608 5615 
817 837 684 836 5611 5609 5432 5616 5615 5614 
818 684 837 685 5424 5609 5612 5426 4605 5617 
837 684 704 685 5609 4782 5610 5617 4605 4783 
685 704 838 705 4783 5618 5619 4792 4794 5620 
818 838 819 685 5621 5622 5445 5426 5619 5438 
685 704 837 838 4783 5610 5617 5619 5618 5623 
818 838 685 837 5621 5619 5426 5612 5623 5617 
819 685 838 686 5438 5619 5622 5440 4616 5624 
838 685 705 686 5619 4792 5620 5624 4616 4793 
686 705 839 706 4793 5625 5626 4799 4801 5627 
819 839 820 686 5628 5629 5455 5440 5626 5448 
686 705 838 839 4793 5620 5624 5626 5625 5630 
819 839 686 838 5628 5626 5440 5622 5630 5624 
820 686 839 687 5448 5626 5629 5450 4626 5631 
839 686 706 687 5626 4799 5627 5631 4626 4800 
687 706 840 707 4800 5632 5633 4806 4808 5634 
820 840 821 687 5635 5636 5465 5450 5633 5458 
687 706 839 840 4800 5627 5631 5633 5632 5637 
820 840 687 839 5635 5633 5450 5629 5637 5631 
821 687 840 688 5458 5633 5636 5460 4636 5638 
840 687 707 688 5633 4806 5634 5638 4636 4807 
688 707 841 708 4807 5639 5640 4813 4815 5641 
821 841 822 688 5642 5643 5475 5460 5640 5468 
688 707 840 841 4807 5634 5638 5640 5639 5644 
821 841 688 840 5642 5640 5460 5636 5644 5638 
822 688 841 689 5468 5640 5643 5470 4646 5645 
841 688 708 689 5640 4813 5641 5645 4646 4814 
689 708 842 709 4814 5646 5647 4820 4822 5648 
822 842 823 689 5649 5650 5485 5470 5647 5478 
689 708 841 842 4814 5641 5645 5647 5646 5651 
822 842 689 841 5649 5647 5470 5643 5651 5645 
823 689 842 690 5478 5647 5650 5480 4656 5652 
842 689 709 690 5647 4820 5648 5652 4656 4821 
690 709 843 710 4821 5653 5654 4827 4829 5655 
823 843 824 690 5656 5657 5495 5480 5654 5488 
690 709 842 843 4821 5648 5652 5654 5653 5658 
823 843 690 842 5656 5654 5480 5650 5658 5652 
824 690 843 691 5488 5654 5657 5490 4666 5659 
843 690 710 691 5654 4827 5655 5659 4666 4828 
691 710 844 711 4828 5660 5661 4834 4836 5662 
824 844 825 691 5663 5664 5505 5490 5661 5498 
691 710 843 844 4828 5655 5659 5661 5660 5665 
824 844 691 843 5663 5661 5490 5657 5665 5659 
825 691 844 692 5498 5661 5664 5500 4676 5666 
844 691 711 692 5661 4834 5662 5666 4676 4835 
692 711 845 712 4835 5667 5668 4841 4843 5669 
825 845 826 692 5670 5671 5515 5500 5668 5508 
692 711 844 845 4835 5662 5666 5668 5667 5672 
825 845 692 844 5670 5668 5500 5664 5672 5666 
826 692 845 693 5508 5668 5671 5510 4686 5673 
845 692 712 693 5668 4841 5669 5673 4686 4842 
693 712 846 713 4842 5674 5675 4848 4850 5676 
826 846 827 693 5677 5678 5525 5510 5675 5518 
693 712 845 846 4842 5669 5673 5675 5674 5679 
826 846 693 845 5677 5675 5510 5671 5679 5673 
827 693 846 694 5518 5675 5678 5520 4696 5680 
846 693 713 694 5675 4848 5676 5680 4696 4849 
694 713 847 714 4849 5681 5682 4855 4857 5683 
827 847 828 694 5684 5685 5535 5520 5682 5528 
694 713 846 847 4849 5676 5680 5682 5681 5686 
827 847 694 846 5684 5682 5520 5678 5686 5680 
828 694 847 695 5528 5682 5685 5530 4706 5687 
847 694 714 695 5682 4855 5683 5687 4706 4856 
695 714 848 715 4856 5688 5689 4862 4864 5690 
828 848 829 695 5691 5692 5545 5530 5689 5538 
695 714 847 848 4856 5683 5687 5689 5688 5693 
828 848 695 847 5691 5689 5530 5685 5693 5687 
829 695 848 696 5538 5689 5692 5540 4716 5694 
848 695 715 696 5689 4862 5690 5694 4716 4863 
696 715 849 716 4863 5695 5696 4869 4871 5697 
829 849 830 696 5698 5699 5555 5540 5696 5548 
696 715 848 849 4863 5690 5694 5696 5695 5700 
829 849 696 848 5698 5696 5540 5692 5700 5694 
830 696 849 697 5548 5696 5699 5550 4726 5701 
849 696 716 697 5696 4869 5697 5701 4726 4870 
697 716 850 717 4870 5702 5703 4876 4878 5704 
830 850 831 697 5705 5706 5565 5550 5703 5558 
697 716 849 850 4870 5697 5701 5703 5702 5707 
830 850 697 849 5705 5703 5550 5699 5707 5701 
831 697 850 698 5558 5703 5706 5560 4736 5708 
850 697 717 698 5703 4876 5704 5708 4736 4877 
698 717 851 718 4877 5709 5710 4883 4885 5711 
831 851 832 698 5712 5713 5575 5560 5710 5568 
698 717 850 851 4877 5704 5708 5710 5709 5714 
831 851 698 850 5712 5710 5560 5706 5714 5708 
832 698 851 699 5568 5710 5713 5570 4746 5715 
851 698 718 699 5710 4883 5711 5715 4746 4884 
699 718 852 719 4884 5716 5717 4890 4892 5718 
832 852 833 699 5719 5720 5585 5570 5717 5578 
699 718 851 852 4884 5711 5715 5717 5716 5721 
832 852 699 851 5719 5717 5570 5713 5721 5715 
833 699 852 700 5578 5717 5720 5580 4756 5722 
852 699 719 700 5717 4890 5718 5722 4756 4891 
700 719 853 720 4891 5723 5724 4897 4899 5725 
833 853 834 700 5726 5727 5595 5580 5724 5588 
700 719 852 853 4891 5718 5722 5724 5723 5728 
833 853 700 852 5726 5724 5580 5720 5728 5722 
834 700 853 701 5588 5724 5727 5590 4766 5729 
853 700 720 701 5724 4897 5725 5729 4766 4898 
701 720 854 721 4898 5730 5731 4904 4906 5732 
834 854 835 701 5733 5734 5605 5590 5731 5598 
701 720 853 854 4898 5725 5729 5731 5730 5735 
834 854 701 853 5733 5731 5590 5727 5735 5729 
835 701 854 702 5598 5731 5734 5600 4776 5736 
854 701 721 702 5731 4904 5732 5736 4776 4905 
703 722 856 723 4916 5737 5738 4911 4915 5739 
836 856 837 703 5740 5741 5615 5613 5738 5608 
703 722 855 856 4916 5742 5743 5738 5737 5744 
836 856 703 855 5740 5738 5613 5745 5744 5743 
837 703 856 704 5608 5738 5741 5610 4786 5746 
856 703 723 704 5738 4911 5739 5746 4786 4912 
704 723 857 724 4912 5747 5748 4921 4923 5749 
837 857 838 704 5750 5751 5623 5610 5748 5618 
704 723 856 857 4912 5739 5746 5748 5747 5752 
837 857 704 856 5750 5748 5610 5741 5752 5746 
838 704 857 705 5618 5748 5751 5620 4794 5753 
857 704 724 705 5748 4921 5749 5753 4794 4922 
705 724 858 725 4922 5754 5755 4928 4930 5756 
838 858 839 705 5757 5758 5630 5620 5755 5625 
705 724 857 858 4922 5749 5753 5755 5754 5759 
838 858 705 857 5757 5755 5620 5751 5759 5753 
839 705 858 706 5625 5755 5758 5627 4801 5760 
858 705 725 706 5755 4928 5756 5760 4801 4929 
706 725 859 726 4929 5761 5762 4935 4937 5763 
839 859 840 706 5764 5765 5637 5627 5762 5632 
706 725 858 859 4929 5756 5760 5762 5761 5766 
839 859 706 858 5764 5762 5627 5758 5766 5760 
840 706 859 707 5632 5762 5765 5634 4808 5767 
859 706 726 707 5762 4935 5763 5767 4808 4936 
707 726 860 727 4936 5768 5769 4942 4944 5770 
840 860 841 707 5771 5772 5644 5634 5769 5639 
707 726 859 860 4936 5763 5767 5769 5768 5773 
840 860 707 859 5771 5769 5634 5765 5773 5767 
841 707 860 708 5639 5769 5772 5641 4815 5774 
860 707 727 708 5769 4942 5770 5774 4815 4943 
708 727 861 728 4943 5775 5776 4949 4951 5777 
841 861 842 708 5778 5779 5651 5641 5776 5646 
708 727 860 861 4943 5770 5774 5776 5775 5780 
841 861 708 860 5778 5776 5641 5772 5780 5774 
842 708 861 709 5646 5776 5779 5648 4822 5781 
861 708 728 709 5776 4949 5777 5781 4822 4950 
709 728 862 729 4950 5782 5783 4956 4958 5784 
842 862 843 709 5785 5786 5658 5648 5783 5653 
709 728 861 862 4950 5777 5781 5783 5782 5787 
842 862 709 861 5785 5783 5648 5779 5787 5781 
843 709 862 710 5653 5783 5786 5655 4829 5788 
862 709 729 710 5783 4956 5784 5788 4829 4957 
710 729 863 730 4957 5789 5790 4963 4965 5791 
843 863 844 710 5792 5793 5665 5655 5790 5660 
710 729 862 863 4957 5784 5788 5790 5789 5794 
843 863 710 862 5792 5790 5655 5786 5794 5788 
844 710 863 711 5660 5790 5793 5662 4836 5795 
863 710 730 711 5790 4963 5791 5795 4836 4964 
711 730 864 731 4964 5796 5797 4970 4972 5798 
844 864 845 711 5799 5800 5672 5662 5797 5667 
711 730 863 864 4964 5791 5795 5797 5796 5801 
844 864 711 863 5799 5797 5662 5793 5801 5795 
845 711 864 712 5667 5797 5800 5669 4843 5802 
864 711 731 712 5797 4970 5798 5802 4843 4971 
712 731 865 732 4971 5803 5804 4977 4979 5805 
845 865 846 712 5806 5807 5679 5669 5804 5674 
712 731 864 865 4971 5798 5802 5804 5803 5808 
845 865 712 864 5806 5804 5669 5800 5808 5802 
846 712 865 713 5674 5804 5807 5676 4850 5809 
865 712 732 713 5804 4977 5805 5809 4850 4978 
713 732 866 733 4978 5810 5811 4984 4986 5812 
846 866 847 713 5813 5814 5686 5676 5811 5681 
713 732 865 866 4978 5805 5809 5811 5810 5815 
846 866 713 865 5813 5811 5676 5807 5815 5809 
847 713 866 714 5681 5811 5814 5683 4857 5816 
866 713 733 714 5811 4984 5812 5816 4857 4985 
714 733 867 734 4985 5817 5818 4991 4993 5819 
847 867 848 714 5820 5821 5693 5683 5818 5688 
714 733 866 867 4985 5812 5816 5818 5817 5822 
847 867 714 866 5820 5818 5683 5814 5822 5816 
848 714 867 715 5688 5818 5821 5690 4864 5823 
867 714 734 715 5818 4991 5819 5823 4864 4992 
715 734 868 735 4992 5824 5825 4998 5000 5826 
848 868 849 715 5827 5828 5700 5690 5825 5695 
715 734 867 868 4992 5819 5823 5825 5824 5829 
848 868 715 867 5827 5825 5690 5821 5829 5823 
849 715 868 716 5695 5825 5828 5697 4871 5830 
868 715 735 716 5825 4998 5826 5830 4871 4999 
716 735 869 736 4999 5831 5832 5005 5007 5833 
849 869 850 716 5834 5835 5707 5697 5832 5702 
716 735 868 869 4999 5826 5830 5832 5831 5836 
849 869 716 868 5834 5832 5697 5828 5836 5830 
850 716 869 717 5702 5832 5835 5704 4878 5837 
869 716 736 717 5832 5005 5833 5837 4878 5006 
717 736 870 737 5006 5838 5839 5012 5014 5840 
850 870 851 717 5841 5842 5714 5704 5839 5709 
717 736 869 870 5006 5833 5837 5839 5838 5843 
850 870 717 869 5841 5839 5704 5835 5843 5837 
851 717 870 718 5709 5839 5842 5711 4885 5844 
870 717 737 718 5839 5012 5840 5844 4885 5013 
718 737 871 738 5013 5845 5846 5019 5021 5847 
851 871 852 718 5848 5849 5721 5711 5846 5716 
718 737 870 871 5013 5840 5844 5846 5845 5850 
851 871 718 870 5848 5846 5711 5842 5850 5844 
852 718 871 719 5716 5846 5849 5718 4892 5851 
871 718 738 719 5846 5019 5847 5851 4892 5020 
719 738 872 739 5020 5852 5853 5026 5028 5854 
852 872 853 719 5855 5856 5728 5718 5853 5723 
719 738 871 872 5020 5847 5851 5853 5852 5857 
852 872 719 871 5855 5853 5718 5849 5857 5851 
853 719 872 720 5723 5853 5856 5725 4899 5858 
872 719 739 720 5853 5026 5854 5858 4899 5027 
720 739 873 740 5027 5859 5860 5033 5035 5861 
853 873 854 720 5862 5863 5735 5725 5860 5730 
720 739 872 873 5027 5854 5858 5860 5859 5864 
853 873 720 872 5862 5860 5725 5856 5864 5858 
854 720 873 721 5730 5860 5863 5732 4906 5865 
873 720 740 721 5860 5033 5861 5865 4906 5034 
722 741 875 742 5045 5866 5867 5040 5044 5868 
855 875 856 722 5869 5870 5744 5742 5867 5737 
722 741 874 875 5045 5871 5872 5867 5866 5873 
855 875 722 874 5869 5867 5742 5874 5873 5872 
856 722 875 723 5737 5867 5870 5739 4915 5875 
875 722 742 723 5867 5040 5868 5875 4915 5041 
723 742 876 743 5041 5876 5877 5050 5052 5878 
856 876 857 723 5879 5880 5752 5739 5877 5747 
723 742 875 876 5041 5868 5875 5877 5876 5881 
856 876 723 875 5879 5877 5739 5870 5881 5875 
857 723 876 724 5747 5877 5880 5749 4923 5882 
876 723 743 724 5877 5050 5878 5882 4923 5051 
724 743 877 744 5051 5883 5884 5057 5059 5885 
857 877 858 724 5886 5887 5759 5749 5884 5754 
724 743 876 877 5051 5878 5882 5884 5883 5888 
857 877 724 876 5886 5884 5749 5880 5888 5882 
858 724 877 725 5754 5884 5887 5756 4930 5889 
877 724 744 725 5884 5057 5885 5889 4930 5058 
725 744 878 745 5058 5890 5891 5064 5066 5892 
858 878 859 725 5893 5894 5766 5756 5891 5761 
725 744 877 878 5058 5885 5889 5891 5890 5895 
858 878 725 877 5893 5891 5756 5887 5895 5889 
859 725 878 726 5761 5891 5894 5763 4937 5896 
878 725 745 726 5891 5064 5892 5896 4937 5065 
726 745 879 746 5065 5897 5898 5071 5073 5899 
859 879 860 726 5900 5901 5773 5763 5898 5768 
726 745 878 879 5065 5892 5896 5898 5897 5902 
859 879 726 878 5900 5898 5763 5894 5902 5896 
860 726 879 727 5768 5898 5901 5770 4944 5903 
879 726 746 727 5898 5071 5899 5903 4944 5072 
727 746 880 747 5072 5904 5905 5078 5080 5906 
860 880 861 727 5907 5908 5780 5770 5905 5775 
727 746 879 880 5072 5899 5903 5905 5904 5909 
860 880 727 879 5907 5905 5770 5901 5909 5903 
861 727 880 728 5775 5905 5908 5777 4951 5910 
880 727 747 728 5905 5078 5906 5910 4951 5079 
728 747 881 748 5079 5911 5912 5085 5087 5913 
861 881 862 728 5914 5915 5787 5777 5912 5782 
728 747 880 881 5079 5906 5910 5912 5911 5916 
861 881 728 880 5914 5912 5777 5908 5916 5910 
862 728 881 729 5782 5912 5915 5784 4958 5917 
881 728 748 729 5912 5085 5913 5917 4958 5086 
729 748 882 749 5086 5918 5919 5092 5094 5920 
862 882 863 729 5921 5922 5794 5784 5919 5789 
729 748 881 882 5086 5913 5917 5919 5918 5923 
862 882 729 881 5921 5919 5784 5915 5923 5917 
863 729 882 730 5789 5919 5922 5791 4965 5924 
882 729 749 730 5919 5092 5920 5924 4965 5093 
730 749 883 750 5093 5925 5926 5099 5101 5927 
863 883 864 730 5928 5929 5801 5791 5926 5796 
730 749 882 883 5093 5920 5924 5926 5925 5930 
863 883 730 882 5928 5926 5791 5922 5930 5924 
864 730 883 731 5796 5926 5929 5798 4972 5931 
883 730 750 731 5926 5099 5927 5931 4972 5100 
731 750 884 751 5100 5932 5933 5106 5108 5934 
864 884 865 731 5935 5936 5808 5798 5933 5803 
731 750 883 884 5100 5927 5931 5933 5932 5937 
864 884 731 883 5935 5933 5798 5929 5937 5931 
865 731 884 732 5803 5933 5936 5805 4979 5938 
884 731 751 732 5933 5106 5934 5938 4979 5107 
732 751 885 752 5107 5939 5940 5113 5115 5941 
865 885 866 732 5942 5943 5815 5805 5940 5810 
732 751 884 885 5107 5934 5938 5940 5939 5944 
865 885 732 884 5942 5940 5805 5936 5944 5938 
866 732 885 733 5810 5940 5943 5812 4986 5945 
885 732 752 733 5940 5113 5941 5945 4986 5114 
733 752 886 753 5114 5946 5947 5120 5122 5948 
866 886 867 733 5949 5950 5822 5812 5947 5817 
733 752 885 886 5114 5941 5945 5947 5946 5951 
866 886 733 885 5949 5947 5812 5943 5951 5945 
867 733 886 734 5817 5947 5950 5819 4993 5952 
886 733 753 734 5947 5120 5948 5952 4993 5121 
734 753 887 754 5121 5953 5954 5127 5129 5955 
867 887 868 734 5956 5957 5829 5819 5954 5824 
734 753 886 887 5121 5948 5952 5954 5953 5958 
867 887 734 886 5956 5954 5819 5950 5958 5952 
868 734 887 735 5824 5954 5957 5826 5000 5959 
887 734 754 735 5954 5127 5955 5959 5000 5128 
735 754 888 755 5128 5960 5961 5134 5136 5962 
868 888 869 735 5963 5964 5836 5826 5961 5831 
735 754 887 888 5128 5955 5959 5961 5960 5965 
868 888 735 887 5963 5961 5826 5957 5965 5959 
869 735 888 736 5831 5961 5964 5833 5007 5966 
888 735 755 736 5961 5134 5962 5966 5007 5135 
736 755 889 756 5135 5967 5968 5141 5143 5969 
869 889 870 736 5970 5971 5843 5833 5968 5838 
736 755 888 889 5135 5962 5966 5968 5967 5972 
869 889 736 888 5970 5968 5833 5964 5972 5966 
870 736 889 737 5838 5968 5971 5840 5014 5973 
889 736 756 737 5968 5141 5969 5973 5014 5142 
737 756 890 757 5142 5974 5975 5148 5150 5976 
870 890 871 737 5977 5978 5850 5840 5975 5845 
737 756 889 890 5142 5969 5973 5975 5974 5979 
870 890 737 889 5977 5975 5840 5971 5979 5973 
871 737 890 738 5845 5975 5978 5847 5021 5980 
890 737 757 738 5975 5148 5976 5980 5021 5149 
738 757 891 758 5149 5981 5982 5155 5157 5983 
871 891 872 738 5984 5985 5857 5847 5982 5852 
738 757 890 891 5149 5976 5980 5982 5981 5986 
871 891 738 890 5984 5982 5847 5978 5986 5980 
872 738 891 739 5852 5982 5985 5854 5028 5987 
891 738 758 739 5982 5155 5983 5987 5028 5156 
739 758 892 759 5156 5988 5989 5162 5164 5990 
872 892 873 739 5991 5992 5864 5854 5989 5859 
739 758 891 892 5156 5983 5987 5989 5988 5993 
872 892 739 891 5991 5989 5854 5985 5993 5987 
873 739 892 740 5859 5989 5992 5861 5035 5994 
892 739 759 740 5989 5162 5990 5994 5035 5163 
741 760 894 761 5174 5995 5996 5169 5173 5997 
874 894 875 741 5998 5999 5873 5871 5996 5866 
741 760 893 894 5174 6000 6001 5996 5995 6002 
874 894 741 893 5998 5996 5871 6003 6002 6001 
875 741 894 742 5866 5996 5999 5868 5044 6004 
894 741 761 742 5996 5169 5997 6004 5044 5170 
742 761 895 762 5170 6005 6006 5179 5181 6007 
875 895 876 742 6008 6009 5881 5868 6006 5876 
742 761 894 895 5170 5997 6004 6006 6005 6010 
875 895 742 894 6008 6006 5868 5999 6010 6004 
876 742 895 743 5876 6006 6009 5878 5052 6011 
895 742 762 743 6006 5179 6007 6011 5052 5180 
743 762 896 763 5180 6012 6013 5186 5188 6014 
876 896 877 743 6015 6016 5888 5878 6013 5883 
743 762 895 896 5180 6007 6011 6013 6012 6017 
876 896 743 895 6015 6013 5878 6009 6017 6011 
877 743 896 744 5883 6013 6016 5885 5059 6018 
896 743 763 744 6013 5186 6014 6018 5059 5187 
744 763 897 764 5187 6019 6020 5193 5195 6021 
877 897 878 744 6022 6023 5895 5885 6020 5890 
744 763 896 897 5187 6014 6018 6020 6019 6024 
877 897 744 896 6022 6020 5885 6016 6024 6018 
878 744 897 745 5890 6020 6023 5892 5066 6025 
897 744 764 745 6020 5193 6021 6025 5066 5194 
745 764 898 765 5194 6026 6027 5200 5202 6028 
878 898 879 745 6029 6030 5902 5892 6027 5897 
745 764 897 898 5194 6021 6025 6027 6026 6031 
878 898 745 897 6029 6027 5892 6023 6031 6025 
879 745 898 746 5897 6027 6030 5899 5073 6032 
898 745 765 746 6027 5200 6028 6032 5073 5201 
746 765 899 766 5201 6033 6034 5207 5209 6035 
879 899 880 746 6036 6037 5909 5899 6034 5904 
746 765 898 899 5201 6028 6032 6034 6033 6038 
879 899 746 898 6036 6034 5899 6030 6038 6032 
880 746 899 747 5904 6034 6037 5906 5080 6039 
899 746 766 747 6034 5207 6035 6039 5080 5208 
747 766 900 767 5208 6040 6041 5214 5216 6042 
880 900 881 747 6043 6044 5916 5906 6041 5911 
747 766 899 900 5208 6035 6039 6041 6040 6045 
880 900 747 899 6043 6041 5906 6037 6045 6039 
881 747 900 748 5911 6041 6044 5913 5087 6046 
900 747 767 748 6041 5214 6042 6046 5087 5215 
748 767 901 768 5215 6047 6048 5221 5223 6049 
881 901 882 748 6050 6051 5923 5913 6048 5918 
748 767 900 901 5215 6042 6046 6048 6047 6052 
881 901 748 900 6050 6048 5913 6044 6052 6046 
882 748 901 749 5918 6048 6051 5920 5094 6053 
901 748 768 749 6048 5221 6049 6053 5094 5222 
749 768 902 769 5222 6054 6055 5228 5230 6056 
882 902 883 749 6057 6058 5930 5920 6055 5925 
749 768 901 902 5222 6049 6053 6055 6054 6059 
882 902 749 901 6057 6055 5920 6051 6059 6053 
883 749 902 750 5925 6055 6058 5927 5101 6060 
902 749 769 750 6055 5228 6056 6060 5101 5229 
750 769 903 770 5229 6061 6062 5235 5237 6063 
883 903 884 750 6064 6065 5937 5927 6062 5932 
750 769 902 903 5229 6056 6060 6062 6061 6066 
883 903 750 902 6064 6062 5927 6058 6066 6060 
884 750 903 751 5932 6062 6065 5934 5108 6067 
903 750 770 751 6062 5235 6063 6067 5108 5236 
751 770 904 771 5236 6068 6069 5242 5244 6070 
884 904 885 751 6071 6072 5944 5934 6069 5939 
751 770 903 904 5236 6063 6067 6069 6068 6073 
884 904 751 903 6071 6069 5934 6065 6073 6067 
885 751 904 752 5939 6069 6072 5941 5115 6074 
904 751 771 752 6069 5242 6070 6074 5115 5243 
752 771 905 772 5243 6075 6076 5249 5251 6077 
885 905 886 752 6078 6079 5951 5941 6076 5946 
752 771 904 905 5243 6070 6074 6076 6075 6080 
885 905 752 904 6078 6076 5941 6072 6080 6074 
886 752 905 753 5946 6076 6079 5948 5122 6081 
905 752 772 753 6076 5249 6077 6081 5122 5250 
753 772 906 773 5250 6082 6083 5256 5258 6084 
886 906 887 753 6085 6086 5958 5948 6083 5953 
753 772 905 906 5250 6077 6081 6083 6082 6087 
886 906 753 905 6085 6083 5948 6079 6087 6081 
887 753 906 754 5953 6083 6086 5955 5129 6088 
906 753 773 754 6083 5256 6084 6088 5129 5257 
754 773 907 774 5257 6089 6090 5263 5265 6091 
887 907 888 754 6092 6093 5965 5955 6090 5960 
754 773 906 907 5257 6084 6088 6090 6089 6094 
887 907 754 906 6092 6090 5955 6086 6094 6088 
888 754 907 755 5960 6090 6093 5962 5136 6095 
907 754 774 755 6090 5263 6091 6095 5136 5264 
755 774 908 775 5264 6096 6097 5270 5272 6098 
888 908 889 755 6099 6100 5972 5962 6097 5967 
755 774 907 908 5264 6091 6095 6097 6096 6101 
888 908 755 907 6099 6097 5962 6093 6101 6095 
889 755 908 756 5967 6097 6100 5969 5143 6102 
908 755 775 756 6097 5270 6098 6102 5143 5271 
756 775 909 776 5271 6103 6104 5277 5279 6105 
889 909 890 756 6106 6107 5979 5969 6104 5974 
756 775 908 909 5271 6098 6102 6104 6103 6108 
889 909 756 908 6106 6104 5969 6100 6108 6102 
890 756 909 757 5974 6104 6107 5976 5150 6109 
909 756 776 757 6104 5277 6105 6109 5150 5278 
757 776 910 777 5278 6110 6111 5284 5286 6112 
890 910 891 757 6113 6114 5986 5976 6111 5981 
757 776 909 910 5278 6105 6109 6111 6110 6115 
890 910 757 909 6113 6111 5976 6107 6115 6109 
891 757 910 758 5981 6111 6114 5983 5157 6116 
910 757 777 758 6111 5284 6112 6116 5157 5285 
758 777 911 778 5285 6117 6118 5291 5293 6119 
891 911 892 758 6120 6121 5993 5983 6118 5988 
758 777 910 911 5285 6112 6116 6118 6117 6122 
891 911 758 910 6120 6118 5983 6114 6122 6116 
892 758 911 759 5988 6118 6121 5990 5164 6123 
911 758 778 759 6118 5291 6119 6123 5164 5292 
760 779 913 780 5303 6124 6125 5298 5302 6126 
893 913 894 760 6127 6128 6002 6000 6125 5995 
760 779 912 913 5303 6129 6130 6125 6124 6131 
893 913 760 912 6127 6125 6000 6132 6131 6130 
894 760 913 761 5995 6125 6128 5997 5173 6133 
913 760 780 761 6125 5298 6126 6133 5173 5299 
761 780 914 781 5299 6134 6135 5308 5310 6136 
894 914 895 761 6137 6138 6010 5997 6135 6005 
761 780 913 914 5299 6126 6133 6135 6134 6139 
894 914 761 913 6137 6135 5997 6128 6139 6133 
895 761 914 762 6005 6135 6138 6007 5181 6140 
914 761 781 762 6135 5308 6136 6140 5181 5309 
762 781 915 782 5309 6141 6142 5315 5317 6143 
895 915 896 762 6144 6145 6017 6007 6142 6012 
762 781 914 915 5309 6136 6140 6142 6141 6146 
895 915 762 914 6144 6142 6007 6138 6146 6140 
896 762 915 763 6012 6142 6145 6014 5188 6147 
915 762 782 763 6142 5315 6143 6147 5188 5316 
763 782 916 783 5316 6148 6149 5322 5324 6150 
896 916 897 763 6151 6152 6024 6014 6149 6019 
763 782 915 916 5316 6143 6147 6149 6148 6153 
896 916 763 915 6151 6149 6014 6145 6153 6147 
897 763 916 764 6019 6149 6152 6021 5195 6154 
916 763 783 764 6149 5322 6150 6154 5195 5323 
764 783 917 784 5323 6155 6156 5329 5331 6157 
897 917 898 764 6158 6159 6031 6021 6156 6026 
764 783 916 917 5323 6150 6154 6156 6155 6160 
897 917 764 916 6158 6156 6021 6152 6160 6154 
898 764 917 765 6026 6156 6159 6028 5202 6161 
917 764 784 765 6156 5329 6157 6161 5202 5330 
765 784 918 785 5330 6162 6163 5336 5338 6164 
898 918 899 765 6165 6166 6038 6028 6163 6033 
765 784 917 918 5330 6157 6161 6163 6162 6167 
898 918 765 917 6165 6163 6028 6159 6167 6161 
899 765 918 766 6033 6163 6166 6035 5209 6168 
918 765 785 766 6163 5336 6164 6168 5209 5337 
766 785 919 786 5337 6169 6170 5343 5345 6171 
899 919 900 766 6172 6173 6045 6035 6170 6040 
766 785 918 919 5337 6164 6168 6170 6169 6174 
899 919 766 918 6172 6170 6035 6166 6174 6168 
900 766 919 767 6040 6170 6173 6042 5216 6175 
919 766 786 767 6170 5343 6171 6175 5216 5344 
767 786 920 787 5344 6176 6177 5350 5352 6178 
900 920 901 767 6179 6180 6052 6042 6177 6047 
767 786 919 920 5344 6171 6175 6177 6176 6181 
900 920 767 919 6179 6177 6042 6173 6181 6175 
901 767 920 768 6047 6177 6180 6049 5223 6182 
920 767 787 768 6177 5350 6178 6182 5223 5351 
768 787 921 788 5351 6183 6184 5357 5359 6185 
901 921 902 768 6186 6187 6059 6049 6184 6054 
768 787 920 921 5351 6178 6182 6184 6183 6188 
901 921 768 920 6186 6184 6049 6180 6188 6182 
902 768 921 769 6054 6184 6187 6056 5230 6189 
921 768 788 769 6184 5357 6185 6189 5230 5358 
769 788 922 789 5358 6190 6191 5364 5366 6192 
902 922 903 769 6193 6194 6066 6056 6191 6061 
769 788 921 922 5358 6185 6189 6191 6190 6195 
902 922 769 921 6193 6191 6056 6187 6195 6189 
903 769 922 770 6061 6191 6194 6063 5237 6196 
922 769 789 770 6191 5364 6192 6196 5237 5365 
770 789 923 790 5365 6197 6198 5371 5373 6199 
903 923 904 770 6200 6201 6073 6063 6198 6068 
770 789 922 923 5365 6192 6196 6198 6197 6202 
903 923 770 922 6200 6198 6063 6194 6202 6196 
904 770 923 771 6068 6198 6201 6070 5244 6203 
923 770 790 771 6198 5371 6199 6203 5244 5372 
771 790 924 791 5372 6204 6205 5378 5380 6206 
904 924 905 771 6207 6208 6080 6070 6205 6075 
771 790 923 924 5372 6199 6203 6205 6204 6209 
904 924 771 923 6207 6205 6070 6201 6209 6203 
905 771 924 772 6075 6205 6208 6077 5251 6210 
924 771 791 772 6205 5378 6206 6210 5251 5379 
772 791 925 792 5379 6211 6212 5385 5387 6213 
905 925 906 772 6214 6215 6087 6077 6212 6082 
772 791 924 925 5379 6206 6210 6212 6211 6216 
905 925 772 924 6214 6212 6077 6208 6216 6210 
906 772 925 773 6082 6212 6215 6084 5258 6217 
925 772 792 773 6212 5385 6213 6217 5258 5386 
773 792 926 793 5386 6218 6219 5392 5394 6220 
906 926 907 773 6221 6222 6094 6084 6219 6089 
773 792 925 926 5386 6213 6217 6219 6218 6223 
906 926 773 925 6221 6219 6084 6215 6223 6217 
907 773 926 774 6089 6219 6222 6091 5265 6224 
926 773 793 774 6219 5392 6220 6224 5265 5393 
774 793 927 794 5393 6225 6226 5399 5401 6227 
907 927 908 774 6228 6229 6101 6091 6226 6096 
774 793 926 927 5393 6220 6224 6226 6225 6230 
907 927 774 926 6228 6226 6091 6222 6230 6224 
908 774 927 775 6096 6226 6229 6098 5272 6231 
927 774 794 775 6226 5399 6227 6231 5272 5400 
775 794 928 795 5400 6232 6233 5406 5408 6234 
908 928 909 775 6235 6236 6108 6098 6233 6103 
775 794 927 928 5400 6227 6231 6233 6232 6237 
908 928 775 927 6235 6233 6098 6229 6237 6231 
909 775 928 776 6103 6233 6236 6105 5279 6238 
928 775 795 776 6233 5406 6234 6238 5279 5407 
776 795 929 796 5407 6239 6240 5413 5415 6241 
909 929 910 776 6242 6243 6115 6105 6240 6110 
776 795 928 929 5407 6234 6238 6240 6239 6244 
909 929 776 928 6242 6240 6105 6236 6244 6238 
910 776 929 777 6110 6240 6243 6112 5286 6245 
929 776 796 777 6240 5413 6241 6245 5286 5414 
777 796 930 797 5414 6246 6247 5420 5422 6248 
910 930 911 777 6249 6250 6122 6112 6247 6117 
777 796 929 930 5414 6241 6245 6247 6246 6251 
910 930 777 929 6249 6247 6112 6243 6251 6245 
911 777 930 778 6117 6247 6250 6119 5293 6252 
930 777 797 778 6247 5420 6248 6252 5293 5421 
CELL_TYPES 3888
24 24 24 24 24 24 24 24 24 24 24 24 24 24 24 24 24 24 24 24 24 24 24 24 24 24 24 24 24 24 24 24 24 24 24 24 24 24 24 24 24 24 24 24 24 24 24 24 24 24 24 24 24 24 24 24 24 24 24 24 24 24 24 24 24 24 24 24 24 24 24 24 24 24 24 24 24 24 24 24 24 24 24 24 24 24 24 24 24 24 24 24 24 24 24 24 24 24 24 24 24 24 24 24 24 24 24 24 24 24 24 24 24 24 24 24 24 24 24 24 24 24 24 24 24 24 24 24 24 24 24 24 24 24 24 24 24 24 24 24 24 24 24 24 24 24 24 24 24 24 24 24 24 24 24 24 24 24 24 24 24 24 24 24 24 24 24 24 24 24 24 24 24 24 24 24 24 24 24 24 24 24 24 24 24 24 24 24 24 24 24 24 24 24 24 24 24 24 24 24 24 24 24 24 24 24 24 24 24 24 24 24 24 24 24 24 24 24 24 24 24 24 24 24 24 24 24 24 24 24 24 24 24 24 24 24 24 24 24 24 24 24 24 24 24 24 24 24 24 24 24 24 24 24 24 24 24 24 24 24 24 24 24 24 24 24 24 24 24 24 24 24 24 24 24 24 24 24 24 24 24 24 24 24 24 24 24 24 24 24 24 24 24 24 24 24 24 24 24 24 24 24 24 24 24 24 24 24 24 24 24 24 24 24 24 24 24 24 24 24 24 24 24 24 24 24 24 24 24 24 24 24 24 24 24 24 24 24 24 24 24 24 24 24 24 24 24 24 24 24 24 24 24 24 24 24 24 24 24 24 24 24 24 24 24 24 24 24 24 24 24 24 24 24 24 24 24 24 24 24 24 24 24 24 24 24 24 24 24 24 24 24 24 24 24 24 24 24 24 24 24 24 24 24 24 24 24 24 24 24 24 24 24 24 24 24 24 24 24 24 24 24 24 24 24 24 24 24 24 24 24 24 24 24 24 24 24 24 24 24 24 24 24 24 24 24 24 24 24 24 24 24 24 24 24 24 24 24 24 24 24 24 24 24 24 24 24 24 24 24 24 24 24 24 24 24 24 24 24 24 24 24 24 24 24 24 24 24 24 24 24 24 24 24 24 24 24 24 24 24 24 24 24 24 24 24 24 24 24 24 24 24 24 24 24 24 24 24 24 24 24 24 24 24 24 24 24 24 24 24 24 24 24 24 24 24 24 24 24 24 24 24 24 24 24 24 24 24 24 24 24 24 24 24 24 24 24 24 24 24 24 24 24 24 24 24 24 24 24 24 24 24 24 24 24 24 24 24 24 24 24 24 24 24 24 24 24 24 24 24 24 24 24 24 24 24 24 24 24 24 24 24 24 24 24 24 24 24 24 24 24 24 24 24 24 24 24 24 24 24 24 24 24 24 24 24 24 24 24 24 24 24 24 24 24 24 24 24 24 24 24 24 24 24 24 24 24 24 24 24 24 24 24 24 24 24 24 24 24 24 24 24 24 24 24 24 24 24 24 24 24 24 24 24 24 24 24 24 24 24 24 24 24 24 24 24 24 24 24 24 24 24 24 24 24 24 24 24 24 24 24 24 24 24 24 24 24 24 24 24 24 24 24 24 24 24 24 24 24 24 24 24 24 24 24 24 24 24 24 24 24 24 24 24 24 24 24 24 24 24 24 24 24 24 24 24 24 24 24 24 24 24 24 24 24 24 24 24 24 24 24 24 24 24 24 24 24 24 24 24 24 24 24 24 24 24 24 24 24 24 24 24 24 24 24 24 24 24 24 24 24 24 24 24 24 24 24 24 24 24 24 24 24 24 24 24 24 24 24 24 24 24 24 24 24 24 24 24 24 24 24 24 24 24 24 24 24 24 24 24 24 24 24 24 24 24 24 24 24 24 24 24 24 24 24 24 24 24 24 24 24 24 24 24 24 24 24 24 24 24 24 24 24 24 24 24 24 24 24 24 24 24 24 24 24 24 24 24 24 24 24 24 24 24 24 24 24 24 24 24 24 24 24 24 24 24 24 24 24 24 24 24 24 24 24 24 24 24 24 24 24 24 24 24 24 24 24 24 24 24 24 24 24 24 24 24 24 24 24 24 24 24 24 24 24 24 24 24 24 24 24 24 24 24 24 24 24 24 24 24 24 24 24 24 24 24 24 24 24 24 24 24 24 24 24 24 24 24 24 24 24 24 24 24 24 24 24 24 24 24 24 24 24 24 24 24 24 24 24 24 24 24 24 24 24 24 24 24 24 24 24 24 24 24 24 24 24 24 24 24 24 24 24 24 24 24 24 24 24 24 24 24 24 24 24 24 24 24 24 24 24 24 24 24 24 24 24 24 24 24 24 24 24 24 24 24 24 24 24 24 24 24 24 24 24 24 24 24 24 24 24 24 24 24 24 24 24 24 24 24 24 24 24 24 24 24 24 24 24 24 24 24 24 24 24 24 24 24 24 24 24 24 24 24 24 24 24 24 24 24 24 24 24 24 24 24 24 24 24 24 24 24 24 24 24 24 24 24 24 24 24 24 24 24 24 24 24 24 24 24 24 24 24 24 24 24 24 24 24 24 24 24 24 24 24 24 24 24 24 24 24 24 24 24 24 24 24 24 24 24 24 24 24 24 24 24 24 24 24 24 24 24 24 24 24 24 24 24 24 24 24 24 24 24 24 24 24 24 24 24 24 24 24 24 24 24 24 24 24 24 24 24 24 24 24 24 24 24 24 24 24 24 24 24 24 24 24 24 24 24 24 24 24 24 24 24 24 24 24 24 24 24 24 24 24 24 24 24 24 24 24 24 24 24 24 24 24 24 24 24 24 24 24 24 24 24 24 24 24 24 24 24 24 24 24 24 24 24 24 24 24 24 24 24 24 24 24 24 24 24 24 24 24 24 24 24 24 24 24 24 24 24 24 24 24 24 24 24 24 24 24 24 24 24 24 24 24 24 24 24 24 24 24 24 24 24 24 24 24 24 24 24 24 24 24 24 24 24 24 24 24 24 24 24 24 24 24 24 24 24 24 24 24 24 24 24 24 24 24 24 24 24 24 24 24 24 24 24 24 24 24 24 24 24 24 24 24 24 24 24 24 24 24 24 24 24 24 24 24 24 24 24 24 24 24 24 24 24 24 24 24 24 24 24 24 24 24 24 24 24 24 24 24 24 24 24 24 24 24 24 24 24 24 24 24 24 24 24 24 24 24 24 24 24 24 24 24 24 24 24 24 24 24 24 24 24 24 24 24 24 24 24 24 24 24 24 24 24 24 24 24 24 24 24 24 24 24 24 24 24 24 24 24 24 24 24 24 24 24 24 24 24 24 24 24 24 24 24 24 24 24 24 24 24 24 24 24 24 24 24 24 24 24 24 24 24 24 24 24 24 24 24 24 24 24 24 24 24 24 24 24 24 24 24 24 24 24 24 24 24 24 24 24 24 24 24 24 24 24 24 24 24 24 24 24 24 24 24 24 24 24 24 24 24 24 24 24 24 24 24 24 24 24 24 24 24 24 24 24 24 24 24 24 24 24 24 24 24 24 24 24 24 24 24 24 24 24 24 24 24 24 24 24 24 24 24 24 24 24 24 24 24 24 24 24 24 24 24 24 24 24 24 24 24 24 24 24 24 24 24 24 24 24 24 24 24 24 24 24 24 24 24 24 24 24 24 24 24 24 24 24 24 24 24 24 24 24 24 24 24 24 24 24 24 24 24 24 24 24 24 24 24 24 24 24 24 24 24 24 24 24 24 24 24 24 24 24 24 24 24 24 24 24 24 24 24 24 24 24 24 24 24 24 24 24 24 24 24 24 24 24 24 24 24 24 24 24 24 24 24 24 24 24 24 24 24 24 24 24 24 24 24 24 24 24 24 24 24 24 24 24 24 24 24 24 24 24 24 24 24 24 24 24 24 24 24 24 24 24 24 24 24 24 24 24 24 24 24 24 24 24 24 24 24 24 24 24 24 24 24 24 24 24 24 24 24 24 24 24 24 24 24 24 24 24 24 24 24 24 24 24 24 24 24 24 24 24 24 24 24 24 24 24 24 24 24 24 24 24 24 24 24 24 24 24 24 24 24 24 24 24 24 24 24 24 24 24 24 24 24 24 24 24 24 24 24 24 24 24 24 24 24 24 24 24 24 24 24 24 24 24 24 24 24 24 24 24 24 24 24 24 24 24 24 24 24 24 24 24 24 24 24 24 24 24 24 24 24 24 24 24 24 24 24 24 24 24 24 24 24 24 24 24 24 24 24 24 24 24 24 24 24 24 24 24 24 24 24 24 24 24 24 24 24 24 24 24 24 24 24 24 24 24 24 24 24 24 24 24 24 24 24 24 24 24 24 24 24 24 24 24 24 24 24 24 24 24 24 24 24 24 24 24 24 24 24 24 24 24 24 24 24 24 24 24 24 24 24 24 24 24 24 24 24 24 24 24 24 24 24 24 24 24 24 24 24 24 24 24 24 24 24 24 24 24 24 24 24 24 24 24 24 24 24 24 24 24 24 24 24 24 24 24 24 24 24 24 24 24 24 24 24 24 24 24 24 24 24 24 24 24 24 24 24 24 24 24 24 24 24 24 24 24 24 24 24 24 24 24 24 24 24 24 24 24 24 24 24 24 24 24 24 24 24 24 24 24 24 24 24 24 24 24 24 24 24 24 24 24 24 24 24 24 24 24 24 24 24 24 24 24 24 24 24 24 24 24 24 24 24 24 24 24 24 24 24 24 24 24 24 24 24 24 24 24 24 24 24 24 24 24 24 24 24 24 24 24 24 24 24 24 24 24 24 24 24 24 24 24 24 24 24 24 24 24 24 24 24 24 24 24 24 24 24 24 24 24 24 24 24 24 24 24 24 24 24 24 24 24 24 24 24 24 24 24 24 24 24 24 24 24 24 24 24 24 24 24 24 24 24 24 24 24 24 24 24 24 24 24 24 24 24 24 24 24 24 24 24 24 24 24 24 24 24 24 24 24 24 24 24 24 24 24 24 24 24 24 24 24 24 24 24 24 24 24 24 24 24 24 24 24 24 24 24 24 24 24 24 24 24 24 24 24 24 24 24 24 24 24 24 24 24 24 24 24 24 24 24 24 24 24 24 24 24 24 24 24 24 24 24 24 24 24 24 24 24 24 24 24 24 24 24 24 24 24 24 24 24 24 24 24 24 24 24 24 24 24 24 24 24 24 24 24 24 24 24 24 24 24 24 24 24 24 24 24 24 24 24 24 24 24 24 24 24 24 24 24 24 24 24 24 24 24 24 24 24 24 24 24 24 24 24 24 24 24 24 24 24 24 24 24 24 24 24 24 24 24 24 24 24 24 24 24 24 24 24 24 24 24 24 24 24 24 24 24 24 24 24 24 24 24 24 24 24 24 24 24 24 24 24 24 24 24 24 24 24 24 24 24 24 24 24 24 24 24 24 24 24 24 24 24 24 24 24 24 24 24 24 24 24 24 24 24 24 24 24 24 24 24 24 24 24 24 24 24 24 24 24 24 24 24 24 24 24 24 24 24 24 24 24 24 24 24 24 24 24 24 24 24 24 24 24 24 24 24 24 24 24 24 24 24 24 24 24 24 24 24 24 24 24 24 24 24 24 24 24 24 24 24 24 24 24 24 24 24 24 24 24 24 24 24 24 24 24 24 24 24 24 24 24 24 24 24 24 24 24 24 24 24 24 24 24 24 24 24 24 24 24 24 24 24 24 24 24 24 24 24 24 24 24 24 24 24 24 24 24 24 24 24 24 24 24 24 24 24 24 24 24 24 24 24 24 24 24 24 24 24 24 24 24 24 24 24 24 24 24 24 24 24 24 24 24 24 24 24 24 24 24 24 24 24 24 24 24 24 24 24 24 24 24 24 24 24 24 24 24 24 24 24 24 24 24 24 24 24 24 24 24 24 24 24 24 24 24 24 24 24 24 24 24 24 24 24 24 24 24 24 24 24 24 24 24 24 24 24 24 24 24 24 24 24 24 24 24 24 24 24 24 24 24 24 24 24 24 24 24 24 24 24 24 24 24 24 24 24 24 24 24 24 24 24 24 24 24 24 24 24 24 24 24 24 24 24 24 24 24 24 24 24 24 24 24 24 24 24 24 24 24 24 24 24 24 24 24 24 24 24 24 24 24 24 24 24 24 24 24 24 24 24 24 24 24 24 24 24 24 24 24 24 24 24 24 24 24 24 24 24 24 24 24 24 24 24 24 24 24 24 24 24 24 24 24 24 24 24 24 24 24 24 24 24 24 24 24 24 24 24 24 24 24 24 24 24 24 24 24 24 24 24 24 24 24 24 24 24 24 24 24 24 24 24 24 24 24 24 24 24 24 24 24 24 24 24 24 24 24 24 24 24 24 24 24 24 24 24 24 24 24 24 24 24 24 24 24 24 24 24 24 24 24 24 24 24 24 24 24 24 24 24 24 24 24 24 24 24 24 24 24 24 24 24 24 24 24 24 24 24 24 24 24 24 24 24 24 24 24 24 24 24 24 24 24 24 24 24 24 24 24 24 24 24 24 24 24 24 24 24 24 24 24 24 24 24 24 24 24 24 24 24 24 24 24 24 24 24 24 24 24 24 24 24 24 24 24 24 24 24 24 24 24 24 24 24 24 24 24 24 24 24 24 24 24 24 24 24 24 24 24 24 24 24 24 24 24 24 24 24 24 24 24 24 24 24 24 24 24 24 24 24 24 24 24 24 24 24 24 24 24 24 24 24 24 24 24 24 24 24 24 24 24 24 24 24 24 24 24 24 24 24 24 24 24 24 24 24 24 24 24 24 24 24 24 24 24 24 24 24 24 24 24 24 24 24 24 24 24 24 24 24 24 24 24 24 24 24 24 24 24 24 24 24 24 24 24 24 24 24 24 24 24 24 24 24 24 24 24 24 24 24 24 24 24 24 24 24 24 24 24 24 24 24 24 24 24 24 24 24 24 24 24 24 24 24 24 24 24 24 24 24 24 24 24 24 24 24 24 24 24 24 24 24 24 24 24 24 24 24 24 24 24 24 24 24 24 24 24 24 24 24 24 24 24 24 24 24 24 24 24 24 24 24 24 24 24 24 24 24 24 24 24 24 24 24 24 24 24 24 24 24 24 24 24 24 24 24 24 24 24 24 24 24 24 24 24 24 24 24 24 24 24 24 24 24 24 24 24 24 24 24 24 24 24 24 24 24 24 24 24 24 24 24 24 24 24 24 24 24 24 24 24 24 24 24 24 24 24 24 24 24 24 24 24 24 24 24 24 24 24 24 24 24 24 24 24 24 24 24 24 24 24 24 24 24 24 24 24 24 24 24 24 24 24 24 24 24 24 24 24 24 24 24 24 24 24 24 24 24 24 24 24 24 24 24 24 24 24 24 24 24 24 24 24 24 24 24 24 24 24 24 24 24 24 24 24 24 24 24 24 24 24 24 24 24 24 24 24 24 24 24 24 24 24 24 24 24 24 24 24 24 24 24 24 24 24 24 24 24 24 24 24 24 24 24 24 24 24 24 24 24 24 24 24 24 24 24 24 24 24 24 24 24 24 24 24 24 24 24 24 24 24 24 24 24 24 24 24 24 24 24 24 24 24 24 24 24 24 24 24 24 24 24 24 24 24 24 24 24 24 24 24 24 24 24 24 24 24 24 24 24 24 24 24 24 24 24 24 24 24 24 24 24 24 24 24 24 24 24 24 24 24 24 24 24 24 24 24 24 24 24 24 24 24 24 24 24 24 24 24 24 24 24 24 24 24 24 24 24 24 24 24 24 24 24 24 24 24 24 24 24 24 24 24 24 24 24 24 24 24 24 24 24 24 24 24 24 24 24 24 24 24 24 24 24 24 24 24 24 24 24 24 24 24 24 24 24 24 24 24 24 24 24 24 24 24 24 24 24 24 24 24 24 24 24 24 24 24 24 24 24 24 24 24 24 24 24 24 24 24 24 24 24 24 24 24 24 24 24 24 24 24 24 24 24 24 24 24 24 24 24 24 24 24 24 24 24 24 24 24 24 24 24 24 24 24 24 24 24 24 24 24 24 24 24 24 24 24 24 24 24 24 24 24 24 24 24 24 24 24 24 24 24 24 24 24 24 24 24 24 24 24 24 24 24 24 24 24 24 24 24 24 24 24 24 24 24 24 24 24 24 24 24 24 24 24 24 24 24 24 24 24 24 24 24 24 24 24 24 24 24 24 24 24 24 24 24 24 24 24 24 24 24 24 24 24 24 24 24 24 24 24 24 24 24 24 24 24 24 24 24 24 24 24 24 24 24 24 24 24 24 24 24 24 24 24 24 24 24 24 24 24 24 24 24 24 24 24 24 24 24 24 24 24 24 24 24 24 24 24 24 24 24 24 24 24 24 24 24 24 24 24 24 24 24 24 24 24 24 24 24 24 24 24 24 24 24 24 24 24 24 24 24 24 24 24 24 24 24 24 24 24 24 24 24 24 24 24 24 24 24 24 24 24 24 24 24 24 24 24 24 24 24 24 24 24 24 24 24 24 24 24 24 24 24 24 24 24 24 24 24 24 24 24 24 24 24 24 24 24 24 24 24 24 24 24 24 24 24 24 24 24 24 24 24 24 24 24 24 24 24 24 24 24 24 24 24 24 24 24 24 24 24 24 24 24 24 24 24 24 24 24 24 24 24 24 24 24 24 24 24 24 24 24 24 24 24 24 24 24 24 24 24 24 24 24 24 24 24 24 24 24 24 24 24 24 24 24 24 24 24 24 24 24 24 24 24 24 24 24 24 24 24 24 24 24 24 24 24 24 

POINT_DATA 6253
SCALARS weights float 1
LOOKUP_TABLE default
0.462963 0.617284 0.617284 0.617284 0.617284 0.617284 0.617285 0.617284 0.617284 0.617284 0.617284 0.617284 0.617284 0.617285 0.617284 0.617284 0.617285 0.617284 0.154321 0.617284 0.925926 0.925926 0.925926 0.925926 0.925926 0.925927 0.925927 0.925926 0.925926 0.925926 0.925926 0.925926 0.925927 0.925926 0.925927 0.925927 0.925927 0.308642 0.617284 0.925926 0.925926 0.925926 0.925926 0.925926 0.925927 0.925927 0.925926 0.925926 0.925926 0.925926 0.925926 0.925927 0.925926 0.925926 0.925927 0.925927 0.308642 0.617284 0.925926 0.925926 0.925926 0.925926 0.925926 0.925927 0.925927 0.925926 0.925926 0.925926 0.925926 0.925926 0.925927 0.925926 0.925927 0.925927 0.925927 0.308642 0.617284 0.925926 0.925926 0.925926 0.925926 0.925926 0.925927 0.925927 0.925926 0.925926 0.925926 0.925926 0.925926 0.925927 0.925926 0.925926 0.925926 0.925927 0.308642 0.617284 0.925926 0.925926 0.925926 0.925926 0.925926 0.925927 0.925927 0.925926 0.925926 0.925926 0.925926 0.925927 0.925927 0.925926 0.925926 0.925927 0.925927 0.308642 0.154321 0.308642 0.308642 0.308642 0.308642 0.308642 0.308642 0.308642 0.308642 0.308642 0.308642 0.308642 0.308642 0.308642 0.308642 0.308642 0.308642 0.308642 0.154321 0.617284 0.925926 0.925926 0.925926 0.925926 0.925926 0.925927 0.925927 0.925926 0.925926 0.925926 0.925926 0.925926 0.925927 0.925926 0.925927 0.925927 0.925927 0.308642 0.925926 1.85185 1.85185 1.85185 1.85185 1.85185 1.85185 1.85185 1.85185 1.85185 1.85185 1.85185 1.85185 1.85185 1.85185 1.85185 1.85185 1.85185 0.925926 0.925926 1.85185 1.85185 1.85185 1.85185 1.85185 1.85185 1.85185 1.85185 1.85185 1.85185 1.85185 1.85185 1.85185 1.85185 1.85185 1.85185 1.85185 0.925926 0.925926 1.85185 1.85185 1.85185 1.85185 1.85185 1.85185 1.85185 1.85185 1.85185 1.85185 1.85185 1.85185 1.85185 1.85185 1.85185 1.85185 1.85185 0.925926 0.925926 1.85185 1.85185 1.85185 1.85185 1.85185 1.85185 1.85185 1.85185 1.85185 1.85185 1.85185 1.85185 1.85185 1.85185 1.85185 1.85185 1.85185 0.925926 0.925926 1.85185 1.85185 1.85185 1.85185 1.85185 1.85185 1.85185 1.85185 1.85185 1.85185 1.85185 1.85185 1.85185 1.85185 1.85185 1.85185 1.85185 0.925926 0.308642 0.925926 0.925926 0.925926 0.925926 0.925926 0.925926 0.925927 0.925926 0.925926 0.925926 0.925926 0.925927 0.925927 0.925927 0.925926 0.925927 0.925927 0.617284 0.617284 0.925926 0.925926 0.925926 0.925926 0.925926 0.925927 0.925926 0.925926 0.925926 0.925926 0.925926 0.925926 0.925927 0.925926 0.925927 0.925927 0.925927 0.308642 0.925926 1.85185 1.85185 1.85185 1.85185 1.85185 1.85185 1.85185 1.85185 1.85185 1.85185 1.85185 1.85185 1.85185 1.85185 1.85185 1.85185 1.85185 0.925926 0.925926 1.85185 1.85185 1.85185 1.85185 1.85185 1.85185 1.85185 1.85185 1.85185 1.85185 1.85185 1.85185 1.85185 1.85185 1.85185 1.85185 1.85185 0.925926 0.925926 1.85185 1.85185 1.85185 1.85185 1.85185 1.85185 1.85185 1.85185 1.85185 1.85185 1.85185 1.85185 1.85185 1.85185 1.85185 1.85185 1.85185 0.925926 0.925926 1.85185 1.85185 1.85185 1.85185 1.85185 1.85185 1.85185 1.85185 1.85185 1.85185 1.85185 1.85185 1.85185 1.85185 1.85185 1.85185 1.85185 0.925926 0.925926 1.85185 1.85185 1.85185 1.85185 1.85185 1.85185 1.85185 1.85185 1.85185 1.85185 1.85185 1.85185 1.85185 1.85185 1.85185 1.85185 1.85185 0.925926 0.308642 0.925926 0.925926 0.925926 0.925926 0.925926 0.925926 0.925927 0.925926 0.925926 0.925926 0.925926 0.925927 0.925927 0.925927 0.925926 0.925926 0.925927 0.617284 0.617284 0.925926 0.925926 0.925926 0.925926 0.925926 0.925927 0.925927 0.925926 0.925926 0.925926 0.925926 0.925926 0.925927 0.925926 0.925927 0.925927 0.925927 0.308642 0.925926 1.85185 1.85185 1.85185 1.85185 1.85185 1.85185 1.85185 1.85185 1.85185 1.85185 1.85185 1.85185 1.85185 1.85185 1.85185 1.85185 1.85185 0.925926 0.925926 1.85185 1.85185 1.85185 1.85185 1.85185 1.85185 1.85185 1.85185 1.85185 1.85185 1.85185 1.85185 1.85185 1.85185 1.85185 1.85185 1.85185 0.925926 0.925926 1.85185 1.85185 1.85185 1.85185 1.85185 1.85185 1.85185 1.85185 1.85185 1.85185 1.85185 1.85185 1.85185 1.85185 1.85185 1.85185 1.85185 0.925926 0.925926 1.85185 1.85185 1.85185 1.85185 1.85185 1.85185 1.85185 1.85185 1.85185 1.85185 1.85185 1.85185 1.85185 1.85185 1.85185 1.85185 1.85185 0.925926 0.925926 1.85185 1.85185 1.85185 1.85185 1.85185 1.85185 1.85185 1.85185 1.85185 1.85185 1.85185 1.85185 1.85185 1.85185 1.85185 1.85185 1.85185 0.925926 0.308642 0.925926 0.925926 0.925926 0.925926 0.925926 0.925926 0.925926 0.925926 0.925926 0.925926 0.925926 0.925927 0.925927 0.925927 0.925926 0.925926 0.925927 0.617284 0.617284 0.925926 0.925926 0.925926 0.925926 0.925926 0.925927 0.925927 0.925926 0.925926 0.925926 0.925926 0.925926 0.925927 0.925926 0.925927 0.925927 0.925927 0.308642 0.925926 1.85185 1.85185 1.85185 1.85185 1.85185 1.85185 1.85185 1.85185 1.85185 1.85185 1.85185 1.85185 1.85185 1.85185 1.85185 1.85185 1.85185 0.925926 0.925926 1.85185 1.85185 1.85185 1.85185 1.85185 1.85185 1.85185 1.85185 1.85185 1.85185 1.85185 1.85185 1.85185 1.85185 1.85185 1.85185 1.85185 0.925926 0.925926 1.85185 1.85185 1.85185 1.85185 1.85185 1.85185 1.85185 1.85185 1.85185 1.85185 1.85185 1.85185 1.85185 1.85185 1.85185 1.85185 1.85185 0.925926 0.925926 1.85185 1.85185 1.85185 1.85185 1.85185 1.85185 1.85185 1.85185 1.85185 1.85185 1.85185 1.85185 1.85185 1.85185 1.85185 1.85185 1.85185 0.925926 0.925926 1.85185 1.85185 1.85185 1.85185 1.85185 1.85185 1.85185 1.85185 1.85185 1.85185 1.85185 1.85185 1.85185 1.85185 1.85185 1.85185 1.85185 0.925926 0.308642 0.925926 0.925926 0.925926 0.925926 0.925926 0.925926 0.925927 0.925926 0.925926 0.925926 0.925926 0.925927 0.925927 0.925927 0.925926 0.925927 0.925927 0.617284 0.617284 0.925926 0.925926 0.925926 0.925926 0.925926 0.925927 0.925926 0.925926 0.925926 0.925926 0.925926 0.925926 0.925927 0.925926 0.925927 0.925927 0.925927 0.308642 0.925926 1.85185 1.85185 1.85185 1.85185 1.85185 1.85185 1.85185 1.85185 1.85185 1.85185 1.85185 1.85185 1.85185 1.85185 1.85185 1.85185 1.85185 0.925926 0.925926 1.85185 1.85185 1.85185 1.85185 1.85185 1.85185 1.85185 1.85185 1.85185 1.85185 1.85185 1.85185 1.85185 1.85185 1.85185 1.85185 1.85185 0.925926 0.925926 1.85185 1.85185 1.85185 1.85185 1.85185 1.85185 1.85185 1.85185 1.85185 1.85185 1.85185 1.85185 1.85185 1.85185 1.85185 1.85185 1.85185 0.925926 0.925926 1.85185 1.85185 1.85185 1.85185 1.85185 1.85185 1.85185 1.85185 1.85185 1.85185 1.85185 1.85185 1.85185 1.85185 1.85185 1.85185 1.85185 0.925926 0.925926 1.85185 1.85185 1.85185 1.85185 1.85185 1.85185 1.85185 1.85185 1.85185 1.85185 1.85185 1.85185 1.85185 1.85185 1.85185 1.85185 1.85185 0.925926 0.308642 0.925926 0.925926 0.925926 0.925926 0.925926 0.925926 0.925926 0.925926 0.925926 0.925926 0.925926 0.925927 0.925927 0.925927 0.925926 0.925926 0.925927 0.617284 0.154321 0.308642 0.308642 0.308642 0.308642 0.308642 0.308642 0.308642 0.308642 0.308642 0.308642 0.308642 0.308642 0.308642 0.308642 0.308642 0.308642 0.308642 0.154321 0.308642 0.925926 0.925926 0.925926 0.925926 0.925926 0.925926 0.925926 0.925926 0.925926 0.925926 0.925926 0.925927 0.925926 0.925927 0.925926 0.925927 0.925927 0.617284 0.308642 0.925926 0.925926 0.925926 0.925926 0.925926 0.925926 0.925926 0.925926 0.925926 0.925926 0.925926 0.925927 0.925926 0.925927 0.925926 0.925927 0.925927 0.617284 0.308642 0.925926 0.925926 0.925926 0.925926 0.925926 0.925926 0.925926 0.925926 0.925926 0.925926 0.925926 0.925927 0.925926 0.925927 0.925926 0.925927 0.925927 0.617284 0.308642 0.925926 0.925926 0.925926 0.925926 0.925926 0.925926 0.925926 0.925926 0.925925 0.925926 0.925926 0.925926 0.925926 0.925927 0.925926 0.925927 0.925927 0.617284 0.308642 0.925926 0.925926 0.925926 0.925926 0.925926 0.925926 0.925926 0.925926 0.925925 0.925926 0.925926 0.925926 0.925926 0.925927 0.925926 0.925927 0.925927 0.617284 0.154321 0.617284 0.617284 0.617284 0.617284 0.617284 0.617284 0.617284 0.617284 0.617284 0.617284 0.617284 0.617284 0.617284 0.617285 0.617284 0.617284 0.617285 0.462963 0.154321 0.308642 0.462963 0.154321 0.231482 0.462963 0.308642 0.462963 0.231482 0.154321 0.154321 0.231482 0.154321 0.462963 0.231482 0.231482 0.154321 0.308642 0.231482 0.308642 0.462963 0.154321 0.231482 0.462963 0.308642 0.462963 0.231482 0.154321 0.462963 0.231482 0.154321 0.308642 0.231482 0.308642 0.462963 0.154321 0.231482 0.462963 0.308642 0.462963 0.231482 0.154321 0.462963 0.231482 0.154321 0.308642 0.231482 0.308642 0.462963 0.154321 0.231482 0.462963 0.308642 0.462963 0.231482 0.154321 0.462963 0.231481 0.154321 0.308642 0.231481 0.308642 0.462963 0.154321 0.231482 0.462963 0.308642 0.462963 0.231481 0.154321 0.462963 0.231482 0.154321 0.308642 0.231482 0.308642 0.462963 0.154321 0.231482 0.462963 0.308642 0.462963 0.231482 0.154321 0.462963 0.231482 0.154321 0.308642 0.231482 0.308642 0.462964 0.154321 0.231482 0.462963 0.308642 0.462963 0.231482 0.154321 0.462963 0.231482 0.154321 0.308642 0.231482 0.308642 0.462963 0.154321 0.231482 0.462963 0.308642 0.462963 0.231482 0.154321 0.462963 0.231482 0.154321 0.308642 0.231482 0.308642 0.462963 0.154321 0.231481 0.462963 0.308642 0.462963 0.231481 0.154321 0.462963 0.231481 0.154321 0.308642 0.231481 0.308642 0.462963 0.154321 0.231481 0.462963 0.308642 0.462963 0.231481 0.154321 0.462963 0.231482 0.154321 0.308642 0.231482 0.308642 0.462963 0.154321 0.231481 0.462963 0.308642 0.462963 0.231481 0.154321 0.462963 0.231482 0.154321 0.308642 0.231482 0.308642 0.462963 0.154321 0.231481 0.462963 0.308642 0.462963 0.231481 0.154321 0.462963 0.231482 0.154321 0.308642 0.231482 0.308642 0.462963 0.154321 0.231481 0.462963 0.308642 0.462963 0.231481 0.154321 0.462963 0.231481 0.154321 0.308642 0.231482 0.308643 0.462964 0.154321 0.231482 0.462963 0.308642 0.462963 0.231482 0.154321 0.462964 0.231482 0.154321 0.308642 0.231482 0.308642 0.462963 0.154321 0.231481 0.462963 0.308642 0.462963 0.231481 0.154321 0.462963 0.231482 0.154321 0.308642 0.231482 0.308642 0.462964 0.154321 0.231481 0.462963 0.308642 0.462963 0.231482 0.154321 0.462964 0.231482 0.154321 0.308642 0.231482 0.308642 0.462964 0.154321 0.231482 0.462964 0.308643 0.462964 0.231482 0.154321 0.462964 0.231482 0.154321 0.308642 0.231482 0.308642 0.462963 0.154321 0.231481 0.231481 0.308642 0.231481 0.231481 0.154321 0.462963 0.0771604 0.154321 0.154321 0.0771604 0.154321 0.308642 0.462963 0.154321 0.231482 0.462963 0.308642 0.462963 0.231482 0.154321 0.462963 0.231482 0.308642 0.231482 0.308642 0.462963 0.154321 0.231482 0.462963 0.308642 0.462963 0.462963 0.308642 0.231482 0.308642 0.462963 0.154321 0.231482 0.462963 0.308642 0.462963 0.462963 0.308642 0.231482 0.308642 0.462963 0.154321 0.231482 0.462963 0.308642 0.462963 0.462963 0.308642 0.231482 0.308642 0.462963 0.154321 0.231482 0.462963 0.308642 0.462963 0.462963 0.308642 0.231482 0.308642 0.462963 0.154321 0.231482 0.462963 0.308642 0.462963 0.462963 0.308642 0.231482 0.308642 0.462964 0.154321 0.231482 0.462963 0.308642 0.462963 0.462963 0.308642 0.231482 0.308642 0.462963 0.154321 0.231482 0.462963 0.308642 0.462963 0.462963 0.308642 0.231482 0.308642 0.462963 0.154321 0.231481 0.462963 0.308642 0.462963 0.462963 0.308642 0.231481 0.308642 0.462963 0.154321 0.231482 0.462963 0.308642 0.462963 0.462963 0.308642 0.231482 0.308642 0.462963 0.154321 0.231481 0.462963 0.308642 0.462963 0.462963 0.308642 0.231482 0.308642 0.462963 0.154321 0.231481 0.462963 0.308642 0.462963 0.462963 0.308642 0.231482 0.308642 0.462963 0.154321 0.231481 0.462963 0.308642 0.462963 0.462963 0.308642 0.231482 0.308643 0.462964 0.154321 0.231482 0.462963 0.308643 0.462963 0.462964 0.308642 0.231482 0.308642 0.462963 0.154321 0.231481 0.462963 0.308642 0.462963 0.462963 0.308642 0.231482 0.308642 0.462964 0.154321 0.231481 0.462963 0.308642 0.462963 0.462964 0.308642 0.231482 0.308642 0.462964 0.154321 0.231482 0.462964 0.308643 0.462964 0.462964 0.308642 0.231482 0.308642 0.462963 0.154321 0.231481 0.231481 0.308642 0.231481 0.462963 0.154321 0.0771604 0.154321 0.308642 0.462963 0.154321 0.231482 0.462963 0.308642 0.462963 0.231482 0.154321 0.462963 0.231482 0.308642 0.231481 0.308642 0.462963 0.154321 0.231482 0.462963 0.308642 0.462963 0.462963 0.308642 0.231481 0.308642 0.462963 0.154321 0.231482 0.462963 0.308642 0.462963 0.462963 0.308642 0.231482 0.308642 0.462963 0.154321 0.231482 0.462963 0.308642 0.462963 0.462963 0.308642 0.231481 0.308642 0.462963 0.154321 0.231482 0.462963 0.308642 0.462963 0.462963 0.308642 0.231482 0.308642 0.462963 0.154321 0.231482 0.462963 0.308642 0.462963 0.462963 0.308642 0.231482 0.308642 0.462963 0.154321 0.231482 0.462963 0.308642 0.462963 0.462963 0.308642 0.231482 0.308642 0.462963 0.154321 0.231482 0.462963 0.308642 0.462963 0.462963 0.308642 0.231481 0.308642 0.462963 0.154321 0.231481 0.462963 0.308642 0.462963 0.462963 0.308642 0.231481 0.308642 0.462963 0.154321 0.231482 0.462963 0.308642 0.462963 0.462963 0.308642 0.231481 0.308642 0.462963 0.154321 0.231481 0.462963 0.308642 0.462963 0.462963 0.308642 0.231482 0.308642 0.462963 0.154321 0.231481 0.462963 0.308642 0.462963 0.462963 0.308642 0.231482 0.308642 0.462963 0.154321 0.231481 0.462963 0.308642 0.462963 0.462963 0.308642 0.231482 0.308643 0.462964 0.154321 0.231482 0.462963 0.308642 0.462963 0.462964 0.308642 0.231482 0.308642 0.462963 0.154321 0.231481 0.462963 0.308642 0.462963 0.462963 0.308642 0.231482 0.308642 0.462964 0.154321 0.231481 0.462963 0.308642 0.462963 0.462964 0.308642 0.231481 0.308642 0.462964 0.154321 0.231482 0.462964 0.308642 0.462964 0.462964 0.308642 0.231482 0.308642 0.462963 0.154321 0.231481 0.231481 0.308642 0.231481 0.462963 0.154321 0.0771604 0.154321 0.308642 0.462963 0.154321 0.231482 0.462963 0.308642 0.462963 0.231481 0.154321 0.462963 0.231482 0.308642 0.231482 0.308642 0.462963 0.154321 0.231482 0.462963 0.308642 0.462963 0.462963 0.308642 0.231482 0.308642 0.462963 0.154321 0.231482 0.462963 0.308642 0.462963 0.462963 0.308642 0.231482 0.308642 0.462963 0.154321 0.231482 0.462963 0.308642 0.462963 0.462963 0.308642 0.231481 0.308642 0.462963 0.154321 0.231481 0.462963 0.308642 0.462963 0.462963 0.308642 0.231482 0.308642 0.462963 0.154321 0.231482 0.462963 0.308642 0.462963 0.462963 0.308642 0.231482 0.308642 0.462964 0.154321 0.231482 0.462963 0.308642 0.462963 0.462963 0.308642 0.231482 0.308642 0.462963 0.154321 0.231482 0.462963 0.308642 0.462963 0.462963 0.308642 0.231482 0.308642 0.462963 0.154321 0.231481 0.462963 0.308642 0.462963 0.462963 0.308642 0.231481 0.308642 0.462963 0.154321 0.231481 0.462963 0.308642 0.462963 0.462963 0.308642 0.231482 0.308642 0.462963 0.154321 0.231481 0.462963 0.308642 0.462963 0.462963 0.308642 0.231482 0.308642 0.462963 0.154321 0.231481 0.462963 0.308642 0.462963 0.462963 0.308642 0.231482 0.308642 0.462963 0.154321 0.231481 0.462963 0.308642 0.462963 0.462963 0.308642 0.231482 0.308643 0.462964 0.154321 0.231482 0.462963 0.308643 0.462963 0.462964 0.308642 0.231482 0.308642 0.462963 0.154321 0.231481 0.462963 0.308642 0.462963 0.462963 0.308642 0.231482 0.308642 0.462964 0.154321 0.231481 0.462963 0.308642 0.462963 0.462963 0.308642 0.231481 0.308642 0.462964 0.154321 0.231482 0.462963 0.308643 0.462964 0.462964 0.308642 0.231482 0.308642 0.462963 0.154321 0.231481 0.231481 0.308642 0.231481 0.462963 0.154321 0.0771604 0.154321 0.308642 0.462963 0.154321 0.231482 0.462963 0.308642 0.462963 0.231482 0.154321 0.462963 0.231482 0.308642 0.231482 0.308642 0.462963 0.154321 0.231482 0.462963 0.308642 0.462963 0.462963 0.308642 0.231482 0.308642 0.462963 0.154321 0.231482 0.462963 0.308642 0.462963 0.462963 0.308642 0.231482 0.308642 0.462963 0.154321 0.231482 0.462963 0.308642 0.462963 0.462963 0.308642 0.231482 0.308642 0.462963 0.154321 0.231482 0.462963 0.308642 0.462963 0.462963 0.308642 0.231482 0.308642 0.462963 0.154321 0.231482 0.462963 0.308642 0.462963 0.462963 0.308642 0.231482 0.308642 0.462963 0.154321 0.231482 0.462963 0.308642 0.462963 0.462963 0.308642 0.231482 0.308642 0.462963 0.154321 0.231482 0.462963 0.308642 0.462963 0.462963 0.308642 0.231482 0.308642 0.462963 0.154321 0.231481 0.462963 0.308642 0.462963 0.462963 0.308642 0.231481 0.308642 0.462963 0.154321 0.231481 0.462963 0.308642 0.462963 0.462963 0.308642 0.231482 0.308642 0.462963 0.154321 0.231481 0.462963 0.308642 0.462963 0.462963 0.308642 0.231482 0.308642 0.462963 0.154321 0.231481 0.462963 0.308642 0.462963 0.462963 0.308642 0.231482 0.308642 0.462963 0.154321 0.231481 0.462963 0.308642 0.462963 0.462963 0.308642 0.231482 0.308643 0.462964 0.154321 0.231482 0.462963 0.308642 0.462963 0.462964 0.308642 0.231482 0.308642 0.462963 0.154321 0.231481 0.462963 0.308642 0.462963 0.462963 0.308642 0.231482 0.308642 0.462964 0.154321 0.231481 0.462963 0.308642 0.462963 0.462964 0.308642 0.231482 0.308642 0.462964 0.154321 0.231482 0.462964 0.308642 0.462963 0.462964 0.308642 0.231482 0.308642 0.462963 0.154321 0.231481 0.231481 0.308642 0.231481 0.462963 0.154321 0.0771604 0.154321 0.154321 0.462963 0.154321 0.0771605 0.231482 0.308642 0.462963 0.0771605 0.154321 0.231482 0.231482 0.308642 0.231482 0.154321 0.462963 0.154321 0.0771605 0.231482 0.308642 0.462963 0.231481 0.308642 0.231482 0.154321 0.462963 0.154321 0.0771605 0.231482 0.308642 0.462963 0.231481 0.308642 0.231482 0.154321 0.462963 0.154321 0.0771605 0.231482 0.308642 0.462963 0.231482 0.308642 0.231481 0.154321 0.462963 0.154321 0.0771605 0.231481 0.308642 0.462963 0.231481 0.308642 0.231482 0.154321 0.462963 0.154321 0.0771606 0.231482 0.308642 0.462963 0.231482 0.308642 0.231482 0.154321 0.462963 0.154321 0.0771606 0.231482 0.308642 0.462963 0.231482 0.308642 0.231482 0.154321 0.462963 0.154321 0.0771605 0.231482 0.308642 0.462963 0.231481 0.308642 0.231482 0.154321 0.462963 0.154321 0.0771605 0.231481 0.308642 0.462963 0.231481 0.308642 0.231481 0.154321 0.462963 0.154321 0.0771606 0.231482 0.308642 0.462963 0.231481 0.308642 0.231482 0.154321 0.462963 0.154321 0.0771605 0.231482 0.308642 0.462963 0.231482 0.308642 0.231482 0.154321 0.462963 0.154321 0.0771606 0.231482 0.308642 0.462963 0.231482 0.308642 0.231482 0.154321 0.462963 0.154321 0.0771606 0.231482 0.308642 0.462963 0.231482 0.308642 0.231482 0.154321 0.462964 0.154321 0.0771607 0.231482 0.308642 0.462963 0.231482 0.308642 0.231482 0.154321 0.462963 0.154321 0.0771605 0.231482 0.308642 0.462963 0.231481 0.308642 0.231482 0.154321 0.462964 0.154321 0.0771605 0.231481 0.308642 0.462963 0.231482 0.308642 0.231481 0.154321 0.462964 0.154321 0.0771606 0.231482 0.308642 0.462964 0.231482 0.308642 0.231482 0.154321 0.462963 0.154321 0.0771606 0.154321 0.308642 0.231481 0.231482 0.154321 0.0771604 0.308642 0.462963 0.462963 0.308642 0.462963 0.231482 0.154321 0.154321 0.231482 0.154321 0.462963 0.231482 0.231482 0.308642 0.308642 0.462963 0.462963 0.308642 0.462963 0.231482 0.154321 0.462963 0.231482 0.308642 0.308642 0.462963 0.462963 0.308642 0.462963 0.231482 0.154321 0.462963 0.231482 0.308642 0.308642 0.462963 0.462963 0.308642 0.462963 0.231482 0.154321 0.462963 0.231481 0.308642 0.308642 0.462963 0.462963 0.308642 0.462963 0.231481 0.154321 0.462963 0.231482 0.308642 0.308642 0.462963 0.462963 0.308642 0.462963 0.231482 0.154321 0.462963 0.231482 0.308642 0.308642 0.462964 0.462963 0.308642 0.462963 0.231482 0.154321 0.462963 0.231482 0.308642 0.308642 0.462963 0.462963 0.308642 0.462963 0.231482 0.154321 0.462963 0.231482 0.308642 0.308642 0.462963 0.462963 0.308642 0.462963 0.231481 0.154321 0.462963 0.231482 0.308642 0.308642 0.462963 0.462963 0.308642 0.462963 0.231481 0.154321 0.462963 0.231482 0.308642 0.308642 0.462963 0.462963 0.308642 0.462963 0.231481 0.154321 0.462963 0.231482 0.308642 0.308642 0.462963 0.462963 0.308642 0.462963 0.231481 0.154321 0.462963 0.231482 0.308642 0.308642 0.462963 0.462963 0.308642 0.462963 0.231481 0.154321 0.462963 0.231482 0.308642 0.308643 0.462964 0.462963 0.308643 0.462963 0.231482 0.154321 0.462964 0.231482 0.308642 0.308642 0.462963 0.462963 0.308642 0.462963 0.231481 0.154321 0.462963 0.231482 0.308642 0.308642 0.462964 0.462963 0.308642 0.462963 0.231482 0.154321 0.462964 0.231482 0.308642 0.308642 0.462964 0.462964 0.308643 0.462964 0.231482 0.154321 0.462964 0.231482 0.308642 0.308642 0.462963 0.231481 0.308642 0.231481 0.231481 0.154321 0.462963 0.0771604 0.154321 0.308642 0.462963 0.462963 0.308642 0.462963 0.231482 0.154321 0.462963 0.231482 0.308642 0.308642 0.462963 0.462963 0.308642 0.462963 0.462963 0.308642 0.308642 0.462963 0.462963 0.308642 0.462963 0.462963 0.308642 0.308642 0.462963 0.462963 0.308642 0.462963 0.462963 0.308642 0.308642 0.462963 0.462963 0.308642 0.462963 0.462963 0.308642 0.308642 0.462963 0.462963 0.308642 0.462963 0.462963 0.308642 0.308642 0.462964 0.462963 0.308642 0.462963 0.462963 0.308642 0.308642 0.462963 0.462963 0.308642 0.462963 0.462963 0.308642 0.308642 0.462963 0.462963 0.308642 0.462963 0.462963 0.308642 0.308642 0.462963 0.462963 0.308642 0.462963 0.462963 0.308642 0.308642 0.462963 0.462963 0.308642 0.462963 0.462963 0.308642 0.308642 0.462963 0.462963 0.308642 0.462963 0.462963 0.308642 0.308642 0.462963 0.462963 0.308642 0.462963 0.462963 0.308642 0.308643 0.462964 0.462963 0.308643 0.462963 0.462964 0.308642 0.308642 0.462963 0.462963 0.308642 0.462963 0.462963 0.308642 0.308642 0.462964 0.462963 0.308642 0.462963 0.462964 0.308642 0.308642 0.462964 0.462964 0.308643 0.462964 0.462964 0.308642 0.308642 0.462963 0.231481 0.308642 0.231481 0.462963 0.154321 0.308642 0.462963 0.462963 0.308642 0.462963 0.231482 0.154321 0.462963 0.231482 0.308642 0.308642 0.462963 0.462963 0.308642 0.462963 0.462963 0.308642 0.308642 0.462963 0.462963 0.308642 0.462963 0.462963 0.308642 0.308642 0.462963 0.462963 0.308642 0.462963 0.462963 0.308642 0.308642 0.462963 0.462963 0.308642 0.462963 0.462963 0.308642 0.308642 0.462963 0.462963 0.308642 0.462963 0.462963 0.308642 0.308642 0.462963 0.462963 0.308642 0.462963 0.462963 0.308642 0.308642 0.462963 0.462963 0.308642 0.462963 0.462963 0.308642 0.308642 0.462963 0.462963 0.308642 0.462963 0.462963 0.308642 0.308642 0.462963 0.462963 0.308642 0.462963 0.462963 0.308642 0.308642 0.462963 0.462963 0.308642 0.462963 0.462963 0.308642 0.308642 0.462963 0.462963 0.308642 0.462963 0.462963 0.308642 0.308642 0.462963 0.462963 0.308642 0.462963 0.462963 0.308642 0.308643 0.462964 0.462963 0.308642 0.462963 0.462964 0.308642 0.308642 0.462963 0.462963 0.308642 0.462963 0.462963 0.308642 0.308642 0.462964 0.462963 0.308642 0.462963 0.462964 0.308642 0.308642 0.462964 0.462964 0.308643 0.462964 0.462964 0.308642 0.308642 0.462963 0.231481 0.308642 0.231481 0.462963 0.154321 0.308642 0.462963 0.462963 0.308642 0.462963 0.231481 0.154321 0.462963 0.231482 0.308642 0.308642 0.462963 0.462963 0.308642 0.462963 0.462963 0.308642 0.308642 0.462963 0.462963 0.308642 0.462963 0.462963 0.308642 0.308642 0.462963 0.462963 0.308642 0.462963 0.462963 0.308642 0.308642 0.462963 0.462963 0.308642 0.462963 0.462963 0.308642 0.308642 0.462963 0.462963 0.308642 0.462963 0.462963 0.308642 0.308642 0.462964 0.462963 0.308642 0.462963 0.462963 0.308642 0.308642 0.462963 0.462963 0.308642 0.462963 0.462963 0.308642 0.308642 0.462963 0.462963 0.308642 0.462963 0.462963 0.308642 0.308642 0.462963 0.462963 0.308642 0.462963 0.462963 0.308642 0.308642 0.462963 0.462963 0.308642 0.462963 0.462963 0.308642 0.308642 0.462963 0.462963 0.308642 0.462963 0.462963 0.308642 0.308642 0.462963 0.462963 0.308642 0.462963 0.462963 0.308642 0.308643 0.462964 0.462963 0.308643 0.462963 0.462964 0.308642 0.308642 0.462963 0.462963 0.308642 0.462963 0.462963 0.308642 0.308642 0.462964 0.462963 0.308643 0.462963 0.462964 0.308642 0.308642 0.462964 0.462963 0.308643 0.462964 0.462964 0.308642 0.308642 0.462963 0.231481 0.308642 0.231481 0.462963 0.154321 0.308642 0.462963 0.462963 0.308642 0.462963 0.231482 0.154321 0.462963 0.231482 0.308642 0.308642 0.462963 0.462963 0.308642 0.462963 0.462963 0.308642 0.308642 0.462963 0.462963 0.308642 0.462963 0.462963 0.308642 0.308642 0.462963 0.462963 0.308642 0.462963 0.462963 0.308642 0.308642 0.462963 0.462963 0.308642 0.462963 0.462963 0.308642 0.308642 0.462963 0.462963 0.308642 0.462963 0.462963 0.308642 0.308642 0.462963 0.462963 0.308642 0.462963 0.462963 0.308642 0.308642 0.462963 0.462963 0.308642 0.462963 0.462963 0.308642 0.308642 0.462963 0.462963 0.308642 0.462963 0.462963 0.308642 0.308642 0.462963 0.462963 0.308642 0.462963 0.462963 0.308642 0.308642 0.462963 0.462963 0.308642 0.462963 0.462963 0.308642 0.308642 0.462963 0.462963 0.308642 0.462963 0.462963 0.308642 0.308642 0.462963 0.462963 0.308642 0.462963 0.462963 0.308642 0.308643 0.462964 0.462963 0.308642 0.462963 0.462964 0.308642 0.308642 0.462963 0.462963 0.308642 0.462963 0.462963 0.308642 0.308642 0.462964 0.462963 0.308642 0.462963 0.462964 0.308642 0.308642 0.462964 0.462964 0.308642 0.462964 0.462964 0.308642 0.308642 0.462963 0.231481 0.308642 0.231481 0.462963 0.154321 0.154321 0.462963 0.231481 0.308642 0.462963 0.0771605 0.154321 0.231482 0.231482 0.308642 0.154321 0.462963 0.231481 0.308642 0.462963 0.231481 0.308642 0.154321 0.462963 0.231482 0.308642 0.462963 0.231481 0.308642 0.154321 0.462963 0.231481 0.308642 0.462963 0.231482 0.308642 0.154321 0.462963 0.231481 0.308642 0.462963 0.231481 0.308642 0.154321 0.462963 0.231482 0.308642 0.462963 0.231482 0.308642 0.154321 0.462963 0.231482 0.308642 0.462963 0.231482 0.308642 0.154321 0.462963 0.231482 0.308642 0.462963 0.231481 0.308642 0.154321 0.462963 0.231481 0.308642 0.462963 0.231481 0.308642 0.154321 0.462963 0.231482 0.308642 0.462963 0.231481 0.308642 0.154321 0.462963 0.231482 0.308642 0.462963 0.231482 0.308642 0.154321 0.462963 0.231482 0.308642 0.462963 0.231482 0.308642 0.154321 0.462963 0.231482 0.308642 0.462963 0.231482 0.308642 0.154321 0.462964 0.231482 0.308642 0.462963 0.231482 0.308642 0.154321 0.462963 0.231482 0.308642 0.462963 0.231481 0.308642 0.154321 0.462964 0.231481 0.308642 0.462963 0.231482 0.308642 0.154321 0.462964 0.231482 0.308642 0.462964 0.231482 0.308642 0.154321 0.462963 0.154321 0.308642 0.231481 0.231482 0.154321 0.308642 0.462963 0.462963 0.308642 0.462963 0.231482 0.154321 0.154321 0.231482 0.154321 0.462963 0.231482 0.231481 0.308642 0.308642 0.462963 0.462963 0.308642 0.462963 0.231482 0.154321 0.462963 0.231481 0.308642 0.308642 0.462963 0.462963 0.308642 0.462963 0.231482 0.154321 0.462963 0.231481 0.308642 0.308642 0.462963 0.462963 0.308642 0.462963 0.231482 0.154321 0.462963 0.231481 0.308642 0.308642 0.462963 0.462963 0.308642 0.462963 0.231482 0.154321 0.462963 0.231481 0.308642 0.308642 0.462963 0.462963 0.308642 0.462963 0.231482 0.154321 0.462963 0.231482 0.308642 0.308642 0.462963 0.462963 0.308642 0.462963 0.231482 0.154321 0.462963 0.231482 0.308642 0.308642 0.462963 0.462963 0.308642 0.462963 0.231482 0.154321 0.462963 0.231481 0.308642 0.308642 0.462963 0.462963 0.308642 0.462963 0.231481 0.154321 0.462963 0.231481 0.308642 0.308642 0.462963 0.462963 0.308642 0.462963 0.231482 0.154321 0.462963 0.231481 0.308642 0.308642 0.462963 0.462963 0.308642 0.462963 0.231481 0.154321 0.462963 0.231482 0.308642 0.308642 0.462963 0.462963 0.308642 0.462963 0.231481 0.154321 0.462963 0.231481 0.308642 0.308642 0.462963 0.462963 0.308642 0.462963 0.231481 0.154321 0.462963 0.231481 0.308642 0.308643 0.462964 0.462963 0.308643 0.462963 0.231482 0.154321 0.462964 0.231481 0.308642 0.308642 0.462963 0.462963 0.308642 0.462963 0.231481 0.154321 0.462963 0.231482 0.308642 0.308642 0.462964 0.462963 0.308642 0.462963 0.231482 0.154321 0.462964 0.231482 0.308642 0.308642 0.462964 0.462963 0.308643 0.462964 0.231482 0.154321 0.462964 0.231482 0.308642 0.308642 0.462963 0.231481 0.308642 0.231481 0.231481 0.154321 0.462963 0.0771604 0.154321 0.308642 0.462963 0.462963 0.308642 0.462963 0.231482 0.154321 0.462963 0.231482 0.308642 0.308642 0.462963 0.462963 0.308642 0.462963 0.462963 0.308642 0.308642 0.462963 0.462963 0.308642 0.462963 0.462963 0.308642 0.308642 0.462963 0.462963 0.308642 0.462963 0.462963 0.308642 0.308642 0.462963 0.462963 0.308642 0.462963 0.462963 0.308642 0.308642 0.462963 0.462963 0.308642 0.462963 0.462963 0.308642 0.308642 0.462963 0.462963 0.308642 0.462963 0.462964 0.308642 0.308642 0.462963 0.462963 0.308642 0.462963 0.462963 0.308642 0.308642 0.462963 0.462963 0.308642 0.462963 0.462963 0.308642 0.308642 0.462963 0.462963 0.308642 0.462963 0.462963 0.308642 0.308642 0.462963 0.462963 0.308642 0.462963 0.462963 0.308642 0.308642 0.462963 0.462963 0.308642 0.462963 0.462963 0.308642 0.308642 0.462963 0.462963 0.308642 0.462963 0.462963 0.308642 0.308643 0.462964 0.462963 0.308643 0.462963 0.462964 0.308642 0.308642 0.462963 0.462963 0.308642 0.462963 0.462963 0.308642 0.308642 0.462963 0.462963 0.308642 0.462963 0.462964 0.308642 0.308642 0.462964 0.462963 0.308643 0.462964 0.462964 0.308642 0.308642 0.462963 0.231481 0.308642 0.231481 0.462963 0.154321 0.308642 0.462963 0.462963 0.308642 0.462963 0.231482 0.154321 0.462963 0.231481 0.308642 0.308642 0.462963 0.462963 0.308642 0.462963 0.462963 0.308642 0.308642 0.462963 0.462963 0.308642 0.462963 0.462963 0.308642 0.308642 0.462963 0.462963 0.308642 0.462963 0.462963 0.308642 0.308642 0.462963 0.462963 0.308642 0.462963 0.462963 0.308642 0.308642 0.462963 0.462963 0.308642 0.462963 0.462963 0.308642 0.308642 0.462963 0.462963 0.308642 0.462963 0.462964 0.308642 0.308642 0.462963 0.462963 0.308642 0.462963 0.462963 0.308642 0.308642 0.462963 0.462963 0.308642 0.462963 0.462963 0.308642 0.308642 0.462963 0.462963 0.308642 0.462963 0.462963 0.308642 0.308642 0.462963 0.462963 0.308642 0.462963 0.462963 0.308642 0.308642 0.462963 0.462963 0.308642 0.462963 0.462963 0.308642 0.308642 0.462963 0.462963 0.308642 0.462963 0.462963 0.308642 0.308643 0.462964 0.462963 0.308642 0.462963 0.462964 0.308642 0.308642 0.462963 0.462963 0.308642 0.462963 0.462963 0.308642 0.308642 0.462963 0.462963 0.308642 0.462963 0.462964 0.308642 0.308642 0.462963 0.462963 0.308642 0.462964 0.462964 0.308642 0.308642 0.462963 0.231481 0.308642 0.231481 0.462963 0.154321 0.308642 0.462963 0.462963 0.308642 0.462963 0.231481 0.154321 0.462963 0.231482 0.308642 0.308642 0.462963 0.462963 0.308642 0.462963 0.462963 0.308642 0.308642 0.462963 0.462963 0.308642 0.462963 0.462963 0.308642 0.308642 0.462963 0.462963 0.308642 0.462963 0.462963 0.308642 0.308642 0.462963 0.462963 0.308642 0.462963 0.462963 0.308642 0.308642 0.462963 0.462963 0.308642 0.462963 0.462963 0.308642 0.308642 0.462963 0.462963 0.308642 0.462963 0.462963 0.308642 0.308642 0.462963 0.462963 0.308642 0.462963 0.462963 0.308642 0.308642 0.462963 0.462963 0.308642 0.462963 0.462963 0.308642 0.308642 0.462963 0.462963 0.308642 0.462963 0.462963 0.308642 0.308642 0.462963 0.462963 0.308642 0.462963 0.462963 0.308642 0.308642 0.462963 0.462963 0.308642 0.462963 0.462963 0.308642 0.308642 0.462963 0.462963 0.308642 0.462963 0.462963 0.308642 0.308643 0.462964 0.462963 0.308643 0.462963 0.462964 0.308642 0.308642 0.462963 0.462963 0.308642 0.462963 0.462963 0.308642 0.308642 0.462964 0.462963 0.308643 0.462963 0.462964 0.308642 0.308642 0.462964 0.462963 0.308643 0.462964 0.462964 0.308642 0.308642 0.462963 0.231481 0.308642 0.231481 0.462963 0.154321 0.308642 0.462963 0.462963 0.308642 0.462963 0.231481 0.154321 0.462963 0.231481 0.308642 0.308642 0.462963 0.462963 0.308642 0.462963 0.462963 0.308642 0.308642 0.462963 0.462963 0.308642 0.462963 0.462963 0.308642 0.308642 0.462963 0.462963 0.308642 0.462963 0.462963 0.308642 0.308642 0.462963 0.462963 0.308642 0.462963 0.462963 0.308642 0.308642 0.462963 0.462963 0.308642 0.462963 0.462963 0.308642 0.308642 0.462963 0.462963 0.308642 0.462963 0.462963 0.308642 0.308642 0.462963 0.462963 0.308642 0.462963 0.462963 0.308642 0.308642 0.462963 0.462963 0.308642 0.462963 0.462963 0.308642 0.308642 0.462963 0.462963 0.308642 0.462963 0.462963 0.308642 0.308642 0.462963 0.462963 0.308642 0.462963 0.462963 0.308642 0.308642 0.462963 0.462963 0.308642 0.462963 0.462963 0.308642 0.308642 0.462963 0.462963 0.308642 0.462963 0.462963 0.308642 0.308643 0.462964 0.462963 0.308642 0.462963 0.462964 0.308642 0.308642 0.462962 0.462963 0.308642 0.462963 0.462963 0.308642 0.308642 0.462963 0.462963 0.308642 0.462963 0.462964 0.308642 0.308642 0.462963 0.462963 0.308642 0.462963 0.462964 0.308642 0.308642 0.462963 0.231481 0.308642 0.231481 0.462963 0.154321 0.154321 0.462963 0.231481 0.308642 0.462963 0.0771605 0.154321 0.231481 0.231481 0.308642 0.154321 0.462963 0.231481 0.308642 0.462963 0.231481 0.308642 0.154321 0.462963 0.231482 0.308642 0.462963 0.231481 0.308642 0.154321 0.462963 0.231481 0.308642 0.462963 0.231482 0.308642 0.154321 0.462963 0.231481 0.308642 0.462963 0.231481 0.308642 0.154321 0.462963 0.231482 0.308642 0.462963 0.231482 0.308642 0.154321 0.462963 0.231482 0.308642 0.462963 0.231482 0.308642 0.154321 0.462963 0.231482 0.308642 0.462963 0.231481 0.308642 0.154321 0.462963 0.231481 0.308642 0.462963 0.231481 0.308642 0.154321 0.462963 0.231482 0.308642 0.462963 0.231481 0.308642 0.154321 0.462963 0.231482 0.308642 0.462963 0.231482 0.308642 0.154321 0.462963 0.231482 0.308642 0.462963 0.231482 0.308642 0.154321 0.462963 0.231482 0.308642 0.462963 0.231482 0.308642 0.154321 0.462964 0.231482 0.308642 0.462963 0.231482 0.308642 0.154321 0.462963 0.231482 0.308642 0.462963 0.231481 0.308642 0.154321 0.462963 0.231481 0.308642 0.462963 0.231482 0.308642 0.154321 0.462964 0.231482 0.308643 0.462964 0.231482 0.308642 0.154321 0.462963 0.154321 0.308642 0.231481 0.231481 0.154321 0.308642 0.462963 0.462963 0.308642 0.462963 0.231482 0.154321 0.154321 0.231482 0.154321 0.462963 0.231482 0.231482 0.308642 0.308642 0.462963 0.462963 0.308642 0.462963 0.231482 0.154321 0.462963 0.231482 0.308642 0.308642 0.462963 0.462963 0.308642 0.462963 0.231482 0.154321 0.462963 0.231482 0.308642 0.308642 0.462963 0.462963 0.308642 0.462963 0.231482 0.154321 0.462963 0.231482 0.308642 0.308642 0.462963 0.462963 0.308642 0.462963 0.231481 0.154321 0.462963 0.231482 0.308642 0.308642 0.462963 0.462963 0.308642 0.462963 0.231482 0.154321 0.462963 0.231482 0.308642 0.308642 0.462964 0.462963 0.308642 0.462963 0.231482 0.154321 0.462963 0.231482 0.308642 0.308642 0.462963 0.462963 0.308642 0.462963 0.231482 0.154321 0.462963 0.231482 0.308642 0.308642 0.462963 0.462963 0.308642 0.462963 0.231481 0.154321 0.462963 0.231482 0.308642 0.308642 0.462963 0.462963 0.308642 0.462963 0.231481 0.154321 0.462963 0.231482 0.308642 0.308642 0.462963 0.462963 0.308642 0.462963 0.231481 0.154321 0.462963 0.231482 0.308642 0.308642 0.462963 0.462963 0.308642 0.462963 0.231481 0.154321 0.462963 0.231482 0.308642 0.308642 0.462963 0.462963 0.308642 0.462963 0.231481 0.154321 0.462963 0.231482 0.308642 0.308643 0.462964 0.462964 0.308642 0.462963 0.231482 0.154321 0.462964 0.231482 0.308642 0.308642 0.462963 0.462964 0.308642 0.462963 0.231481 0.154321 0.462963 0.231482 0.308642 0.308642 0.462964 0.462963 0.308642 0.462963 0.231482 0.154321 0.462964 0.231482 0.308642 0.308642 0.462964 0.462964 0.308642 0.462964 0.231482 0.154321 0.462964 0.231482 0.308642 0.308642 0.462963 0.231481 0.308642 0.231481 0.231481 0.154321 0.462963 0.0771604 0.154321 0.308642 0.462963 0.462963 0.308642 0.462963 0.231482 0.154321 0.462963 0.231482 0.308642 0.308642 0.462963 0.462963 0.308642 0.462963 0.462963 0.308642 0.308642 0.462963 0.462963 0.308642 0.462963 0.462963 0.308642 0.308642 0.462963 0.462963 0.308642 0.462963 0.462963 0.308642 0.308642 0.462963 0.462963 0.308642 0.462963 0.462963 0.308642 0.308642 0.462963 0.462963 0.308642 0.462963 0.462963 0.308642 0.308642 0.462964 0.462963 0.308642 0.462963 0.462963 0.308642 0.308642 0.462963 0.462963 0.308642 0.462963 0.462963 0.308642 0.308642 0.462963 0.462963 0.308642 0.462963 0.462963 0.308642 0.308642 0.462963 0.462963 0.308642 0.462963 0.462963 0.308642 0.308642 0.462963 0.462963 0.308642 0.462963 0.462963 0.308642 0.308642 0.462963 0.462963 0.308642 0.462963 0.462963 0.308642 0.308642 0.462963 0.462963 0.308642 0.462963 0.462963 0.308642 0.308643 0.462964 0.462964 0.308642 0.462963 0.462964 0.308642 0.308642 0.462963 0.462964 0.308642 0.462963 0.462963 0.308642 0.308642 0.462964 0.462963 0.308642 0.462963 0.462964 0.308642 0.308642 0.462964 0.462964 0.308643 0.462964 0.462964 0.308642 0.308642 0.462963 0.231482 0.308642 0.231481 0.462963 0.154321 0.308642 0.462963 0.462963 0.308642 0.462963 0.231482 0.154321 0.462963 0.231481 0.308642 0.308642 0.462963 0.462963 0.308642 0.462963 0.462963 0.308642 0.308642 0.462963 0.462963 0.308642 0.462963 0.462963 0.308642 0.308642 0.462963 0.462963 0.308642 0.462963 0.462963 0.308642 0.308642 0.462963 0.462963 0.308642 0.462963 0.462963 0.308642 0.308642 0.462963 0.462963 0.308642 0.462963 0.462963 0.308642 0.308642 0.462964 0.462963 0.308642 0.462963 0.462963 0.308642 0.308642 0.462963 0.462963 0.308642 0.462963 0.462963 0.308642 0.308642 0.462963 0.462963 0.308642 0.462963 0.462963 0.308642 0.308642 0.462963 0.462963 0.308642 0.462963 0.462963 0.308642 0.308642 0.462963 0.462963 0.308642 0.462963 0.462963 0.308642 0.308642 0.462963 0.462963 0.308642 0.462963 0.462963 0.308642 0.308642 0.462963 0.462963 0.308642 0.462963 0.462963 0.308642 0.308643 0.462964 0.462964 0.308642 0.462963 0.462964 0.308642 0.308642 0.462963 0.462964 0.308642 0.462963 0.462963 0.308642 0.308642 0.462964 0.462963 0.308642 0.462963 0.462964 0.308642 0.308642 0.462964 0.462964 0.308642 0.462964 0.462964 0.308642 0.308642 0.462963 0.231481 0.308642 0.231481 0.462963 0.154321 0.308642 0.462963 0.462963 0.308642 0.462963 0.231482 0.154321 0.462963 0.231481 0.308642 0.308642 0.462963 0.462963 0.308642 0.462963 0.462963 0.308642 0.308642 0.462963 0.462963 0.308642 0.462963 0.462963 0.308642 0.308642 0.462963 0.462963 0.308642 0.462963 0.462963 0.308642 0.308642 0.462963 0.462963 0.308642 0.462963 0.462963 0.308642 0.308642 0.462963 0.462963 0.308642 0.462963 0.462963 0.308642 0.308642 0.462964 0.462963 0.308642 0.462963 0.462963 0.308642 0.308642 0.462963 0.462963 0.308642 0.462963 0.462963 0.308642 0.308642 0.462963 0.462963 0.308642 0.462963 0.462963 0.308642 0.308642 0.462963 0.462963 0.308642 0.462963 0.462963 0.308642 0.308642 0.462963 0.462963 0.308642 0.462963 0.462963 0.308642 0.308642 0.462963 0.462963 0.308642 0.462963 0.462963 0.308642 0.308642 0.462963 0.462963 0.308642 0.462963 0.462963 0.308642 0.308643 0.462964 0.462963 0.308643 0.462963 0.462964 0.308642 0.308642 0.462963 0.462963 0.308642 0.462963 0.462963 0.308642 0.308642 0.462964 0.462963 0.308642 0.462963 0.462963 0.308642 0.308642 0.462964 0.462964 0.308643 0.462964 0.462964 0.308643 0.308642 0.462963 0.231482 0.308642 0.231481 0.462963 0.154321 0.308642 0.462963 0.462963 0.308642 0.462963 0.231482 0.154321 0.462963 0.231481 0.308642 0.308642 0.462963 0.462963 0.308642 0.462963 0.462963 0.308642 0.308642 0.462963 0.462963 0.308642 0.462963 0.462963 0.308642 0.308642 0.462963 0.462963 0.308642 0.462963 0.462963 0.308642 0.308642 0.462963 0.462963 0.308642 0.462963 0.462963 0.308642 0.308642 0.462963 0.462963 0.308642 0.462963 0.462963 0.308642 0.308642 0.462963 0.462963 0.308642 0.462963 0.462963 0.308642 0.308642 0.462963 0.462963 0.308642 0.462963 0.462963 0.308642 0.308642 0.462963 0.462963 0.308642 0.462963 0.462963 0.308642 0.308642 0.462963 0.462963 0.308642 0.462963 0.462963 0.308642 0.308642 0.462963 0.462963 0.308642 0.462963 0.462963 0.308642 0.308642 0.462963 0.462963 0.308642 0.462963 0.462963 0.308642 0.308642 0.462963 0.462963 0.308642 0.462963 0.462963 0.308642 0.308643 0.462964 0.462964 0.308642 0.462963 0.462964 0.308642 0.308642 0.462963 0.462964 0.308642 0.462963 0.462963 0.308642 0.308642 0.462964 0.462963 0.308642 0.462963 0.462964 0.308642 0.308642 0.462964 0.462964 0.308642 0.462963 0.462964 0.308642 0.308642 0.462963 0.231482 0.308642 0.231481 0.462963 0.154321 0.154321 0.462963 0.231482 0.308642 0.462963 0.0771605 0.154321 0.231481 0.231481 0.308642 0.154321 0.462963 0.231482 0.308642 0.462963 0.231481 0.308642 0.154321 0.462963 0.231482 0.308642 0.462963 0.231481 0.308642 0.154321 0.462963 0.231482 0.308642 0.462963 0.231482 0.308642 0.154321 0.462963 0.231482 0.308642 0.462963 0.231481 0.308642 0.154321 0.462963 0.231482 0.308642 0.462963 0.231482 0.308642 0.154321 0.462964 0.231482 0.308642 0.462963 0.231482 0.308642 0.154321 0.462963 0.231482 0.308642 0.462963 0.231481 0.308642 0.154321 0.462963 0.231481 0.308642 0.462963 0.231481 0.308642 0.154321 0.462963 0.231482 0.308642 0.462963 0.231481 0.308642 0.154321 0.462963 0.231482 0.308642 0.462963 0.231482 0.308642 0.154321 0.462963 0.231482 0.308642 0.462963 0.231482 0.308642 0.154321 0.462963 0.231482 0.308642 0.462963 0.231482 0.308642 0.154321 0.462964 0.231482 0.308642 0.462963 0.231482 0.308642 0.154321 0.462963 0.231482 0.308642 0.462963 0.231481 0.308642 0.154321 0.462964 0.231481 0.308642 0.462963 0.231482 0.308642 0.154321 0.462964 0.231482 0.308642 0.462964 0.231482 0.308642 0.154321 0.462963 0.154321 0.308642 0.231481 0.231481 0.154321 0.308642 0.462963 0.462963 0.308642 0.462963 0.231482 0.154321 0.154321 0.231482 0.154321 0.462963 0.231482 0.231482 0.308642 0.308642 0.462963 0.462963 0.308642 0.462963 0.231482 0.154321 0.462963 0.231482 0.308642 0.308642 0.462963 0.462963 0.308642 0.462963 0.231482 0.154321 0.462963 0.231482 0.308642 0.308642 0.462963 0.462963 0.308642 0.462963 0.231482 0.154321 0.462963 0.231481 0.308642 0.308642 0.462963 0.462963 0.308642 0.462963 0.231481 0.154321 0.462963 0.231482 0.308642 0.308642 0.462963 0.462963 0.308642 0.462963 0.231482 0.154321 0.462963 0.231482 0.308642 0.308642 0.462963 0.462963 0.308642 0.462963 0.231482 0.154321 0.462963 0.231482 0.308642 0.308642 0.462963 0.462963 0.308642 0.462963 0.231482 0.154321 0.462963 0.231482 0.308642 0.308642 0.462963 0.462963 0.308642 0.462963 0.231481 0.154321 0.462963 0.231481 0.308642 0.308642 0.462963 0.462963 0.308642 0.462963 0.231481 0.154321 0.462963 0.231482 0.308642 0.308642 0.462963 0.462963 0.308642 0.462963 0.231481 0.154321 0.462963 0.231482 0.308642 0.308642 0.462963 0.462963 0.308642 0.462963 0.231481 0.154321 0.462963 0.231482 0.308642 0.308642 0.462963 0.462963 0.308642 0.462963 0.231481 0.154321 0.462963 0.231481 0.308642 0.308643 0.462964 0.462963 0.308643 0.462963 0.231482 0.154321 0.462964 0.231482 0.308642 0.308642 0.462963 0.462963 0.308642 0.462963 0.231481 0.154321 0.462963 0.231482 0.308642 0.308642 0.462963 0.462963 0.308642 0.462963 0.231482 0.154321 0.462964 0.231482 0.308642 0.308642 0.462964 0.462963 0.308643 0.462964 0.231482 0.154321 0.462964 0.231482 0.308642 0.308642 0.462963 0.231481 0.308642 0.231481 0.231481 0.154321 0.462963 0.0771604 0.154321 0.308642 0.462963 0.462963 0.308642 0.462963 0.231482 0.154321 0.462963 0.231482 0.308642 0.308642 0.462963 0.462963 0.308642 0.462963 0.462963 0.308642 0.308642 0.462963 0.462963 0.308642 0.462963 0.462963 0.308642 0.308642 0.462963 0.462963 0.308642 0.462963 0.462963 0.308642 0.308642 0.462963 0.462963 0.308642 0.462963 0.462963 0.308642 0.308642 0.462963 0.462963 0.308642 0.462963 0.462963 0.308642 0.308642 0.462963 0.462963 0.308642 0.462963 0.462963 0.308642 0.308642 0.462963 0.462963 0.308642 0.462963 0.462963 0.308642 0.308642 0.462963 0.462963 0.308642 0.462963 0.462963 0.308642 0.308642 0.462963 0.462963 0.308642 0.462963 0.462963 0.308642 0.308642 0.462963 0.462963 0.308642 0.462963 0.462963 0.308642 0.308642 0.462963 0.462963 0.308642 0.462963 0.462963 0.308642 0.308642 0.462963 0.462963 0.308642 0.462963 0.462963 0.308642 0.308643 0.462964 0.462963 0.308643 0.462963 0.462964 0.308642 0.308642 0.462963 0.462963 0.308642 0.462963 0.462963 0.308642 0.308642 0.462963 0.462963 0.308643 0.462963 0.462964 0.308642 0.308642 0.462964 0.462963 0.308643 0.462964 0.462964 0.308642 0.308642 0.462963 0.231481 0.308642 0.231481 0.462963 0.154321 0.308642 0.462963 0.462963 0.308642 0.462963 0.231482 0.154321 0.462963 0.231481 0.308642 0.308642 0.462963 0.462963 0.308642 0.462963 0.462963 0.308642 0.308642 0.462963 0.462963 0.308642 0.462963 0.462963 0.308642 0.308642 0.462963 0.462963 0.308642 0.462963 0.462963 0.308642 0.308642 0.462963 0.462963 0.308642 0.462963 0.462963 0.308642 0.308642 0.462963 0.462963 0.308642 0.462963 0.462963 0.308642 0.308642 0.462963 0.462963 0.308642 0.462963 0.462963 0.308642 0.308642 0.462963 0.462963 0.308642 0.462963 0.462963 0.308642 0.308642 0.462963 0.462963 0.308642 0.462963 0.462963 0.308642 0.308642 0.462963 0.462963 0.308642 0.462963 0.462963 0.308642 0.308642 0.462963 0.462963 0.308642 0.462963 0.462963 0.308642 0.308642 0.462963 0.462963 0.308642 0.462963 0.462963 0.308642 0.308642 0.462963 0.462963 0.308642 0.462963 0.462963 0.308642 0.308643 0.462964 0.462963 0.308642 0.462963 0.462964 0.308642 0.308642 0.462962 0.462963 0.308642 0.462963 0.462963 0.308642 0.308642 0.462963 0.462963 0.308642 0.462963 0.462964 0.308642 0.308642 0.462964 0.462963 0.308643 0.462964 0.462964 0.308642 0.308642 0.462963 0.231481 0.308642 0.231481 0.462963 0.154321 0.308642 0.462963 0.462963 0.308642 0.462963 0.231481 0.154321 0.462963 0.231482 0.308642 0.308642 0.462963 0.462963 0.308642 0.462963 0.462963 0.308642 0.308642 0.462963 0.462963 0.308642 0.462963 0.462963 0.308642 0.308642 0.462963 0.462963 0.308642 0.462963 0.462963 0.308642 0.308642 0.462963 0.462963 0.308642 0.462963 0.462963 0.308642 0.308642 0.462963 0.462963 0.308642 0.462963 0.462963 0.308642 0.308642 0.462963 0.462963 0.308642 0.462963 0.462963 0.308642 0.308642 0.462963 0.462963 0.308642 0.462963 0.462963 0.308642 0.308642 0.462963 0.462963 0.308642 0.462963 0.462963 0.308642 0.308642 0.462963 0.462963 0.308642 0.462963 0.462963 0.308642 0.308642 0.462963 0.462963 0.308642 0.462963 0.462963 0.308642 0.308642 0.462963 0.462963 0.308642 0.462963 0.462963 0.308642 0.308642 0.462963 0.462963 0.308642 0.462963 0.462963 0.308642 0.308643 0.462964 0.462963 0.308643 0.462963 0.462964 0.308642 0.308642 0.462963 0.462963 0.308642 0.462963 0.462963 0.308642 0.308642 0.462964 0.462963 0.308643 0.462963 0.462963 0.308642 0.308642 0.462964 0.462963 0.308643 0.462964 0.462964 0.308642 0.308642 0.462963 0.231481 0.308642 0.231481 0.462963 0.154321 0.308642 0.462963 0.462963 0.308642 0.462963 0.231481 0.154321 0.462963 0.231481 0.308642 0.308642 0.462963 0.462963 0.308642 0.462963 0.462963 0.308642 0.308642 0.462963 0.462963 0.308642 0.462963 0.462963 0.308642 0.308642 0.462963 0.462963 0.308642 0.462963 0.462963 0.308642 0.308642 0.462963 0.462963 0.308642 0.462963 0.462963 0.308642 0.308642 0.462963 0.462963 0.308642 0.462963 0.462963 0.308642 0.308642 0.462963 0.462963 0.308642 0.462963 0.462963 0.308642 0.308642 0.462963 0.462963 0.308642 0.462963 0.462963 0.308642 0.308642 0.462963 0.462963 0.308642 0.462963 0.462963 0.308642 0.308642 0.462963 0.462963 0.308642 0.462963 0.462963 0.308642 0.308642 0.462963 0.462963 0.308642 0.462963 0.462963 0.308642 0.308642 0.462963 0.462963 0.308642 0.462963 0.462963 0.308642 0.308642 0.462963 0.462963 0.308642 0.462963 0.462963 0.308642 0.308643 0.462964 0.462963 0.308642 0.462963 0.462964 0.308642 0.308642 0.462962 0.462963 0.308642 0.462963 0.462963 0.308642 0.308642 0.462963 0.462963 0.308642 0.462963 0.462964 0.308642 0.308642 0.462963 0.462963 0.308642 0.462964 0.462964 0.308642 0.308642 0.462963 0.231481 0.308642 0.231481 0.462963 0.154321 0.154321 0.462963 0.231481 0.308642 0.462963 0.0771605 0.154321 0.231481 0.231481 0.308642 0.154321 0.462963 0.231481 0.308642 0.462963 0.231481 0.308642 0.154321 0.462963 0.231481 0.308642 0.462963 0.231481 0.308642 0.154321 0.462963 0.231481 0.308642 0.462963 0.231482 0.308642 0.154321 0.462963 0.231481 0.308642 0.462963 0.231481 0.308642 0.154321 0.462963 0.231482 0.308642 0.462963 0.231482 0.308642 0.154321 0.462963 0.231482 0.308642 0.462963 0.231482 0.308642 0.154321 0.462963 0.231482 0.308642 0.462963 0.231481 0.308642 0.154321 0.462963 0.231481 0.308642 0.462963 0.231481 0.308642 0.154321 0.462963 0.231481 0.308642 0.462963 0.231481 0.308642 0.154321 0.462963 0.231481 0.308642 0.462963 0.231482 0.308642 0.154321 0.462963 0.231482 0.308642 0.462963 0.231482 0.308642 0.154321 0.462963 0.231482 0.308642 0.462963 0.231482 0.308642 0.154321 0.462964 0.231482 0.308642 0.462963 0.231482 0.308642 0.154321 0.462963 0.231481 0.308642 0.462963 0.231481 0.308642 0.154321 0.462963 0.231481 0.308642 0.462963 0.231482 0.308642 0.154321 0.462964 0.231482 0.308642 0.462964 0.231482 0.308642 0.154321 0.462963 0.154321 0.308642 0.231481 0.231481 0.154321 0.308642 0.462963 0.462963 0.154321 0.231481 0.0771605 0.154321 0.154321 0.231482 0.154321 0.231481 0.0771605 0.231481 0.308642 0.308642 0.462963 0.462963 0.154321 0.231481 0.0771605 0.154321 0.231481 0.231481 0.308642 0.308642 0.462963 0.462963 0.154321 0.231481 0.0771605 0.154321 0.231481 0.231481 0.308642 0.308642 0.462963 0.462963 0.154321 0.231481 0.0771605 0.154321 0.231482 0.231481 0.308642 0.308642 0.462963 0.462963 0.154321 0.231481 0.0771605 0.154321 0.231481 0.231481 0.308642 0.308642 0.462963 0.462963 0.154321 0.231481 0.0771605 0.154321 0.231481 0.231482 0.308642 0.308642 0.462963 0.462963 0.154321 0.231481 0.0771605 0.154321 0.231482 0.231481 0.308642 0.308642 0.462963 0.462963 0.154321 0.231482 0.0771605 0.154321 0.231481 0.231481 0.308642 0.308642 0.462963 0.462963 0.154321 0.231481 0.0771604 0.154321 0.231481 0.231481 0.308642 0.308642 0.462963 0.462963 0.154321 0.231481 0.0771605 0.154321 0.231481 0.231481 0.308642 0.308642 0.462963 0.462963 0.154321 0.231481 0.0771605 0.154321 0.231482 0.231482 0.308642 0.308642 0.462963 0.462963 0.154321 0.231481 0.0771605 0.154321 0.231482 0.231481 0.308642 0.308642 0.462963 0.462963 0.154321 0.231481 0.0771605 0.154321 0.231482 0.231481 0.308642 0.308643 0.462964 0.462963 0.154321 0.231482 0.0771607 0.154321 0.231482 0.231481 0.308642 0.308642 0.462963 0.462963 0.154321 0.231482 0.0771604 0.154321 0.231481 0.231482 0.308642 0.308642 0.462964 0.462963 0.154321 0.231482 0.0771606 0.154321 0.231482 0.231482 0.308642 0.308642 0.462964 0.462963 0.154321 0.231482 0.0771606 0.154321 0.231482 0.231482 0.308642 0.308642 0.462963 0.231481 0.154321 0.154321 0.0771606 0.154321 0.231481 0.0771604 0.154321 0.308642 0.462963 0.462963 0.154321 0.231481 0.231482 0.154321 0.231482 0.0771605 0.308642 0.308642 0.462963 0.462963 0.154321 0.231481 0.231482 0.308642 0.308642 0.462963 0.462963 0.154321 0.231481 0.231482 0.308642 0.308642 0.462963 0.462963 0.154321 0.231481 0.231482 0.308642 0.308642 0.462963 0.462963 0.154321 0.231481 0.231481 0.308642 0.308642 0.462963 0.462963 0.154321 0.231481 0.231482 0.308642 0.308642 0.462963 0.462963 0.154321 0.231482 0.231482 0.308642 0.308642 0.462963 0.462963 0.154321 0.231482 0.231481 0.308642 0.308642 0.462963 0.462963 0.154321 0.231481 0.231481 0.308642 0.308642 0.462963 0.462963 0.154321 0.231481 0.231481 0.308642 0.308642 0.462963 0.462963 0.154321 0.231481 0.231482 0.308642 0.308642 0.462963 0.462963 0.154321 0.231481 0.231482 0.308642 0.308642 0.462963 0.462963 0.154321 0.231481 0.231482 0.308642 0.308643 0.462964 0.462963 0.154321 0.231482 0.231482 0.308642 0.308642 0.462963 0.462963 0.154321 0.231482 0.231481 0.308642 0.308642 0.462964 0.462963 0.154321 0.231482 0.231482 0.308642 0.308642 0.462964 0.462964 0.154321 0.231482 0.231482 0.308642 0.308642 0.462963 0.231481 0.154321 0.154321 0.231481 0.154321 0.308642 0.462963 0.462963 0.154321 0.231481 0.231482 0.154321 0.231481 0.0771605 0.308642 0.308642 0.462963 0.462963 0.154321 0.231481 0.231481 0.308642 0.308642 0.462963 0.462963 0.154321 0.231481 0.231481 0.308642 0.308642 0.462963 0.462963 0.154321 0.231481 0.231482 0.308642 0.308642 0.462963 0.462963 0.154321 0.231481 0.231481 0.308642 0.308642 0.462963 0.462963 0.154321 0.231481 0.231481 0.308642 0.308642 0.462963 0.462963 0.154321 0.231481 0.231482 0.308642 0.308642 0.462963 0.462963 0.154321 0.231481 0.231481 0.308642 0.308642 0.462963 0.462963 0.154321 0.231481 0.231481 0.308642 0.308642 0.462963 0.462963 0.154321 0.231481 0.231481 0.308642 0.308642 0.462963 0.462963 0.154321 0.231481 0.231482 0.308642 0.308642 0.462963 0.462963 0.154321 0.231481 0.231482 0.308642 0.308642 0.462963 0.462963 0.154321 0.231481 0.231482 0.308642 0.308643 0.462964 0.462963 0.154321 0.231482 0.231482 0.308642 0.308642 0.462963 0.462963 0.154321 0.231482 0.231481 0.308642 0.308642 0.462963 0.462963 0.154321 0.231482 0.231482 0.308642 0.308642 0.462964 0.462964 0.154321 0.231482 0.231482 0.308642 0.308642 0.462963 0.231481 0.154321 0.154321 0.231481 0.154321 0.308642 0.462963 0.462963 0.154321 0.231482 0.231481 0.154321 0.231481 0.0771605 0.308642 0.308642 0.462963 0.462963 0.154321 0.231482 0.231481 0.308642 0.308642 0.462963 0.462963 0.154321 0.231482 0.231481 0.308642 0.308642 0.462963 0.462963 0.154321 0.231481 0.231481 0.308642 0.308642 0.462963 0.462963 0.154321 0.231482 0.231481 0.308642 0.308642 0.462963 0.462963 0.154321 0.231482 0.231481 0.308642 0.308642 0.462963 0.462963 0.154321 0.231482 0.231482 0.308642 0.308642 0.462963 0.462963 0.154321 0.231482 0.231481 0.308642 0.308642 0.462963 0.462963 0.154321 0.231481 0.231481 0.308642 0.308642 0.462963 0.462963 0.154321 0.231482 0.231481 0.308642 0.308642 0.462963 0.462963 0.154321 0.231482 0.231482 0.308642 0.308642 0.462963 0.462963 0.154321 0.231482 0.231482 0.308642 0.308642 0.462963 0.462963 0.154321 0.231481 0.231482 0.308642 0.308643 0.462964 0.462963 0.154321 0.231482 0.231482 0.308642 0.308642 0.462963 0.462963 0.154321 0.231482 0.231481 0.308642 0.308642 0.462964 0.462963 0.154321 0.231482 0.231482 0.308642 0.308642 0.462964 0.462963 0.154321 0.231482 0.231482 0.308642 0.308642 0.462963 0.231481 0.154321 0.154321 0.231481 0.154321 0.308642 0.462963 0.462963 0.154321 0.231481 0.231481 0.154321 0.231481 0.0771605 0.308642 0.308642 0.462963 0.462963 0.154321 0.231481 0.231481 0.308642 0.308642 0.462963 0.462963 0.154321 0.231481 0.231481 0.308642 0.308642 0.462963 0.462963 0.154321 0.231481 0.231482 0.308642 0.308642 0.462963 0.462963 0.154321 0.231481 0.231481 0.308642 0.308642 0.462963 0.462963 0.154321 0.231481 0.231481 0.308642 0.308642 0.462963 0.462963 0.154321 0.231481 0.231482 0.308642 0.308642 0.462963 0.462963 0.154321 0.231481 0.231481 0.308642 0.308642 0.462963 0.462963 0.154321 0.231481 0.231481 0.308642 0.308642 0.462963 0.462963 0.154321 0.231481 0.231481 0.308642 0.308642 0.462963 0.462963 0.154321 0.231481 0.231482 0.308642 0.308642 0.462963 0.462963 0.154321 0.231481 0.231482 0.308642 0.308642 0.462963 0.462963 0.154321 0.231481 0.231482 0.308642 0.308643 0.462964 0.462963 0.154321 0.231482 0.231482 0.308642 0.308642 0.462963 0.462963 0.154321 0.231481 0.231481 0.308642 0.308642 0.462963 0.462963 0.154321 0.231481 0.231482 0.308642 0.308642 0.462964 0.462963 0.154321 0.231482 0.231482 0.308642 0.308642 0.462963 0.231481 0.154321 0.154321 0.231481 0.154321 0.154321 0.462963 0.231482 0.154321 0.231481 0.0771605 0.154321 0.154321 0.0771605 0.308642 0.154321 0.462963 0.231482 0.154321 0.231481 0.154321 0.308642 0.154321 0.462963 0.231482 0.154321 0.231481 0.154321 0.308642 0.154321 0.462963 0.231482 0.154321 0.231481 0.154321 0.308642 0.154321 0.462963 0.231482 0.154321 0.231481 0.154321 0.308642 0.154321 0.462963 0.231482 0.154321 0.231481 0.154321 0.308642 0.154321 0.462963 0.231482 0.154321 0.231481 0.154321 0.308642 0.154321 0.462963 0.231482 0.154321 0.231481 0.154321 0.308642 0.154321 0.462963 0.231481 0.154321 0.231481 0.154321 0.308642 0.154321 0.462963 0.231482 0.154321 0.231481 0.154321 0.308642 0.154321 0.462963 0.231482 0.154321 0.231481 0.154321 0.308642 0.154321 0.462963 0.231482 0.154321 0.231481 0.154321 0.308642 0.154321 0.462963 0.231482 0.154321 0.231481 0.154321 0.308642 0.154321 0.462964 0.231482 0.154321 0.231482 0.154321 0.308642 0.154321 0.462963 0.231482 0.154321 0.231482 0.154321 0.308642 0.154321 0.462964 0.231481 0.154321 0.231482 0.154321 0.308642 0.154321 0.462964 0.231482 0.154321 0.231482 0.154321 0.308642 0.154321 0.462963 0.154321 0.154321 0.154321 0.154321 0.154321 
VECTORS u float
0 0 0  0.0167367 0.199541 -0.102562  0.00762886 0.427816 -0.164629  0.00284958 0.662865 -0.147221  0.000965476 0.876512 -0.0505094  0.000273764 1.04335 0.11358  8.10623e-06 1.14337 0.324875  -0.000105619 1.16459 0.557529  -0.000118971 1.10458 0.783165  -8.34465e-07 0.970768 0.974306  0.000273824 0.779517 1.1077  0.00067246 0.554141 1.16713  0.001055 0.322064 1.14533  0.00112796 0.111519 1.04481  0.000331402 -0.051801 0.877497  -0.00255489 -0.147775 0.663166  -0.0106671 -0.163924 0.426764  -0.0266247 -0.1002 0.19545  0 -3.57628e-07 -3.8743e-07  0 1.49012e-08 0  -0.029153 0.162033 -0.0661812  -0.0400289 0.361538 -0.0858939  -0.0439022 0.561129 -0.0390279  -0.0451301 0.732937 0.0733332  -0.0455004 0.855527 0.237795  -0.0456166 0.914012 0.434234  -0.0456474 0.901401 0.638668  -0.0455997 0.819351 0.826184  -0.0454423 0.677955 0.973969  -0.0451671 0.494493 1.06406  -0.0448253 0.291325 1.08551  -0.0445517 0.0931927 1.03566  -0.0445876 -0.075709 0.92043  -0.0453486 -0.19454 0.753675  -0.0475335 -0.248304 0.555487  -0.0506964 -0.229726 0.348764  -0.0430598 -0.140354 0.155655  0 -2.23517e-07 -3.8743e-07  0 0 0  -0.0267759 0.163547 -0.023833  -0.0358034 0.333812 0.00601144  -0.0380947 0.490733 0.0931672  -0.0385559 0.610516 0.230117  -0.0386186 0.676341 0.400239  -0.0386107 0.679681 0.582539  -0.0385766 0.620177 0.754706  -0.0384853 0.505217 0.895786  -0.0383047 0.348897 0.988654  -0.0380386 0.170298 1.02205  -0.0377377 -0.00881603 0.991912  -0.0374961 -0.16659 0.901837  -0.0374453 -0.283648 0.762664  -0.0377166 -0.345434 0.591227  -0.0379987 -0.344198 0.408132  -0.0355821 -0.280168 0.234671  -0.0225112 -0.161807 0.0920042  0 -8.9407e-08 -3.8743e-07  0 0 0  -0.00415966 0.168637 0.0313982  -0.00248927 0.311686 0.115884  -0.00105506 0.422375 0.247017  -0.000555158 0.483223 0.409206  -0.000457346 0.48499 0.582345  -0.000453055 0.427173 0.745213  -0.00042665 0.316972 0.878001  -0.000323176 0.167979 0.964646  -0.000125527 -0.0015792 0.994705  0.000146389 -0.171037 0.964574  0.000445008 -0.319745 0.877902  0.000708818 -0.42952 0.745163  0.000878811 -0.486814 0.582431  0.000967979 -0.484494 0.409499  0.00131273 -0.42315 0.247415  0.0027411 -0.311902 0.115829  0.00471091 -0.167671 0.0300462  0 0 -3.27826e-07  0 0 0  0.0247943 0.162358 0.0944239  0.0364988 0.279388 0.23452  0.0391259 0.342864 0.407902  0.0390393 0.343243 0.591295  0.0386508 0.280695 0.762687  0.0384203 0.163139 0.901596  0.0383747 0.00514084 0.991335  0.0384883 -0.173914 1.02115  0.0387241 -0.352179 0.987545  0.0390291 -0.50795 0.894642  0.0393418 -0.622247 0.753737  0.0395942 -0.681081 0.58192  0.0397005 -0.677148 0.400064  0.0395212 -0.61084 0.230346  0.0386353 -0.49059 0.0935923  0.0352147 -0.333089 0.00654398  0.0228169 -0.163243 -0.0232668  0 1.19209e-07 -3.27826e-07  0 0 0  0.04374 0.139497 0.157157  0.0516831 0.228895 0.348296  0.0491845 0.246327 0.555628  0.0469525 0.191533 0.753809  0.0458263 0.0720935 0.920153  0.0453808 -0.0970934 1.03488  0.0453247 -0.29521 1.08426  0.0454992 -0.498047 1.06244  0.0458013 -0.680901 0.972188  0.0461421 -0.821521 0.824525  0.0464343 -0.902765 0.637405  0.0465765 -0.914666 0.433563  0.046416 -0.855627 0.237768  0.0456462 -0.732626 0.0738171  0.0434432 -0.56036 -0.038361  0.0370495 -0.35996 -0.0852419  0.0203111 -0.161992 -0.0651429  0 2.38419e-07 -3.27826e-07  0 0 0  0.0257035 0.0979867 0.192186  0.0118288 0.162329 0.426812  0.00415421 0.145191 0.662764  0.000992835 0.048808 0.876539  -0.000285208 -0.114698 1.04342  -0.000692248 -0.32522 1.1436  -0.00065434 -0.557043 1.16518  -0.000379682 -0.78194 1.10572  1.43051e-06 -0.972562 0.972556  0.000383615 -1.10572 0.781934  0.00065887 -1.16518 0.557038  0.000697374 -1.1436 0.325215  0.00028944 -1.04342 0.114694  -0.000988483 -0.87654 -0.0488116  -0.00415015 -0.662765 -0.145193  -0.0118263 -0.426812 -0.162331  -0.025702 -0.192183 -0.0979869  0 3.57628e-07 -3.27826e-07  0 0 -1.49012e-08  0.0436188 0.156893 -0.142514  0.049913 0.34882 -0.230642  0.0480793 0.554724 -0.247444  0.0468539 0.752269 -0.192622  0.0463584 0.918381 -0.0730954  0.0461597 1.033 0.0963111  0.046061 1.08228 0.294738  0.0460275 1.06036 0.497909  0.0460929 0.970017 0.681051  0.0462922 0.822327 0.821877  0.0466181 0.635299 0.903256  0.0469873 0.431684 0.915261  0.047194 0.236227 0.856334  0.0468457 0.0726972 0.733444  0.045121 -0.0389486 0.56133  0.0395918 -0.0854614 0.361236  0.0234323 -0.0649159 0.160374  0 -3.57628e-07 -2.5332e-07  0 1.49012e-08 -1.49012e-08  0.00423658 0.12682 -0.0880018  0.00211549 0.284363 -0.132647  0.000743449 0.447936 -0.12036  0.000337303 0.597449 -0.0528879  0.000281394 0.714584 0.0620892  0.000277281 0.784906 0.210447  0.000271916 0.799874 0.373919  0.000296712 0.757763 0.53249  0.000394225 0.6638 0.666828  0.000584245 0.529492 0.760588  0.000847578 0.371226 0.802366  0.00111914 0.208292 0.787044  0.00128913 0.0605921 0.716404  0.00120163 -0.0537106 0.598969  0.000527382 -0.120441 0.4491  -0.00138187 -0.131577 0.28502  -0.00324416 -0.0869687 0.126301  0 -2.23517e-07 -2.5332e-07  0 0 -1.49012e-08  -0.00430503 0.115469 -0.0331204  -0.00789616 0.240236 -0.0279941  -0.00850365 0.357991 0.0191302  -0.00795412 0.45414 0.104371  -0.0075171 0.5156 0.217921  -0.00732982 0.534254 0.345788  -0.00726318 0.507785 0.472205  -0.00720632 0.439527 0.581712  -0.00710154 0.337888 0.660984  -0.00693464 0.215301 0.700391  -0.00671911 0.0867387 0.695131  -0.00647593 -0.0320748 0.645806  -0.00620365 -0.126537 0.558368  -0.00585938 -0.184981 0.44344  -0.00535369 -0.200298 0.314931  -0.00436997 -0.171225 0.187912  -0.00177908 -0.102329 0.0769401  0 -8.9407e-08 -2.5332e-07  0 0 -1.49012e-08  -0.00360212 0.10985 0.0225855  -0.00335783 0.204577 0.0807231  -0.00180876 0.276526 0.167206  -0.000635505 0.316425 0.273445  -9.52482e-05 0.317883 0.387064  8.72612e-05 0.280219 0.494137  0.000154972 0.208062 0.581558  0.000230432 0.110335 0.638704  0.000354528 -0.000974 0.658672  0.000522375 -0.112264 0.639064  0.000715256 -0.209938 0.582261  0.000931263 -0.282012 0.495149  0.00121808 -0.319587 0.38833  0.00168729 -0.318076 0.274846  0.00244141 -0.278144 0.168421  0.00328326 -0.205918 0.0813405  0.00303745 -0.110961 0.0228853  0 0 -2.5332e-07  0 0 -1.49012e-08  0.00133 0.102228 0.0765618  0.00482696 0.170713 0.186931  0.00660795 0.199648 0.3138  0.00716949 0.184151 0.442681  0.00729448 0.125322 0.558041  0.00732136 0.0303921 0.645816  0.00737476 -0.0888579 0.695379  0.00749445 -0.21776 0.7008  0.00767267 -0.340558 0.661506  0.0078758 -0.442282 0.582318  0.00806773 -0.510511 0.472872  0.00823116 -0.536853 0.34648  0.00838757 -0.517987 0.218571  0.00856924 -0.456216 0.104872  0.0086205 -0.359573 0.0194068  0.00769591 -0.241215 -0.0278299  0.00409603 -0.116578 -0.0331782  0 1.19209e-07 -2.5332e-07  0 0 -1.49012e-08  0.00353144 0.0882047 0.126034  0.0030213 0.132655 0.283769  0.0012005 0.12143 0.44884  9.39369e-05 0.0539605 0.59971  -0.000376463 -0.0613723 0.717775  -0.000509858 -0.210161 0.788719  -0.000445127 -0.374086 0.804051  -0.000254512 -0.533123 0.762046  1.07288e-06 -0.667911 0.667905  0.000256538 -0.762051 0.533116  0.000447989 -0.804055 0.37408  0.000513077 -0.788722 0.210156  0.000379562 -0.717776 0.0613676  -9.08375e-05 -0.599711 -0.0539639  -0.00119829 -0.448841 -0.121433  -0.00302005 -0.283769 -0.132656  -0.00353098 -0.126034 -0.0882059  0 2.38419e-07 -2.5332e-07  0 0 -1.49012e-08  -0.02031 0.0651416 0.161992  -0.0370471 0.0852399 0.359961  -0.0434397 0.0383583 0.56036  -0.0456427 -0.0738204 0.732625  -0.046412 -0.237772 0.855626  -0.0465725 -0.433568 0.914663  -0.0464307 -0.637411 0.902762  -0.0461391 -0.824531 0.821516  -0.0457983 -0.972194 0.680895  -0.0454961 -1.06244 0.49804  -0.0453205 -1.08426 0.295204  -0.0453765 -1.03488 0.0970879  -0.0458221 -0.920156 -0.0720976  -0.0469487 -0.75381 -0.191537  -0.0491819 -0.555629 -0.246329  -0.0516818 -0.348296 -0.228897  -0.0437398 -0.157157 -0.139498  0 3.57628e-07 -2.23517e-07  0 0 0  0.0244747 0.0922637 -0.164071  0.0364613 0.234035 -0.280872  0.0389002 0.407051 -0.343959  0.0390581 0.589675 -0.34425  0.0390698 0.760653 -0.281742  0.0390816 0.899414 -0.164131  0.0390588 0.98913 -0.0059579  0.0390278 1.01898 0.173354  0.0390503 0.985431 0.351905  0.0391824 0.892639 0.507949  0.0394481 0.75192 0.622494  0.039814 0.580382 0.68156  0.0401547 0.398881 0.677853  0.0402355 0.229542 0.611732  0.0396936 0.093188 0.491618  0.0370429 0.00657822 0.334618  0.0257185 -0.0230078 0.165143  0 -3.57628e-07 -1.49012e-07  0 1.49012e-08 0  0.00287279 0.0770906 -0.103147  0.00471571 0.186751 -0.172055  0.00627279 0.313554 -0.200721  0.00704843 0.441746 -0.184671  0.00747168 0.556436 -0.125564  0.00767291 0.643695 -0.0304617  0.00774539 0.692856 0.0889183  0.00777793 0.697983 0.217896  0.0078392 0.658527 0.340705  0.00796771 0.57935 0.442382  0.00817645 0.47011 0.510543  0.00845957 0.344114 0.536837  0.00881219 0.216747 0.517971  0.00926065 0.10364 0.456241  0.00973845 0.0186872 0.359651  0.00918436 -0.0280592 0.241366  0.00498176 -0.0325332 0.116865  0 -2.23517e-07 -1.49012e-07  0 0 0  -0.00222059 0.0645593 -0.0446751  -0.00332266 0.142387 -0.0655844  -0.00250155 0.223239 -0.0591944  -0.00133216 0.297383 -0.0255558  -0.000490665 0.355722 0.0316668  -6.4373e-05 0.390874 0.105595  0.000108719 0.39846 0.187125  0.000186443 0.377599 0.266247  0.000261188 0.330892 0.333302  0.000376225 0.264076 0.380126  0.000558019 0.185317 0.40101  0.000849009 0.104251 0.393375  0.00133538 0.0308254 0.358113  0.00212455 -0.0259327 0.299554  0.00315309 -0.0591781 0.225018  0.00375962 -0.0653003 0.143745  0.0028379 -0.0443657 0.0652519  0 -1.19209e-07 -1.19209e-07  0 0 0  -0.00339779 0.0545692 0.0110893  -0.00409827 0.10253 0.0398805  -0.00303671 0.138697 0.0834184  -0.00169182 0.158595 0.136904  -0.000773668 0.159246 0.194124  -0.000303149 0.140254 0.248083  -9.2864e-05 0.103916 0.292147  1.78814e-05 0.054729 0.320947  0.000114799 -0.0012587 0.331004  0.000231981 -0.0571908 0.321116  0.000396848 -0.106219 0.292491  0.000671625 -0.142316 0.248617  0.00117922 -0.161021 0.194853  0.00205779 -0.160062 0.137786  0.00324917 -0.139782 0.0843116  0.00411773 -0.103126 0.0405743  0.00337839 -0.054839 0.0112161  0 0 -1.19209e-07  0 0 0  -0.00280708 0.0444472 0.0649279  -0.00327146 0.0646873 0.143037  -0.00244534 0.0581229 0.224183  -0.00147241 0.0245959 0.298788  -0.000820041 -0.0324759 0.357513  -0.000470221 -0.106228 0.392957  -0.000278592 -0.187569 0.400761  -0.000136614 -0.266503 0.380037  3.57628e-07 -0.333383 0.333376  0.000137448 -0.380043 0.266497  0.000279784 -0.400765 0.187562  0.000471354 -0.392959 0.106223  0.000820875 -0.357515 0.0324709  0.00147343 -0.298789 -0.0245995  0.00244617 -0.224183 -0.0581257  0.00327182 -0.143037 -0.0646892  0.00280738 -0.0649273 -0.0444474  0 1.19209e-07 -1.19209e-07  0 0 0  -0.00409552 0.0331777 0.116578  -0.00769454 0.0278283 0.241216  -0.00861853 -0.0194092 0.359573  -0.00856704 -0.104876 0.456215  -0.00838548 -0.218575 0.517985  -0.00822896 -0.346485 0.536851  -0.0080657 -0.472878 0.510507  -0.00787449 -0.582324 0.442277  -0.00767124 -0.661512 0.340552  -0.00749302 -0.700805 0.217754  -0.00737298 -0.695383 0.0888517  -0.00731945 -0.645819 -0.0303973  -0.00729275 -0.558043 -0.125326  -0.00716782 -0.442682 -0.184155  -0.00660682 -0.313801 -0.199651  -0.00482655 -0.186931 -0.170714  -0.0013299 -0.0765613 -0.102228  0 2.38419e-07 -8.9407e-08  0 0 0  -0.0228156 0.0232657 0.163244  -0.0352125 -0.0065462 0.333089  -0.0386321 -0.093595 0.49059  -0.0395177 -0.230348 0.610838  -0.0396974 -0.400068 0.677146  -0.0395908 -0.581925 0.681078  -0.0393393 -0.753743 0.622243  -0.0390271 -0.894649 0.507945  -0.0387219 -0.98755 0.352173  -0.0384859 -1.02116 0.173908  -0.0383713 -0.991339 -0.0051465  -0.0384171 -0.901599 -0.163144  -0.0386481 -0.762689 -0.280701  -0.039037 -0.591296 -0.343246  -0.0391243 -0.407903 -0.342867  -0.0364981 -0.23452 -0.27939  -0.0247941 -0.0944229 -0.162357  0 3.57628e-07 -8.9407e-08  0 0 0  -0.00482625 0.0295067 -0.169631  -0.00205976 0.114743 -0.31253  3.51667e-05 0.24593 -0.423079  0.000695288 0.407651 -0.483809  0.000983417 0.580227 -0.485594  0.00116718 0.742722 -0.42785  0.00124228 0.875347 -0.317686  0.0012424 0.961995 -0.168656  0.0012418 0.992184 0.00101334  0.00131464 0.962281 0.170644  0.00150788 0.875926 0.319573  0.00182557 0.74358 0.429604  0.00220942 0.581319 0.487184  0.00254893 0.408953 0.485138  0.00296164 0.247495 0.423972  0.00437903 0.116496 0.313052  0.00609684 0.0311367 0.170979  0 -3.57628e-07 0  0 1.49012e-08 0  -0.00269707 0.0231567 -0.111547  -0.00384507 0.0802307 -0.206013  -0.00251308 0.16691 -0.278249  -0.00126261 0.27316 -0.317818  -0.000567496 0.386461 -0.318745  -0.000229716 0.493128 -0.280551  -8.76188e-05 0.580128 -0.207908  -3.52859e-05 0.63687 -0.109771  3.33786e-06 0.656481 0.00184739  8.16584e-05 0.636601 0.113334  0.000237346 0.579642 0.211091  0.000504494 0.492515 0.28314  0.00092864 0.385844 0.320582  0.00159144 0.272685 0.318831  0.00264359 0.166688 0.278563  0.00398111 0.080023 0.206  0.00344825 0.0224377 0.111159  0 -2.23517e-07 0  0 0 0  -0.00312021 0.0110894 -0.0551657  -0.00421596 0.0392083 -0.103271  -0.00329441 0.0824358 -0.139808  -0.00189805 0.135645 -0.159739  -0.000869393 0.192542 -0.160226  -0.000308752 0.246212 -0.141013  -5.72205e-05 0.290061 -0.104438  4.6134e-05 0.318731 -0.0550076  0.000106454 0.328745 0.00122452  0.000185609 0.318901 0.0574006  0.000337839 0.290403 0.106666  0.000644445 0.246724 0.142982  0.00123143 0.193209 0.161868  0.00222492 0.136425 0.161033  0.00354004 0.0832345 0.140795  0.00445056 0.0398007 0.103994  0.00341368 0.0111076 0.0552436  0 -1.19209e-07 0  0 0 0  -0.0036332 -0.000201911 -9.4831e-05  -0.00462487 -0.000729769 -8.32081e-05  -0.00367403 -0.00103381 -6.94394e-06  -0.00224477 -0.00119644 0.000158966  -0.0011518 -0.00127551 0.000380039  -0.00052917 -0.00130805 0.000613034  -0.000228047 -0.00130031 0.000828624  -8.57115e-05 -0.00125098 0.00101018  -4.76837e-07 -0.00115594 0.00114989  8.47578e-05 -0.0010159 0.00124419  0.000227451 -0.000832707 0.00129396  0.000528336 -0.000616163 0.00130159  0.00115085 -0.0003815 0.00127029  0.00224447 -0.000159711 0.00119275  0.00367379 7.09295e-06 0.00103116  0.00462484 8.36253e-05 0.000728488  0.00363326 9.54866e-05 0.000201523  0 0 0  0 0 0  -0.00337817 -0.0112165 0.0548393  -0.00411722 -0.0405756 0.103126  -0.00324827 -0.0843139 0.139783  -0.00205702 -0.13779 0.160062  -0.00117886 -0.194858 0.161019  -0.000671148 -0.248622 0.142313  -0.000396609 -0.292497 0.106215  -0.000231862 -0.321122 0.0571856  -0.000114679 -0.331011 0.00125241  -1.77622e-05 -0.320953 -0.0547354  9.32217e-05 -0.292151 -0.103923  0.000303268 -0.248086 -0.14026  0.00077343 -0.194126 -0.159251  0.00169182 -0.136905 -0.158599  0.00303674 -0.0834188 -0.138699  0.00409794 -0.0398802 -0.102531  0.0033977 -0.011089 -0.0545696  0 1.19209e-07 0  0 0 0  -0.00303712 -0.0228862 0.110961  -0.00328219 -0.0813417 0.205918  -0.00244004 -0.168423 0.278144  -0.00168586 -0.274849 0.318075  -0.00121689 -0.388334 0.319585  -0.000930071 -0.495154 0.28201  -0.000714302 -0.582267 0.209934  -0.000521779 -0.639071 0.11226  -0.000353813 -0.658679 0.000968099  -0.000229597 -0.63871 -0.110341  -0.00015378 -0.581562 -0.208068  -8.64267e-05 -0.494141 -0.280225  9.56059e-05 -0.387066 -0.317888  0.000635862 -0.273446 -0.316428  0.00180888 -0.167207 -0.276529  0.00335765 -0.0807229 -0.204578  0.00360203 -0.0225853 -0.10985  0 2.38419e-07 0  0 0 0  -0.0047098 -0.030048 0.16767  -0.00273937 -0.11583 0.311902  -0.00131056 -0.247417 0.423149  -0.000965357 -0.409502 0.484492  -0.000877142 -0.582435 0.486813  -0.000706732 -0.745168 0.429517  -0.000443578 -0.877908 0.319741  -0.000145555 -0.964579 0.171032  0.0001266 -0.99471 0.0015732  0.000324726 -0.964652 -0.167985  0.000428677 -0.878005 -0.316978  0.000454903 -0.745216 -0.427179  0.000458717 -0.582348 -0.484995  0.000556469 -0.409207 -0.483226  0.00105572 -0.247018 -0.422377  0.00248933 -0.115884 -0.311686  0.00415969 -0.0313986 -0.168637  0 3.57628e-07 0  0 0 0  -0.0273698 -0.0250236 -0.163687  -0.0356955 0.00507276 -0.334228  -0.037579 0.0922052 -0.491109  -0.0377827 0.228835 -0.610761  -0.0376234 0.398424 -0.676482  -0.0374076 0.580191 -0.679828  -0.0372748 0.751984 -0.620401  -0.0372449 0.892892 -0.505519  -0.0372559 0.985777 -0.349227  -0.0372256 1.01934 -0.170588  -0.0370958 0.989472 0.0086242  -0.0368569 0.899758 0.166539  -0.0365729 0.761025 0.283778  -0.036387 0.590127 0.34578  -0.0362971 0.407819 0.3448  -0.0344076 0.235272 0.280953  -0.0232034 0.0930258 0.164401  0 -3.57628e-07 1.19209e-07  0 1.49012e-08 0  -0.00445861 -0.0330601 -0.116452  -0.00878584 -0.0288765 -0.240934  -0.00949836 0.0179709 -0.359135  -0.00890243 0.103239 -0.455469  -0.00834173 0.216692 -0.516732  -0.0080021 0.344348 -0.535069  -0.00782847 0.470554 -0.508269  -0.00775993 0.579908 -0.439678  -0.00773525 0.65909 -0.337696  -0.00769484 0.698454 -0.214767  -0.00758433 0.693182 -0.0858868  -0.00736117 0.643871 0.0331807  -0.00699139 0.556491 0.127801  -0.00647116 0.441703 0.186295  -0.00584149 0.313444 0.201609  -0.0047791 0.18647 0.172396  -0.00205946 0.0753658 0.103073  0 -2.23517e-07 1.19209e-07  0 0 0  -0.00268461 -0.0445413 -0.0647696  -0.00357813 -0.0661926 -0.142785  -0.00299677 -0.0601695 -0.223883  -0.00185174 -0.0268102 -0.298161  -0.000947416 0.0300865 -0.356422  -0.000421345 0.103681 -0.391413  -0.000162959 0.184941 -0.398828  -5.10216e-05 0.263898 -0.377795  -9.53674e-07 0.330905 -0.330912  4.87566e-05 0.37779 -0.263906  0.000160694 0.398823 -0.184948  0.000418901 0.39141 -0.103687  0.00094533 0.356421 -0.030092  0.00184989 0.298161 0.0268064  0.00299525 0.223884 0.0601668  0.00357723 0.142786 0.0661911  0.00268435 0.06477 0.044541  0 -1.19209e-07 1.19209e-07  0 0 0  -0.00341365 -0.0552439 -0.0111071  -0.0044508 -0.103995 -0.0398001  -0.00354069 -0.140797 -0.0832342  -0.00222576 -0.161037 -0.136426  -0.00123286 -0.161874 -0.19321  -0.000645995 -0.142988 -0.246727  -0.000339508 -0.106673 -0.290407  -0.000187278 -0.0574078 -0.318907  -0.000108004 -0.00123149 -0.328752  -4.76837e-05 0.0550017 -0.318738  5.60284e-05 0.104433 -0.290068  0.000307083 0.14101 -0.246218  0.000867844 0.160224 -0.192547  0.0018971 0.159739 -0.135649  0.00329328 0.139808 -0.0824383  0.00421524 0.103271 -0.0392098  0.00312018 0.0551659 -0.0110895  0 0 1.19209e-07  0 0 0  -0.00283757 -0.0652519 0.0443659  -0.00375926 -0.143746 0.065301  -0.00315276 -0.225019 0.0591782  -0.00212443 -0.299557 0.0259327  -0.0013358 -0.358117 -0.0308263  -0.000849605 -0.39338 -0.104253  -0.000558734 -0.401016 -0.185321  -0.000377178 -0.380133 -0.264081  -0.000262022 -0.333308 -0.330898  -0.000187397 -0.266253 -0.377605  -0.000109434 -0.18713 -0.398467  6.36578e-05 -0.105598 -0.39088  0.000489712 -0.0316691 -0.355727  0.00133133 0.0255547 -0.297387  0.00250053 0.0591942 -0.223242  0.00332189 0.0655844 -0.142388  0.00222039 0.0446752 -0.0645595  0 1.19209e-07 1.19209e-07  0 0 0  0.00177938 -0.0769408 0.102328  0.00437084 -0.187913 0.171225  0.00535494 -0.314933 0.200298  0.00586039 -0.443442 0.18498  0.00620437 -0.558372 0.126536  0.00647593 -0.645811 0.0320727  0.00671899 -0.695137 -0.0867423  0.00693429 -0.700397 -0.215306  0.00710142 -0.660991 -0.337893  0.00720632 -0.581718 -0.439533  0.00726342 -0.47221 -0.507791  0.00732994 -0.345792 -0.53426  0.0075171 -0.217923 -0.515605  0.00795364 -0.104372 -0.454143  0.00850272 -0.0191307 -0.357993  0.00789547 0.0279941 -0.240237  0.00430489 0.0331203 -0.115469  0 2.38419e-07 1.19209e-07  0 0 0  0.0225121 -0.0920053 0.161806  0.0355837 -0.234672 0.280167  0.0380004 -0.408134 0.344196  0.0377185 -0.591229 0.345433  0.0374466 -0.762668 0.283647  0.0374967 -0.901842 0.166587  0.0377378 -0.991918 0.00881255  0.0380383 -1.02206 -0.170302  0.0383046 -0.98866 -0.348902  0.0384855 -0.895791 -0.505222  0.0385772 -0.754711 -0.620183  0.0386109 -0.582543 -0.679685  0.038619 -0.400241 -0.676346  0.0385563 -0.230118 -0.610519  0.038094 -0.0931684 -0.490735  0.0358026 -0.00601113 -0.333813  0.0267754 0.0238328 -0.163548  0 3.57628e-07 1.19209e-07  0 0 0  -0.0276489 -0.0661343 -0.161996  -0.0402039 -0.0864757 -0.361953  -0.0445512 -0.0396723 -0.561367  -0.0456852 0.0722586 -0.732974  -0.0457771 0.236143 -0.855426  -0.0456036 0.431992 -0.913881  -0.045455 0.635955 -0.901343  -0.045411 0.823204 -0.819415  -0.0454315 0.970938 -0.678116  -0.0454324 1.06115 -0.494682  -0.0453458 1.08284 -0.291476  -0.0451756 1.03331 -0.0932715  -0.0450482 0.918481 0.0757164  -0.0452659 0.752205 0.194677  -0.0463479 0.554604 0.248742  -0.04814 0.349014 0.231019  -0.0429602 0.156746 0.142234  0 -3.57628e-07 2.38419e-07  0 1.49012e-08 0  0.00373249 -0.0892287 -0.12478  0.0015367 -0.134194 -0.284234  -0.000288278 -0.122709 -0.448498  -0.000654936 -0.0555591 -0.598568  -0.000497162 0.0593357 -0.71606  -0.000261486 0.207738 -0.786585  -9.04799e-05 0.371406 -0.80163  -1.41859e-05 0.530344 -0.759434  -1.66893e-06 0.665166 -0.665173  1.06096e-05 0.759428 -0.530352  8.64267e-05 0.801626 -0.371414  0.00025773 0.786583 -0.207745  0.00049305 0.716059 -0.059342  0.000651598 0.598568 0.0555547  0.000285625 0.448499 0.122706  -0.00153852 0.284235 0.134192  -0.00373292 0.12478 0.089228  0 -2.23517e-07 2.38419e-07  0 0 0  0.0020593 -0.103073 -0.0753652  0.00477806 -0.172397 -0.186469  0.00583977 -0.201612 -0.313443  0.00646883 -0.186299 -0.441702  0.00698858 -0.127807 -0.556491  0.00735784 -0.0331876 -0.643874  0.00758135 0.0858794 -0.693186  0.00769174 0.214759 -0.698459  0.00773275 0.337689 -0.659097  0.00775707 0.439672 -0.579915  0.00782561 0.508265 -0.470562  0.00799894 0.535066 -0.344355  0.00833845 0.516731 -0.216698  0.00889969 0.455469 -0.103243  0.00949597 0.359136 -0.0179744  0.00878453 0.240935 0.0288747  0.00445819 0.116452 0.0330597  0 -1.49012e-07 2.38419e-07  0 0 0  -0.00344817 -0.111159 -0.0224376  -0.0039815 -0.206001 -0.0800222  -0.00264436 -0.278565 -0.166687  -0.00159246 -0.318834 -0.272685  -0.000930727 -0.320587 -0.385845  -0.000506997 -0.283147 -0.492517  -0.00023973 -0.211098 -0.579645  -8.38041e-05 -0.113341 -0.636606  -5.48363e-06 -0.00185457 -0.656488  3.31402e-05 0.109764 -0.636876  8.57115e-05 0.207903 -0.580135  0.000227213 0.280547 -0.493134  0.000565052 0.318743 -0.386467  0.00126052 0.317817 -0.273164  0.00251102 0.278249 -0.166914  0.00384378 0.206014 -0.0802323  0.00269675 0.111547 -0.0231571  0 0 2.38419e-07  0 0 0  -0.00498159 -0.116866 0.0325333  -0.00918442 -0.241366 0.0280597  -0.00973856 -0.359653 -0.0186867  -0.00926077 -0.456244 -0.10364  -0.00881332 -0.517975 -0.216747  -0.00846088 -0.536843 -0.344116  -0.00817788 -0.510549 -0.470114  -0.00796926 -0.442389 -0.579354  -0.00784063 -0.340712 -0.658533  -0.00777912 -0.217903 -0.697988  -0.00774634 -0.0889235 -0.692862  -0.00767446 0.0304578 -0.643701  -0.00747347 0.125562 -0.556442  -0.0070498 0.18467 -0.44175  -0.00627446 0.200721 -0.313557  -0.00471687 0.172055 -0.186753  -0.00287318 0.103146 -0.0770909  0 1.19209e-07 2.38419e-07  0 0 0  0.00324446 -0.126301 0.0869684  0.00138256 -0.28502 0.131577  -0.000526577 -0.449101 0.120441  -0.00120091 -0.598971 0.0537099  -0.00128925 -0.716407 -0.0605929  -0.00111985 -0.787049 -0.208294  -0.000848889 -0.802371 -0.371229  -0.000585437 -0.760594 -0.529496  -0.00039494 -0.666834 -0.663804  -0.000297308 -0.532496 -0.757768  -0.000272274 -0.373924 -0.799879  -0.000277758 -0.210452 -0.784912  -0.000282526 -0.0620922 -0.714588  -0.000338554 0.0528867 -0.597452  -0.000745058 0.120359 -0.447939  -0.00211668 0.132646 -0.284365  -0.00423694 0.0880015 -0.126821  0 2.38419e-07 2.38419e-07  0 0 0  0.0430604 -0.155656 0.140354  0.050697 -0.348764 0.229725  0.0475343 -0.555487 0.248303  0.0453496 -0.753677 0.194539  0.0445881 -0.920433 0.0757079  0.0445513 -1.03566 -0.0931953  0.0448241 -1.08551 -0.291328  0.0451659 -1.06407 -0.494497  0.0454414 -0.973975 -0.67796  0.0455992 -0.82619 -0.819355  0.0456469 -0.638672 -0.901406  0.0456164 -0.434238 -0.914018  0.0454993 -0.237798 -0.855532  0.0451293 -0.0733346 -0.732941  0.0439007 0.0390271 -0.561131  0.0400271 0.0858932 -0.361539  0.0291519 0.0661807 -0.162033  0 3.57628e-07 2.38419e-07  0 0 0  0.0155258 -0.0995111 -0.197253  0.00630933 -0.165044 -0.427131  0.00155234 -0.148431 -0.662825  -1.7345e-05 -0.0523051 -0.876634  -0.000310481 0.111258 -1.0436  -0.000181913 0.322137 -1.14377  -1.90735e-05 0.554554 -1.16517  3.68357e-05 0.780186 -1.10532  -1.90735e-06 0.971547 -0.971555  -4.01735e-05 1.10531 -0.780195  1.41859e-05 1.16517 -0.554563  0.00017643 1.14377 -0.322146  0.000304222 1.0436 -0.111266  1.21593e-05 0.876635 0.0523003  -0.00155616 0.662827 0.148428  -0.00631189 0.427135 0.165042  -0.015527 0.197254 0.0995101  0 -3.57628e-07 3.57628e-07  0 1.49012e-08 0  0.0429594 -0.142235 -0.156745  0.0481385 -0.231021 -0.349012  0.0463451 -0.248745 -0.554602  0.0452621 -0.194682 -0.752204  0.0450431 -0.075723 -0.918482  0.0451704 0.0932633 -1.03331  0.0453411 0.291467 -1.08284  0.0454286 0.494673 -1.06116  0.0454278 0.678108 -0.970945  0.0454067 0.819408 -0.823212  0.0454506 0.901339 -0.635963  0.0455987 0.913879 -0.431999  0.0457723 0.855425 -0.236151  0.045681 0.732974 -0.0722628  0.0445476 0.561369 0.0396689  0.0402014 0.361955 0.0864735  0.0276477 0.161997 0.0661335  0 -2.5332e-07 3.57628e-07  0 0 0  0.0232029 -0.164401 -0.0930256  0.0344061 -0.280954 -0.235271  0.0362949 -0.344803 -0.407817  0.0363839 -0.345784 -0.590126  0.0365691 -0.283783 -0.761025  0.0368527 -0.166546 -0.899759  0.0370915 -0.00863215 -0.989475  0.0372221 0.17058 -1.01934  0.0372528 0.349219 -0.985783  0.0372416 0.505512 -0.8929  0.0372715 0.620396 -0.751991  0.0374033 0.679824 -0.580198  0.0376191 0.676481 -0.39843  0.0377789 0.610761 -0.228839  0.0375755 0.49111 -0.0922089  0.0356932 0.334229 -0.00507486  0.0273685 0.163687 0.0250227  0 -1.49012e-07 3.57628e-07  0 0 0  -0.00609681 -0.170979 -0.0311367  -0.00437963 -0.313053 -0.116495  -0.00296289 -0.423974 -0.247494  -0.00255078 -0.485142 -0.408952  -0.00221223 -0.487189 -0.581319  -0.00182861 -0.429611 -0.743581  -0.0015111 -0.31958 -0.875928  -0.00131762 -0.170652 -0.962286  -0.00124443 -0.00102088 -0.99219  -0.00124454 0.168649 -0.962002  -0.0012449 0.31768 -0.875354  -0.0011704 0.427846 -0.742729  -0.000987053 0.485592 -0.580233  -0.000698566 0.483808 -0.407656  -3.8147e-05 0.423079 -0.245933  0.00205731 0.31253 -0.114745  0.00482512 0.169631 -0.0295076  0 -2.98023e-08 3.57628e-07  0 0 0  -0.0257183 -0.165144 0.0230076  -0.0370429 -0.334617 -0.00657755  -0.0396941 -0.491619 -0.0931866  -0.0402361 -0.611734 -0.229542  -0.0401565 -0.677857 -0.398881  -0.0398161 -0.681565 -0.580383  -0.0394503 -0.6225 -0.751923  -0.0391843 -0.507956 -0.892643  -0.0390518 -0.351912 -0.985436  -0.0390292 -0.17336 -1.01898  -0.03906 0.00595218 -0.989136  -0.0390836 0.164127 -0.89942  -0.0390725 0.281739 -0.760658  -0.0390608 0.344248 -0.589679  -0.0389025 0.343958 -0.407054  -0.0364633 0.280872 -0.234037  -0.0244753 0.164071 -0.0922647  0 1.19209e-07 3.57628e-07  0 0 0  -0.0234319 -0.160374 0.0649159  -0.0395911 -0.361235 0.0854615  -0.0451204 -0.56133 0.0389487  -0.0468455 -0.733446 -0.0726969  -0.0471948 -0.856337 -0.236228  -0.0469884 -0.915266 -0.431686  -0.0466198 -0.903261 -0.635301  -0.0462934 -0.821883 -0.822331  -0.0460937 -0.681058 -0.970022  -0.0460279 -0.497916 -1.06037  -0.0460614 -0.294744 -1.08229  -0.0461609 -0.0963157 -1.033  -0.04636 0.0730921 -0.918387  -0.0468557 0.19262 -0.752272  -0.0480816 0.247442 -0.554727  -0.0499144 0.230641 -0.348821  -0.0436196 0.142513 -0.156895  0 2.38419e-07 3.57628e-07  0 0 0  0.0266258 -0.195451 0.1002  0.0106682 -0.426764 0.163924  0.00255507 -0.663166 0.147774  -0.000330508 -0.877499 0.0518006  -0.00112832 -1.04482 -0.111519  -0.00105649 -1.14534 -0.322066  -0.000674367 -1.16714 -0.554144  -0.00027597 -1.10771 -0.779521  -1.19209e-07 -0.974312 -0.970773  0.000118852 -0.783171 -1.10459  0.000105619 -0.557534 -1.1646  -8.9407e-06 -0.324878 -1.14337  -0.000274897 -0.113582 -1.04335  -0.000967264 0.0505083 -0.876515  -0.00285125 0.14722 -0.662867  -0.00763106 0.164628 -0.427817  -0.0167377 0.102561 -0.199542  0 3.57628e-07 3.57628e-07  0 7.45058e-09 0  0.000367306 0.067999 -0.0417106  0.00453448 0.071739 -0.0536121  -0.00954957 0.0780867 -0.0448431  -0.0180649 0.0752586 -0.0403132  -0.00543073 0.147592 -0.0784775  0.00580378 0.0604115 -0.0611285  0.0170265 0.136724 -0.115452  0.0235443 0.0799191 -0.0742474  0 0 7.45058e-09  0.0236214 0.0952497 -0.0648631  0 1.49012e-08 7.45058e-09  0 7.45058e-09 7.45058e-09  0.00113632 0.0564215 -0.0468215  0 7.45058e-09 -1.49012e-08  0.0370908 0.183665 -0.124625  0.0110448 0.0994452 -0.0531632  0.0086311 0.159527 -0.101119  -0.013091 0.17369 -0.0834329  -0.00986411 0.234839 -0.101189  0.00734559 0.255574 -0.135593  -0.0190336 0.278879 -0.111506  -0.0357614 0.260739 -0.0827194  -0.0128876 0.326272 -0.110487  0.0190194 0.223238 -0.155235  0.0197735 0.312998 -0.182258  0.0476097 0.250219 -0.193913  0.037919 0.287736 -0.169667  0.00310424 0.203751 -0.116282  0.036162 0.395019 -0.198723  0.0115944 0.311742 -0.141977  0.00496942 0.355538 -0.155369  -0.0234111 0.387903 -0.125913  -0.0142863 0.418409 -0.102118  0.00314489 0.45723 -0.15586  -0.0253065 0.498283 -0.118168  -0.0423598 0.463525 -0.0693897  -0.0155658 0.507992 -0.0800453  0.0183144 0.405954 -0.191561  0.018208 0.498367 -0.185737  0.0483825 0.451645 -0.247562  0.0339969 0.505739 -0.206337  0.000883728 0.366974 -0.13289  0.0327529 0.615324 -0.196293  0.00518298 0.546236 -0.165131  0.00204104 0.557339 -0.140406  -0.0276282 0.606059 -0.095764  -0.0159476 0.591936 -0.0404823  0.00109094 0.652672 -0.106071  -0.0278482 0.706857 -0.0508273  -0.0445937 0.651567 0.0114137  -0.0164553 0.668524 0.0110129  0.0171532 0.588395 -0.162781  0.0174155 0.67278 -0.125519  0.046818 0.656168 -0.228182  0.0313984 0.721122 -0.165526  6.50287e-05 0.525733 -0.0924753  0.0310936 0.820071 -0.118427  0.00210196 0.773604 -0.10729  0.000798643 0.74106 -0.0572309  -0.0291426 0.800106 0.00698088  -0.0164508 0.73372 0.0771254  0.000328422 0.818594 0.00781924  -0.0287617 0.879094 0.083729  -0.0452917 0.800462 0.151756  -0.0167166 0.787895 0.15183  0.0166928 0.749211 -0.0728866  0.0171439 0.815488 -0.00883378  0.046016 0.840582 -0.139565  0.0303307 0.908566 -0.0531169  -9.21488e-05 0.660886 0.000173867  0.0304445 0.985089 0.0251166  0.000906169 0.966468 0.0249649  0.000347495 0.884659 0.0840537  -0.0296662 0.946628 0.169949  -0.0165944 0.826312 0.23635  5.9545e-05 0.934994 0.171799  -0.0290849 0.994307 0.269102  -0.0455055 0.891912 0.33459  -0.0167993 0.851464 0.325098  0.0165331 0.869023 0.0669515  0.0170426 0.909162 0.149895  0.0456937 0.982898 0.00714868  0.0299287 1.0456 0.116877  -9.89437e-05 0.755819 0.13382  0.0301892 1.09046 0.216614  0.00045681 1.10174 0.215312  0.000177979 0.970758 0.266067  -0.0298573 1.02802 0.373196  -0.0166434 0.85845 0.417639  -4.82798e-05 0.987816 0.365732  -0.0292102 1.03868 0.482628  -0.0455748 0.91489 0.537569  -0.0168258 0.851563 0.509574  0.0164609 0.933311 0.239468  0.0169919 0.94247 0.331122  0.0455487 1.06592 0.19383  0.0297605 1.11568 0.323543  -0.000102162 0.798914 0.291988  0.0300759 1.1235 0.432568  0.000271916 1.16318 0.440408  0.000108361 0.988983 0.466498  -0.0299302 1.03455 0.591896  -0.0166434 0.826328 0.598825  -8.16584e-05 0.970752 0.5659  -0.0292419 1.00696 0.698257  -0.04557 0.866728 0.735943  -0.0167931 0.788294 0.682734  0.0164312 0.93435 0.423498  0.0169907 0.911467 0.512665  0.0454782 1.07966 0.397582  0.0296913 1.11043 0.541589  -9.65595e-05 0.784999 0.455269  0.0300517 1.08033 0.646598  0.000203252 1.14349 0.672761  0.000114679 0.937239 0.66087  -0.0299127 0.96556 0.799387  -0.0165685 0.733965 0.757819  -2.65837e-05 0.885994 0.747892  -0.0291675 0.903131 0.889725  -0.0454692 0.753406 0.905561  -0.016669 0.669461 0.823492  0.0164695 0.872124 0.596569  0.0170763 0.820033 0.672386  0.0454895 1.02258 0.593529  0.029722 1.03061 0.744423  -3.91006e-05 0.715871 0.603723  0.0301436 0.966295 0.832627  0.000251055 1.0452 0.884059  0.000225186 0.821929 0.825503  -0.0297742 0.829547 0.97041  -0.0163924 0.592691 0.875281  0.00014627 0.743948 0.889559  -0.028959 0.739929 1.03374  -0.0452491 0.588804 1.0258  -0.0164415 0.509599 0.914735  0.01661 0.7543 0.737605  0.0172741 0.679374 0.79085  0.0456203 0.901726 0.757806  0.0298846 0.886043 0.90735  0.000104308 0.600029 0.719273  0.0303786 0.795375 0.96802  0.000448585 0.880378 1.04859  0.000458837 0.657164 0.940372  -0.0294986 0.643151 1.08417  -0.016124 0.419755 0.936932  0.000433445 0.561963 0.973673  -0.0286278 0.537269 1.11279  -0.0449278 0.393004 1.08204  -0.0161465 0.328204 0.94537  0.0168595 0.595272 0.829451  0.017567 0.506644 0.853649  0.0458877 0.731851 0.870429  0.030187 0.694371 1.01055  0.000334859 0.451626 0.787869  0.0307361 0.588403 1.03631  0.000795722 0.669144 1.14634  0.000783801 0.463037 0.991512  -0.0291308 0.42909 1.12683  -0.0158296 0.236232 0.935262  0.000767112 0.362203 0.989994  -0.0282644 0.319833 1.11724  -0.0445969 0.189856 1.06743  -0.0158825 0.147377 0.911634  0.017171 0.414411 0.860926  0.0178754 0.322866 0.853118  0.04625 0.533646 0.91768  0.0305655 0.478938 1.04147  0.000609875 0.288755 0.801149  0.031105 0.370562 1.02916  0.00121105 0.437218 1.16541  0.00108886 0.263178 0.972673  -0.0288153 0.213423 1.09317  -0.01564 0.0645012 0.87041  0.000985622 0.168992 0.936472  -0.0280752 0.114098 1.04649  -0.0444419 0.00412422 0.98366  -0.0158198 -0.0107976 0.817533  0.0174248 0.233737 0.828137  0.0180349 0.150423 0.789225  0.0465682 0.331213 0.893744  0.0308449 0.265944 0.996258  0.000840902 0.131282 0.757442  0.0312448 0.168332 0.947333  0.00148511 0.212808 1.10338  0.00116014 0.0819336 0.886041  -0.0288281 0.0224331 0.987156  -0.0157559 -0.074401 0.750147  0.000806332 0.00590828 0.819479  -0.0284452 -0.0547921 0.908937  -0.0448031 -0.14142 0.840763  -0.016211 -0.12685 0.674381  0.0174153 0.0752943 0.734954  0.0177658 0.0104067 0.669612  0.0465617 0.149174 0.80138  0.0306938 0.0812876 0.880239  0.000904083 -0.00150064 0.661982  0.0307097 0.00630709 0.800523  0.00120091 0.0232465 0.967585  0.000632524 -0.0585142 0.741987  -0.0296726 -0.120433 0.821456  -0.0164831 -0.163284 0.58899  -0.000278473 -0.107011 0.653075  -0.0301459 -0.165947 0.721125  -0.0463395 -0.228711 0.656012  -0.0174601 -0.186283 0.499435  0.0167706 -0.041444 0.592641  0.0164526 -0.0799393 0.508865  0.0457041 0.00974406 0.651601  0.0295103 -0.0525208 0.707106  0.00060463 -0.0931868 0.526397  0.0285392 -0.0957789 0.606091  -0.000512838 -0.108226 0.774077  -0.00122476 -0.140831 0.557828  -0.0323377 -0.197316 0.615951  -0.0182078 -0.191059 0.406272  -0.00325131 -0.155807 0.457217  -0.034601 -0.205292 0.505515  -0.0496757 -0.246721 0.451392  -0.0195334 -0.181523 0.313212  0.0145245 -0.102115 0.418718  0.0125368 -0.10988 0.326803  0.0425651 -0.0700191 0.462669  0.025866 -0.119034 0.497166  -0.000521421 -0.132498 0.367363  0.0221174 -0.125709 0.386874  -0.0060246 -0.165127 0.545676  -0.00566888 -0.154721 0.355264  -0.0381 -0.198104 0.394486  -0.0193574 -0.15421 0.22289  -0.00858331 -0.134736 0.254901  -0.0408523 -0.167649 0.286385  -0.0493951 -0.191845 0.249036  -0.0166376 -0.113351 0.136993  0.00883245 -0.100199 0.234849  0.00486875 -0.077181 0.145952  0.032269 -0.0824741 0.259466  0.0157235 -0.111724 0.275961  -0.00260377 -0.115308 0.20397  0.00641537 -0.0821799 0.169785  -0.0199542 -0.14106 0.309107  -0.0103714 -0.0987278 0.157542  -0.0406816 -0.122436 0.180826  -0.00924587 -0.057839 0.0630778  -0.00707173 -0.0500933 0.0733397  -0.0159729 -0.059828 0.0869404  -0.0163102 -0.0709054 0.0748091  0 -2.23517e-07 -2.90573e-07  0.00195003 -0.0411263 0.066996  0 -2.90573e-07 -2.5332e-07  0.00958061 -0.0392441 0.0741154  -0.000897408 -0.0430345 0.0773768  -0.0017879 -0.0458997 0.057604  0 -3.57628e-07 -2.90573e-07  -0.0090282 -0.0467973 0.0896606  0 -2.90573e-07 -2.90573e-07  0 -2.90573e-07 -3.8743e-07  0 0 0  -0.00299451 0.0682697 -0.0167542  -0.00161728 0.0674982 -0.0298071  -0.0193025 0.0770403 -0.0321159  -0.0168592 0.0807945 -0.0214066  -0.0109446 0.140884 -0.0272988  -0.00101547 0.0554225 -0.0325563  -0.00173359 0.119494 -0.0605845  0 0 7.45058e-09  0 0 7.45058e-09  -0.00182024 0.0558489 -0.0194118  0 0 -1.49012e-08  -0.0107329 0.141963 -0.0530962  -0.0305559 0.160956 -0.0461097  -0.0152406 0.213554 -0.0243547  -0.0155946 0.222143 -0.0636376  -0.0380166 0.252416 -0.0507316  -0.0328489 0.249097 -0.0154272  -0.018161 0.287687 -0.00995635  -0.003805 0.189348 -0.0761943  -0.00541413 0.260792 -0.0811629  -0.00667118 0.17744 -0.0354929  -0.0191769 0.304533 -0.0613052  -0.0419227 0.34534 -0.0420158  -0.0188057 0.3578 0.0181947  -0.020382 0.38609 -0.0437472  -0.0443235 0.437164 -0.01492  -0.0377289 0.415646 0.0438119  -0.0196188 0.424386 0.0572631  -0.00680691 0.332517 -0.0724728  -0.00697869 0.401606 -0.0522175  -0.008764 0.300726 -0.00945105  -0.0215909 0.464172 -0.0134749  -0.0454966 0.524165 0.024087  -0.0191739 0.482092 0.108506  -0.0216028 0.535686 0.031487  -0.0461295 0.602159 0.0817597  -0.0388559 0.556259 0.157607  -0.0195912 0.531914 0.16826  -0.00745016 0.46675 -0.0193235  -0.00705653 0.525041 0.0236528  -0.00852728 0.409603 0.0576967  -0.0221168 0.59906 0.0868752  -0.0464781 0.671044 0.148199  -0.0190143 0.568872 0.236596  -0.0218022 0.650912 0.153959  -0.0465905 0.724562 0.229412  -0.039053 0.65023 0.313457  -0.0194429 0.595232 0.309894  -0.00732315 0.575067 0.0771929  -0.00688159 0.615093 0.137745  -0.0079509 0.489709 0.158672  -0.0221837 0.691429 0.227832  -0.0467188 0.766497 0.315424  -0.0189033 0.606447 0.386843  -0.0218113 0.717011 0.308707  -0.0466969 0.788788 0.41008  -0.0390652 0.684989 0.492146  -0.0193719 0.605991 0.464686  -0.00717455 0.643613 0.205324  -0.00677913 0.660349 0.275982  -0.00763547 0.530334 0.281252  -0.0221816 0.729638 0.391987  -0.0467696 0.798608 0.50519  -0.0188582 0.590053 0.540747  -0.0218037 0.725834 0.476684  -0.0467154 0.786993 0.601668  -0.0390447 0.656208 0.67173  -0.019335 0.562879 0.613616  -0.00710976 0.663859 0.349238  -0.00673854 0.655278 0.421313  -0.00751853 0.526289 0.410303  -0.0221685 0.70907 0.559174  -0.046762 0.763538 0.694285  -0.0188137 0.521797 0.679495  -0.0217752 0.676407 0.637343  -0.0466805 0.719503 0.780823  -0.0389854 0.567519 0.830313  -0.019269 0.471279 0.738522  -0.00707304 0.633403 0.491266  -0.00669253 0.600602 0.555954  -0.00746441 0.478145 0.529995  -0.0221144 0.632351 0.708988  -0.0466886 0.665686 0.859673  -0.0187167 0.410113 0.78621  -0.0216868 0.574861 0.771113  -0.0465616 0.59465 0.925749  -0.0388486 0.429842 0.94863  -0.019134 0.342441 0.824229  -0.00700235 0.556059 0.614075  -0.00659013 0.503074 0.6635  -0.00738704 0.391877 0.62574  -0.0219839 0.50892 0.823201  -0.046519 0.517069 0.981248  -0.0185459 0.268672 0.847939  -0.0215129 0.43364 0.861734  -0.04634 0.427712 1.01884  -0.0386202 0.260014 1.01233  -0.0189291 0.192109 0.860334  -0.006863 0.441322 0.702722  -0.00641346 0.374631 0.730875  -0.00725186 0.278063 0.685903  -0.0217704 0.353869 0.887937  -0.0462515 0.335839 1.04425  -0.0183161 0.114739 0.857186  -0.0212662 0.269982 0.898193  -0.0460392 0.239055 1.04879  -0.0383275 0.0787414 1.01368  -0.0186871 0.0386235 0.842442  -0.0066539 0.303209 0.746427  -0.00617766 0.230949 0.74988  -0.00705981 0.150608 0.703171  -0.0215085 0.186111 0.895321  -0.0459375 0.144082 1.04102  -0.0180751 -0.0328949 0.812802  -0.021003 0.103852 0.876038  -0.0457405 0.0516643 1.01193  -0.038046 -0.0918772 0.952492  -0.0184648 -0.0992584 0.772677  -0.0064044 0.158574 0.739855  -0.00592208 0.0895711 0.718161  -0.00683177 0.0250849 0.675421  -0.0212744 0.0261159 0.844412  -0.0456889 -0.0348366 0.971895  -0.0178792 -0.156148 0.720123  -0.020817 -0.0444497 0.797901  -0.0455878 -0.111583 0.912657  -0.0378966 -0.230977 0.836124  -0.0183139 -0.204587 0.65945  -0.00615835 0.0250984 0.683746  -0.00569439 -0.0321754 0.639508  -0.00657988 -0.0831247 0.605984  -0.0211709 -0.106511 0.741312  -0.0456796 -0.179018 0.845146  -0.0177617 -0.239814 0.590357  -0.020817 -0.156685 0.673194  -0.0457981 -0.230614 0.762897  -0.0380425 -0.321411 0.678636  -0.0182266 -0.264294 0.516472  -0.00595307 -0.0808063 0.584866  -0.00553465 -0.11926 0.523451  -0.00627422 -0.160682 0.503274  -0.0212889 -0.195365 0.598456  -0.0461419 -0.270601 0.676011  -0.0176466 -0.273523 0.439193  -0.0210576 -0.218893 0.516961  -0.0465968 -0.290593 0.580653  -0.0384848 -0.351935 0.499041  -0.0179124 -0.270983 0.360949  -0.00580955 -0.146028 0.455258  -0.00548649 -0.16092 0.384091  -0.00582671 -0.198019 0.379786  -0.021554 -0.22929 0.432964  -0.0471332 -0.298006 0.484721  -0.0169213 -0.253273 0.284475  -0.0211339 -0.223177 0.347739  -0.0473804 -0.283847 0.387375  -0.0377817 -0.318598 0.318472  -0.0159364 -0.224253 0.211016  -0.00569773 -0.162599 0.310636  -0.00537157 -0.152287 0.237892  -0.00503254 -0.190849 0.250317  -0.0208225 -0.203901 0.264003  -0.0467632 -0.257482 0.293229  -0.0132568 -0.181926 0.143888  -0.0184915 -0.168995 0.184997  -0.04301 -0.210828 0.205136  -0.0300009 -0.224824 0.158233  -0.00882912 -0.131023 0.0843179  -0.00491047 -0.128948 0.167891  -0.00359702 -0.0953716 0.102094  -0.00322294 -0.140797 0.129588  -0.0147169 -0.123733 0.111628  -0.03546 -0.153691 0.12448  -0.00432229 -0.068715 0.0359817  -0.00793529 -0.0648459 0.0494151  -0.0146027 -0.0800454 0.0604791  -0.00896454 -0.0856236 0.0412932  0 -8.9407e-08 -2.90573e-07  -0.00150776 -0.0500808 0.0450887  0 -1.78814e-07 -2.5332e-07  -0.000560284 -0.0538889 0.0329115  0 -1.78814e-07 -2.90573e-07  0 -1.78814e-07 -3.8743e-07  0 0 0  -0.00200962 0.071049 0.00944916  -0.00178478 0.0705313 -0.00305592  -0.0107313 0.0853847 -0.00854654  -0.00375501 0.0874907 0.00809357  -0.0037726 0.139464 0.028803  -0.00195075 0.0560264 -0.00517209  -0.00420412 0.112793 -0.00470828  0 0 7.45058e-09  0 0 7.45058e-09  -0.00178605 0.056301 0.00737071  0 0 -1.49012e-08  -0.0083908 0.140175 0.00096111  -0.0165941 0.1665 0.00185938  -0.00373363 0.19994 0.0602398  -0.0108944 0.206412 0.0178839  -0.0199676 0.246418 0.0238546  -0.004103 0.242812 0.0678652  -0.00305104 0.257242 0.100849  -0.00589305 0.168027 0.00677934  -0.00654599 0.221779 0.0263654  -0.00389171 0.159001 0.0479086  -0.0123573 0.271655 0.0451572  -0.0208292 0.322948 0.0584905  -0.00216576 0.305619 0.151454  -0.0119142 0.330916 0.0843237  -0.0218149 0.394498 0.107834  -0.0023818 0.372304 0.176763  -0.00148192 0.347288 0.209543  -0.00667506 0.271424 0.0557628  -0.006185 0.316259 0.0928326  -0.00271636 0.243686 0.120951  -0.0120702 0.385065 0.13246  -0.0211526 0.457416 0.167563  -0.000910878 0.376875 0.273818  -0.0111863 0.428734 0.190267  -0.0218493 0.50919 0.239247  -0.001472 0.459852 0.325495  -0.000649571 0.396847 0.342916  -0.00576437 0.354132 0.137794  -0.00519139 0.384288 0.188261  -0.00122416 0.300709 0.218569  -0.0113658 0.464001 0.254384  -0.0209286 0.54851 0.317612  -0.000397682 0.402977 0.413407  -0.0106559 0.485496 0.323889  -0.0217264 0.572825 0.402789  -0.00122118 0.491738 0.495725  -0.000369072 0.39812 0.485184  -0.00494391 0.404827 0.243675  -0.00459433 0.415965 0.301567  -0.00038451 0.321853 0.330052  -0.0110091 0.496732 0.396311  -0.0207915 0.582879 0.489991  -0.000258446 0.379691 0.553354  -0.0104465 0.49304 0.468924  -0.0216627 0.576474 0.578189  -0.00118876 0.463258 0.666321  -0.00030458 0.350447 0.619  -0.00455362 0.41626 0.360666  -0.0043574 0.406801 0.418842  -6.31213e-05 0.303566 0.442014  -0.0108858 0.478678 0.540733  -0.0207337 0.555927 0.663446  -0.000226974 0.309722 0.676544  -0.0103793 0.450255 0.607547  -0.0216265 0.519629 0.743921  -0.00118172 0.377922 0.816428  -0.000272751 0.259714 0.728043  -0.00441229 0.386765 0.474372  -0.00427139 0.357889 0.525685  3.8147e-05 0.247895 0.540714  -0.0108339 0.412097 0.669954  -0.0206852 0.471054 0.816818  -0.000177383 0.201736 0.767986  -0.0103259 0.362484 0.722842  -0.0215591 0.409369 0.879816  -0.00112009 0.246307 0.92784  -0.000191569 0.137126 0.799092  -0.00434363 0.320018 0.570875  -0.00420129 0.275306 0.609075  9.97782e-05 0.161736 0.614102  -0.0107577 0.305249 0.768262  -0.0205837 0.338758 0.931505  -6.16312e-05 0.0690123 0.816613  -0.010221 0.240542 0.800818  -0.0214155 0.259252 0.969404  -0.000967383 0.0845594 0.9871  -3.95775e-05 -0.00229728 0.823572  -0.00425529 0.224261 0.63844  -0.00408947 0.169198 0.658895  0.000197291 0.0556991 0.653285  -0.0106182 0.171241 0.823747  -0.0203971 0.175243 0.99363  0.000120521 -0.0722291 0.816566  -0.0100493 0.0993442 0.832032  -0.021184 0.0876153 1.00185  -0.000727415 -0.0875772 0.987076  0.000166416 -0.141541 0.798543  -0.00411749 0.111224 0.668876  -0.0039264 0.0525362 0.669107  0.0003438 -0.0572397 0.653538  -0.0104187 0.0264361 0.829695  -0.0201325 0.000449449 0.995686  0.000339508 -0.204757 0.767862  -0.00982916 -0.0438767 0.812698  -0.0208942 -0.0846177 0.973225  -0.000435114 -0.249132 0.92779  0.000389814 -0.263614 0.727036  -0.00393403 -0.00528595 0.65849  -0.00372469 -0.0604266 0.638458  0.000524163 -0.163288 0.614843  -0.0101905 -0.111497 0.785368  -0.019835 -0.164326 0.937418  0.000556707 -0.312374 0.676397  -0.00959849 -0.171624 0.745137  -0.0206026 -0.236448 0.886981  -0.000148892 -0.380393 0.816414  0.000599623 -0.353556 0.617701  -0.00371814 -0.111018 0.608523  -0.00349033 -0.155848 0.570644  0.000724435 -0.249469 0.54189  -0.00996864 -0.225677 0.696104  -0.0195702 -0.298969 0.82584  0.000755787 -0.38185 0.553251  -0.00938296 -0.268215 0.637509  -0.0203831 -0.34929 0.753513  6.77109e-05 -0.465258 0.666422  0.000805616 -0.400249 0.483808  -0.00345612 -0.192983 0.525019  -0.00318742 -0.22197 0.47389  0.000967264 -0.305177 0.443538  -0.0097549 -0.302028 0.572698  -0.0194111 -0.386926 0.674409  0.000980139 -0.404586 0.413398  -0.00914931 -0.321707 0.502857  -0.0202897 -0.409224 0.588947  0.000189781 -0.493207 0.496003  0.00111008 -0.397916 0.341685  -0.00307751 -0.241056 0.418139  -0.0027163 -0.250647 0.359973  0.00134134 -0.323523 0.33178  -0.00944877 -0.331079 0.430122  -0.0193694 -0.417276 0.501445  0.00138593 -0.377931 0.273826  -0.00871491 -0.32553 0.357475  -0.0201757 -0.408848 0.413159  0.0004282 -0.460767 0.325867  0.00176048 -0.347306 0.208606  -0.00243998 -0.249406 0.300892  -0.00191855 -0.23865 0.242618  0.0019865 -0.302433 0.220234  -0.00872087 -0.309484 0.285568  -0.0190604 -0.386424 0.327782  0.00223088 -0.306022 0.151185  -0.00759196 -0.279762 0.218658  -0.0190668 -0.348615 0.247261  0.00157642 -0.372448 0.176768  0.00294685 -0.256313 0.100262  -0.0013783 -0.217574 0.187225  -0.000694513 -0.188383 0.13547  0.00291014 -0.245311 0.122144  -0.00691056 -0.241127 0.156078  -0.016845 -0.299085 0.17413  0.00324988 -0.199577 0.0595506  -0.00514054 -0.191694 0.102482  -0.0145454 -0.237449 0.11155  0.00398684 -0.241787 0.0671  0.00351143 -0.13806 0.0282402  4.3869e-05 -0.150447 0.089935  0.000528812 -0.10703 0.0508567  0.00341606 -0.16037 0.0482971  -0.00375104 -0.136719 0.0567128  -0.0099721 -0.168013 0.0599901  0.0021503 -0.0719904 0.00881432  -0.00196767 -0.072194 0.0223965  -0.00524354 -0.0897176 0.0257405  0.0012784 -0.0895123 0.00746078  0 0 -2.90573e-07  0.000679255 -0.0556522 0.0204436  0 -5.96046e-08 -2.5332e-07  0.00160336 -0.0570861 0.00696316  0 -5.96046e-08 -2.90573e-07  0 -5.96046e-08 -3.8743e-07  0 0 0  0.00217362 0.0695469 0.0350762  0.000706777 0.0719432 0.0229828  0.00509043 0.0884877 0.0241158  0.0126643 0.0861619 0.0441585  0.00884013 0.132253 0.0846101  -0.000905335 0.0557393 0.0207163  -0.00114565 0.10675 0.0502999  0 0 7.45058e-09  0 0 7.45058e-09  -2.07722e-05 0.0539184 0.0329343  0 0 -1.49012e-08  0.00182718 0.13689 0.0572819  0.0105589 0.166849 0.0606687  0.0131931 0.182481 0.144661  0.00432879 0.192265 0.103132  0.0145282 0.236569 0.111704  0.031137 0.225996 0.159749  0.0167225 0.224253 0.211443  -0.000495255 0.150128 0.0896161  0.000594497 0.18763 0.134779  0.00317743 0.140422 0.129176  0.00643316 0.241181 0.156733  0.0180138 0.29741 0.173315  0.0178832 0.252811 0.28442  0.00834677 0.279556 0.219323  0.0193669 0.347966 0.246226  0.0377254 0.318334 0.31813  0.0189382 0.26991 0.361534  0.00173688 0.2164 0.186739  0.00259131 0.237451 0.241756  0.00593629 0.189938 0.249483  0.00932527 0.308915 0.286387  0.0210072 0.385203 0.326836  0.0188327 0.272452 0.438968  0.0100962 0.324411 0.358077  0.0207945 0.408516 0.412054  0.0386683 0.351051 0.498871  0.0191674 0.262245 0.517165  0.00339013 0.247554 0.300401  0.00372517 0.249115 0.359247  0.00700229 0.196794 0.378905  0.0103285 0.329578 0.431169  0.021661 0.415891 0.500908  0.0187948 0.238147 0.590257  0.0105758 0.31975 0.503466  0.0209669 0.408732 0.588373  0.03834 0.319719 0.678912  0.0190325 0.201683 0.660031  0.00415057 0.238713 0.417623  0.0041703 0.220059 0.473345  0.00727344 0.159162 0.502565  0.010541 0.299535 0.57378  0.0216536 0.385085 0.674177  0.0186572 0.153919 0.720109  0.0106412 0.265496 0.638051  0.0208843 0.34834 0.753516  0.0380132 0.228495 0.83654  0.0189304 0.0956963 0.772952  0.00441116 0.190273 0.524428  0.00431049 0.153585 0.570225  0.00731683 0.0812755 0.605479  0.010551 0.22232 0.696988  0.0215708 0.296673 0.82577  0.0186043 0.0302122 0.812789  0.0106401 0.168295 0.745485  0.02083 0.234938 0.887447  0.037872 0.0887808 0.952818  0.0189356 -0.0425775 0.842299  0.00449824 0.108082 0.607835  0.00437903 0.0579065 0.638128  0.00734389 -0.027241 0.675089  0.0105687 0.107513 0.785875  0.0215609 0.161663 0.937416  0.018666 -0.11771 0.857111  0.0106918 0.040169 0.812757  0.0208758 0.0825586 0.97401  0.0379069 -0.0822195 1.01378  0.0190537 -0.196141 0.859749  0.00457466 0.00229836 0.657726  0.00447583 -0.0551839 0.66886  0.00742698 -0.152981 0.702982  0.0106612 -0.0307381 0.829724  0.0216626 -0.0033403 0.995688  0.0188318 -0.271729 0.847789  0.010826 -0.103158 0.831771  0.0210366 -0.0901355 1.00281  0.0380862 -0.263601 1.01216  0.0192597 -0.346234 0.823277  0.00469637 -0.114084 0.668101  0.00462306 -0.171839 0.658753  0.00757778 -0.28053 0.685857  0.0108329 -0.175522 0.823289  0.0218726 -0.178183 0.993612  0.0190636 -0.413062 0.786025  0.0110277 -0.244187 0.800277  0.0212905 -0.262086 0.970423  0.0383625 -0.433266 0.948239  0.0195068 -0.474566 0.73736  0.00486279 -0.226841 0.637752  0.00480473 -0.27782 0.609072  0.00777185 -0.394321 0.625861  0.0110549 -0.309186 0.767393  0.0221578 -0.341569 0.931494  0.019311 -0.524486 0.67935  0.011258 -0.36572 0.722119  0.0215951 -0.412355 0.880814  0.0386783 -0.570556 0.829802  0.0197432 -0.565488 0.612443  0.00505018 -0.322209 0.570388  0.00499487 -0.36018 0.525858  0.00797153 -0.480477 0.530314  0.0112834 -0.415423 0.668821  0.0224659 -0.473594 0.816878  0.0195222 -0.592385 0.540718  0.0114746 -0.452902 0.606776  0.0218952 -0.522608 0.744846  0.0389682 -0.658715 0.671225  0.019923 -0.607845 0.463691  0.00523925 -0.388514 0.474191  0.00518799 -0.408801 0.419223  0.00814831 -0.528453 0.410832  0.0114849 -0.481204 0.539522  0.0227396 -0.558115 0.663646  0.0196602 -0.608378 0.386971  0.0116575 -0.494992 0.468244  0.0221317 -0.579317 0.578996  0.0391614 -0.686896 0.491746  0.020015 -0.596342 0.309212  0.00544763 -0.417566 0.360865  0.00542855 -0.417645 0.302165  0.00830626 -0.532298 0.281965  0.0116577 -0.498367 0.395216  0.0229199 -0.584703 0.490385  0.0196979 -0.570396 0.236862  0.0118253 -0.486736 0.323412  0.0222523 -0.575447 0.403418  0.0391707 -0.651494 0.313181  0.0199704 -0.532348 0.167935  0.00574613 -0.405736 0.244274  0.00580287 -0.385648 0.189031  0.00848746 -0.491458 0.159489  0.0118334 -0.464785 0.253559  0.0229549 -0.550063 0.318193  0.0195155 -0.483197 0.108816  0.0119915 -0.429335 0.19003  0.0222073 -0.511573 0.239575  0.0388193 -0.556742 0.157374  0.0194888 -0.424202 0.0572623  0.00619507 -0.354674 0.138723  0.00628018 -0.317239 0.0936573  0.00867081 -0.4111 0.0584823  0.0119123 -0.385203 0.131953  0.0227571 -0.458924 0.168111  0.0184433 -0.358438 0.0185407  0.0118024 -0.331037 0.0843526  0.0216632 -0.396592 0.107714  0.0371826 -0.415095 0.0437619  0.0173173 -0.286903 -0.00959094  0.00653195 -0.27155 0.056889  0.0061717 -0.222221 0.0272692  0.00838351 -0.301938 -0.00883666  0.011029 -0.271515 0.0449125  0.0215156 -0.324463 0.0584997  0.0143855 -0.213863 -0.023841  0.00959349 -0.206596 0.0182845  0.0183241 -0.247948 0.0236232  0.0298316 -0.248801 -0.0149181  0.0104856 -0.139963 -0.0267809  0.00554681 -0.168003 0.00765049  0.00374699 -0.113331 -0.00384273  0.00621533 -0.178645 -0.0353681  0.0070374 -0.140052 0.000800602  0.0150993 -0.167266 0.00150277  0.00538087 -0.0698072 -0.0174651  0.0033195 -0.0715056 -0.00319107  0.00571561 -0.0874474 -0.007232  0.009202 -0.0836824 -0.0203734  0 1.19209e-07 -2.90573e-07  0.00211596 -0.0565274 -0.00490275  0 5.96046e-08 -2.5332e-07  0.00190663 -0.0567862 -0.019966  0 5.96046e-08 -2.90573e-07  0 5.96046e-08 -3.27826e-07  0 0 0  0.0058309 0.0603176 0.0604777  0.00413188 0.0658892 0.0483523  0.0193989 0.080509 0.0621965  0.0236136 0.0740436 0.0801259  0.0170639 0.11338 0.136619  0.000671871 0.0510286 0.044948  0.00299411 0.095444 0.101788  0 0 7.45058e-09  0 0 7.45058e-09  0.000978298 0.0470052 0.0568318  0 0 -1.49012e-08  0.0128205 0.123596 0.111553  0.0361477 0.151495 0.124328  0.0201565 0.154154 0.222658  0.0185905 0.169735 0.185312  0.0439369 0.210888 0.204784  0.0489416 0.191976 0.248996  0.0215446 0.180685 0.312754  0.00471339 0.128872 0.167393  0.00576815 0.152039 0.236783  0.00374982 0.116348 0.203552  0.0217009 0.20353 0.263497  0.0486266 0.256124 0.291742  0.0202863 0.190678 0.405531  0.0227152 0.222825 0.347828  0.0493279 0.284564 0.386176  0.0503245 0.246523 0.45061  0.0196092 0.184774 0.49908  0.00645342 0.161783 0.31048  0.00647134 0.160554 0.383392  0.00211719 0.133145 0.367027  0.0229934 0.228238 0.432602  0.0496943 0.296659 0.483708  0.0184057 0.162441 0.58862  0.0227162 0.217768 0.517115  0.0489561 0.291097 0.580276  0.0477615 0.227795 0.656249  0.0180666 0.124738 0.674064  0.00667292 0.1446 0.455474  0.0063749 0.118439 0.5233  0.000572264 0.0932509 0.526847  0.0224425 0.193635 0.598227  0.0486277 0.268711 0.675243  0.0172884 0.0729572 0.750093  0.0221643 0.154847 0.673477  0.0479966 0.230358 0.763369  0.0461006 0.139572 0.841412  0.0173144 0.00821406 0.817111  0.00653291 0.078706 0.585197  0.00621969 0.0307335 0.639698  -0.000185072 0.000638127 0.663025  0.0219491 0.104225 0.741086  0.0478151 0.176736 0.844398  0.016799 -0.0665317 0.870516  0.0218241 0.0419464 0.798193  0.0474187 0.110427 0.913697  0.0453376 -0.00677782 0.98432  0.0170397 -0.150282 0.911045  0.00642657 -0.0278319 0.683993  0.006163 -0.0916306 0.718533  -0.000466764 -0.133166 0.758752  0.0217268 -0.0288177 0.844111  0.0474353 0.0323319 0.971139  0.016678 -0.238761 0.935399  0.0217197 -0.106887 0.876205  0.0472021 -0.0537082 1.01327  0.0450987 -0.193136 1.0679  0.017049 -0.331237 0.944601  0.00642526 -0.161794 0.739896  0.00621843 -0.233531 0.750311  -0.000492692 -0.291576 0.802439  0.0217171 -0.189057 0.894907  0.0473613 -0.146673 1.04027  0.0167828 -0.422616 0.937011  0.0217936 -0.273333 0.898147  0.0472374 -0.241876 1.05019  0.0451657 -0.396664 1.0822  0.0172344 -0.512535 0.913839  0.006531 -0.30669 0.746202  0.0063709 -0.37757 0.731278  -0.000359297 -0.455167 0.788917  0.0218599 -0.356851 0.887421  0.0474942 -0.338362 1.04355  0.0170236 -0.595675 0.875283  0.0219916 -0.437047 0.861465  0.0474418 -0.431108 1.0201  0.0454119 -0.592547 1.02561  0.0175147 -0.672095 0.822598  0.00671923 -0.444798 0.702247  0.00658667 -0.506179 0.663841  -0.000129938 -0.603996 0.719949  0.0220988 -0.511735 0.822661  0.0477577 -0.519374 0.980693  0.0173213 -0.736877 0.757789  0.0222545 -0.578084 0.770691  0.0477418 -0.598367 0.926761  0.0457424 -0.756946 0.905096  0.0178132 -0.790499 0.682016  0.0069474 -0.559289 0.613443  0.00681663 -0.603692 0.556241  0.000131965 -0.719955 0.60399  0.0223715 -0.634849 0.708545  0.0480794 -0.667675 0.859383  0.017599 -0.82903 0.598839  0.0225186 -0.679264 0.636882  0.0480624 -0.723289 0.781528  0.0460687 -0.869846 0.735329  0.0180529 -0.85331 0.50919  0.00716412 -0.63621 0.490612  0.00701058 -0.658208 0.421573  0.000361562 -0.788921 0.45516  0.0226127 -0.711181 0.558949  0.048384 -0.765194 0.694372  0.0177771 -0.860865 0.417756  0.0227175 -0.728221 0.476299  0.0483247 -0.790624 0.602047  0.0462981 -0.917456 0.536939  0.0181499 -0.852802 0.325136  0.00732398 -0.66614 0.348696  0.00712967 -0.663007 0.276227  0.000495672 -0.802442 0.29157  0.0227556 -0.731357 0.392054  0.0485854 -0.799985 0.505696  0.0177584 -0.828392 0.236578  0.0227811 -0.718881 0.308472  0.0484297 -0.792069 0.410119  0.0463097 -0.893862 0.334029  0.0179846 -0.788897 0.152272  0.00739503 -0.645327 0.204993  0.00714564 -0.617385 0.137958  0.000469923 -0.758754 0.133161  0.0227139 -0.692791 0.228192  0.0485604 -0.767679 0.316284  0.0173771 -0.735406 0.0774343  0.022594 -0.652241 0.1539  0.0482061 -0.727306 0.229094  0.0458951 -0.801733 0.15127  0.0173087 -0.669234 0.0117404  0.00733662 -0.576191 0.0771205  0.00698447 -0.526841 0.0237919  0.000188112 -0.663026 -0.000642225  0.0222857 -0.60012 0.0874428  0.0480626 -0.672089 0.149192  0.0162385 -0.593123 -0.0400787  0.0218198 -0.536471 0.0316478  0.04723 -0.604156 0.0811007  0.0445552 -0.651986 0.0109711  0.0154843 -0.508326 -0.0792004  0.00697947 -0.467235 -0.0190898  0.00633216 -0.402651 -0.0520609  -0.000569582 -0.526848 -0.0932539  0.0208213 -0.464984 -0.0128396  0.0464156 -0.525009 0.0247964  0.0134225 -0.419047 -0.101353  0.0194399 -0.386511 -0.0431214  0.0440166 -0.438294 -0.0156267  0.0406101 -0.462871 -0.0695859  0.0112972 -0.325836 -0.109443  0.0058136 -0.332317 -0.0717777  0.0044837 -0.260812 -0.0803786  -0.00211549 -0.367027 -0.133147  0.0168364 -0.305062 -0.0606165  0.0411217 -0.345759 -0.041927  0.00792694 -0.235311 -0.0997963  0.0135381 -0.22283 -0.0623022  0.0339451 -0.253241 -0.0511824  0.029074 -0.260754 -0.0828519  0.0046382 -0.146676 -0.076694  0.00336552 -0.188864 -0.0753654  0.00169945 -0.119654 -0.0600285  -0.00374889 -0.203552 -0.116349  0.00964355 -0.141511 -0.0521313  0.0256276 -0.160845 -0.0459945  0.00311852 -0.0678587 -0.0417477  0.00436521 -0.0680081 -0.028723  0.0120866 -0.07826 -0.0330544  0.0100038 -0.0744897 -0.0379173  0 2.38419e-07 -2.90573e-07  0.00123692 -0.0559726 -0.0319709  0 1.78814e-07 -2.5332e-07  -0.00097847 -0.0568315 -0.0470053  0 1.78814e-07 -2.90573e-07  0 1.78814e-07 -3.27826e-07  0 0 0  -0.00526297 0.0470463 0.0754076  0.00242081 0.0520182 0.0707368  0.0224374 0.0638479 0.0942218  0.0141044 0.0503161 0.0958399  -0.00620368 0.0808368 0.168702  -0.0031186 0.0417476 0.0678592  -0.00463767 0.0766927 0.146676  0 0 7.45058e-09  0 0 7.45058e-09  -0.0100037 0.0379167 0.0744909  0 0 -1.49012e-08  0.0096488 0.0984898 0.157557  0.0402035 0.120837 0.180689  -0.0136199 0.111928 0.275628  0.00937778 0.134043 0.254717  0.040475 0.168342 0.285588  0.0190613 0.14084 0.30761  -0.0201859 0.124294 0.386719  -0.00792567 0.0997947 0.235312  -0.0112957 0.109441 0.325836  -0.029072 0.0828502 0.260755  0.00806415 0.153511 0.354869  0.0390587 0.197069 0.394495  -0.0234475 0.11877 0.496916  0.00513461 0.15492 0.456916  0.0359778 0.206063 0.505441  0.00768068 0.165305 0.545817  -0.0260654 0.0939367 0.605538  -0.0134203 0.101351 0.419048  -0.0154817 0.0791976 0.508325  -0.0406074 0.0695837 0.462871  0.0032264 0.138738 0.557376  0.0334669 0.194848 0.615695  -0.0275865 0.0519179 0.707107  0.00174904 0.105659 0.653066  0.0318418 0.16565 0.722097  0.00237107 0.1077 0.774537  -0.0285593 -0.00853097 0.799736  -0.0162355 0.0400755 0.593122  -0.0173053 -0.011744 0.669232  -0.0445518 -0.0109739 0.651985  0.00075537 0.0558622 0.74127  0.0304281 0.117179 0.820689  -0.0292761 -0.0825237 0.880567  0.00015527 -0.0079174 0.819607  0.0297837 0.0532899 0.910339  0.000251174 -0.0245197 0.968272  -0.02959 -0.170871 0.946368  -0.0173737 -0.0774379 0.735405  -0.0179811 -0.152277 0.788895  -0.0458913 -0.151274 0.801731  -0.000259519 -0.0849068 0.885016  0.0291075 -0.0259722 0.985863  -0.0298995 -0.267933 0.996738  -0.000463784 -0.171628 0.936536  0.028934 -0.116704 1.04792  -0.000544786 -0.214904 1.10419  -0.0298942 -0.373288 1.02802  -0.0177549 -0.236583 0.828389  -0.0181463 -0.325141 0.852799  -0.0463054 -0.334034 0.893858  -0.000581563 -0.266266 0.971356  0.0286444 -0.216937 1.09144  -0.029991 -0.481596 1.0419  -0.000589013 -0.365299 0.989856  0.0287104 -0.323356 1.11842  -0.000706792 -0.440062 1.16615  -0.0298184 -0.591127 1.03503  -0.0177735 -0.417762 0.860862  -0.01805 -0.509196 0.853306  -0.0462943 -0.536945 0.917452  -0.000546932 -0.46601 0.989973  0.028625 -0.432307 1.12478  -0.0298012 -0.697489 1.01082  -0.000446439 -0.565269 0.973276  0.0288234 -0.541413 1.1135  -0.000535846 -0.672525 1.14685  -0.0295422 -0.797883 0.966715  -0.0175964 -0.598845 0.829026  -0.0178107 -0.682022 0.790494  -0.0460656 -0.735335 0.869842  -0.000317693 -0.659791 0.938754  0.0288476 -0.645815 1.082  -0.0294728 -0.889367 0.90741  -0.00016284 -0.747195 0.888945  0.0291156 -0.744327 1.0339  -0.000195742 -0.884014 1.04881  -0.0291847 -0.968423 0.831477  -0.0173187 -0.757796 0.736871  -0.0175122 -0.822605 0.672089  -0.0457393 -0.905102 0.75694  1.54972e-06 -0.824033 0.824028  0.029188 -0.831482 0.968417  -0.0291121 -1.0339 0.744321  0.000165701 -0.888951 0.747189  0.0294762 -0.907416 0.889361  0.000198722 -1.04881 0.884009  -0.0288439 -1.08201 0.645809  -0.0170212 -0.875289 0.595669  -0.0172321 -0.913844 0.512529  -0.045409 -1.02562 0.592541  0.000320673 -0.93876 0.659784  0.0295459 -0.96672 0.797876  -0.0288194 -1.11351 0.541406  0.000449657 -0.97328 0.565263  0.0298046 -1.01082 0.697483  0.000540018 -1.14686 0.672519  -0.0286211 -1.12478 0.432302  -0.0167801 -0.937016 0.422609  -0.0170459 -0.944604 0.331231  -0.045162 -1.0822 0.396658  0.000550508 -0.989976 0.466004  0.029822 -1.03504 0.591121  -0.028706 -1.11843 0.323351  0.000592947 -0.989859 0.365294  0.0299957 -1.04191 0.48159  0.000712156 -1.16615 0.440055  -0.0286402 -1.09144 0.216933  -0.0166743 -0.935403 0.238755  -0.0170358 -0.911048 0.150276  -0.0450941 -1.06791 0.19313  0.000585794 -0.971359 0.26626  0.0298989 -1.02803 0.373284  -0.0289299 -1.04792 0.116699  0.000468016 -0.936539 0.171622  0.0299037 -0.99674 0.267928  0.000549555 -1.1042 0.214899  -0.0291033 -0.985866 0.0259678  -0.0167954 -0.870518 0.0665267  -0.0173109 -0.817113 -0.00821821  -0.0453331 -0.984323 0.00677264  0.000263453 -0.885018 0.0849023  0.0295942 -0.946369 0.170866  -0.0297792 -0.910341 -0.0532942  -0.000151396 -0.819609 0.00791342  0.0292807 -0.880569 0.0825195  -0.000246763 -0.968274 0.0245156  -0.0304241 -0.820691 -0.117183  -0.0172849 -0.750095 -0.0729615  -0.0180633 -0.674065 -0.124742  -0.0460963 -0.841413 -0.139577  -0.000751734 -0.741271 -0.0558659  0.0285635 -0.799737 0.00852745  -0.0318379 -0.722098 -0.165653  -0.00174594 -0.653067 -0.105662  0.0275903 -0.707108 -0.0519209  -0.00236702 -0.774538 -0.107704  -0.0334637 -0.615696 -0.194851  -0.0184028 -0.588621 -0.162443  -0.0196068 -0.499081 -0.184777  -0.0477583 -0.65625 -0.227799  -0.00322366 -0.557376 -0.138741  0.0260689 -0.605539 -0.0939393  -0.0359752 -0.50544 -0.206066  -0.00513244 -0.456916 -0.154922  0.0234504 -0.496915 -0.118772  -0.00767756 -0.545817 -0.165307  -0.0390573 -0.394495 -0.197071  -0.0202847 -0.405531 -0.19068  -0.0215435 -0.312754 -0.180687  -0.0503225 -0.45061 -0.246525  -0.00806236 -0.354869 -0.153513  0.0201879 -0.386719 -0.124295  -0.0404739 -0.285587 -0.168344  -0.009377 -0.254717 -0.134045  0.0136216 -0.275627 -0.111929  -0.0190592 -0.307608 -0.140842  -0.0402026 -0.180688 -0.120838  -0.0201557 -0.222657 -0.154156  -0.0170636 -0.136619 -0.113381  -0.0489407 -0.248995 -0.191977  -0.00964832 -0.157556 -0.0984905  0.00620461 -0.1687 -0.0808373  -0.0224373 -0.0942205 -0.0638488  -0.0024209 -0.0707361 -0.0520183  0.00526309 -0.0754066 -0.0470466  -0.0141039 -0.0958381 -0.0503166  0 3.57628e-07 -2.6077e-07  -0.00583076 -0.0604768 -0.0603175  0 2.98023e-07 -2.5332e-07  -0.0236135 -0.0801246 -0.0740438  0 2.98023e-07 -2.90573e-07  0 2.98023e-07 -3.27826e-07  0.00104945 0.0453516 -0.0509554  0.00372311 0.0483433 -0.0665288  0.00400816 0.102415 -0.0963234  0.00233973 0.0355489 -0.0705265  0.00954939 0.083553 -0.132956  0.0122306 0.043945 -0.0868518  0 0 0  0.0172317 0.0636842 -0.0815073  0 1.49012e-08 0  0 7.45058e-09 0  -6.49095e-05 0.0325435 -0.0548191  0 7.45058e-09 0  0.0354906 0.125536 -0.154807  0.0141087 0.111221 -0.124911  0.00545284 0.166762 -0.129977  0.0194309 0.184848 -0.170832  0.00624013 0.236896 -0.153299  0.0135794 0.144033 -0.183121  0.0166897 0.210239 -0.225227  0.0309113 0.159168 -0.227058  0.0435201 0.2061 -0.212391  0.0036194 0.128911 -0.141633  0.0473367 0.293317 -0.258237  0.0217627 0.263481 -0.205058  0.00631243 0.309447 -0.163203  0.0220556 0.347171 -0.224076  0.00652599 0.382646 -0.161409  0.0177259 0.283596 -0.253434  0.0185817 0.359823 -0.271187  0.0374249 0.318147 -0.319268  0.0477771 0.387578 -0.28521  0.00555027 0.249253 -0.190975  0.0479151 0.483899 -0.297487  0.022157 0.431576 -0.229395  0.00663787 0.453983 -0.145914  0.0220064 0.516042 -0.218772  0.00681114 0.521808 -0.119092  0.0185603 0.437769 -0.273222  0.018973 0.514918 -0.263685  0.0383867 0.498424 -0.35172  0.0473827 0.580624 -0.290795  0.00654435 0.378457 -0.197518  0.0474494 0.674495 -0.269103  0.0220469 0.596605 -0.194735  0.00688249 0.58339 -0.0799097  0.0219234 0.67201 -0.155618  0.00703371 0.63774 -0.0313074  0.0188097 0.588615 -0.238846  0.0191556 0.65757 -0.20328  0.0384347 0.67782 -0.320155  0.0469746 0.762658 -0.229506  0.00710696 0.501553 -0.159443  0.0472263 0.843076 -0.176835  0.0220328 0.739201 -0.105259  0.00703651 0.68201 0.0267767  0.0219134 0.796414 -0.0424855  0.00714302 0.716265 0.091157  0.0189439 0.71811 -0.154498  0.0192465 0.77053 -0.0973173  0.038448 0.834962 -0.228708  0.046809 0.912063 -0.109248  0.00740951 0.603872 -0.0812186  0.0471344 0.969354 -0.0321358  0.0220343 0.842097 0.0279531  0.00709724 0.737808 0.160959  0.0219003 0.87416 0.106604  0.00717735 0.747817 0.233187  0.0189942 0.810525 -0.0306348  0.0192679 0.840047 0.0410963  0.0384392 0.950857 -0.088742  0.0467252 1.01081 0.0550631  0.00753653 0.67294 0.0275455  0.0470709 1.03805 0.14714  0.0220189 0.892805 0.188447  0.00711882 0.744043 0.306122  0.021885 0.895859 0.273301  0.00720441 0.728631 0.377353  0.0189997 0.854656 0.117456  0.0192722 0.857724 0.194936  0.0384047 1.01149 0.082499  0.0466685 1.04698 0.243237  0.00758028 0.700366 0.153441  0.0470363 1.04093 0.33902  0.0220188 0.885247 0.356527  0.00716484 0.700047 0.444506  0.0219115 0.858975 0.437215  0.0072813 0.661133 0.506054  0.0190194 0.845218 0.271627  0.0193195 0.821504 0.345396  0.0383935 1.00959 0.264062  0.046665 1.01631 0.432279  0.00762105 0.682882 0.281036  0.0470778 0.977744 0.52009  0.022083 0.820444 0.511673  0.00727928 0.611257 0.559243  0.0220234 0.768086 0.578366  0.00743806 0.553609 0.60362  0.0191052 0.783441 0.413071  0.0194523 0.73586 0.47415  0.0384662 0.945478 0.433811  0.0467645 0.922616 0.599152  0.00771224 0.622687 0.394764  0.0472416 0.856263 0.668305  0.0222462 0.706358 0.634998  0.00747633 0.48853 0.636375  0.0222385 0.634305 0.67958  0.00767219 0.419177 0.658178  0.0192853 0.676888 0.52457  0.0196834 0.611238 0.565524  0.0386649 0.826994 0.57108  0.0469948 0.777351 0.723546  0.00787878 0.527147 0.480779  0.0475358 0.691301 0.765632  0.0225058 0.556905 0.711496  0.00773656 0.346827 0.666495  0.0225302 0.473924 0.728528  0.00795054 0.274218 0.663047  0.0195541 0.538526 0.592531  0.0199876 0.462792 0.608353  0.0389856 0.668563 0.659143  0.0473337 0.598207 0.790309  0.00812149 0.407903 0.528583  0.0479031 0.502929 0.8002  0.0228107 0.390272 0.731828  0.00801754 0.203428 0.64588  0.0228174 0.306467 0.71919  0.008219 0.136439 0.617552  0.0198681 0.38519 0.608604  0.0203032 0.308596 0.597313  0.0393496 0.489452 0.687207  0.047673 0.406976 0.791258  0.00843453 0.279491 0.532283  0.0481815 0.314039 0.767715  0.0230515 0.226751 0.693425  0.0082705 0.0758936 0.576965  0.0229619 0.152363 0.65261  0.00841832 0.0227755 0.527203  0.0201609 0.235584 0.570729  0.0205536 0.167516 0.533685  0.0395749 0.311467 0.651761  0.0477824 0.22692 0.726192  0.00883269 0.157628 0.491357  0.0480626 0.147618 0.672018  0.0230603 0.0863443 0.600885  0.00840521 -0.0200326 0.46826  0.0227253 0.0305255 0.536973  0.00831032 -0.0527191 0.40333  0.0203514 0.10805 0.483662  0.0205545 0.0569279 0.425716  0.0393944 0.156372 0.557212  0.0472701 0.0799854 0.603051  0.00934339 0.0573002 0.410981  0.0469048 0.0240301 0.524903  0.0223873 -0.0136669 0.465819  0.00782609 -0.0725894 0.333676  0.0212374 -0.0441295 0.387162  0.00673389 -0.0810326 0.261873  0.0199037 0.0182104 0.359113  0.0189898 -0.00990619 0.288638  0.0381165 0.0433269 0.416257  0.0450897 -0.0158641 0.437519  0.00954056 -0.00930439 0.301895  0.0423894 -0.0419373 0.345813  0.0192041 -0.0613858 0.306023  0.00476933 -0.0762722 0.1904  0.015656 -0.0634762 0.22319  0.002352 -0.0602038 0.120741  0.0160716 -0.0238988 0.214746  0.011945 -0.026965 0.141776  0.03175 -0.0151144 0.25009  0.0367427 -0.0506556 0.252746  0.00737858 -0.0350627 0.178765  0.026937 -0.046281 0.160741  0.0102501 -0.0525603 0.14283  0.000519514 -0.0329335 0.0561479  0.00436091 -0.0289912 0.067774  0 -2.23517e-07 -1.78814e-07  0.00537658 -0.0176569 0.0690891  0 -2.90573e-07 -1.49012e-07  0.01018 -0.0209391 0.0823748  0.0113735 -0.0322139 0.0766624  0.00211644 -0.0191789 0.0559392  0 -3.57628e-07 -1.78814e-07  0 -2.90573e-07 -1.78814e-07  -0.00138071 0.0427341 -0.0219428  -0.000630289 0.04359 -0.0359029  -0.00281094 0.0903132 -0.0389561  -0.00100957 0.0310347 -0.0385101  -0.000544503 0.0700755 -0.0732346  0 0 0  0 0 0  -0.00162093 0.0298605 -0.0246336  0 0 0  -0.00090234 0.0950655 -0.0670667  -0.00403738 0.140236 -0.0468192  -0.000425011 0.152846 -0.0879259  -0.0044015 0.191991 -0.0464709  -0.000429407 0.11524 -0.0990764  -0.000411004 0.163871 -0.11833  -0.00313042 0.102416 -0.0582245  -0.000980824 0.213243 -0.0999201  -0.00457126 0.242373 -0.0373181  -0.00122115 0.274821 -0.100588  -0.00418755 0.291278 -0.0195387  4.65214e-05 0.215339 -0.12779  0.000402749 0.267525 -0.12984  -0.00306311 0.182994 -0.0656395  -0.0012587 0.335653 -0.0910794  -0.00375926 0.336119 0.00653595  -0.000908732 0.394092 -0.0704473  -0.00326556 0.37624 0.04006  0.000803769 0.319163 -0.121372  0.00123221 0.368687 -0.105376  -0.00197083 0.261763 -0.0453733  -0.000756085 0.447997 -0.0406304  -0.00288069 0.409658 0.0801976  -0.000388861 0.495881 -0.000954077  -0.00258881 0.435899 0.125554  0.00153118 0.414374 -0.0796627  0.0018456 0.455339 -0.0475326  -0.00092715 0.329043 0.000764728  -0.000300348 0.536249 0.0456859  -0.00239098 0.453509 0.17484  -5.58496e-05 0.567536 0.0995287  -0.00226885 0.462541 0.226483  0.00199372 0.4894 -0.00758177  0.00216961 0.516786 0.0367464  -0.000302374 0.37645 0.0673594  -6.58631e-05 0.589363 0.157261  -0.00218952 0.462118 0.278824  8.85725e-05 0.600194 0.218602  -0.00214565 0.452841 0.330402  0.00220752 0.53501 0.0860154  0.00230217 0.54547 0.137072  -2.22921e-05 0.398062 0.146261  2.563e-05 0.600825 0.280311  -0.00210822 0.434465 0.379373  0.000147581 0.589912 0.34161  -0.00207901 0.408051 0.424578  0.00229228 0.54565 0.189594  0.00236261 0.53794 0.241112  8.89301e-05 0.391247 0.227765  7.80821e-05 0.569314 0.39974  -0.00203764 0.374003 0.464204  0.000208497 0.538033 0.453511  -0.00199211 0.333707 0.497531  0.00234997 0.520087 0.290462  0.00243151 0.49518 0.336153  0.000157475 0.356894 0.301895  0.000160694 0.498753 0.500974  -0.00192845 0.288164 0.522994  0.000320435 0.450947 0.540671  -0.00185573 0.238917 0.540389  0.00244069 0.461497 0.376318  0.00255191 0.422447 0.410616  0.000247836 0.299244 0.359619  0.000303745 0.397797 0.571694  -0.00176382 0.187446 0.548589  0.000498414 0.339303 0.592485  -0.0016613 0.135262 0.547927  0.00259447 0.377049 0.436703  0.00274444 0.328623 0.455427  0.000391006 0.225354 0.393908  0.000512719 0.27877 0.603286  -0.00153601 0.0841562 0.537855  0.000739694 0.216727 0.602626  -0.00139296 0.0354253 0.519193  0.00283051 0.277049 0.464241  0.00303364 0.225159 0.465082  0.000617504 0.144254 0.400566  0.000784636 0.156202 0.591866  -0.00121307 -0.0090493 0.492057  0.00104547 0.0982013 0.569804  -0.000997782 -0.0483293 0.457642  0.0031848 0.173713 0.455516  0.00346994 0.124723 0.438334  0.000992775 0.0658769 0.378739  0.00113487 0.0451062 0.538754  -0.000720739 -0.0806948 0.41674  0.00144315 -0.00172327 0.497961  -0.000391245 -0.105674 0.370788  0.00372696 0.0797186 0.411551  0.00412393 0.0396679 0.378473  0.00162864 -0.000138134 0.331065  0.00159979 -0.040832 0.450412  -1.04904e-05 -0.121967 0.321136  0.00193882 -0.0707118 0.395924  0.000400066 -0.129669 0.269301  0.00449872 0.0065932 0.337861  0.00492406 -0.0196403 0.293153  0.00259018 -0.0457014 0.263461  0.0020721 -0.0910437 0.337804  0.0007236 -0.128072 0.216907  0.00222635 -0.100357 0.276404  0.00100303 -0.117934 0.165356  0.00516462 -0.0369385 0.243948  0.00513673 -0.0463962 0.193387  0.00355387 -0.0655045 0.184417  0.00197148 -0.0996673 0.214817  0.00107574 -0.098941 0.116146  0.00154781 -0.0876152 0.153999  0.00110888 -0.0729266 0.0708923  0.00447011 -0.046247 0.141633  0.00337434 -0.0382931 0.0913732  0.00351644 -0.057797 0.103395  0.000949383 -0.0666332 0.0962648  0.000885487 -0.0387532 0.0313173  0.000434875 -0.0360316 0.0437575  0 -1.19209e-07 -1.78814e-07  0.00158715 -0.0215639 0.0429104  0 -1.78814e-07 -1.19209e-07  0.00164056 -0.0240177 0.0298755  0 -1.78814e-07 -1.78814e-07  -0.00177146 0.0411891 0.00540024  -0.00164998 0.0420603 -0.00772841  -0.00330426 0.0821283 0.0169016  -0.00184828 0.0286029 -0.00989994  -0.0029732 0.059449 -0.016325  0 0 0  0 0 0  -0.00203666 0.0275065 0.00332642  0 0 0  -0.00315523 0.0861951 -0.010423  -0.00409064 0.119277 0.0356165  -0.00438939 0.129477 -0.00520071  -0.00377408 0.153681 0.0604089  -0.0037995 0.0907773 -0.0167664  -0.00416631 0.122018 -0.0125494  -0.00406751 0.079549 0.0235132  -0.00489581 0.172205 0.0070183  -0.00337559 0.183095 0.0905957  -0.00462973 0.211951 0.0267777  -0.00254056 0.207735 0.125553  -0.00381035 0.151991 -0.0022971  -0.00332278 0.180205 0.0122595  -0.00367761 0.122265 0.060159  -0.00422335 0.24858 0.0527613  -0.00192094 0.225821 0.164065  -0.00344151 0.27999 0.0851018  -0.00127012 0.237527 0.205481  -0.00259322 0.205383 0.0321877  -0.00203246 0.227087 0.0555615  -0.00232905 0.150833 0.109342  -0.00293791 0.305976 0.122237  -0.000889301 0.241589 0.247882  -0.00237155 0.324699 0.163495  -0.000524163 0.238483 0.290887  -0.00142956 0.244162 0.0830196  -0.00109625 0.25662 0.112485  -0.00117052 0.161322 0.165504  -0.00209492 0.336478 0.207427  -0.000373125 0.227782 0.332054  -0.00180012 0.339947 0.252615  -0.000188231 0.210078 0.371357  -0.00072962 0.263285 0.144182  -0.000611365 0.264876 0.176158  -0.000497222 0.152028 0.221918  -0.00170821 0.335897 0.29794  -0.000156641 0.185897 0.406266  -0.00156283 0.323634 0.341528  -4.49419e-05 0.15577 0.437033  -0.00040555 0.260258 0.208205  -0.000403166 0.250772 0.238762  -0.000181437 0.123947 0.271659  -0.00155485 0.304248 0.382661  -5.07832e-05 0.121099 0.46144  -0.00146067 0.277779 0.419328  4.87566e-05 0.0822712 0.479924  -0.000267148 0.235452 0.267237  -0.000303745 0.216073 0.292635  -3.62396e-05 0.0805417 0.308635  -0.00147092 0.245468 0.451241  4.51803e-05 0.0413737 0.490878  -0.00137758 0.208055 0.476529  0.000156641 -0.0013921 0.494845  -0.000182152 0.191945 0.314073  -0.000217915 0.165063 0.331221  6.04391e-05 0.0271645 0.328357  -0.00137639 0.166793 0.495346  0.000167131 -0.0435104 0.491028  -0.00126493 0.123018 0.506187  0.000294685 -0.084987 0.480003  -8.60691e-05 0.135086 0.343017  -0.000103474 0.103995 0.349831  0.000163913 -0.0296379 0.328447  -0.00124359 0.077852 0.509623  0.000322461 -0.123176 0.461886  -0.0011071 0.0330679 0.504697  0.000469804 -0.158289 0.437206  5.38826e-05 0.0718367 0.350551  7.12872e-05 0.0403408 0.346196  0.000298977 -0.0829118 0.30891  -0.00106001 -0.0104804 0.492329  0.000526309 -0.187866 0.406992  -0.000887513 -0.0507882 0.472227  0.000717163 -0.212296 0.371651  0.000277638 0.00993901 0.335745  0.00036478 -0.0180947 0.320738  0.000506639 -0.126127 0.272125  -0.00079155 -0.0873773 0.445544  0.000841141 -0.229613 0.333021  -0.000548601 -0.11825 0.412703  0.00112939 -0.240332 0.291336  0.000670195 -0.0430008 0.300381  0.000888109 -0.064117 0.276545  0.000880957 -0.153955 0.222574  -0.000352144 -0.143367 0.374944  0.00138259 -0.243262 0.249006  1.90735e-05 -0.160999 0.333368  0.00183129 -0.238985 0.206093  0.00136137 -0.0804615 0.248773  0.00176477 -0.0920794 0.219035  0.00156689 -0.16296 0.166316  0.00037384 -0.171565 0.289157  0.00223899 -0.227269 0.165186  0.000894547 -0.173847 0.2439  0.00281715 -0.208791 0.126242  0.00241852 -0.0979203 0.187264  0.00293398 -0.0987463 0.155264  0.00264144 -0.152129 0.110217  0.00136423 -0.168747 0.198613  0.00323963 -0.18414 0.0914918  0.00186944 -0.155655 0.155033  0.00363088 -0.154277 0.0609196  0.00354433 -0.093603 0.123303  0.00377965 -0.0838068 0.0928144  0.00379729 -0.123138 0.0609379  0.00219512 -0.135953 0.113919  0.00361133 -0.119936 0.036045  0.00226593 -0.109501 0.0769  0.00312448 -0.0825249 0.0170446  0.00375557 -0.068554 0.0642081  0.00306225 -0.0495666 0.0388339  0.00401926 -0.0799857 0.0238626  0.00205541 -0.0780189 0.044653  0.00187993 -0.0421876 0.00510827  0.00128365 -0.0409975 0.0187109  0 0 -1.78814e-07  0.00184011 -0.0258349 0.0169702  0 -5.96046e-08 -1.19209e-07  0.0019865 -0.0276157 0.00323212  0 -5.96046e-08 -1.78814e-07  -0.00118262 0.0380287 0.0313836  -0.00136477 0.0400876 0.0187725  -0.00137149 0.0729561 0.0703843  -0.00182777 0.0260865 0.0171426  -0.00308914 0.0496504 0.0382788  0 0 0  0 0 0  -0.00170083 0.024334 0.0302035  0 0 0  -0.00232205 0.0778799 0.0441826  -0.00125244 0.098598 0.115327  -0.00261518 0.109011 0.0761669  -0.000438899 0.117559 0.164462  -0.00368191 0.0685759 0.0637466  -0.00363475 0.083512 0.0918756  -0.00331955 0.0575619 0.102949  -0.00222921 0.1355 0.112958  -3.3021e-05 0.127302 0.215872  -0.00139046 0.154704 0.154191  0.000626683 0.129015 0.268562  -0.00316268 0.093116 0.122649  -0.00254944 0.097992 0.154328  -0.00293407 0.064634 0.1838  -0.000640035 0.167851 0.197738  0.000903249 0.120878 0.320199  6.92606e-05 0.172402 0.24296  0.00133061 0.104671 0.370423  -0.00180155 0.0969082 0.186764  -0.00128359 0.0909438 0.218276  -0.00193286 0.0443345 0.262822  0.000629783 0.170282 0.288531  0.00142843 0.079335 0.416001  0.000981867 0.159257 0.332442  0.00170815 0.0468357 0.457592  -0.000702202 0.07893 0.248459  -0.000442147 0.0626099 0.276033  -0.001104 -0.0016132 0.330444  0.00129008 0.141679 0.374552  0.00169259 0.00738323 0.491556  0.00141835 0.116281 0.411896  0.00189793 -0.0374444 0.519355  -7.61151e-05 0.0409873 0.300222  -7.15256e-06 0.0162132 0.320473  -0.000616431 -0.0679629 0.378186  0.00157714 0.0852942 0.445336  0.00183702 -0.086132 0.537588  0.00161171 0.0486324 0.471588  0.00202239 -0.137745 0.548206  0.000226259 -0.0123674 0.335698  0.000203013 -0.0425587 0.346147  -0.0003618 -0.146609 0.400101  0.00171435 0.00806344 0.492264  0.00195897 -0.189673 0.54853  0.00172722 -0.0353442 0.50425  0.00215316 -0.241732 0.540711  0.000382662 -0.0745739 0.350571  0.000331044 -0.106468 0.34996  -0.000204325 -0.227875 0.393538  0.00182402 -0.0804977 0.509665  0.00210166 -0.290547 0.523128  0.00184441 -0.125328 0.505956  0.00230849 -0.336694 0.497856  0.000499368 -0.137993 0.343072  0.000446439 -0.167681 0.331495  -6.78301e-05 -0.301805 0.359367  0.00195122 -0.169538 0.495479  0.00226414 -0.376439 0.46453  0.00198412 -0.210312 0.476544  0.00247395 -0.411044 0.424895  0.0006181 -0.194866 0.314154  0.000572443 -0.218715 0.293032  6.85453e-05 -0.359373 0.301798  0.00209987 -0.24818 0.451463  0.00242805 -0.436864 0.379891  0.00214291 -0.279913 0.419612  0.002635 -0.455692 0.330718  0.000754237 -0.238232 0.267358  0.000727773 -0.253317 0.239268  0.000205278 -0.393543 0.227868  0.0022682 -0.306804 0.382979  0.0025897 -0.464408 0.279524  0.0023303 -0.325594 0.342092  0.00280619 -0.465121 0.226808  0.000942469 -0.262762 0.208395  0.000970602 -0.267213 0.176768  0.000362873 -0.400104 0.146603  0.00248575 -0.338194 0.298369  0.0027895 -0.455631 0.175685  0.0026021 -0.341705 0.253442  0.00305462 -0.438095 0.125891  0.00126982 -0.265402 0.144478  0.00142121 -0.258646 0.11319  0.000617743 -0.378189 0.0679575  0.00283551 -0.338435 0.207979  0.00311971 -0.411546 0.0811173  0.00306225 -0.326231 0.164526  0.00347805 -0.377935 0.0404046  0.00187802 -0.245798 0.083455  0.00222087 -0.22868 0.0563485  0.00110507 -0.330445 0.00160852  0.00342298 -0.307526 0.122919  0.00366282 -0.33767 0.00742915  0.00376678 -0.281245 0.0862254  0.00407004 -0.292339 -0.0191953  0.00285459 -0.206469 0.0327733  0.00332737 -0.181219 0.0131083  0.00193357 -0.262823 -0.0443377  0.00420952 -0.249648 0.0535429  0.00426459 -0.243474 -0.036602  0.00445008 -0.212869 0.0278186  0.00436831 -0.192436 -0.0461968  0.00393271 -0.152564 -0.00168416  0.00409794 -0.12251 -0.0117459  0.00293469 -0.1838 -0.0646363  0.00466514 -0.172702 0.00776553  0.00407076 -0.140996 -0.0464202  0.00422931 -0.130187 -0.00446288  0.00312138 -0.0906361 -0.0387174  0.00410199 -0.0909096 -0.0164134  0.00320101 -0.0597389 -0.0160053  0.00331998 -0.102949 -0.0575629  0.00353909 -0.086549 -0.0100888  0.00171304 -0.0432689 -0.0222966  0.00190711 -0.0428388 -0.00760885  0 1.19209e-07 -1.78814e-07  0.00197935 -0.028816 -0.00982055  0 5.96046e-08 -1.19209e-07  0.00170088 -0.030203 -0.0243338  0 5.96046e-08 -1.78814e-07  -0.00123636 0.0319708 0.0559735  -0.000899009 0.0355798 0.0437995  -0.00169894 0.0600277 0.119654  -0.00171329 0.0222967 0.0432693  -0.00312144 0.038717 0.0906367  0 0 0  0 0 0  -0.00190652 0.0199659 0.0567864  0 0 0  -0.00160526 0.066645 0.0953889  -0.00336471 0.0753642 0.188865  -0.00116442 0.0871812 0.153375  -0.00448248 0.0803771 0.260812  -0.00407003 0.0464194 0.140997  -0.00436735 0.0461952 0.192436  -0.00621435 0.035367 0.178645  -0.00112915 0.0990746 0.213712  -0.00581208 0.071776 0.332317  -0.000862211 0.0993154 0.275809  -0.00633013 0.0520586 0.402651  -0.00426385 0.0366001 0.243475  -0.00406918 0.0191932 0.292338  -0.0083819 0.00883484 0.301939  -0.000749201 0.0903351 0.336942  -0.0069772 0.0190871 0.467234  -0.000706732 0.0693554 0.395303  -0.00698179 -0.0237949 0.52684  -0.00366169 -0.00743228 0.33767  -0.00347656 -0.0404084 0.377934  -0.00866884 -0.0584853 0.411099  -0.000612497 0.0398981 0.449857  -0.00733352 -0.0771245 0.57619  -0.000599205 8.21948e-05 0.497402  -0.00714314 -0.137962 0.617383  -0.00311828 -0.0811217 0.411545  -0.00305301 -0.125896 0.438093  -0.0084855 -0.159493 0.491457  -0.000533223 -0.0464209 0.53847  -0.00739241 -0.204998 0.645325  -0.000507712 -0.100181 0.569348  -0.00712758 -0.276232 0.663005  -0.00278777 -0.175691 0.455628  -0.0028047 -0.226813 0.465119  -0.00830418 -0.281971 0.532296  -0.000453472 -0.157956 0.591825  -0.00732172 -0.348702 0.666137  -0.000407934 -0.219014 0.602261  -0.00700855 -0.421579 0.658204  -0.00258827 -0.27953 0.464405  -0.00263369 -0.330725 0.455688  -0.00814617 -0.410838 0.528449  -0.000342965 -0.280928 0.603435  -0.00716209 -0.490619 0.636205  -0.000272155 -0.341785 0.592199  -0.00681472 -0.556248 0.603687  -0.00242674 -0.379897 0.436859  -0.00247276 -0.424902 0.411039  -0.00796986 -0.53032 0.480472  -0.000187516 -0.400255 0.571982  -0.00694561 -0.61345 0.559284  -9.60827e-05 -0.453481 0.540486  -0.00658488 -0.663847 0.506173  -0.00226295 -0.464536 0.376433  -0.00230718 -0.497863 0.336687  -0.00777054 -0.625867 0.394315  8.34465e-07 -0.501382 0.501376  -0.00671756 -0.702253 0.444792  9.76324e-05 -0.540491 0.453474  -0.00636923 -0.731284 0.377564  -0.00210059 -0.523134 0.290541  -0.00215197 -0.540717 0.241726  -0.00757635 -0.685863 0.280523  0.000188947 -0.571987 0.400249  -0.00652897 -0.746207 0.306683  0.000273705 -0.592204 0.341778  -0.00621617 -0.750315 0.233524  -0.00195754 -0.548535 0.189666  -0.00202107 -0.548211 0.137739  -0.00742543 -0.702987 0.152975  0.000344753 -0.603439 0.280921  -0.006423 -0.7399 0.161789  0.000409961 -0.602264 0.219008  -0.00616062 -0.718536 0.0916256  -0.00183547 -0.537592 0.0861259  -0.00189614 -0.519358 0.0374389  -0.00734198 -0.675092 0.0272351  0.000455618 -0.591827 0.157951  -0.00642395 -0.683996 0.0278263  0.000509501 -0.569351 0.100176  -0.00621748 -0.6397 -0.0307382  -0.0016911 -0.491559 -0.00738841  -0.00170684 -0.457594 -0.0468405  -0.00731492 -0.605481 -0.0812809  0.00053525 -0.538472 0.0464161  -0.00653052 -0.585198 -0.0787102  0.000601053 -0.497404 -8.65161e-05  -0.00637269 -0.523301 -0.118442  -0.00142694 -0.416002 -0.0793394  -0.00132942 -0.370424 -0.104674  -0.00727153 -0.502566 -0.159167  0.000614405 -0.449858 -0.0399021  -0.00667119 -0.455474 -0.144603  0.000708342 -0.395303 -0.0693586  -0.00646973 -0.383393 -0.160556  -0.000902176 -0.320199 -0.120881  -0.000625849 -0.268563 -0.129018  -0.00700092 -0.378906 -0.196797  0.00075078 -0.336943 -0.0903376  -0.00645185 -0.310479 -0.161785  0.000863314 -0.275809 -0.0993173  -0.00576711 -0.236783 -0.15204  3.3617e-05 -0.215871 -0.127305  0.000439405 -0.164461 -0.11756  -0.00593567 -0.249482 -0.18994  0.0011301 -0.213711 -0.099076  -0.00471258 -0.167392 -0.128872  0.00116491 -0.153374 -0.0871821  -0.00299406 -0.101788 -0.0954446  0.00125289 -0.115326 -0.0985987  0.00137162 -0.0703837 -0.0729565  -0.00317693 -0.129176 -0.140422  0.00160575 -0.0953881 -0.0666453  -0.000671625 -0.0449476 -0.0510287  0.000899076 -0.0437992 -0.0355798  0 2.38419e-07 -1.78814e-07  0.00118279 -0.031383 -0.0380287  0 1.78814e-07 -8.9407e-08  2.07424e-05 -0.0329335 -0.0539187  0 1.78814e-07 -1.78814e-07  -0.0120858 0.0330535 0.0782613  -0.0043649 0.0287224 0.0680088  -0.0256262 0.0459931 0.160845  -0.00538094 0.0174643 0.0698073  -0.010485 0.0267801 0.139963  0 0 0  0 0 0  -0.00920152 0.0203726 0.0836829  0 0 0  -0.00964293 0.0521303 0.141511  -0.0339434 0.0511807 0.253241  -0.0135371 0.0623008 0.222831  -0.0411195 0.0419253 0.34576  -0.0143845 0.0238397 0.213864  -0.0173155 0.00958884 0.286904  -0.02983 0.0149164 0.248801  -0.016835 0.0606147 0.305062  -0.044014 0.0156246 0.438294  -0.0194379 0.0431195 0.386511  -0.0464124 -0.0247986 0.525008  -0.0184411 -0.0185428 0.358438  -0.0194864 -0.0572649 0.424201  -0.03718 -0.0437644 0.415094  -0.0208191 0.0128373 0.464984  -0.0472267 -0.0811034 0.604156  -0.0218171 -0.0316507 0.53647  -0.048059 -0.149195 0.672089  -0.019513 -0.108818 0.483196  -0.0199674 -0.167938 0.532347  -0.0388162 -0.157377 0.556741  -0.0222825 -0.087446 0.600119  -0.0482023 -0.229097 0.727304  -0.0225909 -0.153904 0.652239  -0.0485563 -0.316288 0.767677  -0.0196953 -0.236866 0.570394  -0.0200121 -0.309217 0.596341  -0.0391675 -0.313185 0.651493  -0.0227109 -0.228196 0.69279  -0.0484259 -0.410124 0.792067  -0.022778 -0.308477 0.718879  -0.0485819 -0.505701 0.799982  -0.0196576 -0.386976 0.608375  -0.0199202 -0.463696 0.607842  -0.0391579 -0.491751 0.686893  -0.0227525 -0.39206 0.731355  -0.0483215 -0.602053 0.790621  -0.0227143 -0.476306 0.728218  -0.0483812 -0.694378 0.765191  -0.0195197 -0.540724 0.592381  -0.0197412 -0.612449 0.565484  -0.0389656 -0.67123 0.658712  -0.0226102 -0.558956 0.711177  -0.0480599 -0.781534 0.723285  -0.0225161 -0.636889 0.679259  -0.0480767 -0.85939 0.66767  -0.0193089 -0.679357 0.524481  -0.019505 -0.737367 0.474561  -0.0386761 -0.829808 0.570551  -0.0223694 -0.708552 0.634844  -0.047739 -0.926767 0.598361  -0.0222528 -0.770697 0.578078  -0.0477551 -0.980699 0.519368  -0.019062 -0.786031 0.413056  -0.0192577 -0.823283 0.346227  -0.0383604 -0.948245 0.43326  -0.0220969 -0.822668 0.511729  -0.0474397 -1.02011 0.431102  -0.0219896 -0.861471 0.437041  -0.0474916 -1.04356 0.338356  -0.0188303 -0.847794 0.271723  -0.0190518 -0.859754 0.196134  -0.0380838 -1.01217 0.263595  -0.0218577 -0.887427 0.356845  -0.0472343 -1.05019 0.24187  -0.021791 -0.898152 0.273327  -0.0473583 -1.04028 0.146666  -0.0186641 -0.857116 0.117703  -0.0189331 -0.842303 0.0425709  -0.0379041 -1.01379 0.0822135  -0.0217143 -0.894911 0.189051  -0.0471983 -1.01327 0.0537028  -0.0217168 -0.876209 0.106881  -0.0474312 -0.971142 -0.0323368  -0.0186018 -0.812792 -0.0302181  -0.0189278 -0.772955 -0.095702  -0.0378687 -0.952822 -0.0887859  -0.0217235 -0.844114 0.0288126  -0.047415 -0.9137 -0.110433  -0.0218213 -0.798195 -0.0419511  -0.0478117 -0.8444 -0.176741  -0.0186548 -0.720112 -0.153925  -0.0190303 -0.660033 -0.201688  -0.0380101 -0.836544 -0.228501  -0.0219464 -0.741088 -0.10423  -0.0479932 -0.763371 -0.230362  -0.0221615 -0.673478 -0.154851  -0.0486248 -0.675245 -0.268714  -0.0187926 -0.590258 -0.238151  -0.0191653 -0.517166 -0.262249  -0.0383375 -0.678913 -0.319723  -0.0224397 -0.598228 -0.193639  -0.0489535 -0.580277 -0.291101  -0.0227139 -0.517116 -0.217771  -0.0496924 -0.483709 -0.296662  -0.018831 -0.438968 -0.272455  -0.0189369 -0.361535 -0.269912  -0.038667 -0.498872 -0.351055  -0.0229917 -0.432602 -0.22824  -0.0493264 -0.386176 -0.284566  -0.0227137 -0.347828 -0.222827  -0.0486255 -0.291742 -0.256126  -0.0178823 -0.28442 -0.252813  -0.016722 -0.211443 -0.224255  -0.0377243 -0.31813 -0.318336  -0.0216999 -0.263496 -0.203532  -0.0439363 -0.204783 -0.210889  -0.01859 -0.185311 -0.169736  -0.0361476 -0.124328 -0.151495  -0.0131927 -0.144661 -0.182482  -0.00884008 -0.0846095 -0.132253  -0.0311365 -0.159748 -0.225997  -0.0128205 -0.111553 -0.123597  -0.0193994 -0.0621962 -0.0805096  -0.00413203 -0.0483518 -0.0658893  0 3.57628e-07 -1.49012e-07  -0.00217342 -0.0350754 -0.0695467  0 2.98023e-07 -8.9407e-08  -0.0126641 -0.0441571 -0.0861615  0 2.98023e-07 -1.78814e-07  -0.00113945 0.0199082 -0.0562015  -0.000490203 0.0218819 -0.0719848  -0.00108777 0.0501744 -0.107788  -0.00147378 0.00959893 -0.0717437  -0.00340502 0.0276885 -0.139838  -0.00371499 0.00820599 -0.0879008  0 0 0  0.00245425 0.0258384 -0.0884449  0 1.49012e-08 0  0 7.45058e-09 0  -0.00162194 0.00744362 -0.0569763  0 7.45058e-09 0  0.00969109 0.0597003 -0.16913  0.00232302 0.055305 -0.137461  -0.000333324 0.0881866 -0.151551  0.00505155 0.10147 -0.193205  0.000756383 0.133895 -0.189267  -0.00347601 0.0593228 -0.200517  -0.00279331 0.09942 -0.257512  -0.00409353 0.0670291 -0.243322  0.0136793 0.111382 -0.237818  -0.00419593 0.0475431 -0.160827  0.0178749 0.173229 -0.29993  0.00734609 0.154741 -0.242467  0.00152233 0.18536 -0.218299  0.00869262 0.217231 -0.280929  0.00250512 0.240865 -0.239525  -0.00181109 0.150262 -0.305933  -0.00107178 0.207821 -0.347861  -0.00166491 0.175855 -0.372655  0.0192871 0.245858 -0.349404  -0.00329337 0.120708 -0.245059  0.0204933 0.326598 -0.386786  0.0093981 0.284142 -0.310332  0.00297254 0.298977 -0.249778  0.00991356 0.355793 -0.326264  0.00353867 0.358167 -0.251124  -0.000593543 0.27222 -0.377347  -0.00019753 0.340755 -0.397663  -0.000517786 0.324298 -0.460229  0.0205258 0.411553 -0.40954  -0.00184923 0.218417 -0.301813  0.0209562 0.499936 -0.416942  0.0100462 0.428465 -0.331309  0.00379181 0.416188 -0.240921  0.0103911 0.501107 -0.321855  0.00412387 0.472138 -0.221833  -1.81198e-05 0.411337 -0.403577  0.000224233 0.482606 -0.399143  -0.000119746 0.493982 -0.49209  0.020783 0.587339 -0.409352  -0.000907242 0.329626 -0.322475  0.0211374 0.672655 -0.385934  0.0103806 0.570935 -0.301601  0.00421304 0.523068 -0.192229  0.0106428 0.635804 -0.267665  0.00441003 0.568982 -0.154982  0.000287235 0.550872 -0.380384  0.000447989 0.616211 -0.351643  0.000113547 0.664055 -0.463639  0.0209267 0.751981 -0.348686  -0.000416696 0.441083 -0.303665  0.0212528 0.82394 -0.297346  0.0105588 0.694325 -0.224558  0.00439835 0.606588 -0.109606  0.0107563 0.743499 -0.170319  0.0045228 0.636866 -0.0588093  0.00043869 0.673817 -0.310486  0.000543594 0.72526 -0.260994  0.000242829 0.813818 -0.378354  0.020992 0.885529 -0.235043  -0.000192642 0.53922 -0.247546  0.0212843 0.935407 -0.162101  0.0106254 0.783589 -0.109692  0.00446582 0.656569 -0.00325969  0.0107882 0.811095 -0.04185  0.00456572 0.667549 0.0548365  0.0004915 0.765191 -0.202528  0.000570059 0.79649 -0.138376  0.000273824 0.92507 -0.246762  0.0209883 0.971793 -0.0824305  -0.000106454 0.612066 -0.161051  0.021269 0.993562 0.00317925  0.0106421 0.827904 0.0288454  0.0045042 0.666981 0.11375  0.0108058 0.830433 0.101978  0.00461423 0.657357 0.172047  0.000508428 0.813913 -0.0697674  0.000592589 0.821286 0.00120294  0.000265718 0.984326 -0.0849895  0.0209744 1.00036 0.0904647  -6.90222e-05 0.650782 -0.0548062  0.0212781 0.991409 0.178296  0.0106761 0.82195 0.174106  0.00457478 0.636611 0.227137  0.0108696 0.799225 0.243612  0.00471616 0.607574 0.278532  0.000551343 0.814098 0.0715854  0.000667214 0.796661 0.140727  0.000296474 0.984427 0.0872203  0.0210223 0.967824 0.262554  -1.69277e-05 0.650689 0.0582123  0.0213789 0.929272 0.341913  0.0107777 0.766506 0.308387  0.00471318 0.569185 0.323087  0.0110171 0.721301 0.3658  0.00489759 0.524269 0.361313  0.000666142 0.765738 0.204304  0.000830531 0.725607 0.26319  0.000428677 0.925381 0.248886  0.0211862 0.87818 0.412879  9.41753e-05 0.611809 0.164227  0.0216079 0.814724 0.474109  0.0109723 0.668329 0.415333  0.00494075 0.472907 0.389885  0.0112597 0.606132 0.453638  0.00517845 0.417573 0.410248  0.000878811 0.674694 0.312186  0.00109744 0.616732 0.353605  0.000687838 0.814351 0.380292  0.0214797 0.742329 0.523111  0.000297308 0.538858 0.250287  0.0219555 0.661674 0.55874  0.0112584 0.53934 0.481864  0.0052793 0.359497 0.41931  0.0115838 0.467715 0.496334  0.00558686 0.300506 0.419267  0.00119758 0.552018 0.38198  0.00147176 0.483282 0.400808  0.00104475 0.664809 0.465332  0.0218596 0.576779 0.579743  0.000633717 0.440705 0.305807  0.022337 0.488721 0.585377  0.0116169 0.395236 0.499747  0.00577807 0.242821 0.407685  0.0119691 0.322932 0.488571  0.00618577 0.187424 0.387265  0.00163507 0.412659 0.405044  0.00199199 0.341568 0.398945  0.00139236 0.494957 0.493503  0.022197 0.401685 0.575775  0.00117183 0.32934 0.323917  0.0225801 0.316965 0.550667  0.0120492 0.25364 0.466726  0.00652766 0.137181 0.356605  0.0124533 0.18948 0.431448  0.0070262 0.0921145 0.318684  0.00229001 0.273569 0.378654  0.0028851 0.208814 0.348668  0.00164747 0.325466 0.461407  0.0223291 0.2384 0.51183  0.00204158 0.218336 0.302541  0.0225778 0.167477 0.459245  0.0126159 0.131887 0.387359  0.00739694 0.0553021 0.2733  0.0130138 0.083507 0.333113  0.00749254 0.0256868 0.223388  0.00349903 0.15134 0.306977  0.00442743 0.100557 0.258008  0.00235152 0.176859 0.373799  0.0222931 0.106909 0.396847  0.00334644 0.120859 0.245122  0.0221155 0.0586308 0.324588  0.0127623 0.0444077 0.27348  0.00672913 0.00617971 0.169551  0.0120337 0.0170224 0.208259  0.00491643 -0.00492789 0.114038  0.00493002 0.0599926 0.201258  0.00463128 0.0284101 0.140694  0.00441456 0.0672169 0.244695  0.0210614 0.023008 0.248449  0.00415897 0.0478015 0.160277  0.0169201 0.0015161 0.16806  0.00906396 0.000215955 0.141416  0.00230026 -0.00591566 0.0563616  0.00539112 -0.00408559 0.0715759  0 -2.23517e-07 -5.96046e-08  0.00264668 0.00880387 0.073032  0 -2.90573e-07 0  0.00239682 0.00774903 0.0901206  0.00877762 -0.00984788 0.0864919  0.00198364 0.00726624 0.0564865  0 -3.57628e-07 -5.96046e-08  0 -2.90573e-07 -5.96046e-08  -0.00192633 0.0163895 -0.0264014  -0.00158107 0.0180656 -0.0404621  -0.00318278 0.0378789 -0.0501924  -0.0016069 0.00525773 -0.0416955  -0.00281632 0.0169724 -0.0829769  0 0 0  0 0 0  -0.00195654 0.00331816 -0.027893  0 0 0  -0.00250073 0.0435384 -0.0786186  -0.00366247 0.0629196 -0.0692913  -0.00201239 0.0754053 -0.109971  -0.00365624 0.0911714 -0.0841618  -0.00365843 0.0354364 -0.120215  -0.00391591 0.0595453 -0.154491  -0.0041181 0.0231973 -0.0803566  -0.00188273 0.112127 -0.136625  -0.00342265 0.121605 -0.094124  -0.00151491 0.153074 -0.156163  -0.00266865 0.15318 -0.0989696  -0.00332201 0.0900005 -0.183907  -0.00285381 0.12452 -0.208952  -0.00391668 0.0594191 -0.123217  -0.000848055 0.196575 -0.16928  -0.00214159 0.185334 -0.0980916  -0.000371695 0.241734 -0.174028  -0.00137299 0.21671 -0.0920512  -0.00210685 0.163167 -0.226661  -0.00158644 0.204228 -0.23875  -0.00259542 0.108283 -0.151824  0.000182748 0.286977 -0.171761  -0.000927866 0.246701 -0.0801298  0.000595212 0.331057 -0.160755  -0.000408411 0.274147 -0.0636719  -0.00106716 0.246622 -0.242262  -0.000743151 0.289319 -0.239535  -0.00133586 0.164099 -0.162174  0.000941992 0.37275 -0.143093  -0.000185192 0.298243 -0.0420833  0.00118041 0.410358 -0.11752  0.000110149 0.318369 -0.0171406  -0.000439465 0.330365 -0.228213  -0.000292659 0.369515 -0.210908  -0.000550628 0.22015 -0.152669  0.00135565 0.443419 -0.0865317  0.000165582 0.333584 0.0114587  0.00145829 0.469928 -0.04953  0.000334501 0.343914 0.0418175  -0.00013113 0.404178 -0.186103  -9.14335e-05 0.434995 -0.156355  -0.00016582 0.269574 -0.124374  0.0015341 0.49031 -0.00903383  0.000308394 0.348392 0.0739042  0.00156951 0.502489 0.0348332  0.000428915 0.347682 0.105948  -3.09944e-06 0.459037 -0.121125  -1.0252e-05 0.477772 -0.0825976  -4.76837e-06 0.306313 -0.080768  0.00160778 0.507725 0.0798561  0.000379682 0.340897 0.137594  0.00162709 0.504115 0.125213  0.00049603 0.329256 0.167408  5.36442e-05 0.488272 -0.0412637  3.98159e-05 0.492659 0.00132906  6.68764e-05 0.325898 -0.0272084  0.00166607 0.493594 0.16926  0.000455379 0.312051 0.194756  0.00169992 0.474654 0.210574  0.000591636 0.290912 0.218708  0.000111341 0.488351 0.0437222  0.00011766 0.477866 0.0851869  0.000128746 0.325964 0.0297627  0.00176179 0.449675 0.248278  0.000581026 0.265394 0.238426  0.00183022 0.417721 0.280514  0.000760078 0.237339 0.253589  0.00022006 0.459275 0.123469  0.000270367 0.435192 0.158744  0.000235438 0.306513 0.0831984  0.00193334 0.381328 0.307275  0.000808716 0.206624 0.263265  0.00205767 0.340254 0.326487  0.00107026 0.175084 0.267767  0.000432014 0.404577 0.18823  0.000560522 0.369826 0.212984  0.000450611 0.269915 0.126569  0.0022316 0.296883 0.339012  0.00123143 0.142928 0.266198  0.00244689 0.251703 0.342823  0.0016377 0.111779 0.259467  0.000825644 0.330919 0.230039  0.00108385 0.289749 0.241206  0.000881433 0.220637 0.154536  0.00274444 0.206664 0.339542  0.00198531 0.0821277 0.246835  0.00310278 0.162913 0.327475  0.00258565 0.0551929 0.229734  0.00151062 0.247315 0.243727  0.0019486 0.204779 0.239967  0.00167251 0.164725 0.163645  0.00358462 0.12174 0.308811  0.00312209 0.0316583 0.207648  0.00410748 0.0847357 0.282456  0.00381637 0.0121355 0.182429  0.00255919 0.163967 0.22774  0.00313973 0.1252 0.209785  0.00288582 0.109023 0.152867  0.00470161 0.0524178 0.250968  0.00424528 -0.0025509 0.153744  0.00517535 0.0264964 0.213852  0.00456667 -0.0125605 0.123625  0.00376081 0.0907514 0.184594  0.0041306 0.0601371 0.15519  0.00414491 0.0601577 0.123853  0.00533748 0.00668007 0.173924  0.00419521 -0.0168825 0.0918248  0.00495386 -0.00529103 0.130819  0.00342155 -0.0164562 0.0602747  0.00410151 0.0358691 0.120454  0.00334144 0.0168674 0.0831075  0.0042603 0.0236157 0.0805496  0.00384426 -0.0105661 0.0871844  0.00199389 -0.0101526 0.028914  0.00208855 -0.00802399 0.0427023  0 -1.19209e-07 -5.96046e-08  0.00190377 0.00555778 0.0421981  0 -1.78814e-07 0  0.00207472 0.00361368 0.0277583  0 -1.78814e-07 -5.96046e-08  -0.00216123 0.0133471 0.00150439  -0.0020855 0.0148498 -0.0119244  -0.00362913 0.0270151 0.00535864  -0.00205264 0.00148767 -0.0136148  -0.00341156 0.00528541 -0.0274454  0 0 0  0 0 0  -0.0022133 -6.01411e-05 -0.000166237  0 0 0  -0.00343546 0.032283 -0.0221431  -0.00443017 0.0395509 0.011517  -0.00406227 0.0510345 -0.0285771  -0.00443834 0.0509268 0.0198647  -0.00416876 0.0113119 -0.0400903  -0.00449851 0.0190954 -0.0517124  -0.00444454 -0.000408769 -0.000138581  -0.00427568 0.0707677 -0.0322059  -0.00421128 0.0608562 0.0298912  -0.00400636 0.0908106 -0.0320848  -0.00349429 0.0689226 0.0416667  -0.00407293 0.0291612 -0.0615872  -0.00357977 0.0405225 -0.0700164  -0.00428906 -0.000807434 -6.8754e-05  -0.0034045 0.11067 -0.0288435  -0.00288033 0.0750765 0.054584  -0.00271308 0.129712 -0.0218999  -0.00210279 0.0788159 0.0685086  -0.00275624 0.0534286 -0.0758778  -0.00214159 0.0670465 -0.0799697  -0.00295627 -0.00102857 0.000112116  -0.00202304 0.147363 -0.0120555  -0.00161117 0.080291 0.0828311  -0.00143635 0.163035 0.00103191  -0.0010643 0.0791093 0.0972589  -0.00143558 0.0812632 -0.0810075  -0.00104213 0.0955073 -0.0801581  -0.00164038 -0.00117415 0.000353217  -0.000961423 0.176306 0.0163971  -0.000817597 0.0756281 0.111238  -0.000630975 0.186596 0.0341129  -0.000491142 0.0695932 0.124392  -0.000586092 0.10928 -0.0761991  -0.000423968 0.122409 -0.0704674  -0.000788689 -0.00126356 0.00060159  -0.000378013 0.193802 0.053143  -0.000420928 0.0615641 0.136312  -0.000236273 0.197411 0.0733297  -0.000222325 0.0514112 0.14657  -0.000155091 0.134035 -0.0619856  -0.000134587 0.144431 -0.0520729  -0.00034821 -0.00130922 0.000832021  -0.000115156 0.197659 0.0936793  -0.000237584 0.0398252 0.15498  -6.52075e-05 0.194146 0.113864  -9.09567e-05 0.0268114 0.161093  3.62396e-05 0.152484 -0.0401063  -7.03335e-06 0.158881 -0.0272332  -0.000143409 -0.00131339 0.00102615  1.78814e-06 0.187421 0.133037  -0.000135064 0.0130957 0.16498  2.3365e-05 0.17723 0.150758  1.19209e-07 -0.00117636 0.166212  0.000126839 0.162381 -0.0132435  6.62804e-05 0.164009 0.00101608  -3.94583e-05 -0.00127158 0.00117213  8.01086e-05 0.16437 0.166416  -4.41074e-05 -0.0153396 0.165111  0.000106096 0.148756 0.179517  0.000100851 -0.0291186 0.161319  0.000197768 0.162534 0.0153261  0.000148654 0.159204 0.0292357  3.85046e-05 -0.00117791 0.00126505  0.00017643 0.131343 0.189758  7.73668e-05 -0.0419918 0.155373  0.000229955 0.11222 0.196643  0.000257492 -0.0535852 0.147021  0.000305533 0.152938 0.0421245  0.000299811 0.145061 0.0539875  0.000142813 -0.00103149 0.00130641  0.000341415 0.0923852 0.200216  0.000291348 -0.0635866 0.136959  0.000458121 0.0720958 0.200042  0.000558138 -0.0715609 0.125062  0.000525236 0.13477 0.0638805  0.000617266 0.12331 0.0722403  0.000347495 -0.000835687 0.00130266  0.000659704 0.052271 0.196499  0.000718117 -0.0774564 0.112116  0.000902176 0.0333076 0.189279  0.00115156 -0.0808176 0.0981329  0.000980139 0.110255 0.0779197  0.00124907 0.0966195 0.0817426  0.000787735 -0.000603914 0.00125808  0.00127363 0.0159337 0.179041  0.00152278 -0.0818823 0.0838802  0.00171661 0.000624985 0.165658  0.00218058 -0.0802367 0.0695322  0.00182772 0.0824068 0.0825068  0.00232244 0.0682662 0.0813362  0.00163984 -0.000354141 0.00116962  0.00231266 -0.0121697 0.149992  0.00276327 -0.0763668 0.0556934  0.00294781 -0.0219927 0.132101  0.00352407 -0.0700188 0.0426894  0.00309658 0.0546322 0.0771098  0.00368667 0.0416781 0.0711563  0.00295591 -0.000112236 0.00102562  0.00363326 -0.028715 0.112974  0.00403714 -0.0617641 0.0308793  0.00417376 -0.0320006 0.0927415  0.00442958 -0.0516164 0.0206309  0.00434947 0.0302273 0.0624958  0.00456309 0.0199564 0.0525749  0.00428891 6.91414e-05 0.000805378  0.00444865 -0.0319911 0.072509  0.00422049 -0.0400711 0.0120945  0.00423479 -0.0284995 0.0522704  0.00354552 -0.0274116 0.00570148  0.0044446 0.0119444 0.0405601  0.00360179 0.00561854 0.0278454  0.0044446 0.000139058 0.000407755  0.00351524 -0.0219144 0.0332858  0.00211811 -0.0139465 0.00166067  0.00209045 -0.0122291 0.0155792  0 0 -5.96046e-08  0.00215554 0.00193521 0.0140949  0 -5.96046e-08 0  0.00221324 0.000166595 6.01411e-05  0 -5.96046e-08 -5.96046e-08  -0.00197927 0.00982028 0.0288162  -0.00208327 0.0117025 0.0155081  -0.00320087 0.016005 0.0597394  -0.00211825 -0.00166053 0.0139469  -0.00354567 -0.00570202 0.0274119  0 0 0  0 0 0  -0.00198652 -0.00323212 0.0276158  0 0 0  -0.00347136 0.0215838 0.0327193  -0.00410168 0.0164123 0.09091  -0.00414616 0.027975 0.0516643  -0.00409776 0.0117442 0.12251  -0.00422017 -0.0120953 0.0400715  -0.00442901 -0.0206324 0.0516171  -0.0040191 -0.0238634 0.079986  -0.00428665 0.0312997 0.0713944  -0.00393215 0.00168186 0.152565  -0.00391638 0.0310352 0.0917513  -0.00332665 -0.013111 0.181219  -0.00403646 -0.0308812 0.0617647  -0.00352371 -0.0426919 0.0700188  -0.00379688 -0.0609397 0.123138  -0.00334775 0.027683 0.111758  -0.00285399 -0.0327765 0.206469  -0.00265634 0.0206876 0.130977  -0.00222021 -0.0563519 0.228679  -0.00276303 -0.0556964 0.0763664  -0.00218028 -0.0695359 0.080236  -0.0026409 -0.11022 0.152128  -0.00202429 0.0108706 0.148866  -0.00187731 -0.0834592 0.245797  -0.00147986 -0.00218689 0.164593  -0.00142044 -0.113195 0.258644  -0.00152242 -0.0838848 0.0818814  -0.00115162 -0.0981377 0.080816  -0.00156635 -0.166321 0.162959  -0.00105518 -0.0174757 0.178105  -0.00126886 -0.144484 0.2654  -0.000742972 -0.0350879 0.188388  -0.000969827 -0.176773 0.26721  -0.000717998 -0.112121 0.077454  -0.000558257 -0.125068 0.0715581  -0.00088048 -0.22258 0.153953  -0.000517249 -0.0540441 0.195811  -0.000941873 -0.208401 0.262759  -0.000363231 -0.0740614 0.199385  -0.000727296 -0.239275 0.253313  -0.000291467 -0.136966 0.0635829  -0.000257969 -0.147027 0.0535814  -0.000506282 -0.272131 0.126123  -0.000251293 -0.0943593 0.199804  -0.00075388 -0.267365 0.238227  -0.000171542 -0.114322 0.196248  -0.000571847 -0.293039 0.21871  -7.7486e-05 -0.15538 0.0419868  -0.000101089 -0.161326 0.0291131  -0.000298858 -0.308916 0.0829073  -0.000106335 -0.133467 0.189631  -0.000617743 -0.314161 0.19486  -5.17368e-05 -0.150931 0.179399  -0.000445962 -0.331501 0.167675  4.3869e-05 -0.165118 0.0153335  -2.38419e-07 -0.166218 0.00117004  -0.000163674 -0.328454 0.0296317  1.19209e-07 -0.166577 0.16657  -0.000498772 -0.343078 0.137987  5.1856e-05 -0.179405 0.150924  -0.000330448 -0.349965 0.106461  0.000134706 -0.164985 -0.0131021  9.07183e-05 -0.161099 -0.026818  -6.04391e-05 -0.328363 -0.0271707  0.000106573 -0.189636 0.13346  -0.000382066 -0.350576 0.0745673  0.000171661 -0.196253 0.114316  -0.000202537 -0.346152 0.042552  0.000237107 -0.154986 -0.0398318  0.00022161 -0.146574 -0.0514175  3.65973e-05 -0.308641 -0.0805484  0.000251174 -0.199809 0.0943523  -0.000225663 -0.335701 0.012361  0.00036335 -0.199388 0.074055  7.62939e-06 -0.320476 -0.0162191  0.00042057 -0.136316 -0.0615706  0.000491381 -0.124395 -0.0695997  0.000181675 -0.271663 -0.123954  0.000517368 -0.195815 0.0540383  7.65324e-05 -0.300224 -0.0409928  0.000743151 -0.18839 0.0350826  0.000442505 -0.276034 -0.0626152  0.000817299 -0.111241 -0.0756334  0.00106382 -0.0972608 -0.0791141  0.000496864 -0.22192 -0.152033  0.00105524 -0.178107 0.017471  0.000702858 -0.24846 -0.0789348  0.00147986 -0.164594 0.00218233  0.00128412 -0.218277 -0.0909477  0.00161099 -0.0828323 -0.0802954  0.00210261 -0.0685093 -0.0788198  0.0011704 -0.165505 -0.161326  0.00202465 -0.148866 -0.0108745  0.00180221 -0.186764 -0.0969114  0.0026567 -0.130978 -0.0206909  0.00254989 -0.154328 -0.0979949  0.00288033 -0.0545847 -0.0750795  0.00349402 -0.0416672 -0.0689251  0.00232887 -0.109343 -0.150836  0.00334787 -0.111759 -0.0276858  0.0031631 -0.122648 -0.0931178  0.00391674 -0.0917512 -0.0310373  0.00363469 -0.0918755 -0.0835135  0.00421095 -0.0298909 -0.0608583  0.0044384 -0.0198641 -0.0509282  0.00367737 -0.0601587 -0.122267  0.00428677 -0.0713938 -0.0313012  0.00368166 -0.0637468 -0.068577  0.00414634 -0.0516641 -0.027976  0.00308895 -0.0382784 -0.0496508  0.00443006 -0.0115163 -0.0395519  0.00362897 -0.00535822 -0.0270155  0.00406742 -0.0235127 -0.0795499  0.00347137 -0.0327191 -0.0215843  0.00182772 -0.0171422 -0.0260865  0.00208354 -0.0155079 -0.0117025  0 1.19209e-07 -5.96046e-08  0.00216126 -0.00150383 -0.0133472  0 5.96046e-08 0  0.00203657 -0.00332588 -0.0275062  0 5.96046e-08 -5.96046e-08  -0.00211561 0.00490242 0.0565276  -0.00190706 0.00760835 0.0428389  -0.00374661 0.00384218 0.113331  -0.00187995 -0.00510854 0.0421876  -0.00312424 -0.0170454 0.0825251  0 0 0  0 0 0  -0.00160332 -0.00696349 0.0570861  0 0 0  -0.00353891 0.010088 0.0865495  -0.00554618 -0.00765175 0.168003  -0.00422871 0.004462 0.130187  -0.0061706 -0.0272707 0.222221  -0.00361049 -0.0360458 0.119936  -0.00363001 -0.0609207 0.154277  -0.00341532 -0.0482982 0.16037  -0.00466415 -0.00776702 0.172702  -0.00653067 -0.056891 0.27155  -0.00444904 -0.0278204 0.212869  -0.00627849 -0.0936596 0.317239  -0.00323886 -0.0914932 0.184141  -0.00281644 -0.126244 0.208791  -0.00290912 -0.122145 0.245311  -0.00420842 -0.0535454 0.249648  -0.00619346 -0.138725 0.354673  -0.00376558 -0.0862285 0.281244  -0.00580132 -0.189034 0.385647  -0.00223798 -0.165189 0.227269  -0.00183028 -0.206096 0.238985  -0.00198531 -0.220237 0.302432  -0.0034219 -0.122922 0.307525  -0.00574392 -0.244278 0.405735  -0.00306094 -0.16453 0.32623  -0.00542635 -0.30217 0.417643  -0.00138134 -0.24901 0.243261  -0.00112873 -0.29134 0.240331  -0.00133997 -0.331783 0.323521  -0.0028342 -0.207983 0.338433  -0.00544572 -0.360871 0.417564  -0.00260079 -0.253448 0.341703  -0.00518638 -0.419228 0.408798  -0.000840366 -0.333027 0.229611  -0.000716388 -0.371657 0.212293  -0.000966072 -0.443543 0.305174  -0.00248414 -0.298375 0.338192  -0.00523782 -0.474197 0.38851  -0.00232911 -0.342099 0.325591  -0.00499344 -0.525865 0.360176  -0.000525713 -0.406998 0.187862  -0.000469208 -0.437212 0.158285  -0.000723481 -0.541896 0.249466  -0.00226724 -0.382986 0.3068  -0.00504899 -0.570395 0.322204  -0.00214183 -0.419618 0.279908  -0.00480354 -0.609078 0.277815  -0.000321865 -0.461892 0.123171  -0.000294328 -0.480009 0.0849819  -0.000523567 -0.614849 0.163284  -0.00209904 -0.451469 0.248174  -0.00486195 -0.637758 0.226835  -0.0019834 -0.47655 0.210306  -0.0046221 -0.658759 0.171833  -0.000166774 -0.491035 0.0435045  -0.000156164 -0.494851 0.0013864  -0.000343084 -0.653544 0.057234  -0.00195038 -0.495485 0.169532  -0.00469518 -0.668107 0.114077  -0.00184369 -0.505962 0.125322  -0.0044744 -0.668866 0.0551776  -4.45843e-05 -0.490884 -0.04138  -4.82798e-05 -0.47993 -0.0822774  -0.000196338 -0.653291 -0.0557056  -0.00182295 -0.509671 0.0804907  -0.00457311 -0.657731 -0.00230497  -0.00172627 -0.504255 0.0353377  -0.00437784 -0.638133 -0.0579125  5.14984e-05 -0.461445 -0.121105  4.54187e-05 -0.437038 -0.155777  -9.87053e-05 -0.614108 -0.161742  -0.00171363 -0.492268 -0.00806969  -0.00449669 -0.607839 -0.108089  -0.00161076 -0.471592 -0.0486385  -0.0043093 -0.570228 -0.15359  0.000157237 -0.40627 -0.185903  0.000188589 -0.37136 -0.210084  -3.71933e-05 -0.540718 -0.247901  -0.00157607 -0.44534 -0.0852999  -0.00440979 -0.524431 -0.190278  -0.00141764 -0.411898 -0.116287  -0.00416923 -0.473347 -0.220064  0.000373363 -0.332056 -0.227788  0.000524282 -0.290889 -0.238488  6.36578e-05 -0.442017 -0.303571  -0.00128961 -0.374554 -0.141684  -0.00414944 -0.417624 -0.238717  -0.000981331 -0.332443 -0.159261  -0.0037241 -0.359247 -0.249119  0.00088954 -0.247883 -0.241594  0.00127053 -0.205482 -0.237531  0.000385046 -0.330054 -0.321857  -0.000629425 -0.288532 -0.170286  -0.00338936 -0.300402 -0.247557  -6.86646e-05 -0.242961 -0.172405  -0.00259066 -0.241757 -0.237454  0.00192118 -0.164065 -0.225824  0.00254035 -0.125553 -0.207738  0.00122428 -0.21857 -0.300713  0.000640631 -0.197738 -0.167854  -0.0017364 -0.186738 -0.216402  0.0013907 -0.154191 -0.154706  -0.000594378 -0.134778 -0.187631  0.00337529 -0.0905955 -0.183097  0.00377369 -0.0604086 -0.153682  0.0027163 -0.120951 -0.243688  0.00222921 -0.112958 -0.135502  0.000495672 -0.0896151 -0.150128  0.00261521 -0.0761666 -0.109012  0.0011456 -0.0502996 -0.106751  0.00409031 -0.0356169 -0.119278  0.00330448 -0.0169014 -0.0821286  0.00389171 -0.0479083 -0.159002  0.00232196 -0.0441821 -0.0778801  0.000905275 -0.0207158 -0.0557394  0.00136495 -0.0187718 -0.0400877  0 2.38419e-07 -5.96046e-08  0.00177169 -0.00539976 -0.0411892  0 1.78814e-07 0  0.00178599 -0.00737047 -0.056301  0 1.78814e-07 -5.96046e-08  -0.00571525 0.00723088 0.087447  -0.00331918 0.00319028 0.0715056  -0.0150984 -0.00150383 0.167266  -0.00215013 -0.00881511 0.0719903  -0.00351083 -0.0282416 0.13806  0 0 0  0 0 0  -0.00127832 -0.00746179 0.0895118  0 0 0  -0.00703664 -0.000801384 0.140053  -0.0183228 -0.0236247 0.247948  -0.00959237 -0.018286 0.206596  -0.021514 -0.0585013 0.324462  -0.00324883 -0.0595519 0.199577  -0.00294542 -0.100263 0.256313  -0.00398517 -0.0671015 0.241787  -0.0110275 -0.0449142 0.271515  -0.0216611 -0.107716 0.396592  -0.0118005 -0.0843543 0.331037  -0.0227545 -0.168114 0.458924  -0.00222915 -0.151187 0.306022  -0.00175872 -0.208608 0.347305  -0.00157452 -0.17677 0.372447  -0.0119104 -0.131956 0.385203  -0.0222045 -0.239577 0.511572  -0.0119893 -0.190033 0.429334  -0.0229522 -0.318195 0.550062  -0.00138402 -0.273828 0.37793  -0.00110793 -0.341688 0.397914  -0.000425935 -0.325869 0.460766  -0.0118312 -0.253562 0.464784  -0.022249 -0.403422 0.575445  -0.0118232 -0.323416 0.486735  -0.0229171 -0.490389 0.584701  -0.000978112 -0.413402 0.404584  -0.000804186 -0.483812 0.400248  -0.000187755 -0.496007 0.493205  -0.011656 -0.39522 0.498365  -0.0221288 -0.579001 0.579315  -0.0116556 -0.468249 0.49499  -0.0227371 -0.663652 0.558112  -0.000754297 -0.553256 0.381848  -0.000598133 -0.617706 0.353554  -6.59823e-05 -0.666426 0.465256  -0.0114829 -0.539528 0.481202  -0.0218927 -0.744853 0.522605  -0.0114731 -0.606781 0.452899  -0.0224642 -0.816885 0.47359  -0.000555396 -0.676402 0.31237  -0.000388741 -0.727042 0.26361  0.000150681 -0.81642 0.38039  -0.0112817 -0.668827 0.415419  -0.0215939 -0.88082 0.412351  -0.0112563 -0.722126 0.365716  -0.0221564 -0.931501 0.341564  -0.000338554 -0.767868 0.204752  -0.000165462 -0.798549 0.141536  0.000436306 -0.927796 0.249127  -0.0110536 -0.767399 0.309182  -0.021289 -0.970429 0.262081  -0.0110265 -0.800283 0.244181  -0.0218712 -0.993618 0.178177  -0.000119805 -0.816572 0.0722233  4.06504e-05 -0.823578 0.0022912  0.00072825 -0.987081 0.0875711  -0.0108317 -0.823295 0.175516  -0.0210344 -1.00281 0.0901284  -0.0108246 -0.831777 0.103152  -0.0216606 -0.995693 0.00333413  6.28233e-05 -0.816619 -0.0690179  0.000192881 -0.799098 -0.137132  0.000968695 -0.987106 -0.0845654  -0.0106595 -0.82973 0.0307315  -0.0208737 -0.974015 -0.0825646  -0.0106899 -0.812762 -0.0401749  -0.0215586 -0.937421 -0.161668  0.000178933 -0.767991 -0.201742  0.000273943 -0.728048 -0.25972  0.00112188 -0.927845 -0.246313  -0.0105669 -0.78588 -0.107519  -0.0208277 -0.887452 -0.234944  -0.0106381 -0.745488 -0.168302  -0.0215681 -0.825773 -0.296678  0.000228047 -0.676549 -0.309727  0.000305891 -0.619004 -0.350453  0.00118363 -0.816432 -0.377928  -0.0105491 -0.696991 -0.222325  -0.0208821 -0.75352 -0.348345  -0.0106394 -0.638053 -0.265502  -0.021652 -0.67418 -0.38509  0.000259399 -0.553357 -0.379697  0.000370026 -0.485186 -0.398124  0.00119019 -0.666324 -0.463263  -0.0105395 -0.573782 -0.299541  -0.0209653 -0.588374 -0.408736  -0.0105746 -0.503468 -0.319754  -0.0216599 -0.500909 -0.415894  0.000398397 -0.413409 -0.402981  0.000650167 -0.342917 -0.39685  0.00122237 -0.495727 -0.491742  -0.0103273 -0.43117 -0.329582  -0.0207932 -0.412055 -0.408519  -0.0100951 -0.358078 -0.324414  -0.0210063 -0.326836 -0.385206  0.000911474 -0.273819 -0.376878  0.00148201 -0.209544 -0.34729  0.00147295 -0.325496 -0.459855  -0.00932479 -0.286387 -0.308918  -0.0193663 -0.246226 -0.347967  -0.00834656 -0.219323 -0.279558  -0.0180135 -0.173315 -0.297412  0.00216556 -0.151454 -0.305621  0.0030508 -0.100849 -0.257243  0.00238204 -0.176763 -0.372305  -0.00643325 -0.156733 -0.241182  -0.0145278 -0.111704 -0.23657  -0.00432873 -0.103132 -0.192266  -0.0105586 -0.0606685 -0.166848  0.0037334 -0.0602396 -0.19994  0.00377226 -0.028803 -0.139464  0.00410318 -0.0678652 -0.242812  -0.00182676 -0.0572814 -0.13689  -0.00509048 -0.0241153 -0.0884873  -0.000706673 -0.0229825 -0.071943  0 3.57628e-07 -5.96046e-08  0.00200963 -0.00944859 -0.0710488  0 2.98023e-07 0  0.00375485 -0.00809324 -0.0874904  0 2.98023e-07 -5.96046e-08  -0.00217065 -0.00644289 -0.0566886  -0.0028941 -0.00436039 -0.070484  -0.0047033 -0.00491503 -0.113774  -0.00263998 -0.0170194 -0.0689319  -0.0111747 -0.0280458 -0.141032  -0.0164372 -0.0211016 -0.0804722  0 0 0  -0.0127775 -0.00795878 -0.0844989  0 1.49012e-08 0  0 7.45058e-09 0  -0.00148415 -0.019237 -0.055966  0 7.45058e-09 0  -0.0177079 -0.000536862 -0.16821  -0.00825888 -0.00112062 -0.140825  -0.00662562 0.00558123 -0.16919  -0.0109091 0.0161309 -0.20774  -0.00733352 0.0255742 -0.222582  -0.0156151 -0.0247775 -0.214518  -0.0183305 -0.0105762 -0.288016  -0.0329019 -0.0160602 -0.249224  -0.0212012 0.0220556 -0.247924  -0.00769615 -0.0359769 -0.17878  -0.0216809 0.0568439 -0.325506  -0.0121776 0.043238 -0.272691  -0.00730762 0.0548327 -0.272271  -0.0119287 0.0824498 -0.332131  -0.00682855 0.0918766 -0.317497  -0.0192405 0.0177225 -0.358363  -0.0196066 0.0565391 -0.424717  -0.03757 0.0427138 -0.415514  -0.0223191 0.105337 -0.396928  -0.00970623 -0.0102416 -0.301706  -0.0218843 0.166395 -0.459854  -0.0120768 0.130656 -0.386079  -0.00628191 0.136652 -0.354912  -0.0113329 0.188146 -0.430072  -0.00585926 0.187186 -0.385586  -0.0194703 0.107501 -0.482286  -0.0194264 0.16722 -0.532133  -0.03846 0.155814 -0.556021  -0.0220736 0.236898 -0.512102  -0.00925213 0.0566019 -0.410474  -0.0216798 0.316528 -0.550627  -0.0115747 0.252334 -0.465047  -0.00541282 0.242155 -0.405554  -0.0108517 0.321556 -0.487027  -0.00521857 0.30025 -0.417087  -0.01917 0.234964 -0.568927  -0.0191168 0.30833 -0.595275  -0.038451 0.31096 -0.650134  -0.0218232 0.400765 -0.575876  -0.00855052 0.157268 -0.490479  -0.0214448 0.488816 -0.58471  -0.011207 0.393934 -0.497891  -0.00492656 0.358755 -0.416895  -0.0105338 0.466491 -0.494708  -0.00487459 0.417278 -0.407665  -0.0188835 0.38459 -0.606487  -0.0188687 0.462546 -0.605931  -0.0382424 0.489032 -0.685196  -0.0215746 0.576548 -0.579456  -0.00809592 0.279496 -0.530946  -0.02123 0.662228 -0.557448  -0.0109607 0.538172 -0.479953  -0.00468683 0.47215 -0.387298  -0.010348 0.605184 -0.451953  -0.0047164 0.523929 -0.358458  -0.0186869 0.538 -0.59018  -0.0187238 0.611012 -0.562813  -0.0380605 0.668239 -0.656811  -0.0214044 0.742756 -0.522305  -0.00784743 0.408226 -0.526749  -0.0211179 0.815627 -0.472162  -0.0108341 0.667406 -0.413411  -0.00458622 0.568466 -0.320442  -0.010271 0.720705 -0.364061  -0.00465715 0.607193 -0.275555  -0.0185944 0.676463 -0.522061  -0.0186729 0.735638 -0.471258  -0.0379844 0.826754 -0.568501  -0.0213469 0.879155 -0.411467  -0.00773406 0.527703 -0.478467  -0.0211005 0.930355 -0.339339  -0.0107937 0.765898 -0.306482  -0.00454843 0.635978 -0.224556  -0.0102515 0.79901 -0.241831  -0.0046277 0.65695 -0.169113  -0.018573 0.783123 -0.410498  -0.0186642 0.821261 -0.342467  -0.0379839 0.945291 -0.431088  -0.0213526 0.969168 -0.260523  -0.00769544 0.623364 -0.39205  -0.021107 0.992485 -0.175219  -0.0107791 0.821688 -0.17225  -0.00451195 0.666485 -0.111356  -0.0102254 0.830594 -0.100186  -0.00457132 0.667152 -0.0521175  -0.0185602 0.844998 -0.269112  -0.0186322 0.857455 -0.192148  -0.037981 1.00943 -0.261345  -0.0213391 1.00187 -0.0878967  -0.00767112 0.68356 -0.278057  -0.0210576 0.994478 0.000188291  -0.010729 0.828003 -0.0270859  -0.00442457 0.656272 0.00535494  -0.0101378 0.811612 0.0436052  -0.00444162 0.636538 0.0611585  -0.018494 0.854545 -0.115144  -0.0185225 0.83979 -0.0386353  -0.0379013 1.01135 -0.079969  -0.0212351 0.973288 0.0853711  -0.00760341 0.700949 -0.150389  -0.0208983 0.936084 0.165509  -0.0105975 0.784056 0.111311  -0.00424337 0.606552 0.111319  -0.00995493 0.74434 0.171991  -0.00419366 0.568799 0.156843  -0.0183345 0.810564 0.032609  -0.0183096 0.770365 0.0993072  -0.03771 0.950798 0.0909215  -0.0210071 0.886875 0.238151  -0.00744474 0.673378 -0.024638  -0.0206167 0.824354 0.300559  -0.0103602 0.695148 0.226012  -0.00391984 0.523344 0.193522  -0.00966167 0.636921 0.269217  -0.00377035 0.472173 0.223142  -0.0180697 0.718358 0.156047  -0.0179939 0.657582 0.204721  -0.0374355 0.835062 0.230428  -0.0206728 0.753081 0.351747  -0.00715232 0.60416 0.0837821  -0.0202549 0.672809 0.388737  -0.00999999 0.572067 0.302882  -0.00338602 0.41679 0.241792  -0.00924659 0.502415 0.323262  -0.00309563 0.35847 0.25187  -0.0177112 0.589125 0.239948  -0.0175827 0.515182 0.264547  -0.0372026 0.678158 0.321367  -0.0203137 0.588126 0.412137  -0.00668812 0.501715 0.161502  -0.0199132 0.499882 0.419055  -0.00946999 0.429819 0.33238  -0.00253725 0.299886 0.250221  -0.00861716 0.357166 0.327479  -0.0020721 0.241444 0.239776  -0.017251 0.43855 0.273947  -0.0169437 0.360432 0.271482  -0.0372145 0.499099 0.352449  -0.0200043 0.412016 0.41182  -0.0060389 0.378547 0.198943  -0.0195103 0.326616 0.387778  -0.00851941 0.285624 0.311058  -0.00115824 0.186534 0.218321  -0.00721884 0.218359 0.281881  -0.000446081 0.134495 0.18933  -0.0162928 0.284402 0.25403  -0.0149765 0.211176 0.225228  -0.0370369 0.319044 0.319799  -0.0191262 0.245817 0.351122  -0.00512719 0.249315 0.191745  -0.0172024 0.173719 0.299666  -0.00617719 0.156149 0.242764  0.000881195 0.0894762 0.15133  -0.00367761 0.101837 0.193719  0.00159025 0.0498116 0.10766  -0.0125523 0.144137 0.183541  -0.00898242 0.0841121 0.133186  -0.0316398 0.158956 0.22797  -0.0139003 0.109765 0.239218  -0.00329995 0.128661 0.141606  -0.00868988 0.0600256 0.169073  -0.00165868 0.0559899 0.137823  0.00134063 0.0208687 0.0559944  0.00101376 0.0223436 0.0727703  0 -2.23517e-07 5.96046e-08  -0.00383925 0.0360354 0.0711509  0 -2.90573e-07 1.19209e-07  -0.00797868 0.0418756 0.0877702  -0.000870228 0.0222888 0.0903435  -0.000236273 0.0326065 0.0543599  0 -3.57628e-07 5.96046e-08  0 -2.90573e-07 5.96046e-08  -0.00198344 -0.0107869 -0.0291256  -0.00181294 -0.00854908 -0.0425786  -0.0033192 -0.0166697 -0.0599582  -0.00131236 -0.0221099 -0.0433661  -0.00299658 -0.0388961 -0.0909944  0 0 0  0 0 0  -0.00166474 -0.0244903 -0.0300591  0 0 0  -0.00338614 -0.010856 -0.087036  -0.00415725 -0.0175429 -0.0915098  -0.00452794 -0.00589144 -0.130605  -0.00442618 -0.0134656 -0.122698  -0.00426593 -0.0470112 -0.141468  -0.00507087 -0.0475037 -0.19261  -0.00345349 -0.0583256 -0.102957  -0.00526449 0.00606364 -0.173291  -0.00425807 -0.00344422 -0.152979  -0.00502646 0.0258338 -0.213207  -0.00362113 0.0109798 -0.181236  -0.00503227 -0.0379593 -0.243398  -0.00482377 -0.0208441 -0.292241  -0.00354698 -0.0662922 -0.183685  -0.00457054 0.0516927 -0.249969  -0.00310367 0.0307226 -0.20649  -0.00404376 0.0839889 -0.281274  -0.00234526 0.0540417 -0.228371  -0.0042221 0.00547779 -0.337025  -0.00381202 0.0386556 -0.377379  -0.00247288 -0.0464707 -0.262409  -0.00345737 0.121022 -0.307388  -0.00190157 0.0812603 -0.245335  -0.00303817 0.162161 -0.325886  -0.00135893 0.110765 -0.257911  -0.00331932 0.0787738 -0.410483  -0.00304627 0.123968 -0.436958  -0.0013631 -0.000760615 -0.329628  -0.00264835 0.205995 -0.337738  -0.00112098 0.142205 -0.264412  -0.00240487 0.251041 -0.340925  -0.000796199 0.174294 -0.266019  -0.00273716 0.17308 -0.454189  -0.0026117 0.224683 -0.463416  -0.000641465 0.0654256 -0.376935  -0.00219202 0.296315 -0.336912  -0.000723124 0.2061 -0.261245  -0.0020808 0.339741 -0.324346  -0.000530958 0.236824 -0.251675  -0.00242662 0.276775 -0.462631  -0.00239706 0.328441 -0.453493  -0.00026381 0.143986 -0.398444  -0.00197637 0.380898 -0.304961  -0.000549555 0.265095 -0.23623  -0.00194013 0.417385 -0.278202  -0.000420094 0.290695 -0.216674  -0.00228453 0.377128 -0.434807  -0.00230742 0.422539 -0.40845  -9.23872e-05 0.225262 -0.391533  -0.00188875 0.449399 -0.24584  -0.000476241 0.311978 -0.192457  -0.00188279 0.4745 -0.208175  -0.000365257 0.329337 -0.165311  -0.00222969 0.461877 -0.374165  -0.0022707 0.495498 -0.333818  -2.14577e-05 0.299304 -0.357081  -0.00184596 0.493478 -0.1668  -0.000424266 0.341043 -0.13528  -0.00183797 0.50414 -0.12283  -0.000301719 0.348047 -0.103857  -0.00219703 0.520691 -0.288122  -0.00222707 0.538426 -0.23871  1.95503e-05 0.357075 -0.299311  -0.00178754 0.507772 -0.0774881  -0.000334501 0.348746 -0.0716731  -0.00174987 0.502694 -0.0325756  -0.000167966 0.344538 -0.0398102  -0.00212872 0.546396 -0.187176  -0.00211871 0.546073 -0.134728  9.0003e-05 0.391528 -0.225269  -0.00165808 0.490529 0.0111976  -0.000135422 0.334136 -0.00940388  -0.0015595 0.470315 0.0515609  0.000124931 0.31922 0.0189909  -0.00196445 0.535832 -0.0836534  -0.00187957 0.51747 -0.0345899  0.000261307 0.398441 -0.143993  -0.00138712 0.443822 0.0883973  0.00028491 0.298975 0.0438842  -0.00118303 0.410924 0.119248  0.000711918 0.275176 0.0653134  -0.00162721 0.490245 0.00975937  -0.00142455 0.456068 0.0494027  0.0006392 0.376933 -0.0654318  -0.000869274 0.373333 0.1446  0.00107622 0.247566 0.0816241  -0.000507832 0.331772 0.162131  0.00172758 0.217815 0.0934789  -0.00102234 0.415194 0.0815538  -0.000672817 0.369395 0.106899  0.00136113 0.329627 0.000755906  1.54972e-05 0.287696 0.172884  0.00229931 0.186244 0.0992287  0.000542164 0.242535 0.175002  0.00306726 0.154162 0.100204  -0.000125647 0.319926 0.12292  0.000299215 0.268124 0.130986  0.00247097 0.262409 0.0464675  0.00125313 0.197324 0.170013  0.00356221 0.12249 0.0948173  0.00180459 0.153873 0.156691  0.00396156 0.0918272 0.085044  0.000777721 0.216055 0.129056  0.0010407 0.164357 0.119246  0.00354576 0.183686 0.0662903  0.00237417 0.112766 0.137076  0.00376487 0.0637147 0.0694811  0.0026257 0.0760224 0.110219  0.00326443 0.0381278 0.0501667  0.00117207 0.115691 0.0999061  0.000993013 0.0700081 0.0735965  0.00345302 0.102958 0.0583251  0.00246286 0.0438281 0.078648  0.00189066 0.016964 0.0263528  0.00156903 0.0187354 0.0412346  0 -1.19209e-07 5.96046e-08  0.000876904 0.0314482 0.0398838  0 -1.78814e-07 1.19209e-07  0.00166488 0.0300592 0.0244905  0 -1.78814e-07 5.96046e-08  -0.00215533 -0.0140949 -0.00193483  -0.00209455 -0.012553 -0.0152907  -0.00360171 -0.0278458 -0.00561792  -0.00189096 -0.0263527 -0.0169635  -0.00326483 -0.0501669 -0.0381272  0 0 0  0 0 0  -0.00207472 -0.0277582 -0.00361359  0 0 0  -0.00349395 -0.0224583 -0.0328533  -0.00444457 -0.0405608 -0.011944  -0.00423656 -0.0291216 -0.0517156  -0.004563 -0.0525762 -0.0199557  -0.00376518 -0.0694816 -0.0637138  -0.00396195 -0.0850452 -0.0918267  -0.00426017 -0.0805501 -0.0236153  -0.00445729 -0.0329816 -0.0716107  -0.00434974 -0.0624978 -0.0302265  -0.00415641 -0.0329794 -0.0917888  -0.00368717 -0.0711589 -0.0416781  -0.00356281 -0.0948192 -0.122489  -0.00306824 -0.100207 -0.154162  -0.00414535 -0.123855 -0.0601571  -0.00359386 -0.029938 -0.111822  -0.00309712 -0.0771127 -0.0546322  -0.00289667 -0.0231125 -0.130842  -0.00232315 -0.0813397 -0.0682669  -0.00230074 -0.0992319 -0.186244  -0.00172895 -0.0934827 -0.217815  -0.00288671 -0.15287 -0.109023  -0.00221795 -0.0134217 -0.148625  -0.00182837 -0.0825115 -0.0824082  -0.00161403 -0.000452429 -0.164137  -0.00125009 -0.0817477 -0.0966211  -0.00107759 -0.0816287 -0.247566  -0.000713706 -0.065319 -0.275177  -0.00167394 -0.163649 -0.164726  -0.00113434 0.0147991 -0.177478  -0.000981152 -0.0779253 -0.110258  -0.000769138 0.0323878 -0.187537  -0.000618279 -0.0722464 -0.123313  -0.00028646 -0.04389 -0.298977  -0.000126541 -0.0189972 -0.319223  -0.000882983 -0.154542 -0.220639  -0.000506282 0.0513599 -0.19477  -0.000526071 -0.0638867 -0.134774  -0.000326157 0.0714068 -0.198122  -0.000301361 -0.0539941 -0.145065  0.000133514 0.00939745 -0.33414  0.00016582 0.0398032 -0.344543  -0.00045228 -0.126575 -0.269918  -0.000202656 0.0917662 -0.198357  -0.000306845 -0.0421315 -0.152943  -0.000123382 0.111802 -0.194592  -0.000149608 -0.029243 -0.15921  0.000332475 0.0716657 -0.348751  0.000299811 0.10385 -0.348053  -0.000236988 -0.0832057 -0.306518  -6.86646e-05 0.131053 -0.18781  -0.000198841 -0.0153329 -0.16254  -3.17097e-05 0.148626 -0.177394  -6.73532e-05 -0.00102252 -0.164016  0.000422597 0.135273 -0.341049  0.000363708 0.165304 -0.329344  -0.000130296 -0.0297695 -0.32597  -8.34465e-07 0.16442 -0.164427  -0.000127912 0.0132371 -0.162388  3.00407e-05 0.177388 -0.148633  5.84126e-06 0.0272275 -0.158888  0.000474572 0.192451 -0.311985  0.000418186 0.216668 -0.290702  -6.84261e-05 0.027202 -0.325905  6.71148e-05 0.187804 -0.13106  -3.74317e-05 0.0401011 -0.152491  0.000121951 0.194587 -0.111809  0.000133395 0.0520683 -0.144438  0.000547528 0.236225 -0.265102  0.000529051 0.251671 -0.236831  3.33786e-06 0.0807624 -0.30632  0.000201225 0.198353 -0.0917732  0.000154138 0.0619818 -0.134041  0.000324726 0.198118 -0.0714129  0.000422716 0.0704643 -0.122415  0.000721097 0.261241 -0.206107  0.000794172 0.266015 -0.174301  0.000164032 0.12437 -0.26958  0.000504732 0.194767 -0.0513662  0.000584841 0.0761966 -0.109286  0.000767469 0.187535 -0.0323936  0.00104094 0.0801563 -0.0955128  0.0011189 0.26441 -0.142211  0.00135684 0.25791 -0.110771  0.000549078 0.152667 -0.220156  0.00113297 0.177476 -0.0148045  0.0014348 0.0810065 -0.0812677  0.00161266 0.164136 0.000447929  0.00214076 0.079969 -0.0670503  0.00189972 0.245334 -0.081265  0.00234365 0.22837 -0.0540455  0.00133467 0.162173 -0.164104  0.00221658 0.148624 0.0134177  0.0027554 0.0758778 -0.0534318  0.00289559 0.130842 0.0231092  0.0035789 0.0700163 -0.0405251  0.0031023 0.20649 -0.0307258  0.00361991 0.181236 -0.0109823  0.00259423 0.151824 -0.108286  0.00359321 0.111823 0.0299355  0.00407243 0.0615878 -0.0291631  0.00415587 0.0917892 0.0329774  0.00449824 0.0517129 -0.0190969  0.00425696 0.15298 0.00344241  0.00442529 0.122699 0.0134639  0.00391579 0.123217 -0.0594209  0.004457 0.0716113 0.0329803  0.00416875 0.0400908 -0.0113127  0.00423646 0.0517163 0.0291208  0.00341153 0.0274459 -0.00528574  0.00415683 0.0915104 0.0175419  0.00331903 0.0599585 0.0166695  0.00411797 0.080357 -0.0231979  0.00349402 0.0328538 0.0224579  0.00205255 0.0136151 -0.00148737  0.00209451 0.015291 0.012553  0 0 5.96046e-08  0.0019834 0.0291256 0.0107871  0 -5.96046e-08 1.19209e-07  0.00195646 0.0278931 -0.00331777  0 -5.96046e-08 5.96046e-08  -0.00184001 -0.0169705 0.0258351  -0.00209053 -0.0155793 0.0122295  -0.0030621 -0.0388343 0.0495668  -0.00199378 -0.028914 0.010153  -0.00342143 -0.060275 0.0164565  0 0 0  0 0 0  -0.0016404 -0.0298755 0.024018  0 0 0  -0.00351512 -0.0332859 0.0219153  -0.00375532 -0.0642087 0.0685543  -0.00423463 -0.0522709 0.0285003  -0.00377929 -0.0928155 0.0838071  -0.00419457 -0.0918253 0.0168831  -0.00456628 -0.123626 0.0125612  -0.00351605 -0.103395 0.0577977  -0.0044485 -0.0725103 0.0319919  -0.00354418 -0.123305 0.0936033  -0.00417373 -0.0927433 0.032001  -0.00293329 -0.155266 0.0987463  -0.00424534 -0.153746 0.00255156  -0.00381663 -0.182431 -0.012135  -0.00355363 -0.184418 0.0655049  -0.00363314 -0.112977 0.0287152  -0.0024181 -0.187266 0.0979199  -0.00294811 -0.132104 0.0219928  -0.00176442 -0.219039 0.0920786  -0.00312257 -0.20765 -0.0316584  -0.00258589 -0.229738 -0.0551932  -0.00259006 -0.263463 0.0457014  -0.0023129 -0.149995 0.0121694  -0.00136125 -0.248777 0.0804604  -0.00171697 -0.165662 -0.000626028  -0.00088805 -0.27655 0.0641157  -0.00198579 -0.246839 -0.0821282  -0.00163907 -0.259472 -0.11178  -0.00162888 -0.331069 0.000137568  -0.00127423 -0.179047 -0.0159349  -0.000670314 -0.300386 0.0429987  -0.00090301 -0.189284 -0.0333099  -0.000365019 -0.320744 0.0180921  -0.00123292 -0.266204 -0.14293  -0.00107127 -0.267772 -0.175086  -0.000993371 -0.378744 -0.0658787  -0.000660658 -0.196505 -0.0522736  -0.000277877 -0.335751 -0.00994235  -0.000458717 -0.200049 -0.0720993  -7.1764e-05 -0.346202 -0.0403449  -0.000809908 -0.263272 -0.206628  -0.00076139 -0.253595 -0.237343  -0.000618219 -0.400572 -0.144257  -0.000342011 -0.200222 -0.0923894  -5.40018e-05 -0.350558 -0.0718411  -0.000230789 -0.19665 -0.112225  0.000103116 -0.349838 -0.104  -0.000582337 -0.238433 -0.265399  -0.000592828 -0.218714 -0.290917  -0.000391841 -0.393914 -0.225358  -0.000177026 -0.189765 -0.131349  8.59499e-05 -0.343024 -0.135092  -0.000106812 -0.179523 -0.148762  0.000217795 -0.331227 -0.165069  -0.000456333 -0.194763 -0.312057  -0.000496864 -0.167414 -0.329262  -0.000248671 -0.359626 -0.29925  -8.04663e-05 -0.166423 -0.164377  0.000181913 -0.314079 -0.191952  -2.43187e-05 -0.150764 -0.177236  0.000302911 -0.292641 -0.216079  -0.000380635 -0.1376 -0.340903  -0.000429988 -0.105954 -0.347689  -0.000158429 -0.301902 -0.3569  -2.74181e-06 -0.133043 -0.187427  0.000266671 -0.267242 -0.235459  6.4373e-05 -0.11387 -0.194153  0.000402689 -0.238766 -0.250778  -0.000309467 -0.0739096 -0.348399  -0.000335932 -0.0418226 -0.343921  -8.98838e-05 -0.22777 -0.391253  0.000114441 -0.0936838 -0.197666  0.000405312 -0.208209 -0.260264  0.000235677 -0.0733338 -0.197417  0.000611067 -0.176161 -0.264882  -0.000166774 -0.0114633 -0.333591  -0.000111341 0.0171371 -0.318375  2.16961e-05 -0.146265 -0.398069  0.000377417 -0.0531464 -0.193809  0.000729322 -0.144185 -0.263291  0.00063014 -0.0341155 -0.186602  0.00109577 -0.112487 -0.256625  0.000183821 0.0420805 -0.298249  0.000407457 0.0636703 -0.274153  0.0003016 -0.067362 -0.376455  0.00096035 -0.016399 -0.176311  0.00142908 -0.0830211 -0.244167  0.00143552 -0.00103313 -0.16304  0.00203204 -0.0555623 -0.227091  0.000926495 0.0801283 -0.246706  0.00137234 0.0920506 -0.216714  0.000926256 -0.000766575 -0.329048  0.0020225 0.0120546 -0.147367  0.0025928 -0.0321881 -0.205387  0.00271249 0.0218992 -0.129715  0.00332236 -0.0122597 -0.180208  0.00214076 0.0980911 -0.185337  0.00266767 0.0989696 -0.153182  0.00197005 0.0453728 -0.261766  0.0034039 0.0288436 -0.110673  0.00381017 0.00229746 -0.151993  0.00400591 0.032085 -0.0908124  0.00416589 0.01255 -0.122019  0.00342155 0.0941243 -0.121607  0.0036552 0.0841621 -0.0911729  0.00306225 0.0656398 -0.182996  0.00427556 0.0322068 -0.070769  0.00379944 0.0167669 -0.0907779  0.00406194 0.0285777 -0.0510353  0.00297308 0.0163251 -0.0594493  0.00366211 0.0692916 -0.0629203  0.00318265 0.0501927 -0.037879  0.00312996 0.0582246 -0.102417  0.00343513 0.0221434 -0.0322834  0.00184798 0.00990021 -0.0286027  0.00208545 0.0119244 -0.01485  0 1.19209e-07 5.96046e-08  0.00192642 0.0264015 -0.0163896  0 5.96046e-08 1.19209e-07  0.00162077 0.0246336 -0.0298603  0 5.96046e-08 5.96046e-08  -0.000679038 -0.020444 0.0556521  -0.00128359 -0.0187112 0.0409974  -0.000528619 -0.0508575 0.10703  -0.000885554 -0.0313176 0.038753  -0.00110881 -0.0708928 0.0729265  0 0 0  0 0 0  0.00056047 -0.0329117 0.0538886  0 0 0  -0.00205536 -0.0446538 0.0780186  -4.32283e-05 -0.0899361 0.150447  -0.00226538 -0.0769005 0.109502  0.000695348 -0.135471 0.188383  -0.00107513 -0.116146 0.0989411  -0.00100225 -0.165356 0.117934  0.0032236 -0.129588 0.140797  -0.00219432 -0.11392 0.135953  0.00137931 -0.187226 0.217574  -0.00186858 -0.155034 0.155656  0.00191981 -0.24262 0.23865  -0.000722766 -0.216908 0.128073  -0.00039959 -0.269303 0.129668  0.00503349 -0.250319 0.190849  -0.00136361 -0.198615 0.168747  0.00244123 -0.300894 0.249406  -0.000893772 -0.243902 0.173847  0.00271749 -0.359976 0.250646  1.11461e-05 -0.321138 0.121967  0.000391722 -0.370791 0.105674  0.00582767 -0.379788 0.198018  -0.000373065 -0.28916 0.171564  0.00307882 -0.418142 0.241055  -1.84178e-05 -0.333372 0.160998  0.00318837 -0.473894 0.221968  0.000720859 -0.416743 0.0806941  0.000997782 -0.457646 0.0483282  0.00627524 -0.503277 0.160681  0.000352442 -0.374948 0.143366  0.00345695 -0.525024 0.192981  0.000548899 -0.412708 0.118248  0.00349057 -0.57065 0.155846  0.00121307 -0.492061 0.00904739  0.00139284 -0.519198 -0.0354274  0.00658023 -0.605989 0.083123  0.000791907 -0.445549 0.0873749  0.00371838 -0.608528 0.111015  0.000887632 -0.472233 0.0507849  0.00372505 -0.638464 0.0604225  0.00153613 -0.537861 -0.0841595  0.0016607 -0.547933 -0.135266  0.00683188 -0.675427 -0.0250881  0.00106013 -0.492335 0.0104762  0.00393438 -0.658497 0.00528121  0.00110722 -0.504703 -0.0330727  0.00392663 -0.669113 -0.0525413  0.00176346 -0.548595 -0.18745  0.00185513 -0.540395 -0.238922  0.00705945 -0.703177 -0.150613  0.00124371 -0.509629 -0.077857  0.00411761 -0.668883 -0.11123  0.00126493 -0.506193 -0.123024  0.00408983 -0.658902 -0.169204  0.00192797 -0.523 -0.288169  0.00199163 -0.497537 -0.333713  0.00725138 -0.685909 -0.278068  0.00137675 -0.495352 -0.166799  0.00425565 -0.638446 -0.224267  0.00137758 -0.476535 -0.208061  0.00420165 -0.609081 -0.275312  0.00203741 -0.464211 -0.374009  0.00207865 -0.424584 -0.408057  0.00738692 -0.625747 -0.391882  0.00147092 -0.451247 -0.245474  0.00434411 -0.57088 -0.320024  0.00146055 -0.419333 -0.277784  0.00427175 -0.52569 -0.357895  0.00210774 -0.379378 -0.434471  0.00214517 -0.330407 -0.452848  0.00746453 -0.530001 -0.478151  0.00155485 -0.382665 -0.304255  0.00441289 -0.474376 -0.386771  0.00156271 -0.341532 -0.32364  0.00435781 -0.418845 -0.406807  0.00218928 -0.278828 -0.462124  0.00226855 -0.226486 -0.462547  0.00751841 -0.410307 -0.526294  0.00170827 -0.297944 -0.335904  0.00455379 -0.360669 -0.416266  0.00180006 -0.252618 -0.339953  0.00459409 -0.30157 -0.41597  0.00239062 -0.174843 -0.453514  0.00258827 -0.125557 -0.435904  0.00763535 -0.281255 -0.530339  0.00209475 -0.207429 -0.336483  0.00494361 -0.243677 -0.404832  0.00237131 -0.163496 -0.324703  0.00519109 -0.188262 -0.384291  0.0028801 -0.0801992 -0.409663  0.00326467 -0.0400606 -0.376244  0.00795078 -0.158674 -0.489713  0.00293756 -0.122238 -0.305979  0.00576448 -0.137794 -0.354135  0.0034411 -0.0851024 -0.279993  0.00618458 -0.0928327 -0.316261  0.00375843 -0.00653642 -0.336122  0.00418663 0.0195383 -0.29128  0.00852656 -0.0576975 -0.409606  0.00422311 -0.0527616 -0.248582  0.00667453 -0.0557628 -0.271425  0.00462914 -0.0267777 -0.211952  0.00654578 -0.0263651 -0.22178  0.00457048 0.0373185 -0.242374  0.00440073 0.0464711 -0.191992  0.00876307 0.00945091 -0.300728  0.00489569 -0.00701773 -0.172206  0.00589299 -0.00677973 -0.168027  0.00438929 0.00520074 -0.129477  0.00420403 0.00470811 -0.112794  0.0040369 0.0468196 -0.140237  0.00281072 0.0389563 -0.0903132  0.00667095 0.0354929 -0.17744  0.00315499 0.0104234 -0.0861952  0.00195026 0.00517178 -0.0560267  0.00164986 0.0077287 -0.04206  0 2.38419e-07 5.96046e-08  0.00138068 0.0219431 -0.0427336  0 1.78814e-07 1.19209e-07  0.00182033 0.0194119 -0.0558484  0 1.78814e-07 5.96046e-08  0.00524433 -0.0257412 0.0897178  0.00196822 -0.022397 0.072194  0.00997327 -0.0599913 0.168013  0.00432236 -0.0359821 0.0687143  0.00882968 -0.0843188 0.131023  0 0 0  0 0 0  0.00896475 -0.0412939 0.0856231  0 0 0  0.00375183 -0.0567138 0.13672  0.0145467 -0.111552 0.237448  0.00514153 -0.102484 0.191694  0.0168465 -0.174131 0.299084  0.0132577 -0.143888 0.181926  0.0159375 -0.211017 0.224253  0.0300022 -0.158234 0.224823  0.00691152 -0.15608 0.241126  0.0190684 -0.247262 0.348615  0.00759307 -0.21866 0.279761  0.0190621 -0.327783 0.386423  0.0169221 -0.284476 0.253273  0.0179136 -0.36095 0.270982  0.0377833 -0.318474 0.318597  0.00872248 -0.28557 0.309484  0.020178 -0.413161 0.408847  0.00871658 -0.357477 0.325529  0.0193716 -0.501447 0.417274  0.0176479 -0.439195 0.273522  0.0182276 -0.516475 0.264293  0.0384866 -0.499043 0.351934  0.00945032 -0.430125 0.331078  0.0202915 -0.58895 0.409222  0.00915074 -0.502861 0.321705  0.0194129 -0.674413 0.386924  0.017763 -0.59036 0.239813  0.0183149 -0.659454 0.204586  0.0380438 -0.67864 0.321409  0.00975603 -0.572702 0.302026  0.0203848 -0.753519 0.349288  0.00938404 -0.637514 0.268213  0.0195715 -0.825845 0.298967  0.0178798 -0.720127 0.156146  0.0184654 -0.772682 0.0992563  0.0378978 -0.836128 0.230975  0.00996971 -0.696109 0.225674  0.0206038 -0.886986 0.236445  0.00959933 -0.745143 0.17162  0.0198354 -0.937424 0.164323  0.0180755 -0.812808 0.0328918  0.018687 -0.842447 -0.0386268  0.0380462 -0.952497 0.0918742  0.0101908 -0.785374 0.111493  0.0208943 -0.97323 0.0846136  0.00982952 -0.812703 0.0438723  0.020133 -0.995692 -0.000454724  0.018316 -0.857192 -0.114743  0.0189286 -0.86034 -0.192114  0.0383272 -1.01368 -0.0787461  0.0104188 -0.8297 -0.0264408  0.0211846 -1.00185 -0.087621  0.0100495 -0.832038 -0.0993498  0.0203977 -0.993636 -0.175248  0.0185455 -0.847945 -0.268677  0.0191343 -0.824235 -0.342447  0.0386199 -1.01233 -0.260019  0.0106189 -0.823754 -0.171247  0.0214164 -0.969409 -0.259257  0.010222 -0.800824 -0.240547  0.0205851 -0.93151 -0.338764  0.0187171 -0.786216 -0.410118  0.0192691 -0.738527 -0.471284  0.038849 -0.948635 -0.429848  0.0107586 -0.768267 -0.305255  0.0215603 -0.879821 -0.409375  0.0103267 -0.722848 -0.36249  0.020686 -0.816823 -0.47106  0.0188142 -0.6795 -0.521803  0.0193353 -0.613621 -0.562885  0.0389857 -0.830318 -0.567524  0.0108348 -0.669959 -0.412103  0.0216275 -0.743925 -0.519634  0.0103803 -0.607551 -0.450261  0.0207348 -0.663449 -0.555932  0.0188582 -0.540751 -0.590058  0.0193722 -0.464689 -0.605996  0.0390451 -0.671734 -0.656213  0.0108867 -0.540737 -0.478684  0.0216639 -0.578192 -0.576479  0.010447 -0.468928 -0.493045  0.0207922 -0.489993 -0.582884  0.0189035 -0.386845 -0.606453  0.0194428 -0.309896 -0.595236  0.0390658 -0.492148 -0.684994  0.0110097 -0.396314 -0.496736  0.0217273 -0.402791 -0.572829  0.0106561 -0.323891 -0.4855  0.0209293 -0.317613 -0.548513  0.0190144 -0.236598 -0.568877  0.0195911 -0.168261 -0.531917  0.0390532 -0.313459 -0.650234  0.0113659 -0.254385 -0.464005  0.0218496 -0.239248 -0.509193  0.0111864 -0.190268 -0.428737  0.0211525 -0.167563 -0.457419  0.0191734 -0.108507 -0.482095  0.0196178 -0.0572637 -0.424389  0.0388556 -0.157608 -0.556261  0.0120699 -0.13246 -0.385068  0.0218143 -0.107834 -0.3945  0.0119138 -0.0843236 -0.330917  0.0208287 -0.0584905 -0.322949  0.0188048 -0.0181947 -0.357801  0.0181603 0.00995648 -0.287689  0.0377281 -0.0438116 -0.415647  0.0123568 -0.0451568 -0.271656  0.0199673 -0.0238548 -0.246419  0.0108938 -0.0178842 -0.206412  0.0165942 -0.00185937 -0.166499  0.0152402 0.0243548 -0.213554  0.0109441 0.0272985 -0.140884  0.0328484 0.0154268 -0.249097  0.00839067 -0.000961423 -0.140174  0.0107307 0.00854683 -0.0853843  0.00178504 0.00305569 -0.070531  0 3.57628e-07 5.96046e-08  0.00299454 0.0167544 -0.0682696  0 2.98023e-07 1.19209e-07  0.0168586 0.0214067 -0.0807949  0 2.98023e-07 5.96046e-08  -0.000412464 -0.0338768 -0.0562707  -0.0011568 -0.0298946 -0.067893  -0.00209756 -0.0611731 -0.119821  0.000442728 -0.0424768 -0.0690029  -0.0055306 -0.0788623 -0.146936  -0.016921 -0.0400985 -0.0755386  0 0 0  -0.020335 -0.0319221 -0.0766973  0 1.49012e-08 0  0 7.45058e-09 0  0.00223628 -0.0467536 -0.0568649  0 7.45058e-09 0  -0.0314096 -0.0481519 -0.161759  -0.0102565 -0.0544541 -0.142859  -0.00469942 -0.0771771 -0.189678  -0.0159798 -0.0645622 -0.223339  -0.00646263 -0.0819154 -0.260785  -0.0102747 -0.101186 -0.235835  -0.0137804 -0.110622 -0.327172  -0.0353109 -0.0834284 -0.260503  -0.0392925 -0.0526159 -0.25322  0.00214317 -0.117549 -0.203185  -0.0436544 -0.043399 -0.346726  -0.0197291 -0.061903 -0.305389  -0.00759664 -0.073505 -0.332546  -0.0212044 -0.0446809 -0.38679  -0.00787121 -0.0535546 -0.401961  -0.0156075 -0.102345 -0.418908  -0.0170386 -0.0801189 -0.508727  -0.0426169 -0.0704648 -0.462914  -0.0458558 -0.017704 -0.438345  3.07262e-05 -0.135018 -0.367047  -0.0473327 0.023054 -0.52565  -0.0224557 -0.0140103 -0.464779  -0.00783223 -0.0209176 -0.466765  -0.0222908 0.0301539 -0.536152  -0.00768179 0.0219564 -0.525585  -0.0172361 -0.0411452 -0.59208  -0.0178783 0.0106197 -0.668886  -0.0448613 0.00963242 -0.650907  -0.0475417 0.0786416 -0.603921  -0.000660658 -0.095271 -0.526354  -0.0481028 0.147254 -0.672393  -0.0228337 0.0860654 -0.599398  -0.00744796 0.0750254 -0.575207  -0.0222754 0.152168 -0.65134  -0.00729847 0.135691 -0.615682  -0.0174962 0.0758713 -0.733644  -0.0178957 0.150932 -0.787861  -0.0453122 0.149191 -0.800005  -0.0477545 0.226353 -0.726872  -0.000600278 -0.00294071 -0.662055  -0.0480705 0.314349 -0.767567  -0.0226842 0.226539 -0.691503  -0.00710243 0.202655 -0.643923  -0.0220556 0.306478 -0.717463  -0.00701088 0.273593 -0.660959  -0.0173599 0.234468 -0.826111  -0.0177101 0.323592 -0.851111  -0.0452201 0.331344 -0.891821  -0.0475908 0.407292 -0.791463  -0.000368655 0.130633 -0.757422  -0.0478709 0.503878 -0.799375  -0.0224627 0.390134 -0.729525  -0.00687504 0.346219 -0.664374  -0.021857 0.47412 -0.726351  -0.00684178 0.418716 -0.655919  -0.0171735 0.41519 -0.858238  -0.0175532 0.507484 -0.851024  -0.0450441 0.533871 -0.915273  -0.0474048 0.599339 -0.789809  -0.000161171 0.288944 -0.80082  -0.0477285 0.692749 -0.764001  -0.0223091 0.556831 -0.708871  -0.00675857 0.488123 -0.634123  -0.0217524 0.634624 -0.676992  -0.00677109 0.553329 -0.601245  -0.0170645 0.595973 -0.826198  -0.0174906 0.68019 -0.787682  -0.0449504 0.732113 -0.867603  -0.0473174 0.779111 -0.722181  -4.07696e-05 0.452593 -0.787041  -0.0476913 0.857973 -0.665825  -0.0222512 0.706312 -0.632135  -0.00672102 0.611052 -0.556916  -0.0217296 0.768438 -0.575459  -0.00675392 0.661019 -0.503638  -0.0170423 0.754786 -0.733947  -0.0174928 0.820663 -0.668836  -0.0449483 0.901934 -0.754673  -0.0473164 0.924724 -0.596869  -3.57628e-06 0.601606 -0.717819  -0.0477066 0.979436 -0.516851  -0.022248 0.82037 -0.508704  -0.00670791 0.700019 -0.442188  -0.0217278 0.859259 -0.434146  -0.00672901 0.728655 -0.375008  -0.0170497 0.872273 -0.59275  -0.0174874 0.911778 -0.508986  -0.0449686 1.02264 -0.590271  -0.0473261 1.01844 -0.429171  2.38419e-07 0.717812 -0.601614  -0.0476919 1.04235 -0.33525  -0.02223 0.885107 -0.353636  -0.00665772 0.744173 -0.303932  -0.0216781 0.896013 -0.270289  -0.00663924 0.747973 -0.231047  -0.0170125 0.934104 -0.419828  -0.0174091 0.942414 -0.327623  -0.0449272 1.07953 -0.394445  -0.0472672 1.04885 -0.239538  3.69549e-05 0.787036 -0.452601  -0.0475849 1.03902 -0.143159  -0.0221385 0.892613 -0.185842  -0.00652027 0.738101 -0.159021  -0.0215385 0.874189 -0.103879  -0.00644636 0.716578 -0.0893412  -0.0168868 0.932721 -0.236267  -0.0172439 0.908796 -0.146871  -0.0447882 1.06563 -0.191067  -0.0471065 1.01222 -0.0510878  0.000157237 0.800816 -0.288952  -0.0473888 0.96982 0.0359984  -0.0219533 0.841928 -0.0258113  -0.00626993 0.682491 -0.0251827  -0.0213168 0.796385 0.0447385  -0.00613809 0.638244 0.0327403  -0.0166991 0.868229 -0.064472  -0.017065 0.814938 0.0111816  -0.0446148 0.98256 -0.00494915  -0.0468895 0.912914 0.113174  0.00036478 0.75742 -0.13064  -0.047195 0.843048 0.180297  -0.0217071 0.739155 0.106847  -0.00590563 0.584078 0.0811195  -0.0210838 0.672008 0.157299  -0.00573397 0.522499 0.120148  -0.0165758 0.748388 0.0745113  -0.0170612 0.672164 0.127096  -0.0446279 0.840321 0.141109  -0.0467756 0.76291 0.233081  0.000596523 0.662055 0.00293541  -0.0472076 0.674014 0.271901  -0.0214698 0.596751 0.195757  -0.00547719 0.454883 0.146718  -0.0209656 0.516114 0.219864  -0.00537086 0.383464 0.162101  -0.0167975 0.587701 0.163528  -0.0176051 0.49776 0.186475  -0.0453105 0.656114 0.229054  -0.0470338 0.580282 0.293739  0.000657558 0.526354 0.0952672  -0.0476468 0.483115 0.299263  -0.0212791 0.431917 0.229864  -0.00512433 0.310561 0.163597  -0.0208576 0.347232 0.224644  -0.00524139 0.237632 0.15371  -0.0178406 0.405459 0.19155  -0.0189474 0.312463 0.182112  -0.0474143 0.451977 0.247886  -0.0475609 0.386638 0.287337  -3.29018e-05 0.367048 0.135015  -0.0474401 0.292802 0.258482  -0.0205014 0.263849 0.204961  -0.00436926 0.167942 0.130056  -0.0184231 0.184359 0.170889  -0.00335073 0.101573 0.0967333  -0.0190217 0.222571 0.154897  -0.0170617 0.13691 0.114855  -0.0490184 0.250439 0.194078  -0.0444226 0.203934 0.213797  -0.0021441 0.203186 0.117548  -0.0356517 0.124871 0.154896  -0.0143054 0.110986 0.124879  -0.000970125 0.0464212 0.0512452  -0.00599122 0.0495731 0.0657933  0 -2.23517e-07 1.78814e-07  -0.00930023 0.0631884 0.0598003  0 -2.90573e-07 2.38419e-07  -0.0156627 0.0748519 0.0733526  -0.0114465 0.0581122 0.0821054  -0.00223637 0.056865 0.046753  0 -3.57628e-07 1.78814e-07  0 -2.90573e-07 1.78814e-07  -0.000876747 -0.0398836 -0.0314479  -0.000227027 -0.0367747 -0.0443133  -0.000993371 -0.0735968 -0.0700074  0.00096976 -0.0512454 -0.0464211  0.00335038 -0.0967339 -0.101572  0 0 0  0 0 0  0.000236049 -0.0543596 -0.0326064  0 0 0  -0.000384375 -0.0675225 -0.0956597  -0.00117257 -0.0999067 -0.11569  -0.00121161 -0.0885794 -0.153521  -0.00104162 -0.119247 -0.164356  0.00436866 -0.130057 -0.167942  0.00524026 -0.153711 -0.237631  0.00329953 -0.141607 -0.128661  -0.00204566 -0.100556 -0.213942  -0.000779033 -0.129058 -0.216054  -0.00194719 -0.101252 -0.275652  -0.000300735 -0.130989 -0.268123  0.00512284 -0.163599 -0.31056  0.00536865 -0.162104 -0.383462  0.00512585 -0.191747 -0.249314  -0.00202438 -0.0919123 -0.336546  0.00012362 -0.122923 -0.319925  -0.00158519 -0.071532 -0.394788  0.000670791 -0.106903 -0.369394  0.00547445 -0.146721 -0.454882  0.00573099 -0.120152 -0.522499  0.0060367 -0.198947 -0.378546  -0.00129849 -0.0416789 -0.448816  0.00102007 -0.0815587 -0.415195  -0.00096029 -0.0024455 -0.496488  0.00142193 -0.0494079 -0.456069  0.00590259 -0.0811245 -0.584078  0.00613463 -0.0327462 -0.638245  0.00668514 -0.161507 -0.501716  -0.000697792 0.0443118 -0.536862  0.00162464 -0.00976551 -0.490247  -0.000489891 0.0976453 -0.568039  0.00187695 0.0345832 -0.517473  0.0062663 0.0251763 -0.682493  0.0064429 0.0893342 -0.716581  0.00714886 -0.0837884 -0.604162  -0.00032419 0.155516 -0.589755  0.00196183 0.083646 -0.535835  -0.000207067 0.216386 -0.6006  0.00211596 0.134721 -0.546077  0.00651693 0.159014 -0.738105  0.00663567 0.231039 -0.747977  0.00744152 0.0246308 -0.673381  -0.000120759 0.278246 -0.601023  0.00212622 0.187169 -0.546401  -6.62804e-05 0.339183 -0.590234  0.00222456 0.238702 -0.538432  0.00665438 0.303924 -0.744178  0.00672579 0.375 -0.728661  0.00760067 0.150381 -0.700954  -3.17097e-05 0.397461 -0.56934  0.00219452 0.288115 -0.520697  -1.3113e-05 0.451019 -0.538254  0.00226855 0.333811 -0.495505  0.00670493 0.44218 -0.700026  0.00675082 0.503631 -0.661026  0.00766838 0.278049 -0.683566  -1.43051e-06 0.498603 -0.498609  0.00222719 0.374158 -0.461884  1.0252e-05 0.538248 -0.451026  0.00230491 0.408444 -0.422546  0.0067178 0.55691 -0.611059  0.00676799 0.601239 -0.553337  0.00769269 0.392043 -0.623371  2.86102e-05 0.569335 -0.397468  0.00228202 0.434802 -0.377135  6.34193e-05 0.590229 -0.339191  0.00239444 0.453488 -0.328448  0.00675535 0.634118 -0.488131  0.0068382 0.655915 -0.418724  0.0077312 0.478461 -0.527711  0.000117898 0.601018 -0.278253  0.00242388 0.462628 -0.276783  0.000204325 0.600597 -0.216393  0.00260878 0.463413 -0.22469  0.00687158 0.66437 -0.346227  0.0070076 0.660957 -0.2736  0.00784409 0.526745 -0.408234  0.00032115 0.589752 -0.155523  0.00273442 0.454187 -0.173086  0.000486374 0.568037 -0.0976517  0.00304341 0.436956 -0.123973  0.00709891 0.643921 -0.202661  0.00729489 0.615681 -0.135697  0.00809264 0.530945 -0.279503  0.000694752 0.536861 -0.0443175  0.00331688 0.410482 -0.0787785  0.000957489 0.496488 0.00244063  0.00380993 0.377378 -0.0386596  0.00744462 0.575206 -0.0750307  0.00767851 0.525585 -0.0219608  0.00854754 0.490479 -0.157273  0.0012958 0.448816 0.0416747  0.00422001 0.337025 -0.00548142  0.00158286 0.394789 0.0715284  0.00482202 0.292242 0.0208409  0.00782943 0.466765 0.0209139  0.00786877 0.401962 0.0535514  0.00924921 0.410474 -0.0566057  0.0020225 0.336547 0.0919095  0.00503111 0.243399 0.0379573  0.00194573 0.275653 0.10125  0.00506997 0.19261 0.0475022  0.00759482 0.332548 0.0735028  0.00646114 0.260786 0.0819138  0.00970435 0.301707 0.0102392  0.00204444 0.213944 0.100555  0.00426531 0.141469 0.0470105  0.00121093 0.153522 0.0885786  0.00299597 0.0909949 0.0388957  0.00469851 0.189679 0.077176  0.00209713 0.119821 0.0611728  0.00769544 0.178781 0.0359758  0.000384092 0.0956603 0.0675219  0.00131226 0.0433665 0.02211  0.000226974 0.0443136 0.0367748  0 -1.49012e-07 1.78814e-07  0.000412464 0.0562709 0.0338767  0 -1.78814e-07 2.38419e-07  0.00148392 0.0559659 0.019237  0 -1.78814e-07 1.78814e-07  -0.00190358 -0.0421979 -0.00555778  -0.00156893 -0.0412345 -0.0187353  -0.00334111 -0.0831075 -0.0168668  -0.00134071 -0.0559943 -0.0208687  -0.00159049 -0.107661 -0.0498111  0 0 0  0 0 0  -0.00198356 -0.0564865 -0.00726616  0 0 0  -0.00246307 -0.0786482 -0.0438276  -0.00410149 -0.120454 -0.0358687  -0.0026263 -0.110219 -0.0760214  -0.00413087 -0.155191 -0.0601364  -0.000881329 -0.15133 -0.0894755  0.000445753 -0.189331 -0.134494  -0.00415909 -0.160277 -0.0478013  -0.00237468 -0.137077 -0.112765  -0.00376141 -0.184596 -0.0907505  -0.00180528 -0.156693 -0.153873  -0.00314039 -0.209787 -0.1252  0.00115743 -0.218323 -0.186533  0.00207084 -0.239778 -0.241443  -0.00334692 -0.245124 -0.120858  -0.00125396 -0.170016 -0.197323  -0.0025602 -0.227742 -0.163967  -0.000543475 -0.175005 -0.242535  -0.00194955 -0.239971 -0.20478  0.00253564 -0.250224 -0.299886  0.00309384 -0.251874 -0.358469  -0.00204265 -0.302544 -0.218335  -1.72853e-05 -0.172888 -0.287696  -0.00151181 -0.243731 -0.247315  0.000505745 -0.162135 -0.331772  -0.0010854 -0.241212 -0.28975  0.00338376 -0.241796 -0.41679  0.00376767 -0.223147 -0.472173  -0.00117356 -0.323921 -0.32934  0.000867069 -0.144605 -0.373334  -0.000827312 -0.230045 -0.330921  0.00118083 -0.119254 -0.410926  -0.000562787 -0.21299 -0.369828  0.0039171 -0.193528 -0.523346  0.00419092 -0.15685 -0.568801  -0.000636101 -0.305813 -0.440706  0.00138509 -0.0884038 -0.443825  -0.000433922 -0.188237 -0.40458  0.00155723 -0.0515679 -0.470318  -0.000272393 -0.158751 -0.435196  0.00424051 -0.111326 -0.606555  0.00443888 -0.0611656 -0.636541  -0.000299811 -0.250294 -0.538861  0.0016557 -0.0112047 -0.490533  -0.000221848 -0.123476 -0.45928  0.00174761 0.0325682 -0.502699  -0.000119328 -0.085194 -0.477871  0.00442195 -0.00536266 -0.656277  0.00456893 0.0521099 -0.667157  -9.63211e-05 -0.164235 -0.611814  0.0017854 0.0774809 -0.507778  -0.00011313 -0.0437288 -0.488357  0.00183582 0.122823 -0.504146  -4.14848e-05 -0.00133586 -0.492665  0.00450933 0.111348 -0.666491  0.0046252 0.169106 -0.656957  1.46627e-05 -0.0582197 -0.650695  0.00184405 0.166793 -0.493484  -5.54323e-05 0.0412571 -0.488279  0.00188076 0.208169 -0.474507  8.58307e-06 0.0825916 -0.477778  0.00454617 0.224549 -0.635985  0.00465465 0.275549 -0.607201  6.69956e-05 0.0547995 -0.650789  0.00188661 0.245834 -0.449406  1.43051e-06 0.121119 -0.459044  0.00193799 0.278196 -0.417392  8.95262e-05 0.15635 -0.435001  0.00458372 0.320436 -0.568474  0.00471354 0.358452 -0.523936  0.000104547 0.161045 -0.612073  0.00197399 0.304956 -0.380905  0.000129223 0.186099 -0.404185  0.00207865 0.324342 -0.339748  0.000290632 0.210905 -0.369521  0.00468397 0.387294 -0.472157  0.00487185 0.407661 -0.417284  0.000190258 0.247542 -0.539226  0.00218964 0.336909 -0.296322  0.000437498 0.22821 -0.330371  0.00240231 0.340922 -0.251047  0.000741482 0.239533 -0.289325  0.00492382 0.416892 -0.358761  0.00521588 0.417086 -0.300256  0.000414371 0.303663 -0.441089  0.00264597 0.337736 -0.206  0.00106525 0.242261 -0.246627  0.00303626 0.325885 -0.162166  0.00158477 0.238749 -0.204232  0.00541019 0.405553 -0.24216  0.00585675 0.385585 -0.18719  0.000905037 0.322474 -0.329631  0.0034554 0.307388 -0.121026  0.00210476 0.22666 -0.163171  0.00404167 0.281274 -0.0839924  0.0028522 0.208952 -0.124523  0.00627971 0.354911 -0.136656  0.00682664 0.317498 -0.0918798  0.00184703 0.301813 -0.218421  0.00456882 0.24997 -0.0516958  0.00332069 0.183907 -0.0900025  0.00502515 0.213207 -0.025836  0.00391483 0.154491 -0.0595469  0.00730586 0.272272 -0.0548351  0.00733209 0.222583 -0.025576  0.00329185 0.245059 -0.12071  0.00526357 0.173291 -0.00606513  0.00365758 0.120215 -0.0354372  0.00452709 0.130606 0.00589025  0.0028162 0.0829773 -0.0169725  0.00662494 0.169191 -0.00558239  0.00470304 0.113774 0.00491464  0.00419521 0.160828 -0.0475439  0.00338602 0.0870363 0.0108556  0.0016067 0.0416955 -0.00525743  0.00181293 0.0425787 0.00854939  0 0 1.78814e-07  0.00217056 0.0566885 0.00644308  0 -5.96046e-08 2.38419e-07  0.00162172 0.0569763 -0.00744325  0 -5.96046e-08 1.78814e-07  -0.00158705 -0.0429105 0.0215641  -0.00208817 -0.0427023 0.00802404  -0.00337398 -0.0913736 0.0382933  -0.00230028 -0.0563619 0.00591558  -0.00491634 -0.114038 0.00492847  0 0 0  0 0 0  -0.00211638 -0.0559396 0.0191789  0 0 0  -0.00384423 -0.0871846 0.0105664  -0.00446975 -0.141633 0.0462472  -0.0049538 -0.13082 0.00529146  -0.00513667 -0.193387 0.0463967  -0.00672896 -0.169551 -0.00617927  -0.00749242 -0.223389 -0.0256861  -0.00737847 -0.178765 0.0350628  -0.00533751 -0.173924 -0.00667936  -0.00516444 -0.24395 0.036939  -0.00517553 -0.213853 -0.0264956  -0.0049237 -0.293154 0.0196408  -0.00739697 -0.273301 -0.0553014  -0.00702631 -0.318686 -0.0921139  -0.00954071 -0.301897 0.00930482  -0.00470203 -0.250971 -0.0524169  -0.0044989 -0.337863 -0.00659293  -0.00410777 -0.282459 -0.0847354  -0.00412434 -0.378476 -0.039668  -0.0065282 -0.356607 -0.13718  -0.0061866 -0.387268 -0.187424  -0.00934362 -0.410983 -0.0572999  -0.00358546 -0.308814 -0.12174  -0.00372744 -0.411555 -0.0797194  -0.00310403 -0.327479 -0.162913  -0.00347042 -0.438338 -0.124724  -0.00577909 -0.407689 -0.242821  -0.00558859 -0.419271 -0.300506  -0.00883335 -0.491361 -0.157628  -0.00274575 -0.339547 -0.206664  -0.00318581 -0.455521 -0.173715  -0.00244826 -0.342829 -0.251705  -0.00303501 -0.465087 -0.225161  -0.00528103 -0.419315 -0.359498  -0.0051803 -0.410254 -0.417575  -0.0084359 -0.532287 -0.279492  -0.00223303 -0.339018 -0.296885  -0.0028317 -0.464247 -0.277051  -0.00205922 -0.326493 -0.340257  -0.00274599 -0.455433 -0.328627  -0.00494277 -0.389891 -0.47291  -0.00489974 -0.36132 -0.524272  -0.00812328 -0.528589 -0.407906  -0.00193512 -0.307281 -0.381332  -0.00259554 -0.43671 -0.377054  -0.00183189 -0.280521 -0.417726  -0.00255299 -0.410623 -0.422452  -0.00471532 -0.323094 -0.56919  -0.00471795 -0.278539 -0.607579  -0.00788021 -0.480785 -0.527151  -0.00176346 -0.248285 -0.44968  -0.00244176 -0.376325 -0.461503  -0.00170147 -0.210581 -0.47466  -0.00243258 -0.336159 -0.495185  -0.0045768 -0.227144 -0.636616  -0.00461614 -0.172054 -0.657362  -0.00771379 -0.394771 -0.622692  -0.00166714 -0.169267 -0.4936  -0.00235093 -0.290469 -0.520093  -0.0016284 -0.125219 -0.504121  -0.00236344 -0.241118 -0.537946  -0.00450587 -0.113757 -0.666987  -0.00456727 -0.0548429 -0.667555  -0.00762236 -0.281042 -0.682887  -0.00160885 -0.0798623 -0.507732  -0.00229323 -0.1896 -0.545656  -0.00157082 -0.0348387 -0.502496  -0.00230324 -0.137077 -0.545477  -0.00446737 0.00325418 -0.656576  -0.00452447 0.0588041 -0.636872  -0.00758135 -0.153446 -0.700372  -0.00153553 0.00902885 -0.490317  -0.00220871 -0.0860197 -0.535016  -0.0014596 0.0495256 -0.469934  -0.00217068 -0.0367502 -0.516792  -0.00440013 0.109601 -0.606594  -0.00441206 0.154978 -0.568988  -0.00753772 -0.0275502 -0.672946  -0.0013572 0.086528 -0.443425  -0.00199509 0.00757909 -0.489406  -0.00118184 0.117517 -0.410364  -0.00184703 0.0475303 -0.455345  -0.00421524 0.192226 -0.523074  -0.00412607 0.221831 -0.472144  -0.00741124 0.0812159 -0.603877  -0.000943899 0.143091 -0.372755  -0.00153255 0.0796607 -0.414378  -0.000596762 0.160754 -0.331061  -0.00123334 0.105375 -0.368691  -0.00379372 0.240919 -0.416193  -0.00354052 0.251123 -0.358172  -0.00710869 0.159441 -0.501558  -0.000184298 0.17176 -0.286981  -0.00080514 0.121372 -0.319166  0.000370264 0.174028 -0.241738  -0.000403881 0.12984 -0.267528  -0.00297427 0.249778 -0.298981  -0.00250673 0.239525 -0.240868  -0.00654578 0.197517 -0.37846  0.000846624 0.16928 -0.196578  -4.74453e-05 0.12779 -0.215341  0.00151372 0.156163 -0.153076  0.000410318 0.11833 -0.163872  -0.00152373 0.218299 -0.185362  -0.000757217 0.189267 -0.133896  -0.00555182 0.190975 -0.249255  0.00188208 0.136625 -0.112129  0.000429153 0.0990766 -0.115241  0.00201201 0.109972 -0.0754058  0.00054431 0.0732347 -0.0700755  0.000332832 0.151551 -0.0881873  0.00108743 0.107788 -0.0501747  -0.00362015 0.141633 -0.128912  0.00250053 0.0786185 -0.0435386  0.0010097 0.0385101 -0.0310345  0.00158119 0.0404621 -0.0180658  0 1.19209e-07 1.78814e-07  0.0011394 0.0562014 -0.0199084  0 5.96046e-08 2.38419e-07  6.46114e-05 0.0548191 -0.0325435  0 5.96046e-08 1.78814e-07  0.00150792 -0.0450891 0.0500803  -0.000434808 -0.0437576 0.0360314  0.00359744 -0.102095 0.0953718  -0.000519626 -0.0561481 0.032933  -0.00235204 -0.120742 0.0602037  0 0 0  0 0 0  0.00178818 -0.0576041 0.0458993  0 0 0  -0.000949308 -0.0962651 0.0666333  0.00491095 -0.167892 0.128948  -0.00154746 -0.153999 0.0876155  0.00537223 -0.237893 0.152287  -0.00476907 -0.1904 0.0762721  -0.0067333 -0.261873 0.0810325  0.00260437 -0.203971 0.115308  -0.00197071 -0.214818 0.0996675  0.00569868 -0.310637 0.162599  -0.00222582 -0.276405 0.100357  0.00548744 -0.384093 0.160919  -0.00782531 -0.333677 0.0725896  -0.00831014 -0.403331 0.0527191  0.000522316 -0.367363 0.132497  -0.00207165 -0.337805 0.0910435  0.00581038 -0.45526 0.146027  -0.0019384 -0.395926 0.0707119  0.0055353 -0.523454 0.11926  -0.00840473 -0.468262 0.0200325  -0.00841796 -0.527205 -0.022776  -0.000603914 -0.526399 0.0931865  -0.00159973 -0.450414 0.0408316  0.00595331 -0.584869 0.0808051  -0.00144327 -0.497964 0.00172251  0.00569463 -0.639512 0.0321743  -0.00827056 -0.576968 -0.0758939  -0.00821966 -0.617555 -0.13644  -0.000904083 -0.661985 0.00149989  -0.00113547 -0.538757 -0.0451071  0.00615835 -0.68375 -0.0251004  -0.00104594 -0.569808 -0.0982027  0.00592196 -0.718167 -0.0895734  -0.0080182 -0.645884 -0.20343  -0.00795126 -0.663052 -0.274221  -0.000841141 -0.757446 -0.131284  -0.000784934 -0.591871 -0.156205  0.00640368 -0.73986 -0.158576  -0.000740528 -0.602631 -0.21673  0.00617683 -0.749885 -0.230953  -0.00773776 -0.666501 -0.34683  -0.00767362 -0.658183 -0.41918  -0.00061059 -0.801154 -0.288758  -0.000513673 -0.603292 -0.278773  0.00665331 -0.746433 -0.303213  -0.000499368 -0.592491 -0.339307  0.00641274 -0.730881 -0.374635  -0.0074774 -0.63638 -0.488534  -0.00743926 -0.603626 -0.553613  -0.000335932 -0.787874 -0.45163  -0.000304818 -0.5717 -0.397801  0.00686252 -0.702728 -0.441327  -0.00032115 -0.540678 -0.450952  0.00658977 -0.663506 -0.503079  -0.00728059 -0.55925 -0.611262  -0.00728226 -0.50606 -0.661139  -0.000105262 -0.71928 -0.600033  -0.000161171 -0.50098 -0.498759  0.00700212 -0.614081 -0.556064  -0.000209212 -0.453517 -0.538038  0.00669205 -0.555959 -0.600607  -0.00716591 -0.444512 -0.700052  -0.00720525 -0.377359 -0.728636  3.83854e-05 -0.603729 -0.715876  -7.87973e-05 -0.399746 -0.569319  0.00707269 -0.491271 -0.633409  -0.000148058 -0.341616 -0.589918  0.00673819 -0.421319 -0.655284  -0.00711954 -0.306128 -0.744049  -0.00717819 -0.233192 -0.747823  9.63211e-05 -0.455274 -0.785005  -2.64645e-05 -0.280316 -0.600831  0.00710928 -0.349242 -0.663864  -8.92878e-05 -0.218606 -0.6002  0.00677872 -0.275986 -0.660355  -0.00709796 -0.160963 -0.737814  -0.00714397 -0.091161 -0.716271  0.000101805 -0.291993 -0.79892  6.50883e-05 -0.157265 -0.589369  0.00717402 -0.205327 -0.643618  5.48363e-05 -0.0995321 -0.567542  0.006881 -0.137748 -0.615097  -0.00703788 -0.0267799 -0.682015  -0.00703526 0.0313048 -0.637745  9.82285e-05 -0.133823 -0.755824  0.000299215 -0.0456885 -0.536254  0.00732279 -0.0771948 -0.575071  0.000387669 0.000952244 -0.495886  0.00705576 -0.0236542 -0.525045  -0.00688386 0.0799079 -0.583395  -0.00681257 0.119091 -0.521812  9.10759e-05 -0.000176072 -0.66089  0.000754833 0.0406294 -0.448001  0.00744915 0.0193223 -0.466752  0.000907421 0.0704466 -0.394095  0.00697756 0.0522169 -0.401608  -0.00663948 0.145914 -0.453986  -0.00652742 0.161409 -0.382649  -6.65188e-05 0.0924744 -0.525736  0.00125742 0.0910791 -0.335656  0.0068059 0.0724726 -0.332519  0.00121999 0.100588 -0.274822  0.00541329 0.0811626 -0.260793  -0.0063138 0.163203 -0.309449  -0.00624132 0.153299 -0.236898  -0.00088501 0.13289 -0.366976  0.000980139 0.09992 -0.213245  0.00380421 0.0761942 -0.189349  0.000424385 0.0879258 -0.152847  0.00173354 0.0605842 -0.119494  -0.00545359 0.129977 -0.166762  -0.00400877 0.096323 -0.102416  -0.00310516 0.116281 -0.203751  0.000902176 0.0670668 -0.0950657  0.0010159 0.0325563 -0.0554218  0.00063014 0.0359031 -0.0435895  0 2.38419e-07 1.78814e-07  -0.00104952 0.0509551 -0.0453515  0 1.78814e-07 2.38419e-07  -0.0011363 0.0468214 -0.0564212  0 1.78814e-07 1.78814e-07  0.0146036 -0.0604801 0.0800458  0.00793543 -0.0494154 0.0648454  0.0354603 -0.124481 0.15369  0.00924597 -0.0630783 0.0578383  0.016638 -0.136994 0.11335  0 0 0  0 0 0  0.0163105 -0.07481 0.0709048  0 0 0  0.0147173 -0.111629 0.123732  0.0430107 -0.205136 0.210827  0.0184922 -0.184997 0.168995  0.046764 -0.29323 0.25748  0.019358 -0.222891 0.15421  0.0195342 -0.313212 0.181523  0.0493963 -0.249036 0.191844  0.0208232 -0.264003 0.2039  0.0473821 -0.387376 0.283846  0.0211349 -0.34774 0.223176  0.0471346 -0.484722 0.298005  0.0182088 -0.406273 0.191059  0.017461 -0.499436 0.186282  0.0496765 -0.451393 0.24672  0.021555 -0.432964 0.229289  0.0465983 -0.580655 0.290592  0.0210589 -0.516963 0.218892  0.0461438 -0.676013 0.2706  0.0164838 -0.588992 0.163283  0.0162117 -0.674383 0.126849  0.0463402 -0.656013 0.22871  0.02129 -0.598459 0.195365  0.0457984 -0.762899 0.230613  0.0208177 -0.673197 0.156684  0.0456805 -0.845149 0.179017  0.0157565 -0.75015 0.0744002  0.0158199 -0.817536 0.0107966  0.0448035 -0.840765 0.141419  0.0211713 -0.741315 0.10651  0.0455883 -0.912662 0.111581  0.0208171 -0.797906 0.0444475  0.0456887 -0.9719 0.0348342  0.0156397 -0.870414 -0.064503  0.0158824 -0.911639 -0.147379  0.0444421 -0.983664 -0.00412631  0.0212746 -0.844416 -0.026118  0.0457405 -1.01194 -0.0516667  0.021003 -0.876044 -0.103855  0.0459368 -1.04102 -0.144085  0.0158286 -0.935267 -0.236235  0.0161455 -0.945375 -0.328207  0.0445962 -1.06744 -0.189859  0.021508 -0.895326 -0.186114  0.0460389 -1.04879 -0.239059  0.021266 -0.898199 -0.269987  0.0462508 -1.04425 -0.335844  0.0161233 -0.936937 -0.419759  0.0164406 -0.914741 -0.509603  0.0449266 -1.08205 -0.393008  0.0217699 -0.887942 -0.353874  0.0463396 -1.01884 -0.427718  0.0215124 -0.86174 -0.433644  0.0465186 -0.981254 -0.517074  0.0163916 -0.875287 -0.592696  0.0166683 -0.823498 -0.669466  0.0452479 -1.0258 -0.588808  0.0219836 -0.823207 -0.508925  0.0465612 -0.925755 -0.594655  0.0216867 -0.77112 -0.574866  0.0466887 -0.859678 -0.665691  0.0165681 -0.757825 -0.73397  0.0167927 -0.68274 -0.788299  0.0454683 -0.905566 -0.753411  0.0221142 -0.708993 -0.632356  0.0466805 -0.780828 -0.719509  0.0217755 -0.637348 -0.676412  0.0467619 -0.69429 -0.763543  0.0166428 -0.59883 -0.826333  0.0168254 -0.509579 -0.851568  0.0455693 -0.735948 -0.866733  0.0221683 -0.559179 -0.709076  0.0467151 -0.601672 -0.786997  0.0218037 -0.476689 -0.72584  0.0467696 -0.505194 -0.798613  0.0166432 -0.417644 -0.858456  0.0167992 -0.325102 -0.851469  0.0455744 -0.537573 -0.914895  0.0221813 -0.391991 -0.729643  0.0466967 -0.410083 -0.788793  0.0218105 -0.30871 -0.717016  0.0467184 -0.315427 -0.766502  0.0165942 -0.236353 -0.826317  0.0167158 -0.151833 -0.787899  0.0455048 -0.334593 -0.891917  0.0221829 -0.227835 -0.691434  0.0465899 -0.229414 -0.724565  0.0218015 -0.153961 -0.650916  0.0464776 -0.148201 -0.671048  0.0164499 -0.0771277 -0.733724  0.0164545 -0.0110145 -0.668528  0.0452905 -0.151758 -0.800466  0.0221162 -0.0868769 -0.599063  0.0461287 -0.0817603 -0.602162  0.0216019 -0.0314881 -0.535689  0.0454953 -0.0240878 -0.524168  0.0159464 0.0404811 -0.591939  0.0155644 0.0800445 -0.507995  0.0445924 -0.0114151 -0.651569  0.02159 0.0134745 -0.464174  0.0443225 0.0149201 -0.437165  0.0203807 0.0437468 -0.386092  0.0419219 0.0420158 -0.34534  0.0142848 0.102118 -0.41841  0.0128863 0.110487 -0.326273  0.0423582 0.0693893 -0.463526  0.019176 0.0613054 -0.304534  0.0380161 0.0507309 -0.252416  0.0155938 0.0636375 -0.222143  0.0305552 0.0461091 -0.160957  0.00986314 0.101189 -0.234839  0.00543022 0.0784771 -0.147592  0.0357602 0.0827188 -0.26074  0.0107322 0.053096 -0.141963  0.0193019 0.0321156 -0.0770408  0.00161719 0.029807 -0.0674978  0 3.57628e-07 2.38419e-07  -0.000367403 0.0417102 -0.067999  0 2.98023e-07 2.38419e-07  0.0180643 0.0403128 -0.075259  0 2.98023e-07 1.78814e-07  0.0093004 -0.0598007 -0.0631882  0.00895137 -0.0510021 -0.0742074  0.0170612 -0.114856 -0.136909  0.0165377 -0.0639749 -0.088509  0.0381391 -0.124313 -0.183967  0.0133937 -0.048699 -0.0963576  0 0 0  -0.0103432 -0.0441142 -0.0805107  0 1.49012e-08 0  0 7.45058e-09 0  0.0156624 -0.0733527 -0.0748512  0 7.45058e-09 0  -0.0145788 -0.0810614 -0.171322  0.00878704 -0.0998279 -0.158502  0.0190207 -0.154898 -0.22257  0.00644559 -0.13517 -0.255024  0.0189455 -0.182114 -0.312462  0.038019 -0.170259 -0.28703  0.0347758 -0.199407 -0.395243  0.0107008 -0.14052 -0.309765  -0.0194094 -0.11191 -0.27701  0.0490172 -0.194079 -0.250437  -0.0241657 -0.1257 -0.386653  0.00395817 -0.15464 -0.354943  0.0178385 -0.191552 -0.405457  0.00211442 -0.15578 -0.456761  0.0176023 -0.186478 -0.497758  0.0327787 -0.207213 -0.505941  0.0308821 -0.197536 -0.615566  0.00349656 -0.165046 -0.545746  -0.0263435 -0.119586 -0.497149  0.0474119 -0.247888 -0.451974  -0.0282327 -0.0963558 -0.60533  0.000855029 -0.140333 -0.556799  0.0167943 -0.163532 -0.587699  0.00015378 -0.106608 -0.652037  0.0170575 -0.127101 -0.672163  0.0299446 -0.166717 -0.721349  0.0293513 -0.120174 -0.820381  0.000562549 -0.107787 -0.773162  -0.028937 -0.0529785 -0.706211  0.0453067 -0.229058 -0.656113  -0.0294868 0.00563868 -0.799462  -0.000205278 -0.0579178 -0.740315  0.0165715 -0.0745168 -0.748388  -0.000344455 0.00648155 -0.817776  0.0170607 -0.0111879 -0.814939  0.0290751 -0.0547854 -0.908711  0.0290229 0.022941 -0.985462  -0.000241637 0.0237254 -0.965807  -0.0295882 0.08089 -0.878861  0.0446235 -0.141115 -0.84032  -0.0296659 0.167837 -0.946036  -0.00035423 0.0825208 -0.883722  0.0166944 0.0644651 -0.86823  -0.00029695 0.169614 -0.934117  0.0172395 0.146863 -0.908799  0.0290135 0.114715 -1.0457  0.0291274 0.214087 -1.0909  -0.000264287 0.213257 -1.10096  -0.0295636 0.265706 -0.994522  0.0446097 0.00494166 -0.982561  -0.0295188 0.37037 -1.02759  -0.000212073 0.26368 -0.969776  0.0168825 0.236259 -0.932724  -0.000127196 0.362783 -0.987061  0.0174047 0.327615 -0.942418  0.0291723 0.320964 -1.1158  0.0292891 0.429823 -1.12402  -9.25064e-05 0.437609 -1.16247  -0.0293951 0.478905 -1.03939  0.0447832 0.191059 -1.06563  -0.029368 0.588541 -1.03441  -5.80549e-05 0.463383 -0.98815  0.0170088 0.419819 -0.93411  -1.38283e-05 0.562405 -0.970276  0.0174836 0.508977 -0.911784  0.0292964 0.538761 -1.11063  0.0293623 0.643835 -1.08091  2.20537e-05 0.669421 -1.143  -0.0292927 0.694522 -1.00814  0.0449228 0.394436 -1.07953  -0.0293201 0.795781 -0.965758  7.15256e-06 0.657275 -0.9367  0.0170462 0.592742 -0.872279  7.62939e-06 0.744149 -0.885872  0.0174893 0.668829 -0.820671  0.0293194 0.741562 -1.03089  0.0293452 0.830044 -0.966858  2.31266e-05 0.880457 -1.04501  -0.0292903 0.886303 -0.904656  0.0449644 0.590263 -1.02265  -0.0293489 0.966851 -0.830052  -1.78814e-06 0.821728 -0.821735  0.0170387 0.73394 -0.754794  -1.14441e-05 0.885865 -0.744158  0.0174868 0.787676 -0.680198  0.0292864 0.904649 -0.886311  0.0293162 0.965752 -0.79579  -2.70605e-05 1.045 -0.880465  -0.0293235 1.03088 -0.74157  0.0449444 0.754666 -0.901942  -0.0293659 1.0809 -0.643844  -1.13249e-05 0.936693 -0.657283  0.0170608 0.826192 -0.595982  9.65595e-06 0.970271 -0.562414  0.017549 0.851019 -0.507492  0.0292882 1.00814 -0.694531  0.0293638 1.0344 -0.588549  -2.67029e-05 1.143 -0.66943  -0.0293008 1.11063 -0.53877  0.0449462 0.867597 -0.732122  -0.0292938 1.12401 -0.429832  5.34058e-05 0.988145 -0.463391  0.0171692 0.858234 -0.415198  0.000122666 0.987057 -0.362791  0.0177057 0.851108 -0.3236  0.0293899 1.03938 -0.478913  0.0295136 1.02759 -0.370378  8.7142e-05 1.16247 -0.437618  -0.0291775 1.1158 -0.320972  0.0450395 0.915269 -0.533879  -0.0291324 1.09089 -0.214095  0.000207186 0.969773 -0.263688  0.0173552 0.826109 -0.234475  0.000292063 0.934116 -0.169621  0.0178914 0.78786 -0.150938  0.0295584 0.994521 -0.265713  0.0296607 0.946035 -0.167844  0.000258923 1.10096 -0.213265  -0.0290189 1.04569 -0.114722  0.0452154 0.89182 -0.331351  -0.0290287 0.985461 -0.0229479  0.000349283 0.883722 -0.0825273  0.0174921 0.733644 -0.0758769  0.000339985 0.817776 -0.00648725  0.0178745 0.668887 -0.0106243  0.0295832 0.878861 -0.080896  0.0294824 0.799463 -0.00564325  0.000235796 0.965807 -0.0237317  -0.0290802 0.908711 0.0547795  0.0453076 0.800004 -0.149197  -0.0293553 0.820382 0.120169  0.000201464 0.740316 0.0579131  0.0172324 0.59208 0.0411411  -0.000157356 0.652038 0.106604  0.0170355 0.508729 0.0801156  0.0289326 0.706213 0.0529743  0.0282295 0.605332 0.0963526  -0.000567436 0.773164 0.107783  -0.0299485 0.72135 0.166712  0.0448577 0.650908 -0.00963646  -0.0308852 0.615568 0.197533  -0.000858068 0.5568 0.14033  0.0156052 0.418909 0.102343  -0.00211692 0.456762 0.155778  0.0137784 0.327173 0.11062  0.0263407 0.497151 0.119583  0.0241637 0.386655 0.125698  -0.00349879 0.545748 0.165044  -0.0327811 0.505944 0.207211  0.042614 0.462915 0.0704623  -0.0347776 0.395245 0.199405  -0.00395989 0.354944 0.154638  0.010273 0.235837 0.101185  -0.00644684 0.255026 0.135169  0.00552964 0.146937 0.0788616  0.019408 0.277012 0.111909  0.0145776 0.171323 0.0810609  -0.0107024 0.309767 0.140519  -0.0380201 0.287032 0.170258  0.0353091 0.260504 0.0834271  -0.0381403 0.183969 0.124312  -0.00878763 0.158503 0.0998273  -0.000442982 0.0690031 0.0424762  -0.00895166 0.0742079 0.051002  0 -2.23517e-07 2.98023e-07  0.0103428 0.0805108 0.0441141  0 -3.20375e-07 3.57628e-07  -0.0133946 0.0963576 0.0486984  -0.0165381 0.0885101 0.0639746  0.0169203 0.0755387 0.0400981  0 -3.57628e-07 2.98023e-07  0 -2.90573e-07 2.98023e-07  0.00383923 -0.071151 -0.0360355  0.00599089 -0.0657934 -0.0495729  0.00898209 -0.133186 -0.0841115  0.0114462 -0.0821055 -0.058112  0.0356508 -0.154897 -0.12487  0 0 0  0 0 0  0.00797886 -0.0877699 -0.0418755  0 0 0  0.0143049 -0.124879 -0.110985  0.0125517 -0.183541 -0.144137  0.0184221 -0.17089 -0.184358  0.0149754 -0.225229 -0.211174  0.0444214 -0.213798 -0.203933  0.0474387 -0.258484 -0.292801  0.031639 -0.22797 -0.158955  0.0205002 -0.204963 -0.263848  0.0162913 -0.254031 -0.2844  0.0208558 -0.224646 -0.347231  0.0169419 -0.271484 -0.36043  0.047559 -0.287338 -0.386636  0.0476442 -0.299265 -0.483113  0.0370345 -0.319801 -0.319043  0.0212768 -0.229867 -0.431916  0.0172487 -0.27395 -0.438549  0.0209627 -0.219868 -0.516113  0.0175801 -0.264552 -0.515181  0.0470307 -0.293743 -0.580281  0.0472041 -0.271906 -0.674014  0.0372115 -0.352452 -0.499097  0.0214667 -0.195762 -0.596751  0.0177082 -0.239953 -0.589125  0.0210803 -0.157305 -0.672008  0.0179906 -0.204727 -0.657582  0.0467716 -0.233087 -0.76291  0.0471907 -0.180303 -0.843049  0.0371991 -0.321372 -0.678158  0.0217031 -0.106852 -0.739156  0.0180662 -0.156053 -0.71836  0.0213125 -0.0447451 -0.796387  0.0183059 -0.0993143 -0.770367  0.0468847 -0.11318 -0.912915  0.0473839 -0.0360058 -0.969822  0.0374317 -0.230435 -0.835063  0.0219493 0.025804 -0.84193  0.0183309 -0.0326167 -0.810567  0.0215346 0.103871 -0.874192  0.0185188 0.0386273 -0.839794  0.0471016 0.0510801 -1.01222  0.0475807 0.14315 -1.03903  0.0377055 -0.0909291 -0.950801  0.0221345 0.185834 -0.892617  0.0184908 0.115136 -0.854549  0.0216745 0.270281 -0.896018  0.0186287 0.19214 -0.85746  0.0472634 0.23953 -1.04886  0.0476881 0.335241 -1.04235  0.0378975 0.0799609 -1.01136  0.0222266 0.353628 -0.885112  0.0185571 0.269104 -0.845004  0.0217243 0.434138 -0.859266  0.0186614 0.342459 -0.821267  0.0473222 0.429163 -1.01845  0.0477034 0.516843 -0.979443  0.0379777 0.261337 -1.00943  0.0222447 0.508697 -0.820377  0.0185699 0.410491 -0.78313  0.0217261 0.575451 -0.768445  0.01867 0.471251 -0.735646  0.047313 0.596861 -0.924732  0.0476876 0.665819 -0.857981  0.0379807 0.43108 -0.945299  0.0222478 0.632128 -0.706319  0.0185913 0.522055 -0.676471  0.0217488 0.676987 -0.634632  0.0187205 0.562808 -0.61102  0.0473136 0.722175 -0.77912  0.0477246 0.763996 -0.692757  0.0379813 0.568495 -0.826762  0.022305 0.708866 -0.556839  0.0186833 0.590176 -0.538008  0.0218529 0.726347 -0.474128  0.0188651 0.605928 -0.462554  0.0474006 0.789805 -0.599347  0.0478663 0.799372 -0.503886  0.0380569 0.656806 -0.668247  0.0224588 0.729522 -0.390142  0.0188801 0.606485 -0.384597  0.0220516 0.717461 -0.306484  0.0191131 0.595274 -0.308336  0.0475864 0.791461 -0.407299  0.0480661 0.767566 -0.314356  0.0382383 0.685194 -0.489039  0.02268 0.691502 -0.226545  0.0191665 0.568926 -0.234969  0.0222714 0.65134 -0.152174  0.0194232 0.532132 -0.167225  0.0477502 0.726872 -0.226359  0.0480988 0.672393 -0.147258  0.0384471 0.650134 -0.310966  0.02283 0.599398 -0.08607  0.0194671 0.482286 -0.107505  0.0222874 0.536153 -0.030158  0.0196037 0.424718 -0.0565427  0.0475378 0.603922 -0.0786457  0.0473292 0.525651 -0.0230577  0.0384562 0.556021 -0.155819  0.0224528 0.46478 0.0140069  0.0192382 0.358364 -0.0177251  0.0212016 0.386791 0.0446783  0.0183289 0.288016 0.0105743  0.0458529 0.438347 0.0177016  0.0436521 0.346728 0.0433971  0.0375674 0.415515 -0.0427167  0.0197275 0.30539 0.0619012  0.0156138 0.214518 0.0247761  0.0159786 0.22334 0.064561  0.011174 0.141033 0.028045  0.0392909 0.253221 0.0526147  0.0314083 0.16176 0.0481515  0.0329001 0.249225 0.0160588  0.0102558 0.14286 0.0544536  0.00263977 0.0689318 0.0170192  0.00115657 0.0678929 0.0298946  0 -1.49012e-07 2.98023e-07  0.0203345 0.0766977 0.0319216  0 -2.08616e-07 3.57628e-07  0.0164363 0.0804724 0.021101  0 -1.78814e-07 2.98023e-07  -0.00264675 -0.0730318 -0.00880384  -0.00101373 -0.0727701 -0.0223437  -0.00463119 -0.140694 -0.0284095  0.000869974 -0.0903431 -0.0222889  0.00868922 -0.169073 -0.060025  0 0 0  0 0 0  -0.00239682 -0.0901204 -0.0077492  0 0 0  0.00165862 -0.137823 -0.0559896  -0.00493024 -0.201258 -0.0599922  0.00367719 -0.19372 -0.101836  -0.00442782 -0.258009 -0.100556  0.0138998 -0.239218 -0.109764  0.0172016 -0.299667 -0.173718  -0.0044145 -0.244695 -0.0672164  0.00617668 -0.242764 -0.156148  -0.00349942 -0.306979 -0.151339  0.00721771 -0.281882 -0.218358  -0.00288594 -0.34867 -0.208813  0.0191248 -0.351123 -0.245816  0.0195087 -0.38778 -0.326615  -0.00235245 -0.3738 -0.176858  0.00851828 -0.311061 -0.285623  -0.00229126 -0.378657 -0.273568  0.00861543 -0.327482 -0.357164  -0.00199354 -0.398949 -0.341568  0.020002 -0.411823 -0.412014  0.0199106 -0.419058 -0.499881  -0.00164926 -0.461409 -0.325464  0.0094679 -0.332383 -0.429818  -0.00163686 -0.405048 -0.412659  0.0092442 -0.323266 -0.502414  -0.0014742 -0.400813 -0.483282  0.0203104 -0.412141 -0.588125  0.0202512 -0.388743 -0.672809  -0.00139469 -0.493507 -0.494956  0.00999689 -0.302888 -0.572068  -0.00120044 -0.381986 -0.552019  0.00965869 -0.269224 -0.636922  -0.00110024 -0.353612 -0.616734  0.020669 -0.351753 -0.753081  0.0206127 -0.300566 -0.824355  -0.00104797 -0.465338 -0.66481  0.0103568 -0.226018 -0.695149  -0.000881672 -0.312193 -0.674696  0.00995171 -0.171998 -0.744343  -0.000833392 -0.263197 -0.72561  0.0210035 -0.238159 -0.886877  0.0208945 -0.165516 -0.936087  -0.000691414 -0.380298 -0.814352  0.0105944 -0.111319 -0.784059  -0.000668883 -0.204312 -0.765742  0.0101349 -0.043613 -0.811616  -0.000669956 -0.140735 -0.796666  0.0212317 -0.0853791 -0.973292  0.0210544 -0.000196576 -0.994483  -0.000431895 -0.248894 -0.925384  0.010726 0.027078 -0.828008  -0.000553608 -0.0715928 -0.814104  0.0102224 0.100179 -0.830599  -0.000594974 -0.0012103 -0.821292  0.0213357 0.0878887 -1.00188  0.0211041 0.175211 -0.992491  -0.000299215 -0.0872279 -0.984433  0.0107766 0.172243 -0.821695  -0.000510693 0.0697603 -0.813919  0.0102488 0.241823 -0.799017  -0.000572205 0.13837 -0.796497  0.0213499 0.260516 -0.969175  0.0210974 0.339332 -0.930362  -0.000268221 0.0849823 -0.984332  0.0107911 0.306475 -0.765905  -0.000493765 0.202522 -0.765198  0.0102683 0.364055 -0.720713  -0.000546098 0.260989 -0.725267  0.0213438 0.411461 -0.879162  0.0211147 0.472156 -0.815634  -0.000276208 0.246755 -0.925077  0.0108311 0.413406 -0.667413  -0.000441432 0.310481 -0.673824  0.0103449 0.451948 -0.605192  -0.000450611 0.351639 -0.616218  0.0214008 0.5223 -0.742764  0.0212264 0.557444 -0.662235  -0.000245452 0.37835 -0.813825  0.0109572 0.479949 -0.538179  -0.000290155 0.380381 -0.550878  0.0105302 0.494705 -0.466498  -0.000227213 0.399141 -0.482611  0.0215707 0.579454 -0.576555  0.0214412 0.584708 -0.488823  -0.000116825 0.463637 -0.664061  0.0112035 0.497889 -0.39394  1.52588e-05 0.403575 -0.411342  0.0108488 0.487025 -0.321561  0.000194788 0.397661 -0.340759  0.0218196 0.575874 -0.400771  0.0216763 0.550627 -0.316533  0.000116587 0.492088 -0.493988  0.0115719 0.465047 -0.252339  0.00059104 0.377346 -0.272223  0.0113301 0.430072 -0.18815  0.00106931 0.347861 -0.207824  0.0220702 0.512102 -0.236902  0.0218809 0.459854 -0.166399  0.000514746 0.460229 -0.324302  0.0120745 0.386079 -0.130659  0.00180912 0.305933 -0.150265  0.0119267 0.332131 -0.0824519  0.00279117 0.257513 -0.099422  0.022316 0.396929 -0.105339  0.0216787 0.325507 -0.056846  0.00166249 0.372655 -0.175858  0.0121763 0.272691 -0.0432398  0.00347495 0.200518 -0.059324  0.0109079 0.20774 -0.0161324  0.00340438 0.139838 -0.0276893  0.0211997 0.247925 -0.022057  0.0177066 0.16821 0.000536203  0.00409174 0.243322 -0.0670309  0.00825834 0.140825 0.00112009  0.00147367 0.0717437 -0.00959873  0.00289392 0.0704838 0.00436062  0 0 2.98023e-07  0.0127771 0.0844991 0.00795877  0 -5.96046e-08 3.57628e-07  0.00371432 0.0879005 -0.00820643  0 -5.96046e-08 2.98023e-07  -0.00537641 -0.0690893 0.0176566  -0.00539109 -0.0715761 0.00408548  -0.0119449 -0.141777 0.0269651  -0.00877763 -0.0864916 0.00984752  -0.0169202 -0.16806 -0.00151587  0 0 0  0 0 0  -0.01018 -0.0823742 0.0209388  0 0 0  -0.00906408 -0.141416 -0.00021553  -0.0160712 -0.214746 0.0238993  -0.0120337 -0.208259 -0.0170219  -0.0189898 -0.288638 0.00990659  -0.0210609 -0.248449 -0.0230075  -0.0221154 -0.324588 -0.0586302  -0.0317497 -0.25009 0.0151149  -0.0127626 -0.27348 -0.0444069  -0.0199037 -0.359114 -0.0182094  -0.0130143 -0.333114 -0.0835062  -0.0205547 -0.425718 -0.0569274  -0.0222933 -0.396847 -0.106909  -0.0225781 -0.459246 -0.167476  -0.0381167 -0.416257 -0.043326  -0.0126165 -0.38736 -0.131886  -0.0203516 -0.483664 -0.10805  -0.0124539 -0.431451 -0.18948  -0.0205541 -0.533687 -0.167516  -0.0223302 -0.511832 -0.238399  -0.0225814 -0.550671 -0.316964  -0.0393953 -0.557213 -0.156371  -0.0120504 -0.46673 -0.25364  -0.0201619 -0.570733 -0.235584  -0.0119708 -0.488575 -0.322931  -0.0203045 -0.597317 -0.308596  -0.0221992 -0.575778 -0.401684  -0.022339 -0.585381 -0.488721  -0.0395761 -0.651764 -0.311467  -0.0116189 -0.499751 -0.395237  -0.0198697 -0.608608 -0.385191  -0.011586 -0.496339 -0.467716  -0.0199893 -0.608358 -0.462794  -0.0218621 -0.579748 -0.57678  -0.0219579 -0.558746 -0.661676  -0.0393513 -0.687212 -0.489453  -0.0112608 -0.48187 -0.539342  -0.019556 -0.592537 -0.538529  -0.0112622 -0.453644 -0.606134  -0.0196853 -0.56553 -0.611241  -0.0214822 -0.523117 -0.742331  -0.0216106 -0.474116 -0.814727  -0.0389878 -0.659149 -0.668565  -0.0109746 -0.41534 -0.668332  -0.0192873 -0.524577 -0.676891  -0.0110196 -0.365807 -0.721305  -0.0194541 -0.474157 -0.735865  -0.0211885 -0.412886 -0.878183  -0.0213813 -0.34192 -0.929276  -0.0386671 -0.571087 -0.826997  -0.0107801 -0.308395 -0.766511  -0.0191065 -0.413078 -0.783447  -0.0108718 -0.243619 -0.79923  -0.019321 -0.345403 -0.821509  -0.0210249 -0.262562 -0.967829  -0.0212804 -0.178303 -0.991414  -0.0384681 -0.433818 -0.945482  -0.0106783 -0.174113 -0.821956  -0.0190207 -0.271634 -0.845223  -0.010808 -0.101985 -0.830438  -0.0192736 -0.194942 -0.85773  -0.0209768 -0.0904722 -1.00037  -0.021271 -0.00318617 -0.993568  -0.038395 -0.264069 -1.0096  -0.0106441 -0.0288519 -0.82791  -0.019001 -0.117463 -0.854662  -0.01079 0.0418436 -0.811102  -0.0192691 -0.0411016 -0.840053  -0.02099 0.0824245 -0.971799  -0.0212866 0.162095 -0.935414  -0.0384061 -0.0825052 -1.0115  -0.0106272 0.109686 -0.783596  -0.0189958 0.0306301 -0.810532  -0.0107582 0.170314 -0.743505  -0.0192482 0.0973129 -0.770537  -0.0209943 0.235038 -0.885535  -0.0212551 0.297341 -0.823946  -0.0384408 0.0887372 -0.950863  -0.010561 0.224553 -0.694331  -0.0189455 0.154495 -0.718116  -0.0106454 0.267661 -0.63581  -0.0191579 0.203277 -0.657576  -0.0209293 0.348683 -0.751987  -0.0211403 0.385931 -0.672661  -0.0384505 0.228704 -0.834968  -0.0103834 0.301599 -0.570941  -0.0188117 0.238844 -0.58862  -0.0103936 0.321853 -0.501112  -0.018975 0.263683 -0.514922  -0.020786 0.40935 -0.587344  -0.0209589 0.416941 -0.49994  -0.0384374 0.320153 -0.677824  -0.0100486 0.331308 -0.428469  -0.0185623 0.273221 -0.437772  -0.00991583 0.326263 -0.355797  -0.0185838 0.271187 -0.359826  -0.0205286 0.409539 -0.411557  -0.0204957 0.386786 -0.326602  -0.038389 0.351719 -0.498427  -0.00940013 0.310332 -0.284145  -0.0177276 0.253434 -0.283598  -0.00869465 0.280928 -0.217233  -0.0166912 0.225227 -0.210241  -0.0192893 0.349404 -0.24586  -0.0178771 0.29993 -0.173231  -0.0374272 0.319268 -0.31815  -0.00734782 0.242467 -0.154742  -0.0135806 0.183121 -0.144034  -0.00505304 0.193206 -0.101471  -0.00955009 0.132956 -0.0835537  -0.0136809 0.237818 -0.111384  -0.00969172 0.169129 -0.0597013  -0.0309124 0.227058 -0.159169  -0.00232339 0.137461 -0.0553055  -0.00233984 0.0705264 -0.0355486  0.000490189 0.0719849 -0.0218819  0 1.19209e-07 2.98023e-07  -0.00245476 0.0884445 -0.025839  0 5.96046e-08 3.57628e-07  -0.0122311 0.0868518 -0.0439448  0 5.96046e-08 2.98023e-07  -0.0019499 -0.0669964 0.0411257  -0.00436088 -0.0677738 0.0289906  -0.00486842 -0.145953 0.0771807  -0.0113733 -0.0766622 0.0322132  -0.0269369 -0.160741 0.0462812  0 0 0  0 0 0  -0.0095804 -0.0741154 0.0392438  0 0 0  -0.0102501 -0.14283 0.0525603  -0.00883193 -0.23485 0.100198  -0.0156558 -0.22319 0.0634763  -0.0125363 -0.326803 0.10988  -0.0367425 -0.252746 0.0506555  -0.0423889 -0.345813 0.0419371  -0.0322683 -0.259466 0.0824739  -0.0192038 -0.306023 0.0613858  -0.0145239 -0.418718 0.102114  -0.021237 -0.387162 0.0441293  -0.0164519 -0.508866 0.079939  -0.045089 -0.437519 0.0158641  -0.0469044 -0.524903 -0.0240299  -0.0425645 -0.462669 0.0700188  -0.0223868 -0.465821 0.0136669  -0.0167701 -0.592643 0.0414436  -0.022725 -0.536974 -0.0305253  -0.0177653 -0.669614 -0.0104069  -0.0472699 -0.603052 -0.0799851  -0.0480629 -0.672019 -0.147618  -0.045704 -0.651602 -0.00974405  -0.0230603 -0.600888 -0.0863443  -0.0174155 -0.734957 -0.0752946  -0.0229623 -0.652612 -0.152364  -0.0180353 -0.789228 -0.150424  -0.0477834 -0.726194 -0.226919  -0.0481829 -0.767718 -0.31404  -0.0465619 -0.801382 -0.149174  -0.0230525 -0.693428 -0.226751  -0.0174256 -0.828141 -0.233738  -0.0228182 -0.719194 -0.306469  -0.0178763 -0.853123 -0.322869  -0.0476744 -0.791262 -0.406977  -0.0479047 -0.800204 -0.50293  -0.0465693 -0.893747 -0.331214  -0.0228117 -0.731833 -0.390274  -0.0171722 -0.86093 -0.414414  -0.0225316 -0.728534 -0.473927  -0.0175687 -0.853655 -0.506646  -0.0473355 -0.790315 -0.598209  -0.0475378 -0.765637 -0.691304  -0.0462517 -0.917685 -0.533648  -0.0225075 -0.711502 -0.556908  -0.0168611 -0.829457 -0.595275  -0.0222402 -0.679586 -0.634307  -0.0172755 -0.790856 -0.679377  -0.0469968 -0.723553 -0.777354  -0.0472432 -0.668311 -0.856266  -0.0458893 -0.870434 -0.731854  -0.0222477 -0.635004 -0.706362  -0.0166112 -0.737611 -0.754304  -0.022025 -0.578373 -0.76809  -0.0170771 -0.672393 -0.820037  -0.046766 -0.599158 -0.92262  -0.047079 -0.520097 -0.977749  -0.0456212 -0.757813 -0.90173  -0.0220841 -0.51168 -0.820449  -0.0164701 -0.596575 -0.872129  -0.0219126 -0.437221 -0.858981  -0.0169911 -0.512671 -0.911472  -0.046666 -0.432285 -1.01632  -0.0470369 -0.339026 -1.04094  -0.04549 -0.593535 -1.02259  -0.0220195 -0.356533 -0.885252  -0.0164318 -0.423503 -0.934355  -0.0218859 -0.273307 -0.895865  -0.0169924 -0.331127 -0.942475  -0.0466692 -0.243243 -1.04699  -0.0470716 -0.147145 -1.03806  -0.0454787 -0.397587 -1.07967  -0.0220197 -0.188452 -0.892811  -0.0164615 -0.239473 -0.933317  -0.0219011 -0.106608 -0.874165  -0.0170436 -0.149899 -0.909168  -0.0467262 -0.055068 -1.01081  -0.0471355 0.0321319 -0.96936  -0.0455496 -0.193835 -1.06592  -0.0220355 -0.0279576 -0.842102  -0.0165341 -0.0669553 -0.869028  -0.021915 0.042482 -0.79642  -0.0171454 0.00883067 -0.815493  -0.0468106 0.109245 -0.912069  -0.0472283 0.176832 -0.843081  -0.0456948 -0.00715244 -0.982904  -0.0220346 0.105257 -0.739206  -0.0166943 0.0728843 -0.749215  -0.0219254 0.155616 -0.672015  -0.0174172 0.125518 -0.672783  -0.0469766 0.229504 -0.762662  -0.0474517 0.269101 -0.674498  -0.0460176 0.139563 -0.840586  -0.022049 0.194733 -0.596608  -0.0171552 0.16278 -0.588398  -0.0220084 0.218771 -0.516046  -0.0182097 0.185736 -0.49837  -0.0473852 0.290794 -0.580628  -0.0479174 0.297487 -0.483902  -0.0468199 0.22818 -0.656171  -0.0221589 0.229394 -0.431579  -0.018316 0.19156 -0.405956  -0.0220573 0.224075 -0.347173  -0.0197749 0.182257 -0.312999  -0.0477788 0.285209 -0.38758  -0.0473385 0.258236 -0.293319  -0.0483844 0.247562 -0.451647  -0.0217643 0.205058 -0.263482  -0.019021 0.155235 -0.223239  -0.0194323 0.170832 -0.184849  -0.0170271 0.115451 -0.136725  -0.0435214 0.21239 -0.206101  -0.0354915 0.154806 -0.125536  -0.047611 0.193913 -0.25022  -0.0141096 0.12491 -0.111222  -0.00580406 0.0611278 -0.0604121  -0.00372338 0.0665281 -0.0483431  0 2.38419e-07 2.98023e-07  -0.0172317 0.0815066 -0.0636842  0 1.19209e-07 3.57628e-07  -0.0235445 0.0742466 -0.0799201  0 1.78814e-07 2.98023e-07  0.0159734 -0.0869409 0.0598277  0.00707192 -0.0733399 0.0500926  0.040682 -0.180826 0.122435  0.00089775 -0.0773774 0.0430337  -0.00641461 -0.169786 0.0821788  0 0 0  0 0 0  0.00902823 -0.0896609 0.0467966  0 0 0  0.010372 -0.157543 0.0987269  0.0408531 -0.286386 0.167648  0.00858399 -0.254902 0.134735  0.0381008 -0.394486 0.198103  -0.0157226 -0.275962 0.111723  -0.0221164 -0.386874 0.125709  0.0199555 -0.309107 0.14106  0.00566953 -0.355263 0.15472  0.0346014 -0.505515 0.205292  0.00325188 -0.457218 0.155806  0.0323383 -0.615952 0.197316  -0.0258656 -0.497166 0.119033  -0.0285384 -0.606091 0.0957785  0.00602463 -0.545677 0.165126  0.00122523 -0.557828 0.140831  0.0301465 -0.721126 0.165947  0.000278831 -0.653076 0.107011  0.0296733 -0.821458 0.120432  -0.0295097 -0.707106 0.0525202  -0.0307093 -0.800525 -0.00630748  0.000513196 -0.774077 0.108225  -0.000631809 -0.741989 0.0585136  0.0284455 -0.90894 0.0547915  -0.000806212 -0.819482 -0.00590867  0.0288281 -0.987159 -0.0224343  -0.0306938 -0.880241 -0.0812878  -0.0312454 -0.947336 -0.168333  -0.00120074 -0.967587 -0.0232469  -0.00116044 -0.886044 -0.0819343  0.0280746 -1.04649 -0.1141  -0.000986457 -0.936475 -0.168994  0.0288141 -1.09318 -0.213425  -0.0308462 -0.996261 -0.265946  -0.0311059 -1.02917 -0.370564  -0.00148582 -1.10339 -0.21281  -0.00108981 -0.972677 -0.26318  0.0282632 -1.11725 -0.319837  -0.000768185 -0.989998 -0.362207  0.0291294 -1.12684 -0.429094  -0.0305667 -1.04147 -0.478941  -0.0307375 -1.03632 -0.588406  -0.00121295 -1.16541 -0.43722  -0.000785112 -0.991517 -0.46304  0.0286262 -1.11279 -0.537273  -0.000434875 -0.973678 -0.561967  0.0294969 -1.08417 -0.643155  -0.0301884 -1.01056 -0.694374  -0.03038 -0.968025 -0.795379  -0.000797749 -1.14634 -0.669148  -0.000460148 -0.940378 -0.657168  0.0289578 -1.03374 -0.739933  -0.000147343 -0.889564 -0.743953  0.0297731 -0.970416 -0.829552  -0.0298856 -0.907355 -0.886047  -0.0301442 -0.832633 -0.9663  -0.000449896 -1.04859 -0.880382  -0.000225902 -0.825509 -0.821933  0.0291669 -0.889731 -0.903136  2.61068e-05 -0.747898 -0.885998  0.0299124 -0.799393 -0.965564  -0.0297221 -0.744429 -1.03062  -0.0300521 -0.646604 -1.08033  -0.000251889 -0.884064 -1.0452  -0.000115156 -0.660876 -0.937244  0.0292417 -0.698263 -1.00696  8.10623e-05 -0.565905 -0.970757  0.0299298 -0.591901 -1.03456  -0.0296918 -0.541595 -1.11044  -0.0300761 -0.432573 -1.12351  -0.00020349 -0.672767 -1.14349  -0.000108957 -0.466503 -0.988989  0.0292101 -0.482632 -1.03868  4.80413e-05 -0.365737 -0.987821  0.0298567 -0.373199 -1.02803  -0.0297607 -0.323547 -1.11569  -0.0301898 -0.216618 -1.09047  -0.000271916 -0.440412 -1.16318  -0.000178576 -0.266071 -0.970762  0.0290844 -0.269105 -0.994312  -5.98431e-05 -0.171803 -0.934999  0.0296652 -0.169951 -0.946632  -0.0299289 -0.116881 -1.0456  -0.0304451 -0.0251186 -0.985094  -0.000457287 -0.215315 -1.10174  -0.00034833 -0.0840564 -0.884664  0.0287609 -0.0837311 -0.879097  -0.000329733 -0.00782156 -0.818598  0.0291412 -0.00698179 -0.800109  -0.0303321 0.0531148 -0.90857  -0.031095 0.118426 -0.820075  -0.000906706 -0.0249667 -0.966471  -0.000800133 0.0572286 -0.741064  0.0278466 0.0508257 -0.70686  -0.00109267 0.10607 -0.652675  0.0276263 0.0957633 -0.606062  -0.0314004 0.165524 -0.721126  -0.0327549 0.196292 -0.615326  -0.00210381 0.107288 -0.773607  -0.00204277 0.140405 -0.557342  0.0253043 0.118168 -0.498284  -0.00314665 0.155859 -0.457232  0.0234096 0.125912 -0.387903  -0.0339992 0.206336 -0.505741  -0.0361638 0.198722 -0.39502  -0.00518513 0.16513 -0.546237  -0.00497127 0.155368 -0.35554  0.019033 0.111506 -0.278879  -0.00734663 0.135592 -0.255574  0.0130899 0.0834322 -0.173691  -0.0379202 0.169666 -0.287738  -0.0370915 0.124624 -0.183665  -0.011596 0.141976 -0.311744  -0.00863218 0.101118 -0.159527  0.00954819 0.0448424 -0.078087  -0.00453472 0.0536119 -0.0717389  0 3.57628e-07 2.98023e-07  -0.0236216 0.0648623 -0.0952499  0 2.98023e-07 3.57628e-07  -0.0110455 0.0531629 -0.0994447  0 2.98023e-07 2.98023e-07  
SCALARS smooth_stress float 1
LOOKUP_TABLE default
1764.47 2259.12 2186.04 2190.28 2195.98 2198.2 2198.11 2197.16 2196.04 2195.06 2194.37 2193.98 2193.53 2191.93 2186.61 2183 2243.03 2487.76 700.635 1883.48 2982.39 3133.21 3200.49 3222.92 3229.02 3229.27 3227.7 3225.73 3223.82 3222.24 3221.34 3221.6 3224.15 3234.62 3279.65 3421.88 3676.87 1424.16 1842.42 2936.31 3228.47 3362.52 3402 3408.75 3407.19 3404.27 3401.57 3399.42 3398.2 3398.5 3401.48 3409.25 3425.05 3445.45 3432.68 3365.61 1247.12 2030.12 3196.71 3402.34 3492.66 3502.38 3494.16 3486.63 3481.78 3478.89 3477.35 3477.12 3478.41 3481.3 3484.71 3480.93 3438.95 3293.13 3053.55 1065.86 2328.74 3541.39 3432.2 3373.44 3333.43 3315.14 3307.53 3304.19 3302.74 3302.41 3302.94 3304.21 3305.51 3304.51 3294.06 3256.16 3157.83 2966.94 981.261 2474.89 3741.5 3417.57 3307.02 3278.39 3274.02 3273.21 3272.52 3272.03 3272.02 3272.54 3273.36 3273.73 3271.94 3266.03 3264.54 3321.37 3388.94 1035.72 621.429 1305.76 1189.48 1155.91 1155 1157.05 1157.81 1157.79 1157.58 1157.47 1157.56 1157.8 1157.93 1157.37 1155.08 1152.86 1172.88 1236.85 611.506 2341.7 3528.83 3203.27 3116.15 3100.44 3098.21 3097.18 3095.81 3094.33 3092.91 3091.81 3091.19 3090.73 3088.82 3078.51 3045.24 3002.76 2967.27 1072.2 2524.43 5699.65 5460.21 5413.68 5420.74 5427.64 5428.69 5426.63 5423.49 5420.17 5417.18 5415.13 5414.39 5414.95 5415.81 5425.74 5506.39 5694.1 3349.28 1971.2 4486.62 4684.21 4848.89 4921.71 4941.23 4942.29 4938.76 4934.53 4930.64 4927.65 4926.46 4928.63 4936.55 4953.52 4983.74 5029 5080.55 2971.91 1983.13 4501.24 4748.2 4949.33 5003.78 5002.38 4992.6 4984.88 4979.68 4976.4 4974.85 4975.49 4978.85 4984.64 4987.57 4965.41 4870.31 4681.23 2560.95 2370.27 5202.41 5234.19 5245.12 5205.15 5175.42 5160.7 5153.73 5150.27 5148.86 5148.96 5150.43 5152.77 5154.31 5150.54 5131.49 5078.66 4920.49 2470.82 2868.13 6197.69 6060.6 5914.08 5858.95 5846.74 5843.41 5841.27 5839.76 5839.16 5839.64 5841.05 5843.13 5846.28 5857.28 5907.5 6055.8 6236.85 2877.03 1076.26 3440.89 3342.4 3279.77 3284.52 3292.06 3294.48 3294.29 3293.47 3292.89 3292.86 3293.34 3294.05 3294.72 3297.42 3318.02 3408.88 3656.66 2442.65 2039.3 3318.24 3282.38 3241.15 3217.77 3209.71 3206.67 3204.92 3203.47 3202.07 3200.93 3200.34 3200.2 3199.38 3189.65 3133.49 2969.43 2795.46 956.909 2027.74 5005.18 4924.15 4807.39 4762.39 4749.63 4745.3 4742.65 4739.99 4737.16 4734.39 4732.33 4731.44 4731.09 4723.81 4681.31 4577.37 4484.96 2490.18 1104.5 2882.98 2905.06 2902.47 2916.59 2921.84 2920.7 2917.75 2914.46 2911.17 2908.26 2906.51 2907.03 2910.7 2915.91 2915.95 2913.58 2931.81 1791.74 961.328 2311.37 2364.64 2426.63 2452.64 2451.68 2444.97 2439.54 2435.81 2433.41 2432.27 2432.72 2435.46 2441.08 2447.84 2447.24 2425.37 2375.24 1359.82 1589.27 3205.47 3273.85 3309.75 3308.63 3297.92 3289.96 3285.45 3283.16 3282.41 3282.99 3285.04 3289.22 3296.85 3308.25 3314.51 3291.46 3229.41 1558.49 2521.94 4890.61 5104.17 5179.95 5206.05 5211.83 5210.55 5207.99 5206.27 5205.98 5207.27 5210.5 5217.02 5230.47 5257.64 5296.24 5294.81 5274 2380.44 1052.85 2978.47 3158.82 3279.96 3328.56 3342.37 3344.12 3342.9 3341.54 3340.9 3341.14 3342.46 3345.46 3352.03 3367.59 3403.14 3461.45 3547.52 2328.96 1832.99 2995.11 3175.01 3269.58 3285.62 3285.65 3284.64 3283.78 3282.88 3281.81 3280.77 3280.34 3281.24 3284.33 3289.54 3280.39 3171.21 2974.62 1015.26 1858.81 4437.47 4602.55 4731.94 4746.32 4740.82 4737.32 4735.62 4734.11 4732.15 4729.83 4728.04 4728.05 4731.08 4735.83 4721.4 4607.95 4364.73 2374.06 855.79 2178.57 2228.59 2267.88 2273.56 2271.36 2269.38 2268.29 2267.3 2265.79 2263.83 2262.13 2261.88 2264.32 2267.8 2261.65 2228.28 2179.51 1297.59 617.401 1232.57 1255.72 1276.48 1282.22 1278.37 1273.74 1271.17 1270.21 1270.08 1270.43 1271.52 1274.1 1278.79 1283.18 1278.88 1259.38 1234.65 610.225 1399.37 2394.65 2455.94 2484.93 2487.86 2481.2 2475.18 2472.07 2471.42 2472.48 2474.82 2478.42 2483.63 2490.22 2492.26 2470.77 2413.86 2349.11 952.476 2610.19 4694.19 4920.34 5035.11 5062.72 5060.39 5054.12 5050.3 5049.36 5050.67 5053.84 5058.82 5066.05 5074.98 5076.19 5026.13 4835.33 4589.81 1986.12 1113.39 3061.18 3282.47 3462.64 3517.84 3524.65 3521.56 3518.47 3516.94 3516.95 3518.31 3521 3525.5 3532.52 3540.79 3535.26 3460.31 3270.13 2047.09 1830.06 2862.95 3023.41 3125.88 3158.02 3164.03 3164.86 3164.99 3164.82 3164.34 3163.66 3163.16 3163.88 3167.77 3180.46 3222.05 3315.33 3336.35 1152.73 2164.09 4617.34 4712.47 4874.21 4938.69 4950.61 4951.95 4952.5 4952.73 4952.11 4950.68 4949.03 4948.8 4952.28 4962.49 4988.83 5045 4995.16 2631.93 1487.42 3024.18 3048.9 3078.99 3091.42 3090.91 3089.63 3090.12 3091.22 3091.79 3091.39 3090.36 3089.81 3090.99 3091.63 3078.97 3046.4 3025.19 1510.86 1295.22 2218.5 2268.24 2302.98 2310.19 2306.87 2304.26 2304.35 2306.06 2308.11 2309.76 2310.91 2312.19 2314.71 2318.3 2315.01 2277.64 2226.84 891.36 1803.9 2983.25 2968.96 2968.44 2967.72 2962.1 2958 2957.18 2958.78 2961.62 2964.87 2968.15 2971.2 2973.02 2970.18 2960.83 2968.55 2948.86 1134.77 2973.79 5131.32 5099.24 5049.04 5014.63 4995.91 4987.13 4984.54 4985.57 4988.47 4992.32 4996.51 5000.11 4999.68 4982.94 4917.72 4760.73 4573.18 1988.46 1226.29 3361.61 3436.26 3465.85 3446.58 3429.31 3420.56 3417.02 3416.45 3417.53 3419.55 3422.19 3425.14 3427.2 3422.84 3391.57 3279.15 3022.27 1865.36 2277.2 3115.91 3149.29 3180.84 3195.62 3199.34 3199.66 3199.53 3199.42 3199.35 3199.27 3199.24 3199.35 3199.56 3200.14 3212.15 3293.03 3511.8 1333.69 3113.2 5831.37 5716.03 5683.38 5698.47 5704.12 5704.98 5705.75 5706.63 5707.05 5706.71 5705.86 5704.94 5703.71 5697.27 5677.9 5687.63 5812.1 3135.48 2629.28 5022.12 5101.54 5049.24 5021.5 5010.65 5006.57 5006.42 5007.99 5009.5 5010.26 5010.17 5009.68 5008.39 4997.28 4933.83 4763.65 4648.15 2204.7 2379.73 4399.97 4651.56 4780.66 4799.52 4795.4 4792.31 4792.14 4793.92 4796.25 4798.33 4800 4801.91 4805.95 4813.66 4806.33 4685.64 4502.86 1905.34 2490.89 4539.3 4619.96 4724.4 4769.16 4777 4777.43 4778.31 4780.36 4783.13 4786 4788.65 4791.37 4795.95 4809.99 4860.63 4992.37 5076.98 2081.2 3293.55 5777.05 5567.64 5466.06 5452.71 5451.82 5451.4 5452.19 5454.28 5457.22 5460.54 5463.71 5465.82 5464.97 5458.67 5454.02 5511.32 5753.87 2582.52 1338.4 3665.35 3446.46 3284.03 3227.78 3214.56 3211.61 3211.26 3212.14 3213.68 3215.53 3217.5 3219.18 3219.44 3215.02 3197.68 3146.68 3004.29 1921.41 734.909 1190.64 1132.82 1134.22 1137.65 1138.97 1139.08 1138.91 1138.75 1138.7 1138.74 1138.93 1139.19 1139.36 1138.77 1137.03 1132.05 1101.88 648.893 1348.97 3632.67 3363.86 3270.99 3258.07 3257.48 3257.23 3257.08 3257.13 3257.26 3257.32 3257.43 3257.59 3257.28 3252.98 3234.38 3187.71 3114.46 2245.72 1161.85 3436.73 3404.42 3321.19 3281.16 3268.79 3264.71 3263.78 3264.21 3264.94 3265.49 3265.74 3265.79 3265.02 3258.3 3221.44 3103.8 2913.29 1857.83 1024.76 3035.96 3246.31 3362.59 3374.55 3369.98 3367.01 3366.06 3366.5 3367.59 3368.74 3369.81 3371.01 3372.7 3374.2 3361.49 3267.12 3077.54 1886.31 960.038 2828.22 3026.91 3186.29 3240.26 3249.56 3250.28 3250.4 3251.01 3252.16 3253.62 3255.14 3256.99 3260.33 3269.54 3298.58 3359.26 3408.57 2114.92 1067.89 2983.45 3061.72 3094.17 3121.04 3130.04 3131.84 3132.27 3132.89 3133.97 3135.41 3136.94 3138.25 3139.07 3140.68 3155.83 3248.56 3588.37 2429.06 653.673 2433.79 2280.99 2188.24 2180.52 2184.54 2186.38 2186.99 2187.48 2188.2 2189.15 2190.27 2191.29 2191.54 2189.7 2185 2184.45 2253.07 1802.22 511.18 970.102 1764.47 543.487 705.434 1451.31 1208.39 1760.15 1034.1 624.196 666.871 709.029 554.116 1427.21 759.833 863.346 629.098 1150.73 827.266 987.646 1630.03 548.807 791.166 1493.18 1069.02 1551.94 872.858 559.591 1378.52 794.459 568.512 1080.98 823.031 1013.49 1617.53 561.295 818.996 1522.33 1004.91 1507.14 817.969 543.77 1343.26 789.476 568.551 1081.92 830.112 1023.56 1621.72 565.044 827.34 1532.84 995.042 1501.28 806.944 543.311 1341.16 790.728 570.688 1085.57 833.403 1027.57 1625.29 566.376 829.954 1536.23 994.389 1501.26 805.28 544.032 1343.55 791.554 571.848 1087.36 834.598 1028.6 1626.36 566.613 830.436 1536.65 994.469 1501.18 804.92 544.231 1344.56 791.575 572.053 1087.61 834.676 1028.47 1626.06 566.434 830.182 1536.01 994.221 1500.61 804.571 544.072 1344.44 791.26 571.864 1087.2 834.329 1027.95 1625.29 566.138 829.749 1535.11 993.769 1499.88 804.185 543.817 1343.79 790.868 571.568 1086.63 833.879 1027.33 1624.48 565.853 829.263 1534.2 993.286 1499.14 803.816 543.559 1342.99 790.512 571.297 1086.1 833.466 1026.75 1623.76 565.619 828.81 1533.43 992.831 1498.52 803.495 543.344 1342.16 790.246 571.083 1085.68 833.143 1026.26 1623.28 565.457 828.436 1532.91 992.503 1498.12 803.294 543.233 1341.47 790.121 570.977 1085.43 832.94 1025.96 1623 565.347 828.229 1532.78 992.312 1497.83 803.223 543.201 1341.01 789.974 570.919 1085.24 832.783 1025.95 1622.61 565.177 828.325 1533.39 992.066 1497.09 803.168 543.12 1340.82 789.375 570.777 1084.79 832.408 1026.42 1621.15 564.551 829.03 1536.16 991.009 1493.86 802.523 542.591 1340.82 787.191 570.144 1083.32 831.302 1029.1 1616.47 562.794 832.668 1548.53 986.967 1485.58 799.054 540.499 1341.21 784.165 568.122 1082.04 832.979 1045.97 1614.88 564.636 851.948 1593.01 980.193 1485.13 789.036 536.33 1350.43 793.678 565.859 1096.88 866.796 1112.8 1677.18 604.144 917.37 1683.14 994.13 1518.82 779.178 542.008 1401.57 799.755 582.56 1156.59 987.369 1238.95 1905.2 748.409 1051.07 1067.64 995.626 824.144 744.658 582.757 1457.5 327.54 700.635 700.635 373.094 469.016 892.6 1372.3 466.748 719.277 1338.36 814.97 1206.95 623.535 446.629 1122.65 542.441 912.542 739.915 959.202 1449.69 538.715 807.046 1482.57 789.574 1209.84 1138.68 1000.26 821.031 1031.62 1519.01 570.647 867.879 1556.34 796.986 1229.77 1187.64 1033.57 850.822 1062.71 1551.39 582.067 890.916 1581.4 808.871 1240.89 1219.93 1044.93 860.122 1072 1562.17 585.374 897.012 1587.44 813.977 1244.63 1230.86 1048.09 862.356 1073.65 1564.47 585.954 897.797 1587.75 815.133 1245.06 1232.88 1048.43 862.441 1073.21 1564.16 585.761 897.284 1586.7 814.962 1244.43 1232.38 1047.93 861.946 1072.36 1563.19 585.397 896.564 1585.47 814.412 1243.53 1231.33 1047.24 861.36 1071.53 1562.1 585.013 895.918 1584.39 813.786 1242.6 1230.25 1046.55 860.807 1070.85 1561.09 584.669 895.411 1583.62 813.179 1241.76 1229.3 1045.94 860.374 1070.46 1560.29 584.418 895.185 1583.42 812.667 1241.2 1228.69 1045.55 860.201 1070.65 1559.96 584.364 895.501 1584.34 812.411 1241.2 1228.71 1045.63 860.494 1071.87 1560.59 584.672 896.757 1587.3 812.624 1242.36 1229.94 1046.76 861.738 1075.14 1563.42 585.801 899.88 1593.81 813.863 1246.03 1233.38 1050.75 865.79 1082.55 1574.29 590.224 906.631 1604.84 818.278 1257.84 1240.71 1064.08 879.173 1095.43 1614 606.815 916.175 1615.9 834.606 1293.22 1253.68 1100.21 911.502 1101.39 1703.14 644.24 911.273 1629.78 873.302 1344.63 1264.81 1153.56 942.665 1090.57 1772.13 680.216 890.592 946.935 876.847 765.606 1259.37 675.756 356.523 499.604 957.732 1373.4 513.693 806.552 1450.53 702.327 1076.04 657.26 436.122 1099.21 480.224 936.378 790.908 1014.91 1477.12 573.981 862.746 1567.53 720.623 1146.74 1136.01 1036.82 878.024 1091.51 1600.39 621.313 920.948 1639.92 768.202 1202.59 1210.22 1092.79 915.26 1112.38 1643.81 636.368 935.497 1656.67 790.347 1221.81 1235.63 1109.54 923.59 1112.22 1650.96 638.389 934.943 1655.78 794.729 1224.82 1236.6 1112.12 923.512 1109.1 1649.39 637.614 932.471 1652.66 794.091 1223.78 1233.18 1111.36 922.157 1106.79 1646.95 636.666 930.651 1650.25 792.867 1222.31 1230.51 1110.19 921.005 1105.33 1645.04 635.951 929.508 1648.66 791.853 1221.04 1228.8 1109.19 920.179 1104.46 1643.65 635.451 928.837 1647.72 791.091 1220.07 1227.72 1108.44 919.625 1104 1642.7 635.121 928.498 1647.33 790.542 1219.45 1227.1 1108 919.387 1104.04 1642.41 635.064 928.609 1647.67 790.304 1219.4 1226.99 1108.04 919.577 1104.62 1643.11 635.393 929.193 1648.85 790.561 1220.32 1227.51 1108.92 920.382 1105.8 1645.49 636.321 930.298 1650.58 791.7 1222.78 1228.76 1111.15 922.067 1107.15 1650.75 638.283 931.429 1650.42 794.235 1227.03 1230.32 1115.18 924.613 1105.3 1659.38 641.516 929.159 1638.61 798.01 1229.94 1228.82 1118.34 924.431 1086.94 1659.64 641.458 909.679 1595.17 797.44 1217.58 1212.25 1105.57 905.512 1029.56 1605.01 618.906 847.303 1517.85 774.658 1174.17 1163.33 1058.01 845.241 952.636 1511.68 572.79 765.678 802.458 743.374 645.727 1112.77 566.899 300.181 566.305 1102.19 1530.51 599.086 946.916 1654.97 750.285 1177.66 742.647 473.299 1249.37 533.002 1047.85 883.434 1101.03 1599.25 620.246 909.905 1643.46 779.054 1222.02 1278.19 1093.54 913.866 1098.84 1661.57 643.307 899.208 1640.45 806.018 1247.08 1280.61 1118.35 917.242 1075.29 1656.45 640.623 880.137 1623.05 806.876 1247.08 1260.66 1118.26 910.772 1061.56 1643.3 635.54 870.24 1612.31 801.488 1242.22 1246.96 1114.02 905.9 1056.06 1635.7 632.648 866.295 1607.4 797.842 1238.78 1240.97 1111.02 903.321 1053.94 1632.01 631.211 864.709 1605.18 796.018 1236.81 1238.56 1109.29 902.026 1053.07 1630.13 630.489 864.034 1604.14 795.056 1235.71 1237.48 1108.34 901.39 1052.73 1629.2 630.141 863.788 1603.77 794.57 1235.15 1237.02 1107.88 901.14 1052.75 1628.89 630.019 863.811 1603.85 794.375 1235.02 1236.95 1107.8 901.176 1053.03 1629.23 630.154 864.058 1604.34 794.475 1235.37 1237.2 1108.19 901.543 1053.53 1630.22 630.538 864.512 1604.99 794.887 1236.17 1237.67 1108.97 902.156 1053.9 1631.72 631.134 864.859 1604.94 795.494 1236.87 1237.98 1109.76 902.696 1053.02 1632.34 631.469 864.155 1601.52 795.467 1235.04 1236.96 1108.25 901.352 1047.3 1624.89 629.104 859.142 1589.03 791.108 1222.67 1231.65 1095.82 890.665 1028.57 1585.36 614.668 840.448 1558.47 772.798 1186.19 1218.28 1054.3 850.657 987.83 1477.94 567.806 792.613 1475.87 735.322 1126.14 1200.21 973.761 770.022 911.948 1361.01 508.247 717.86 730.651 711.815 582.28 1157.89 493.068 263.4 639.174 1236.16 1762.43 701.042 1055.39 1865.2 888.832 1408.79 798.075 525.51 1447.2 651.992 1200.39 976.516 1164.11 1711.04 640.885 905.616 1698.34 891.293 1353.86 1483.89 1111.53 889.53 1074.4 1608.43 601.581 836.363 1626.86 857.752 1319.05 1418.55 1072.79 852.857 1044.52 1556.99 582.059 816.13 1602.5 838.52 1302.75 1394.93 1054.69 840.141 1039.89 1542.52 576.556 813.39 1597.21 832.638 1297.1 1391.7 1048.43 836.54 1039.75 1539 575.118 813.4 1596 831.16 1295.15 1391.76 1046.31 835.424 1039.79 1537.92 574.629 813.462 1595.45 830.671 1294.33 1391.64 1045.49 834.972 1039.71 1537.45 574.414 813.392 1595.11 830.42 1293.91 1391.37 1045.15 834.812 1039.67 1537.31 574.361 813.387 1595.06 830.297 1293.79 1391.15 1045.1 834.83 1039.76 1537.48 574.42 813.483 1595.24 830.323 1293.94 1391.13 1045.29 835.028 1040 1537.95 574.601 813.715 1595.6 830.5 1294.28 1391.32 1045.67 835.358 1040.29 1538.61 574.864 813.983 1595.85 830.706 1294.62 1391.55 1046.05 835.659 1040.3 1538.84 575.019 814.031 1595.37 830.643 1294.46 1391.63 1045.75 835.422 1039.35 1536.96 574.616 813.244 1593.99 829.655 1293.38 1391.49 1043.01 833.393 1036.82 1528.55 572.273 810.64 1597.29 827.288 1292.92 1394.06 1034.68 826.685 1037.1 1506.35 563.807 806.932 1630.68 827.36 1299 1414.8 1018.11 806.743 1057.9 1466.72 537.224 809.7 1671.02 842.234 1306.56 1484.13 985.708 773.209 1042.44 1404.3 501.473 785.11 760.42 840.837 621.059 1495.55 473.014 250.61 621.429 621.429 1835.72 693.431 335.074 999.138 1001.11 1646.12 286.355 545.304 795.626 789.906 1265.23 970.681 612.324 1709.59 611.109 306.617 897.604 1022.53 1602.16 842.636 1127.61 882.867 578.375 1622.43 574.679 291.879 863.42 1021.4 1586.1 830.25 1090.03 864.03 581.23 1617.8 570.884 292.489 861.368 1025.58 1587.53 835.613 1084.53 862.508 584.113 1622.12 571.918 293.629 862.989 1028.93 1589.89 839.183 1085.18 863.418 585.128 1624.1 572.538 294.057 863.694 1029.95 1590.52 840.265 1085.64 863.751 585.27 1624.39 572.661 294.115 863.74 1029.89 1590.25 840.299 1085.61 863.671 585.125 1624.08 572.576 294.046 863.588 1029.57 1589.85 840.027 1085.44 863.535 585.004 1623.83 572.516 293.992 863.492 1029.29 1589.6 839.802 1085.36 863.48 584.957 1623.8 572.538 293.981 863.542 1029.16 1589.63 839.689 1085.46 863.583 585.026 1624.02 572.656 294.021 863.718 1029.17 1589.89 839.731 1085.67 863.777 585.142 1624.28 572.798 294.08 863.886 1029.2 1590.3 839.864 1085.8 863.849 585.131 1624.09 572.762 294.043 863.686 1029.11 1591.05 839.985 1085.46 863.324 584.605 1622.49 572.112 293.681 862.538 1029.15 1594.75 840.127 1084.5 861.401 582.971 1619.39 570.089 292.544 860.974 1033.25 1614.99 842.056 1086.92 860.319 582.774 1627.21 568.251 291.889 868.84 1061.19 1684.06 855.985 1113.57 880.991 604.629 1707.7 586.094 304.04 900.645 1155.43 1848.4 907.615 1197.77 932.81 650.755 1806.03 611.506 336.205 611.506 1257.65 817.352 1013.8 534.247 275.3 845.044 1717.51 1349.71 1050.9 1631.56 891.924 547.768 648.093 554.776 485.226 1192.92 668.775 895.826 1196.84 859.53 1631.38 1277.08 1050.67 1574.16 877.82 596.104 1228.22 833.355 1075.43 812.917 1535.95 1225.21 1032.69 1535.12 872.226 563.334 1203.98 802.068 1024.26 801.922 1508.7 1214.57 1017.8 1518.51 862.587 553.077 1187.84 793.884 1012.04 800.266 1502.77 1213.17 1012.58 1513.45 858.795 550.697 1182.39 792.029 1009.66 800.06 1501.38 1212.84 1010.86 1511.74 857.432 550.052 1180.67 791.423 1009 799.848 1500.68 1212.36 1010.11 1510.83 856.776 549.722 1179.91 791.015 1008.52 799.47 1499.98 1211.67 1009.6 1510.08 856.34 549.45 1179.29 790.637 1008.02 798.988 1499.27 1210.93 1009.13 1509.39 855.961 549.203 1178.61 790.277 1007.54 798.461 1498.58 1210.18 1008.68 1508.75 855.614 548.981 1177.9 790.005 1007.13 797.998 1498.07 1209.64 1008.32 1508.32 855.378 548.834 1177.24 789.85 1006.87 797.661 1497.77 1209.36 1008.13 1508.13 855.303 548.779 1176.79 789.733 1006.71 797.487 1497.53 1209.15 1007.95 1507.75 855.231 548.753 1176.56 789.208 1006.35 797.122 1496.28 1207.42 1007.05 1504.41 854.536 548.343 1175.94 785.598 1003.85 794.831 1488.8 1201 1000.84 1485.64 849.367 545.1 1170.82 770.626 993.206 789.684 1462.02 1196.73 973.536 1430.26 824.492 531.34 1149.72 738.447 970.728 798.028 1420.05 1214.8 914.041 1359.89 761.648 501.571 1115.66 703.79 955.003 818.242 1388.33 678.476 869.623 703.381 708.855 474.629 1108.32 248.054 489.441 585.786 1055.56 899.603 598.129 914.823 368.325 310.297 699.442 373.773 721.336 594.429 1060.99 900.127 602.319 913.217 713.488 712.664 596.113 1036.56 907.365 595.36 900.919 710.302 702.561 608.917 1040.95 917.655 592.916 896.999 717.176 702.321 614.447 1045.46 921.367 592.74 896.159 720.638 703.133 615.489 1046.6 921.658 592.463 895.607 720.93 703.205 615.169 1046.31 920.966 592.048 895.009 720.249 702.865 614.541 1045.58 920.051 591.598 894.337 719.404 702.37 613.885 1044.72 919.16 591.091 893.564 718.538 701.808 613.286 1043.84 918.421 590.566 892.799 717.699 701.255 612.866 1043.07 918.062 590.076 892.197 717.036 700.858 612.83 1042.63 918.407 589.748 891.968 716.795 700.766 613.461 1042.77 919.814 589.671 892.193 717.277 701.162 615.081 1043.65 922.353 589.615 891.993 718.599 701.953 617.784 1044.96 925.823 587.995 888.482 719.825 703.347 621.869 1050.42 932.599 582.533 884.029 719.278 712.021 627.302 1077.81 943.876 581.56 892.821 721.201 735.489 624.099 1090.57 554.047 583.858 513.378 724.316 414.066 531.69 805.226 814.171 358.341 560.014 350.922 236.46 532.176 214.618 551.457 542.509 818.663 838.832 361.459 570.063 542.104 570.849 570.036 853.116 866.226 370.396 581.06 563.393 587.444 581.804 875.134 876.289 377.448 587.948 574.12 596.02 581.704 879.503 876.017 379.258 589.093 574.354 597.584 579.477 878.304 873.921 378.69 588.207 572.044 597.047 577.877 876.609 872.31 377.797 587.093 570.159 596.263 576.89 875.251 871.214 377.033 586.086 568.9 595.539 576.265 874.2 870.501 376.389 585.237 568.054 594.948 575.908 873.405 870.149 375.872 584.596 567.536 594.517 575.809 872.969 870.199 375.547 584.359 567.375 594.388 576.057 873.153 870.801 375.569 584.806 567.698 594.783 576.699 874.374 871.96 376.145 586.254 568.685 595.98 577.5 876.947 872.953 377.382 588.542 570.348 597.974 577.091 880.303 871.098 378.852 590.032 571.734 599.522 571.332 880.342 861.142 378.927 587.885 569.306 596.801 555.066 866.206 837.317 375.205 579.879 558.761 584.829 535.089 841.322 466.996 367.971 348.599 544.222 328.735 645.212 845.649 984.91 383.778 618.105 468.913 265.035 751.528 289.055 583.239 660.151 875.464 1000.47 391.664 629.858 766.438 599.784 662.664 897.92 1003.84 398.807 638.807 775.024 608.15 655.47 896.6 998.99 399.338 639.735 773.752 608.332 649.447 889.667 994.062 397.33 637.432 770.31 605.992 646.56 885.174 991.293 395.591 635.333 767.957 604.152 645.339 882.969 989.911 394.538 634.046 766.646 603.087 644.752 881.81 989.208 393.918 633.297 765.921 602.469 644.484 881.172 988.922 393.565 632.924 765.582 602.128 644.424 880.888 988.929 393.437 632.907 765.57 602.023 644.546 880.964 989.249 393.546 633.251 765.878 602.161 644.829 881.43 989.945 393.917 634.056 766.543 602.555 645.199 882.177 991.165 394.586 635.348 767.795 603.017 645.469 882.514 993.176 395.487 636.622 770.166 602.801 645.376 879.794 995.389 395.894 635.63 774.126 599.633 644.901 868.038 994.094 393.736 628.155 777.559 589.965 644.795 845.305 978.104 387.754 613.974 773.131 572.099 632.832 825.881 488.756 380.576 312.228 757.507 298.043 838.481 1094.62 1305.25 612.608 961.543 631.025 362.929 1142.48 496.001 750.642 874.201 1120.41 1328.85 620.774 974.394 1196.95 740.157 867.626 1090.52 1324.62 623.541 979.52 1224.77 727.925 867.028 1076.99 1322.72 627.754 981.031 1241.39 722.64 868.91 1074.36 1322.58 629.734 980.683 1247.69 720.643 869.735 1073.94 1322.24 630.031 979.907 1248.89 719.767 869.693 1073.56 1321.73 629.765 979.253 1248.52 719.301 869.424 1073.18 1321.31 629.479 978.879 1247.97 719.021 869.205 1072.94 1321.12 629.34 978.811 1247.67 718.928 869.157 1072.93 1321.22 629.393 979.058 1247.7 718.988 869.277 1073.14 1321.65 629.642 979.67 1248.11 719.207 869.561 1073.52 1322.59 630.177 980.868 1249.07 719.548 870.195 1073.95 1324.9 631.278 983.296 1251.22 720.026 872.021 1074.52 1331.52 633.91 988.241 1256.52 721.144 878.696 1077.01 1349.16 639.804 995.685 1268.9 724.991 898.852 1088.14 1381.26 648.741 999.809 1289.04 735.961 933.299 1115.72 1426.17 652.066 989.906 1294.99 749.907 940.226 1118.27 655.379 636.632 451.801 1273.26 353.989 530.957 1418.06 762.532 900.699 1453.18 280.635 503.031 762.753 772.211 975.579 553.117 1476.5 802.559 969.997 1548.21 808.051 1004.64 579.936 1524.51 821.731 1030.12 1599.31 858.916 1016.53 589.964 1549.62 827.532 1056.78 1619.35 881.681 1023.37 593.173 1558.77 829.674 1064.29 1624.37 888.326 1026.11 593.838 1560.74 830.088 1065.34 1624.57 889.458 1026.6 593.769 1560.5 829.877 1064.89 1623.81 889.21 1026.32 593.528 1559.84 829.58 1064.31 1623.2 888.766 1025.98 593.334 1559.36 829.375 1064 1623.03 888.491 1025.78 593.24 1559.17 829.329 1063.97 1623.37 888.442 1025.82 593.287 1559.33 829.455 1064.28 1624.33 888.681 1026.12 593.482 1559.85 829.782 1065.12 1626.37 889.306 1026.78 593.908 1561.1 830.505 1067.11 1630.88 890.645 1028.42 595.019 1564.82 832.873 1072.24 1640.99 893.728 1033.32 599.16 1578.43 842.643 1084.96 1659.32 901.175 1048.67 614.884 1623.24 874.055 1107.74 1670.95 916.447 1084.51 651.343 1711.32 935.169 1115.27 1682.16 930.196 1153.13 698.827 1775.14 636.626 1109.38 738.627 953.703 520.746 719.704 1491.53 1144.63 924.124 1436.49 768.227 478.596 558.295 461.049 430.102 1067.9 611.397 808.866 1041.62 751.613 1530.49 1175.57 969.324 1516.14 819.993 577.862 1093.92 835.996 1059.38 769.89 1571.21 1182.67 1027.14 1565.99 870.271 594.203 1152.92 843.441 1067.15 766.68 1566.86 1174.29 1040.39 1572.03 882.874 592.874 1167.54 840.464 1060.92 763.338 1561.3 1170.03 1040.95 1570.87 884.121 591.185 1167.56 838.824 1057.65 761.908 1558.89 1168.41 1040.45 1569.98 883.959 590.505 1166.6 838.157 1056.34 761.327 1557.82 1167.67 1040.14 1569.41 883.722 590.165 1166.15 837.753 1055.68 760.969 1557.13 1167.06 1039.86 1568.93 883.489 589.929 1165.85 837.428 1055.19 760.585 1556.5 1166.42 1039.55 1568.36 883.238 589.703 1165.44 837.073 1054.73 760.154 1555.84 1165.77 1039.15 1567.75 882.941 589.463 1164.89 836.808 1054.3 759.723 1555.31 1165.27 1038.84 1567.39 882.726 589.325 1164.31 836.717 1054.05 759.45 1555.11 1165.14 1038.76 1567.55 882.761 589.322 1163.98 836.839 1054.05 759.445 1555.16 1165.42 1039.08 1568.5 883.129 589.421 1164.27 837.093 1054.18 759.581 1554.94 1164.71 1039.82 1569.99 883.886 589.404 1165.4 835.874 1053.22 757.495 1549.52 1154.31 1039.33 1564.46 883.81 587.25 1165.92 823.358 1042.89 742.802 1513.49 1115.66 1023.25 1515.78 872.242 571.963 1153.29 777.52 999.821 707.021 1406.49 1063.78 954.842 1406.94 815.359 524.223 1097.88 726.709 931.154 691.174 1330.02 588.469 896.711 737.47 761.734 493.108 1048.12 253.528 482.28 352.584 804.189 553.916 500.44 771.778 190.439 224.681 502.026 317.586 558.471 363.006 830.999 563.703 509.289 795.848 511.908 573.267 366.391 844.682 567.676 529.672 814.718 525.463 577.921 368.161 843.074 567.055 535.094 816.59 530.39 574.552 368.807 841.468 566.359 535.11 815.462 530.937 572.751 368.613 840.613 565.641 534.772 814.879 530.568 572.008 368.2 840.053 564.947 534.625 814.652 530.275 571.602 367.761 839.553 564.257 534.523 814.397 530.036 571.227 367.28 838.94 563.509 534.288 813.96 529.674 570.782 366.765 838.235 562.792 533.933 813.381 529.148 570.323 366.32 837.566 562.289 533.537 812.867 528.569 569.942 366.099 837.119 562.313 533.262 812.728 528.18 569.821 366.327 837.157 563.08 533.368 813.35 528.379 570.104 367.017 837.623 563.891 534.035 814.494 529.424 570.295 367.168 836.04 561.678 534.248 812.582 530.328 567.105 364.25 823.858 554.07 528.341 797.209 526.905 554.839 360.16 800.663 549.807 508.544 768.653 515.401 542.861 360.655 794.615 352.568 496.36 437.809 507.216 312.875 202.842 362.401 345.932 163.571 282.488 140.096 83.2766 217.358 96.042 253.266 207.606 369.114 352.727 165.367 287.656 222.978 258.861 215.176 378.227 360.589 170.116 292.754 229.026 262.831 219.281 383.889 363.416 172.423 294.009 232.11 264.372 219.174 384.761 362.699 172.379 293.422 231.219 264.216 217.81 383.675 361.172 171.821 292.791 229.52 263.541 216.681 382.501 359.984 171.462 292.449 228.46 262.874 215.931 381.528 359.204 171.249 292.215 228.016 262.284 215.456 380.67 358.746 171.034 291.914 227.915 261.745 215.205 379.904 358.581 170.75 291.53 227.981 261.286 215.192 379.341 358.797 170.443 291.238 228.189 261.041 215.498 379.216 359.565 170.298 291.384 228.69 261.215 216.247 379.862 361.013 170.607 292.328 229.763 262.012 217.473 381.419 362.537 171.543 293.71 231.487 263.241 218.528 382.966 362.004 172.437 293.248 232.529 263.647 217.376 381.82 358.109 171.156 288.933 229.652 261.791 213.008 377.673 350.841 167.432 285.717 223.376 258.837 207.371 373.917 206.267 166.32 187.139 216.819 169.719 408.11 395.788 631.843 196.912 333.315 341.742 138.247 554.915 203.002 270.608 419.34 405.006 648.963 201.599 340.742 571.498 275.844 427.725 413.642 658.558 205.984 344.927 583.96 280.137 430.752 415.952 660.689 206.935 345.193 587.37 280.862 430.469 414.281 659.615 205.774 343.441 586.243 279.732 429.505 412.216 658.229 204.533 341.872 584.552 278.536 428.76 410.796 657.311 203.809 341.063 583.485 277.753 428.34 409.977 656.887 203.567 340.864 583.091 277.322 428.212 409.606 656.857 203.667 341.093 583.203 277.163 428.331 409.615 657.165 204.011 341.638 583.692 277.234 428.67 409.987 657.864 204.56 342.493 584.483 277.557 429.281 410.783 659.127 205.349 343.748 585.652 278.215 430.367 412.152 661.216 206.487 345.43 587.413 279.3 432.186 414.184 663.37 207.897 346.708 589.663 280.564 434.184 415.999 661.47 208.252 344.82 589.906 280.666 432.869 414.379 650.487 204.653 337.155 580.958 277.545 423.766 407.035 636.694 197.71 330.836 561.398 272.196 414.504 399.285 280.809 192.752 122.728 548.939 128.022 738.552 831.303 1145.85 537.579 833.008 607.248 303.518 1107.23 470.476 553.13 777.664 850.93 1210.77 556.639 865.547 1165.56 570.98 820.689 877.074 1248.73 576.501 880.579 1222.28 581.624 840.668 892.079 1262.03 583.732 883.702 1241.56 585.286 845.453 896.154 1264.21 584.399 882.768 1243.46 585.617 845.492 896.118 1263.52 583.534 881.459 1241.77 585.128 844.798 895.374 1262.65 582.83 880.724 1240.36 584.671 844.299 894.851 1262.23 582.55 880.593 1239.74 584.468 844.146 894.734 1262.3 582.652 880.927 1239.78 584.51 844.326 894.983 1262.87 583.018 881.63 1240.33 584.793 844.841 895.584 1263.96 583.623 882.721 1241.37 585.33 845.798 896.663 1265.9 584.563 884.332 1242.97 586.274 847.589 898.676 1269.13 586.062 886.6 1245.43 587.956 850.962 902.547 1273.23 588.167 887.896 1248.59 590.506 855.644 908.287 1270.87 588.525 880.796 1248.18 591.996 853.471 909.364 1240.72 578.433 854.689 1226.46 587.03 823.771 891.655 1202.86 552.47 822.323 1157.94 573.627 798.176 864.202 523.536 534.011 347.754 1114.83 247.04 549.815 1394.92 752.354 949.694 1500.25 290.093 519.762 808.579 823.296 941.217 571.233 1481.33 823.402 1031.02 1609.38 849.684 1018.23 631.066 1603.97 873.771 1099.6 1665.15 923.716 1063.41 653.373 1651.04 890.615 1119.51 1677.84 949.384 1078.89 658.44 1660.92 894.143 1120.64 1677.16 953.347 1081.71 658.79 1660.89 894.17 1118.77 1674.89 952.503 1081.33 658.334 1659.51 893.637 1117.33 1673.43 951.4 1080.62 657.924 1658.49 893.208 1116.67 1672.99 950.746 1080.2 657.721 1658.12 893.102 1116.62 1673.28 950.57 1080.21 657.79 1658.38 893.293 1117.03 1674.21 950.803 1080.61 658.109 1659.3 893.828 1117.89 1675.75 951.417 1081.45 658.774 1661.07 894.964 1119.26 1678.11 952.424 1083.03 660.074 1664.49 897.195 1121.4 1681.26 954.061 1085.78 662.586 1671.06 901.595 1124.16 1682.9 956.3 1089.97 667.012 1681.37 908.263 1124.05 1669.62 957.38 1091.54 670.346 1682.49 908.016 1104.52 1605.14 947.157 1072.22 654.318 1624.7 882.497 1032.53 1487.92 899.704 1031.17 627.778 1562.93 553.816 969.722 655.466 837.807 449.588 696.248 1354.4 1080.24 889.977 1366.84 703.637 453.369 500.609 473.326 408.26 1121.29 632.351 738.622 928.705 705.343 1418.02 1123.28 926.603 1448.33 768.88 538.783 1114.38 788.598 995.41 750.771 1519.02 1178.47 977.568 1514.46 813.103 574.594 1156.13 820.718 1048.48 770.345 1555.87 1195.31 999.513 1536.03 829.15 586.512 1182.28 829.467 1063.24 773.872 1562.28 1197.46 1004.4 1540.04 832.557 588.555 1188.52 830.818 1065.24 774.006 1562.7 1197.41 1005.16 1540.62 833.036 588.773 1189.33 830.94 1065.25 773.936 1562.53 1197.3 1005.31 1540.72 833.086 588.745 1189.52 830.881 1065.09 773.886 1562.31 1197.14 1005.37 1540.66 833.083 588.668 1189.7 830.718 1064.86 773.742 1561.96 1196.8 1005.26 1540.37 832.985 588.536 1189.68 830.511 1064.58 773.45 1561.5 1196.31 1005.05 1539.97 832.851 588.381 1189.4 830.289 1064.23 773.091 1561.02 1195.88 1004.78 1539.57 832.678 588.234 1188.95 830.193 1063.98 772.874 1560.9 1195.95 1004.68 1539.75 832.694 588.277 1188.59 830.557 1064.15 773.178 1561.64 1197.17 1005.22 1541.34 833.22 588.686 1188.94 831.944 1065.25 774.545 1564.11 1200.47 1007.33 1546.39 834.999 589.835 1191.01 835.746 1068.28 777.671 1569.78 1206.01 1013.5 1561.31 840.283 592.528 1196.89 843.684 1073.97 779.84 1573.22 1199.37 1029.41 1588.98 855.351 595.922 1212.22 840.071 1066.29 761.286 1521.45 1141.47 1038.8 1569.51 875.468 578.113 1231.27 805.94 1008.33 721.847 1432.55 606.238 1016.46 828.226 874.943 545.352 1197.47 277.791 522.154 358.024 786.366 579.981 591.429 908.545 257.722 232.022 703.188 425.592 537.388 362.45 788.446 584.469 587.714 900.133 716.258 541.781 371.142 816.912 600.05 590.242 913.053 717.686 562.32 375.643 830.354 605.536 595.839 920.736 719.361 569.35 376.289 832.455 605.903 596.989 921.91 718.744 570.099 376.077 832.349 605.706 596.922 921.97 717.957 570.054 376.026 832.335 605.756 596.999 922.194 717.842 570.069 376.095 832.39 605.856 597.182 922.419 718.11 570.06 376.1 832.275 605.787 597.271 922.407 718.366 569.899 375.964 831.921 605.501 597.167 922.123 718.397 569.595 375.7 831.421 605.144 596.911 921.706 718.164 569.29 375.486 831.074 605.002 596.671 921.536 717.879 569.244 375.574 831.378 605.409 596.831 922.081 717.93 569.803 376.163 832.89 606.137 597.813 923.341 718.639 571.281 376.838 835.731 605.458 599.987 924.946 719.216 573.504 375.805 836.705 600.088 604.349 930.5 717.094 572.253 370.812 823.226 585.909 611.68 930.681 715.001 553.51 361.429 796.138 315.839 602.321 488.022 707 303.9 176.873 347.765 313.876 373.267 575.01 197.04 109.513 514.112 298.661 239.255 177.397 350.848 316.836 383.159 590.483 523.126 241.766 180.751 357.128 321.218 388.39 595.992 536.427 245.826 182.189 360.018 321.919 389.206 596.506 540.841 247.083 181.307 359.522 320.649 388.386 595.593 540.165 246.795 180.296 358.603 319.728 387.746 595.064 539.078 246.503 179.931 358.297 319.585 387.63 595.16 538.794 246.522 180.063 358.42 319.907 387.853 595.524 539.144 246.652 180.398 358.608 320.34 388.141 595.863 539.723 246.725 180.73 358.646 320.704 388.332 595.99 540.263 246.67 180.995 358.514 320.994 388.359 595.935 540.644 246.544 181.262 358.402 321.374 388.307 595.903 540.914 246.521 181.685 358.664 322.007 388.367 596.179 541.284 246.813 182.305 359.508 322.522 388.637 596.242 541.892 247.175 182.403 359.989 321.443 388.219 592.083 541.909 246.168 180.241 357.063 317.024 384.016 578.46 537.411 242.606 175.589 350.095 309.317 375.354 572.38 522.421 240.193 171.263 345.647 113.58 372.364 267.034 510.747 127.703 399.47 381.263 594.359 386.915 563.346 373.977 160.339 731.881 336.749 233.894 407.558 386.791 601.43 389.841 566.641 733.943 237.148 411.154 392.356 603.342 394.337 574.333 731.661 239.235 410.884 394.114 601.959 397.558 576.944 732.261 239.063 409.226 392.685 599.599 397.546 576.207 731.089 237.772 407.852 391.03 598.018 396.894 575.42 729.685 236.823 407.197 390.252 597.464 396.674 575.361 729.116 236.517 407.131 390.272 597.647 396.888 575.854 729.305 236.684 407.428 390.778 598.259 397.339 576.579 729.94 237.107 407.939 391.508 599.093 397.843 577.335 730.761 237.638 408.566 392.344 600.064 398.322 578.043 731.621 238.23 409.302 393.292 601.102 398.758 578.755 732.468 238.917 410.113 394.463 601.808 399.214 579.542 733.222 239.717 410.537 395.682 600.278 399.625 580.389 733.302 240.266 408.461 395.442 593.016 399.559 581.209 730.917 239.375 401.068 391.101 583.391 398.453 579.127 725.92 235.753 392.846 382.681 570.811 394.12 573.787 729.109 231.352 385.853 374.711 205.438 383.419 211.911 717.419 66.8153 785.452 854.624 1197.08 642.779 964.133 679.663 324.072 1253.82 541.795 554.826 820.771 874.581 1237.74 649.511 954.499 1277.61 571.504 845.742 894.74 1251.32 641.866 943.969 1268.97 576.471 846.753 897.489 1249.35 636.557 939.043 1254.68 575.684 842.944 894.605 1245.3 633.386 935.983 1246.49 573.839 840.269 891.901 1242.76 631.599 934.34 1242.72 572.578 839.037 890.524 1241.75 630.915 933.911 1241.33 572.07 838.726 890.216 1241.75 630.951 934.259 1241.24 572.11 838.939 890.578 1242.33 631.378 935.008 1241.82 572.484 839.473 891.33 1243.28 631.974 935.92 1242.75 573.056 840.252 892.326 1244.51 632.608 936.858 1243.83 573.771 841.224 893.585 1245.84 633.216 937.663 1244.89 574.61 842.31 895.102 1246.45 633.604 937.692 1245.52 575.366 842.592 896.165 1242.56 632.927 934.666 1244 574.632 837.629 892.523 1221.76 628.533 924.453 1234.59 568.166 814.497 874.573 1162.88 618.024 914.495 1205.07 553.474 761.59 845.257 1095.39 616.13 920.359 1155.94 535.571 735.765 820.18 466.455 607.218 381.573 1140.43 217.198 593.627 1532.47 816.579 1092.66 1640.64 304.809 571.528 904.396 921.483 1013.14 620.453 1608.1 877.421 1119.21 1645.34 913.503 1069.71 661.989 1678.45 909.287 1109.56 1625.66 930.907 1090.03 668.559 1683.51 913.454 1091.32 1609.1 924.023 1089.46 666.069 1675.43 911.23 1081.94 1600.9 917.179 1085.88 663.862 1669.95 909.271 1078.22 1597.48 913.807 1083.6 662.674 1667.38 908.213 1076.91 1596.46 912.353 1082.6 662.179 1666.57 907.879 1076.74 1596.67 911.898 1082.49 662.143 1666.8 908.028 1077.15 1597.47 912.034 1082.86 662.398 1667.67 908.511 1077.85 1598.55 912.494 1083.57 662.875 1669.01 909.275 1078.66 1599.8 913.117 1084.54 663.55 1670.77 910.362 1079.48 1600.93 913.848 1085.7 664.434 1672.84 911.731 1079.92 1600.97 914.5 1086.63 665.272 1673.82 912.359 1078.45 1596.17 914.312 1084.87 664.085 1666.47 906.737 1070.03 1574.59 910.244 1070.95 652.662 1626.28 878.117 1041.6 1508.53 892.499 1022.27 613.235 1513.45 807.617 974.811 1374.12 840.526 934.453 552.107 1406.68 484.161 906.355 629.269 751.928 406.896 813.861 1376.69 1240.02 1014.08 1500.82 743.466 494.069 482.79 617.214 457.291 1455.72 798.829 727.227 915.774 806.119 1420.69 1238.19 997.656 1511.65 783.554 519.96 1405.14 761.981 966.512 806.654 1465.93 1259.86 995.25 1532.31 795.919 540.548 1358.32 782.277 1003.2 817.37 1492.06 1273.56 1001.53 1542.63 801.603 548.574 1356.69 789.438 1016.56 820.927 1499.4 1277.08 1004.34 1545.42 803.377 550.542 1358.28 790.954 1019.52 821.548 1500.66 1277.76 1004.91 1545.87 803.591 550.796 1358.6 791.157 1019.98 821.763 1500.88 1278.08 1005 1545.96 803.509 550.803 1358.81 791.182 1020.08 821.991 1501.02 1278.33 1005.04 1545.97 803.431 550.798 1359.11 791.173 1020.11 822.106 1501.02 1278.35 1005.06 1545.95 803.419 550.779 1359.32 791.116 1020.03 822.02 1500.85 1278.1 1005.02 1545.83 803.4 550.727 1359.33 791.014 1019.85 821.78 1500.52 1277.71 1004.93 1545.64 803.392 550.649 1359.13 790.889 1019.62 821.496 1500.29 1277.42 1004.81 1545.52 803.387 550.621 1358.84 790.912 1019.58 821.486 1500.63 1277.55 1004.76 1545.57 803.432 550.806 1358.56 791.434 1020.14 822.161 1502.61 1278.14 1004.96 1546.03 803.512 551.614 1358.13 793.784 1022.43 824.358 1509.71 1281.89 1006.34 1551.67 804.281 554.694 1356.35 805.382 1032.47 833.742 1538.08 1310 1017.74 1589.76 812.329 567.644 1356.5 850.884 1070.74 867.464 1619.91 1345.56 1077.43 1689.1 860.487 609.875 1393.61 891.899 1114.82 872.049 1654.94 711.363 1177.25 957.869 1009.18 626.948 1466.25 324.508 607.382 598.694 1058.42 946.546 887.311 1340.86 485.569 350.543 1196.59 684.32 708.58 616.703 1048.98 952.284 883.397 1308.27 1242.45 688.215 611.629 1026.47 946.726 847.296 1273.53 1229.21 684.182 607.685 1025.14 945.814 835.16 1266.89 1213.83 687.669 605.785 1025.07 944.902 832.18 1265.36 1207.8 688.63 604.842 1024.59 944.375 831.236 1264.88 1205.56 688.769 604.647 1024.6 944.517 831.105 1265.05 1205.04 688.994 604.883 1024.95 944.94 831.332 1265.42 1205.33 689.24 605.156 1025.24 945.251 831.565 1265.68 1205.78 689.349 605.301 1025.26 945.319 831.671 1265.7 1206.08 689.253 605.246 1025 945.125 831.588 1265.47 1206.14 689.011 605.07 1024.63 944.901 831.401 1265.14 1206 688.767 604.993 1024.51 944.789 831.15 1264.48 1205.8 688.651 605.042 1024.83 943.284 830.483 1261.38 1205.09 687.991 603.557 1024.62 934.065 826.995 1248.85 1199.42 685.605 595.754 1024.62 916.237 815.98 1226.88 1173.88 690.309 587.23 1044.43 922.583 811.241 1233.19 1126.3 712.375 590.832 1052.91 447.69 827.12 624.325 1132.69 371.467 506.202 804.103 784.266 744.814 1128.54 444.358 283.435 1057.31 595.347 537.476 517.444 832.465 814.319 786.356 1197.79 1104.05 556.935 538.826 848.04 830.676 811.288 1209.79 1167.37 558.396 545.393 848.203 833.067 810.522 1204.42 1183.14 556.416 545.469 845.785 832.068 807.428 1200.89 1183.21 554.941 544.909 844.349 831.442 806.015 1199.52 1182.14 554.299 544.806 843.997 831.547 805.635 1199.33 1181.81 554.291 545.088 844.33 832.067 805.823 1199.75 1182.12 554.587 545.508 844.836 832.661 806.174 1200.24 1182.69 554.883 545.895 845.225 833.135 806.473 1200.61 1183.26 555.064 546.155 845.373 833.434 806.653 1200.78 1183.7 555.082 546.316 845.345 833.748 806.72 1200.88 1184.03 555.047 546.572 845.392 834.616 806.793 1201.01 1184.54 555.099 547.243 845.565 836.491 806.705 1199.89 1185.71 554.599 548.103 843.515 836.401 803.643 1186.92 1186.73 548.875 544.264 829.354 819.032 785.001 1137.59 1174.92 531.414 523.958 798.722 792.211 738.181 1084.57 1117 525.991 511.768 793.597 333.802 724.367 491.791 1079.75 243.212 605.162 799.518 903.913 719.152 1068.86 530.226 292.589 1116.5 575.45 521.824 600.973 815.505 896.003 739.738 1119.29 1126.76 532.751 599.48 837.791 899.857 779.507 1163.55 1160.72 545.06 603.987 849.34 903.476 795.709 1175.3 1182.99 548.7 605.352 850.928 903.748 798.004 1176.07 1188.4 548.584 605.345 850.468 903.511 797.884 1175.79 1189.05 548.234 605.418 850.39 903.715 797.893 1175.91 1189.28 548.289 605.744 850.81 904.308 798.167 1176.41 1189.73 548.649 606.238 851.489 905.069 798.597 1177.07 1190.38 549.111 606.771 852.186 905.819 799.045 1177.71 1191.11 549.552 607.277 852.803 906.483 799.438 1178.29 1191.79 549.934 607.726 853.333 907.019 799.811 1178.99 1192.42 550.313 608.123 853.998 907.564 800.421 1180.51 1193.2 550.98 608.502 855.244 908.913 801.976 1184.71 1194.97 552.518 609.382 857.641 915.012 805.658 1194.04 1200.77 555.503 614.002 859.575 933.849 809.704 1192.26 1218.83 552.701 626.875 844.747 928.396 791.877 1153.49 1248.49 540.518 618.411 822.722 378.485 759.279 483.667 1219.05 220.031 915.929 1093.18 1358.45 845.861 1246.48 798.491 395.623 1457.21 667.884 712.489 911.696 1093.67 1310.35 829.374 1207.68 1424.19 693.062 870.385 1066.94 1273.97 817.908 1210.82 1365.31 683.173 852.725 1059.11 1261.55 822.347 1218.31 1353.67 681.477 847.783 1056.56 1257.68 824.51 1220.29 1353.1 680.614 846.369 1055.21 1256.42 824.895 1220.6 1353.14 680.095 846.077 1054.87 1256.32 825.112 1220.94 1353.32 680.1 846.319 1055.24 1256.86 825.473 1221.51 1353.8 680.461 846.821 1055.97 1257.68 825.947 1222.24 1354.49 680.998 847.435 1056.84 1258.61 826.46 1222.99 1355.32 681.563 848.079 1057.68 1259.5 826.93 1223.66 1356.14 682.095 848.623 1058.43 1260.08 827.314 1224.18 1356.81 682.493 848.821 1058.87 1259.61 827.582 1224.54 1356.99 682.547 847.761 1058.45 1256.01 827.986 1225.81 1356.07 681.834 843.016 1056.21 1245.53 830.282 1235.08 1353.65 681.407 831.367 1055.69 1221.68 842.764 1281.07 1355.34 690.274 816.267 1080.11 1213.37 889.693 1348.07 1390.21 704.908 836.866 1075.15 539.011 888.12 576.854 1466.66 298.681 654.765 1752.33 915.641 1252.86 1737.45 321.896 641.126 1012.26 1016.5 1117.36 662.182 1716.3 897.259 1137.81 1610.19 939.012 1077.51 626.891 1629.39 863.374 1058.18 1551.91 868.749 1040.91 604.267 1584.77 845.888 1038.42 1539.52 842.369 1025.92 597.241 1571.57 840.075 1036.08 1537.75 836.735 1021.15 595.421 1568.12 838.256 1036.04 1537.65 835.7 1019.69 594.878 1567.31 837.747 1036.26 1537.99 835.521 1019.47 594.832 1567.56 837.846 1036.65 1538.61 835.688 1019.81 595.047 1568.32 838.239 1037.16 1539.4 836.042 1020.39 595.374 1569.31 838.768 1037.73 1540.28 836.48 1021.07 595.742 1570.37 839.336 1038.33 1541.2 836.962 1021.77 596.11 1571.31 839.863 1038.84 1541.88 837.434 1022.32 596.403 1571.72 840.045 1038.98 1541.63 837.771 1022.2 596.217 1570.02 838.786 1038.01 1538.73 837.502 1019.74 594.259 1561.72 832.603 1034.49 1529.65 835.422 1010.43 586.501 1536.92 812.338 1026.75 1505.85 828.49 983.658 562.621 1478.28 756.889 1006.76 1440.4 807.005 916.67 499.769 1401.49 458.682 993.361 728.286 734.441 428.279 1187.93 1783.13 1708.67 734.909 899.541 359.095 734.909 609.16 973.151 653.96 1024.46 375.814 831.544 1069.8 1112.8 1645.22 1628.75 581.48 845.53 291.099 565.67 889.578 841.721 1067.91 1043.71 1603.75 1587.22 567.149 846.184 287.289 566.173 837.588 846.927 1070.36 1029.95 1602.65 1581.24 568.043 848.997 288.033 568.402 827.833 849.613 1073.27 1028 1604.58 1580.75 569.244 850.179 288.649 569.435 826.548 850.322 1074.3 1027.62 1605 1580.64 569.536 850.313 288.792 569.584 826.284 850.289 1074.38 1027.58 1604.92 1580.71 569.497 850.184 288.768 569.484 826.188 850.139 1074.3 1027.72 1604.84 1580.87 569.423 850.054 288.723 569.39 826.207 850.029 1074.2 1027.85 1604.81 1581.02 569.362 850.006 288.698 569.354 826.231 850.001 1074.19 1027.91 1604.82 1581.04 569.345 850.027 288.693 569.356 826.259 850.049 1074.2 1027.88 1604.86 1581.02 569.386 850.139 288.716 569.412 826.265 850.213 1074.27 1027.82 1604.96 1580.96 569.516 850.303 288.79 569.511 826.331 850.4 1074.34 1027.71 1605.05 1580.47 569.679 850.422 288.887 569.629 826.389 850.474 1074.27 1027.08 1604.69 1576.94 569.732 849.889 288.939 569.52 826.147 849.83 1073.29 1023.66 1602.84 1562.84 569.249 847.77 288.879 568.893 823.771 848.155 1070.59 1013.58 1602.49 1529.06 568.141 843.695 289.264 569.125 814.959 842.784 1069.22 1000.73 1629.81 1492.75 562.923 828.8 288.354 578.737 792.904 813.521 1075.79 1015.85 1759.42 856.211 523.138 648.893 273.075 648.893 740.618 375.818 706.738 1025.25 1697.15 1592.72 695.006 959.958 837.342 580.664 884.054 324.504 1091.45 1065.43 1634.81 1625.55 640.033 881.052 897.813 1054.73 1064.34 1561.05 1599.16 601.675 839.405 882.631 1013.16 1048.73 1532.89 1584.13 589.778 828.872 868.154 1002.81 1042.64 1525.59 1579.13 586.808 826.62 863.034 1000.48 1040.45 1523.34 1577.43 585.935 826.041 861.243 999.86 1039.79 1522.76 1577.16 585.697 825.955 860.66 999.86 1039.83 1522.91 1577.51 585.704 826.062 860.636 1000.08 1040.12 1523.22 1577.94 585.787 826.185 860.821 1000.27 1040.37 1523.43 1578.25 585.849 826.241 860.997 1000.35 1040.51 1523.45 1578.38 585.864 826.242 861.113 1000.31 1040.53 1523.37 1578.38 585.892 826.246 861.162 1000.2 1040.44 1523.17 1577.77 585.912 826.082 861.169 999.753 1039.69 1522.02 1573.15 585.621 824.512 860.642 997.073 1034.39 1514.98 1548.4 582.87 816.577 856.459 985.175 1008.92 1488 1475.14 570.882 792.32 836.339 953.436 945.861 1431.37 1386.47 536.768 744.027 782.788 909.419 904.014 1383.82 660 475.019 486.306 711.526 478.799 908.796 1459.39 1422.96 581.182 841.766 746.971 508.676 771.235 277.792 975.757 967.529 1538.12 1532.45 625.029 886.98 826.882 1037.6 1041.95 1598.54 1585.94 644.227 891.992 884.66 1046.88 1060.21 1599.77 1592.81 642.02 885.236 896.504 1040.91 1061.12 1594.97 1591.4 639.838 881.952 896.633 1037.59 1060.48 1592.58 1590.36 638.848 880.716 895.928 1036.31 1060.17 1591.76 1590.12 638.467 880.384 895.559 1036.02 1060.24 1591.82 1590.49 638.434 880.479 895.533 1036.25 1060.58 1592.3 1591.08 638.594 880.726 895.779 1036.58 1060.99 1592.79 1591.69 638.77 880.948 896.098 1036.87 1061.36 1593.16 1592.3 638.917 881.123 896.385 1037.07 1061.74 1593.43 1593.05 639.05 881.245 896.716 1037.21 1062.27 1593.64 1594.35 639.161 881.217 897.138 1037.2 1063.24 1593.33 1596.65 638.918 879.823 897.725 1035.73 1064.25 1587.52 1593.86 635.915 870.122 897.516 1023.75 1054.88 1551.49 1547.02 619.003 833.011 887.082 977.561 998.136 1446.64 1470.89 570.559 770.392 836.255 908.927 949.782 1366.08 628.08 521.241 474.008 784.218 415.282 873.673 1340.03 1366.55 516.087 749.682 706.51 468.348 711.986 253.528 904.214 924.719 1429.86 1436.05 570.222 823.527 767.334 969.37 980.708 1535.4 1492.8 616.152 867.551 825.939 1016.23 1007.19 1572.83 1513.11 629.531 878.148 848.997 1028.07 1013.27 1578.91 1516.74 631.4 879.086 853.736 1029.2 1014.15 1579.23 1517.09 631.442 878.866 854.328 1029.03 1014.31 1579.2 1517.26 631.372 878.77 854.369 1029 1014.51 1579.45 1517.66 631.408 878.9 854.455 1029.24 1014.86 1579.98 1518.28 631.579 879.19 854.688 1029.65 1015.32 1580.66 1519.02 631.836 879.566 855.029 1030.1 1015.81 1581.33 1519.77 632.106 879.935 855.438 1030.56 1016.33 1582.08 1520.67 632.455 880.44 855.883 1031.14 1017.09 1583.25 1522.45 633.004 881.332 856.547 1032.28 1018.9 1585.78 1528.17 634.07 883.352 858.019 1035.2 1024.96 1591.57 1549.08 636.314 886.89 862.61 1041.13 1045.06 1596.28 1603.24 637.58 879.369 876.645 1034.95 1081.06 1554.1 1665.11 615.672 846.68 896.779 1005.67 1089.01 1509.08 681.623 599.92 520.221 913.079 425.997 991.393 1385.22 1522.24 491.69 720.856 819.841 478.77 740.352 248.051 939.074 1017.57 1450.03 1498.48 534.242 771.116 792.121 947.88 996.003 1477.91 1493.54 562.604 801.893 798.733 970.813 998.936 1500.28 1500.99 573.204 813.686 806.372 982.985 1002.36 1507.4 1504.38 575.464 816.328 809.331 986.02 1003.42 1508.78 1505.22 575.694 816.683 809.935 986.546 1003.69 1509.09 1505.52 575.665 816.737 810.007 986.728 1003.89 1509.41 1505.93 575.709 816.877 810.078 987.002 1004.23 1509.92 1506.53 575.854 817.154 810.292 987.401 1004.66 1510.6 1507.28 576.084 817.522 810.604 987.885 1005.18 1511.35 1508.02 576.365 817.925 810.998 988.365 1005.62 1512.09 1508.52 576.666 818.363 811.363 988.854 1005.81 1512.95 1508.4 577.069 819.06 811.617 989.549 1005.49 1514.69 1507.84 577.963 821.144 811.698 991.753 1005.41 1521.4 1512.81 581.367 830.366 812.65 1002.27 1014.1 1550.82 1559.57 596.188 866.203 822.786 1045.21 1080.98 1647.43 1766.71 641.672 941.396 880.266 1140.58 1239.41 1746.6 779.09 706.174 605.842 1044.13 483.478 697.27 1827.18 974.009 589.122 806.111 326.133 653.673 653.673 327.54 1147.4 640.37 1714.91 861.412 561.293 812.961 606.616 1079.33 568.963 1625.43 812.27 562.035 809.885 566.083 1057.24 558.044 1615.97 806.272 564.747 811.438 562.807 1057.72 559.173 1619.18 807.288 565.919 812.704 564.548 1059.45 560.095 1620.75 807.963 566.19 813.052 565.363 1060.09 560.454 1621.25 808.265 566.182 813.101 565.629 1060.36 560.656 1621.6 808.546 566.182 813.192 565.742 1060.64 560.852 1622.11 808.871 566.291 813.449 565.877 1061.05 561.083 1622.8 809.258 566.493 813.807 566.084 1061.57 561.35 1623.62 809.697 566.776 814.223 566.351 1062.15 561.652 1624.41 810.098 567.034 814.543 566.649 1062.6 561.906 1624.76 810.226 567.111 814.428 566.885 1062.52 561.861 1623.82 809.579 566.65 813.343 566.779 1061.19 561.055 1620.78 807.474 565.475 811.642 565.879 1058.46 558.501 1619.75 802.761 566.776 817.474 564.211 1059.17 549.773 1653.23 791.564 593.06 896.811 564.698 1110.24 518.239 1802.22 519.923 725.126 682.456 599.844 558.858 
CELL_DATA 3888
SCALARS stress float 1
LOOKUP_TABLE default
242.124 339.136 269.055 285.061 327.735 301.362 266.717 273.168 259.186 262.442 286.422 282.09 276.504 260.009 264.437 248.027 283.76 284.79 278.931 258.735 266.39 246.98 284.576 286.112 279.696 258.864 267.594 247.288 285.167 286.68 279.85 258.942 268.068 247.445 285.29 286.764 279.773 258.869 268.139 247.416 285.203 286.661 279.634 258.754 268.035 247.303 285.063 286.505 279.485 258.63 267.889 247.175 284.929 286.368 279.358 258.522 267.741 247.061 284.821 286.261 279.259 258.454 267.622 246.971 284.779 286.198 279.207 258.422 267.536 246.919 284.779 286.141 279.163 258.357 267.479 246.838 284.763 286.014 278.97 258.027 267.424 246.585 284.563 285.58 278.284 256.887 267.437 245.741 283.612 284.51 279.58 255.528 268.889 245.025 280.803 285.056 301.959 261.632 279.781 251.243 280.376 302.184 375.314 255.217 309.871 264.162 327.54 373.094 234.666 227.695 234.349 212.279 231.228 232.082 266.27 209.739 241.563 207.67 252.004 272.445 286.903 213.799 261.684 214.133 258.748 283.744 295.149 216.746 271.929 219.152 261.491 286.918 297.608 217.785 275.596 220.928 262.491 287.767 298.066 217.984 276.523 221.309 262.699 287.887 297.98 217.925 276.574 221.271 262.628 287.781 297.769 217.789 276.396 221.12 262.487 287.628 297.558 217.636 276.174 220.955 262.323 287.455 297.381 217.488 275.971 220.796 262.164 287.288 297.264 217.361 275.822 220.663 262.023 287.154 297.267 217.295 275.78 220.596 261.925 287.097 297.467 217.354 275.93 220.674 261.957 287.205 298.041 217.722 276.492 221.107 262.299 287.76 299.937 219.285 278.093 222.593 264.096 290.287 306.531 225.413 282.355 227.338 272.083 300.284 321.128 238.762 290.089 237.75 292.297 323.113 323.693 234.538 295.859 242.289 319.232 356.523 258.798 193.869 240.806 195.316 229.716 254.895 284.965 199.609 251.048 200.72 251.76 289.016 310.974 212.4 278.034 218.009 270.637 310.339 318.503 217.733 286.418 225.393 277.901 317.866 318.843 218.942 286.881 226.889 279.858 319.546 317.996 218.945 285.97 226.743 280.113 319.618 317.302 218.721 285.237 226.388 279.94 319.364 316.856 218.497 284.786 226.103 279.7 319.095 316.584 218.307 284.501 225.895 279.492 318.867 316.422 218.167 284.335 225.744 279.331 318.699 316.4 218.118 284.288 225.684 279.257 318.664 316.549 218.21 284.364 225.758 279.391 318.843 316.911 218.596 284.627 226.062 279.88 319.41 317.555 219.5 285.102 226.758 281.11 320.728 318.325 221.019 285.559 227.787 283.504 323.191 317.007 221.351 284.233 227.41 285.192 324.452 305.365 213.568 275.695 220.235 276.603 313.541 272.609 204.301 259.091 208.777 266.718 300.181 305.987 203.473 260.318 212.981 254.655 293.099 309.218 212.149 281.117 218.981 266.753 311.028 315.516 220.32 287.321 228.439 282.183 327.791 309.673 221.411 279.779 228.593 286.043 330.951 305.356 220.578 274.465 226.799 285.916 330.184 303.44 219.869 272.277 225.64 285.266 329.208 302.645 219.466 271.468 225.079 284.782 328.567 302.303 219.225 271.156 224.79 284.466 328.186 302.17 219.093 271.034 224.651 284.282 327.971 302.144 219.042 271.024 224.606 284.202 327.874 302.212 219.084 271.089 224.639 284.267 327.942 302.378 219.218 271.223 224.759 284.484 328.16 302.595 219.419 271.401 224.922 284.847 328.539 302.678 219.414 271.479 224.899 285.082 328.791 301.818 217.866 270.742 223.633 283.549 327.285 296.627 211.071 266.752 218.237 274.632 318.041 277.343 197.023 255.273 206.358 251.475 290.464 244.847 191.268 234.712 197.111 229.668 263.4 359.416 236.578 279.758 245.752 299.304 341.625 320.898 229.992 313.993 245.472 280.699 319.987 291.77 222.125 277.772 233.069 273.88 309.811 279.791 217.644 263.255 225.839 268.196 302.268 277.344 216.063 260.528 223.702 265.673 299.211 277.01 215.598 260.319 223.222 264.747 298.108 276.956 215.436 260.359 223.1 264.392 297.673 276.922 215.371 260.377 223.05 264.24 297.491 276.931 215.341 260.39 223.031 264.189 297.43 276.97 215.36 260.431 223.051 264.216 297.45 277.06 215.42 260.518 223.11 264.305 297.541 277.179 215.476 260.637 223.184 264.45 297.685 277.252 215.408 260.722 223.193 264.497 297.767 277.113 214.887 260.541 222.94 263.974 297.503 276.396 213.298 259.494 222.041 261.447 295.877 274.166 211.015 256.643 220.709 254.179 289.641 264.094 213.075 253.009 221.276 242.14 273.13 250.863 209.986 249.216 221.222 222.403 250.61 335.074 259.368 286.355 258.949 337.615 358.357 306.617 248.998 305.707 263.551 280.226 304.492 291.879 243.062 286.495 256.398 261.793 282.8 292.489 243.532 288.741 256.699 257.945 278.395 293.629 244.259 290.484 257.705 257.756 278.29 294.057 244.513 291.071 258.064 257.909 278.481 294.115 244.518 291.156 258.094 257.96 278.546 294.046 244.468 291.079 258.021 257.94 278.53 293.992 244.414 291.012 257.955 257.932 278.523 293.981 244.401 290.976 257.93 257.957 278.557 294.021 244.403 291.005 257.94 258.02 278.635 294.08 244.386 291.062 257.952 258.085 278.718 294.043 244.266 291.088 257.909 258.06 278.719 293.681 243.998 290.924 257.756 257.7 278.431 292.544 244.232 290.426 257.943 256.699 277.545 291.889 249.885 290.885 261.787 256.404 276.362 304.04 277.244 300.589 280.216 263.552 282.054 336.205 283.41 314.55 337.616 258.947 275.3 242.112 295.203 232.661 252.565 352.89 342.077 245.282 284.541 243.473 258.396 311.563 288.127 228.893 273.358 227.307 248.434 289.976 267.984 225.555 268.641 222.847 243.451 284.436 263.772 225.141 267.377 221.763 242.071 283.32 263.096 225.134 267.022 221.555 241.686 283.03 262.948 225.102 266.855 221.484 241.539 282.868 262.834 225.003 266.727 221.4 241.42 282.723 262.709 224.89 266.607 221.284 241.307 282.596 262.59 224.765 266.491 221.162 241.19 282.49 262.483 224.663 266.41 221.056 241.105 282.424 262.416 224.575 266.374 220.974 241.051 282.405 262.395 224.487 266.327 220.907 241.002 282.427 262.384 224.244 266 220.758 240.781 282.343 262.153 223.37 263.902 220.005 239.353 281.198 260.969 221.706 255.766 217.377 233.662 275.574 257.935 225.158 240.122 214.468 222.751 261.449 256.097 234.859 226.575 221.692 215.766 248.054 241.387 171.944 170.037 158.219 152.078 200.234 203.053 173.434 167.633 163.872 154.178 203.143 198.732 174.258 163.41 160.976 149.813 193.306 194.797 178.441 162.562 164.837 149.62 190.959 194.532 180.354 162.526 166.835 149.995 190.836 194.91 180.813 162.474 167.321 150.066 190.897 195.027 180.786 162.388 167.292 149.989 190.873 194.98 180.631 162.28 167.141 149.871 190.787 194.871 180.459 162.151 166.971 149.741 190.663 194.736 180.298 162.02 166.808 149.6 190.513 194.597 180.172 161.897 166.675 149.47 190.383 194.472 180.129 161.819 166.615 149.388 190.292 194.391 180.225 161.801 166.69 149.392 190.292 194.371 180.576 161.73 166.995 149.504 190.39 194.457 181.399 161.079 167.56 149.546 190.377 195.001 183.51 159.546 168.609 149.36 191.055 198.345 188.077 160.489 171.549 151.073 197.912 208.713 188.184 159.461 174.388 154.476 202.229 211.837 151.699 106.854 133.208 103.252 148.769 161.443 154.09 106.924 136.203 105.041 150.2 166.205 164.808 108.694 146.352 108.091 152.186 172.985 169.788 110.4 151.387 110.887 155.239 177.433 170.191 110.926 151.667 111.681 156.331 178.706 169.601 110.869 150.965 111.582 156.487 178.802 169.115 110.701 150.42 111.338 156.391 178.643 168.802 110.537 150.097 111.132 156.232 178.451 168.605 110.385 149.896 110.96 156.069 178.285 168.485 110.255 149.761 110.833 155.925 178.146 168.432 110.176 149.695 110.751 155.844 178.071 168.484 110.2 149.713 110.76 155.887 178.11 168.679 110.39 149.866 110.921 156.156 178.363 169.011 110.774 150.169 111.293 156.735 178.966 169.191 111.23 150.479 111.794 157.596 180.013 167.936 111.367 150.061 111.851 158.383 180.743 162.848 110.352 147.215 110.461 157.324 178.007 155.589 107.5 141.623 107.874 154.027 174.707 168.562 104.138 151.459 113.576 142.645 165.269 175.799 106.341 159.486 115.838 145.874 172.125 179.021 108.063 163.537 118.248 150.812 178.238 176.758 108.12 160.985 118.115 152.509 180.113 174.314 107.58 158.399 117.311 152.266 179.796 173.1 107.147 157.187 116.742 151.765 179.233 172.606 106.902 156.722 116.432 151.44 178.868 172.393 106.751 156.515 116.265 151.239 178.648 172.305 106.658 156.414 116.167 151.105 178.523 172.274 106.621 156.375 116.125 151.04 178.453 172.295 106.638 156.385 116.144 151.045 178.457 172.364 106.722 156.443 116.217 151.138 178.546 172.462 106.867 156.534 116.337 151.287 178.69 172.433 107.005 156.582 116.458 151.316 178.72 171.781 106.829 156.412 116.353 150.592 177.828 169.547 105.674 155.647 115.565 147.661 173.943 165.906 103.507 154.281 114.08 141.496 166.035 162.092 101.178 152.403 112.166 136.699 161.344 208.63 152.135 197.611 165.319 173.056 197.873 217.545 150.844 212.02 167.693 174.021 198.284 209.352 149.608 202.468 165.384 170.498 193.205 205.09 149.789 198.912 165.309 167.938 189.947 204.307 149.982 198.956 165.799 166.752 188.567 204.271 149.989 199.3 166.023 166.284 188.069 204.256 149.923 199.384 166.03 166.088 187.879 204.214 149.856 199.356 165.978 165.988 187.784 204.179 149.823 199.307 165.941 165.942 187.746 204.17 149.833 199.295 165.944 165.942 187.741 204.195 149.887 199.318 165.987 165.978 187.775 204.234 149.989 199.367 166.087 166.033 187.813 204.275 150.181 199.417 166.286 166.022 187.766 204.362 150.657 199.486 166.752 165.798 187.467 205.066 151.876 199.943 167.937 165.308 186.883 208.287 154.325 202.3 170.5 165.382 187.35 215.968 156.921 209.208 174.021 167.688 191.914 220.96 153.018 217.25 173.055 165.319 188.669 250.322 211.018 280.635 222.396 221.222 232.471 273.377 223.359 279.74 242.147 221.276 236.602 287.356 235.097 292.579 254.181 220.709 234.583 290.172 240.987 299.791 261.45 222.039 235.18 290.994 242.71 302.179 263.974 222.938 235.972 291.13 242.968 302.708 264.496 223.196 236.238 291.05 242.871 302.719 264.448 223.182 236.227 290.927 242.743 302.6 264.31 223.111 236.154 290.835 242.668 302.499 264.22 223.05 236.083 290.783 242.658 302.457 264.188 223.033 236.046 290.787 242.71 302.501 264.243 223.054 236.037 290.85 242.86 302.632 264.396 223.1 236.011 290.987 243.277 302.921 264.747 223.226 235.946 291.447 244.473 303.572 265.674 223.699 235.953 293.686 247.851 305.474 268.195 225.837 237.386 303.313 255.195 311.571 273.881 233.07 246.209 326.81 262.649 324.533 280.696 245.473 271.163 361.631 256.266 337.196 299.301 245.75 274.996 211.922 252.782 204.288 225.814 305.514 291.208 223.108 269.207 210.752 234.145 308.655 284.624 225.714 280.523 219.286 246.819 313.681 285.187 223.371 281.261 219.779 248.499 311.613 282.333 222.107 280.796 218.923 248.055 310.39 281.028 221.626 280.618 218.416 247.816 309.887 280.522 221.431 280.531 218.195 247.738 309.634 280.288 221.313 280.451 218.086 247.669 309.478 280.135 221.209 280.359 217.984 247.591 309.344 280.009 221.099 280.237 217.884 247.492 309.226 279.897 220.989 280.176 217.775 247.405 309.149 279.82 220.908 280.193 217.709 247.375 309.129 279.8 220.858 280.28 217.692 247.43 309.141 279.763 220.744 280.389 217.711 247.563 309.015 279.521 219.847 279.522 217.35 247.338 307.729 277.736 215.002 272.342 214.137 243.287 299.62 269.106 203.415 250.449 203.646 227.45 273.773 247.753 198.53 239.58 196.272 213.356 253.528 228.752 115.388 138.387 106.307 118.374 165.108 160.626 119.188 143.462 110.561 122.177 174.291 161.321 119.883 148.034 111.426 126.23 176.856 162.254 120.19 148.465 112.138 126.673 175.065 160.544 120.419 148.181 112.521 126.422 174.127 159.8 120.398 148.063 112.532 126.293 173.803 159.524 120.283 148.022 112.439 126.242 173.678 159.388 120.157 147.98 112.332 126.204 173.59 159.29 120.024 147.905 112.216 126.132 173.487 159.176 119.888 147.802 112.085 126.033 173.369 159.057 119.768 147.702 111.97 125.927 173.257 158.941 119.694 147.645 111.895 125.849 173.188 158.848 119.698 147.684 111.918 125.867 173.211 158.78 119.757 147.828 112.06 126.055 173.299 158.625 119.591 147.54 112.11 126.261 172.759 157.779 118.595 144.563 111.293 125.274 169.101 155.033 117.778 137.641 109.546 121.16 162.318 152.22 118.233 135.185 109.491 118.832 161.187 151.688 62.843 49.3782 48.5232 34.7534 81.511 85.392 63.5889 49.8355 50.368 35.9945 83.4214 85.9052 66.5947 51.1621 52.3488 37.1852 83.9205 87.016 68.2728 51.5919 54.0053 37.889 84.2417 87.888 68.4642 51.5917 54.2755 37.9668 84.2764 88.1861 68.124 51.5216 53.9437 37.8101 84.1606 88.1152 67.7956 51.4562 53.6022 37.663 84.0221 87.9621 67.555 51.3839 53.3516 37.5385 83.889 87.8098 67.3799 51.2872 53.1671 37.4186 83.7534 87.6636 67.2556 51.1731 53.0307 37.297 83.6186 87.5286 67.188 51.0676 52.9487 37.1901 83.5143 87.4319 67.2028 51.0195 52.9442 37.1509 83.4908 87.4073 67.3323 51.105 53.0597 37.2576 83.6056 87.5019 67.5906 51.3561 53.3231 37.5812 83.8446 87.7239 67.8662 51.5297 53.6477 38.0248 83.9363 87.9615 67.7442 50.9796 53.6496 38.0995 83.3827 87.9643 66.7688 50.0117 52.9409 37.5028 82.8248 87.6241 65.5256 50.2843 51.1793 37.2086 82.6476 87.0716 90.9003 37.9044 84.5787 53.6683 53.5719 75.1641 93.1497 39.0549 87.1701 54.7021 54.5945 76.3348 94.4162 40.0201 88.6443 56.2699 56.2125 78.0793 94.4961 40.1575 89.2418 56.603 56.8459 78.6078 94.0988 39.8136 89.088 56.3198 56.6211 78.3396 93.7295 39.4876 88.7747 55.9965 56.2545 77.9728 93.4884 39.296 88.5285 55.7801 55.9871 77.7157 93.3489 39.2125 88.375 55.6751 55.8116 77.5541 93.2842 39.2056 88.3014 55.6554 55.7037 77.4552 93.2803 39.2645 88.2997 55.704 55.6546 77.4113 93.3348 39.3812 88.3553 55.8123 55.6742 77.4291 93.4557 39.5728 88.4674 55.9863 55.7784 77.5223 93.6776 39.8611 88.659 56.2554 55.9939 77.705 94.0501 40.2414 88.9811 56.6201 56.3177 77.9734 94.548 40.4122 89.4272 56.8453 56.6017 78.1647 94.7906 39.7135 89.6881 56.2118 56.2686 77.7063 94.0576 38.5966 88.9755 54.5942 54.7018 76.109 92.8812 36.9964 87.815 53.5705 53.6698 74.3518 163.863 120.464 166.819 136.699 112.167 131.291 169.195 124.943 168.174 141.498 114.077 133.042 174.899 129.1 176.204 147.657 115.565 133.649 178.641 130.661 181.815 150.595 116.353 134.015 179.89 130.825 183.6 151.319 116.457 134.062 180.048 130.662 183.815 151.283 116.339 133.97 179.949 130.526 183.685 151.133 116.218 133.863 179.851 130.473 183.549 151.041 116.143 133.793 179.81 130.499 183.491 151.041 116.128 133.766 179.827 130.582 183.509 151.107 116.168 133.789 179.906 130.716 183.602 151.234 116.264 133.862 180.092 130.929 183.763 151.44 116.43 134.009 180.486 131.291 184.065 151.77 116.74 134.325 181.394 131.842 184.621 152.27 117.312 135.107 183.169 132.094 185.574 152.513 118.114 136.823 184.931 130.144 186.247 150.811 118.247 138.985 183.172 124.894 183.925 145.874 115.839 137.953 177.095 120.232 177.194 142.642 113.576 133.463 259.722 210.76 290.093 229.669 197.11 207.563 286.164 233.936 285.069 251.476 206.359 218.327 312.155 251.343 318.911 274.631 218.242 228.683 320.44 256.58 332.933 283.548 223.632 233.908 322.172 257.066 336.268 285.082 224.897 235.434 322.254 256.706 336.536 284.844 224.923 235.626 322.043 256.403 336.291 284.489 224.761 235.526 321.856 256.258 336.068 284.269 224.64 235.402 321.771 256.243 335.95 284.212 224.602 235.337 321.796 256.338 335.994 284.277 224.652 235.326 321.938 256.538 336.171 284.463 224.795 235.394 322.279 256.866 336.496 284.769 225.077 235.589 322.977 257.394 337.096 285.266 225.644 236.112 324.481 258.145 338.106 285.913 226.802 237.609 327.506 258.305 339.505 286.05 228.596 241.406 330.995 253.851 339.351 282.182 228.443 247.669 324.967 237.689 329.351 266.752 218.985 246.957 317.205 230.91 310.573 254.651 212.977 236.611 196.993 233.699 188.59 219.67 266.91 248.535 202.624 251.345 192.893 220.367 287.438 263.348 218.475 266.17 209.635 234.989 308.423 281.326 224.063 271.464 217.897 240.831 315.049 286.564 224.862 272.468 219.679 241.951 316.087 287.238 224.816 272.637 219.815 242.095 316.136 287.204 224.748 272.674 219.784 242.129 316.071 287.12 224.698 272.674 219.76 242.136 315.994 287.044 224.638 272.62 219.723 242.104 315.915 286.964 224.549 272.551 219.652 242.044 315.83 286.874 224.453 272.487 219.556 241.971 315.746 286.803 224.39 272.514 219.493 241.933 315.763 286.805 224.455 272.749 219.541 242.044 315.937 286.912 224.734 273.474 219.871 242.533 316.361 287.135 225.308 275.405 220.801 243.98 317.123 287.165 224.514 279.125 222.244 247.436 316.797 283.102 214.299 275.847 218.967 247.427 302.266 262.644 199.413 267.561 207.307 236.113 277.791 244.363 100.111 151.815 99.101 132.921 158.85 143.568 101.095 149.443 101.444 133.526 160.382 142.556 105.247 152.515 104.062 134.781 170.146 150.162 107.074 154.536 105.92 136.092 173.85 152.882 107.377 154.919 106.38 136.238 174.411 153.13 107.353 154.954 106.38 136.178 174.421 153.064 107.333 154.987 106.375 136.195 174.417 153.028 107.327 155.023 106.392 136.232 174.405 153.011 107.293 155.014 106.39 136.254 174.367 152.958 107.221 154.962 106.355 136.219 174.287 152.876 107.129 154.885 106.278 136.154 174.196 152.778 107.059 154.835 106.221 136.094 174.156 152.709 107.077 154.917 106.243 136.136 174.265 152.74 107.238 155.293 106.423 136.375 174.646 152.914 107.426 156.2 106.766 136.955 175.363 153.021 106.99 157.805 106.998 138.121 175.277 151.514 104.564 158.357 106.307 139.154 169.664 145.179 100.907 152.664 103.776 134.891 162.463 141.436 25.2703 85.126 36.0183 73.4951 73.6863 54.169 25.4915 85.7166 35.9432 75.456 74.1951 54.0453 26.2389 85.9649 36.9296 76.5962 75.8685 55.53 26.7489 85.9282 37.5029 76.9248 76.7208 56.1928 26.6219 85.7046 37.394 76.7755 76.8276 56.1983 26.3923 85.5732 37.1535 76.6158 76.771 56.0972 26.2932 85.5638 37.0554 76.5795 76.7548 56.0501 26.2968 85.6166 37.0857 76.6314 76.7588 56.0302 26.3309 85.6683 37.1624 76.7006 76.7483 55.9976 26.3489 85.6841 37.2303 76.7485 76.703 55.9313 26.3419 85.6612 37.2746 76.7609 76.632 55.8435 26.3509 85.6273 37.3107 76.7574 76.5792 55.7769 26.4479 85.6388 37.3914 76.7737 76.6151 55.7969 26.6673 85.7246 37.5725 76.8288 76.7766 55.9387 26.8065 85.7227 37.7397 76.7205 76.9237 56.0764 26.3055 85.2199 37.3001 75.8683 76.597 55.7717 25.2539 84.4851 36.0427 74.1945 75.4549 54.6639 24.6198 83.2503 36.3886 73.6851 73.4958 54.2069 71.6424 78.3747 77.6915 82.6473 37.2101 33.6968 73.2778 78.4578 80.1618 82.8255 37.504 34.5647 74.5615 79.4817 81.6963 83.3835 38.1005 35.1324 74.8917 79.9101 82.0669 83.9354 38.0273 35.2825 74.6799 79.7107 81.908 83.8449 37.5804 34.9611 74.4215 79.4916 81.627 83.6036 37.2589 34.6271 74.2779 79.4324 81.4449 83.4918 37.1498 34.4554 74.2515 79.492 81.3976 83.514 37.1889 34.4281 74.3088 79.6091 81.4479 83.6195 37.2954 34.4972 74.4222 79.7317 81.5606 83.7539 37.4192 34.6204 74.5768 79.8411 81.709 83.8893 37.5376 34.7897 74.7805 79.9385 81.8809 84.0219 37.6617 35.0089 75.047 80.0326 82.0859 84.1605 37.8127 35.3239 75.3296 80.0972 82.3014 84.2793 37.9682 35.7063 75.2473 79.966 82.3498 84.2418 37.8904 35.747 74.0293 79.4497 81.8176 83.9201 37.1859 34.698 71.434 78.2962 80.4468 83.4221 35.9965 33.0852 70.1232 75.5017 80.7584 81.5123 34.753 32.0623 163.732 142.26 170.046 154.026 107.877 116.685 169.255 143.657 172.94 157.325 110.461 120.943 176.213 143.043 181.713 158.387 111.853 123.532 178.301 142.129 183.488 157.599 111.797 124.175 178.216 141.346 182.977 156.734 111.292 124.038 177.812 140.883 182.352 156.156 110.921 123.777 177.557 140.715 181.991 155.889 110.759 123.613 177.471 140.731 181.855 155.843 110.751 123.565 177.501 140.844 181.87 155.925 110.828 123.611 177.606 140.995 181.975 156.07 110.961 123.722 177.781 141.15 182.143 156.23 111.13 123.893 178.045 141.301 182.363 156.386 111.34 124.15 178.421 141.4 182.634 156.487 111.58 124.581 178.846 141.223 182.873 156.333 111.683 125.208 178.516 139.973 182.505 155.236 110.89 125.402 174.688 137.126 179.686 152.188 108.095 122.79 165.247 135.921 172.388 150.201 105.044 116.456 157.192 131.719 165.301 148.77 103.252 113.946 288.817 242.899 304.809 266.719 208.776 220.448 313.139 258.343 307.314 276.602 220.233 232.466 330.174 260.406 331.815 285.193 227.411 243.456 332.902 257.173 335.657 283.507 227.791 246.48 331.997 254.991 334.073 281.112 226.76 246.494 331.122 254.05 332.74 279.887 226.054 246.095 330.621 253.735 332.054 279.394 225.754 245.823 330.409 253.712 331.77 279.257 225.687 245.736 330.408 253.822 331.735 279.331 225.746 245.755 330.533 254.003 331.866 279.493 225.888 245.886 330.783 254.218 332.092 279.701 226.11 246.102 331.16 254.423 332.391 279.942 226.392 246.467 331.699 254.513 332.735 280.11 226.742 247.042 332.281 253.983 332.99 279.854 226.89 247.817 331.824 251.21 332.261 277.902 225.398 247.874 325.624 242.118 327.039 270.64 218.005 242.859 303.601 223.237 309.634 251.769 200.717 224.492 272.582 217.954 279.525 229.719 195.317 211.578 207.916 241.544 204.765 252.526 241.247 228.691 206.468 250.849 210.704 235.132 269.112 248.423 213.53 256.495 212.603 236.374 284.053 262.879 218.87 259.236 217.283 238.988 289.338 268.348 220.373 260.065 218.843 240.035 290.477 269.612 220.634 260.196 219.146 240.282 290.6 269.799 220.688 260.207 219.228 240.35 290.595 269.817 220.733 260.211 219.29 240.376 290.587 269.822 220.744 260.206 219.321 240.38 290.572 269.792 220.7 260.184 219.303 240.36 290.544 269.755 220.628 260.152 219.235 240.318 290.497 269.694 220.554 260.123 219.159 240.269 290.497 269.683 220.6 260.166 219.147 240.249 290.64 269.831 220.956 260.457 219.335 240.337 291.157 270.368 222.107 261.821 220.098 240.806 292.873 272.006 225.901 268.365 223.443 244.144 299.279 276.947 234.236 291.542 234.448 260.063 318.333 281.288 229.917 302.441 244.076 271.125 324.508 282.874 140.699 213.878 151.972 198.571 187.301 165.994 142.246 206.233 156.114 199.17 182.714 162.499 140.407 197.597 152.621 190.381 182.925 162.54 140.437 195.846 151.322 187.395 185.371 164.774 140.402 195.541 150.936 186.588 186.17 165.43 140.276 195.448 150.694 186.335 186.321 165.514 140.26 195.468 150.626 186.308 186.379 165.557 140.316 195.532 150.683 186.374 186.435 165.611 140.37 195.579 150.756 186.437 186.461 165.633 140.38 195.585 150.794 186.461 186.433 165.605 140.338 195.541 150.777 186.438 186.375 165.534 140.277 195.475 150.718 186.384 186.308 165.465 140.27 195.405 150.673 186.321 186.333 165.508 140.379 195.283 150.638 186.172 186.588 165.766 140.417 194.761 150.264 185.373 187.393 166.415 139.978 194.011 148.869 182.928 190.386 168.445 141.055 199.607 148.763 182.714 199.172 173.114 141.871 199.483 152.783 187.306 198.572 172.894 104.192 171.135 120.973 162.462 134.888 110.453 107.819 179.186 122.47 169.666 139.158 114.167 111.477 180.481 128.33 175.279 138.12 114.351 112.323 178.972 130.56 175.364 136.954 114.03 112.259 178.073 130.792 174.64 136.374 113.647 112.142 177.736 130.656 174.265 136.135 113.415 112.131 177.668 130.594 174.155 136.093 113.356 112.205 177.73 130.649 174.194 136.152 113.4 112.303 177.815 130.746 174.289 136.215 113.47 112.393 177.876 130.835 174.363 136.252 113.507 112.438 177.896 130.898 174.408 136.234 113.499 112.456 177.881 130.929 174.42 136.194 113.466 112.492 177.87 130.965 174.422 136.179 113.463 112.587 177.785 131.047 174.41 136.241 113.496 112.514 176.783 131.01 173.852 136.094 113.262 110.935 172.122 129.371 170.148 134.784 111.993 106.202 163.884 124.254 160.383 133.527 110.472 105.141 163.253 123.142 158.85 132.924 110.288 122.695 162.203 131.407 161.183 118.834 103.198 124.268 165.995 137.47 162.322 121.161 104.289 124.808 173.74 138.198 169.102 125.279 106.664 125.795 176.247 140.356 172.761 126.263 107.918 126.021 176.362 141.223 173.297 126.056 107.969 125.994 176.241 141.349 173.209 125.87 107.804 126 176.235 141.373 173.187 125.846 107.749 126.077 176.31 141.438 173.255 125.925 107.805 126.198 176.423 141.55 173.368 126.037 107.912 126.332 176.532 141.677 173.485 126.135 108.025 126.465 176.616 141.805 173.587 126.203 108.126 126.589 176.688 141.927 173.677 126.243 108.208 126.723 176.819 142.062 173.799 126.297 108.298 126.869 177.183 142.25 174.135 126.427 108.379 127.054 177.907 142.648 175.064 126.672 108.297 127.457 177.727 143.679 176.856 126.231 107.626 126.893 171.324 144.55 174.294 122.178 105.508 124.748 165.111 147.726 165.106 118.374 101.657 194.379 196.587 193.39 202.232 154.473 152.115 196.57 188.163 207.987 197.915 151.072 151.959 191.066 187.113 198.969 191.063 149.361 149.37 188.04 188.289 194.064 190.379 149.546 148.788 186.846 188.599 192.748 190.395 149.508 148.46 186.377 188.607 192.352 190.293 149.395 148.183 186.237 188.655 192.227 190.29 149.389 148.074 186.264 188.757 192.256 190.38 149.472 148.113 186.377 188.891 192.362 190.514 149.599 148.232 186.528 189.023 192.506 190.66 149.738 148.381 186.692 189.136 192.661 190.783 149.871 148.536 186.844 189.218 192.812 190.876 149.991 148.684 186.932 189.27 192.92 190.898 150.068 148.784 186.739 189.386 192.856 190.839 149.997 148.632 185.648 190.057 192.244 190.961 149.622 147.676 182.929 193.048 190.797 193.312 149.818 145.781 181.762 201.252 191.529 203.145 154.18 148.246 180.128 193.858 202.25 200.232 152.08 146.601 332.868 285.87 321.896 319.23 242.289 250.178 329.587 269.388 332.594 292.295 237.751 254.68 313.9 253.012 312.991 272.084 227.337 250.066 304.859 248.028 299.408 264.102 222.592 245.783 301.994 247.082 295.246 262.3 221.106 243.84 301.181 246.96 294.24 261.96 220.68 243.103 300.906 247.015 293.971 261.938 220.598 242.879 300.871 247.132 293.962 262.027 220.667 242.897 300.969 247.284 294.078 262.166 220.797 243.031 301.135 247.447 294.239 262.321 220.955 243.215 301.324 247.596 294.418 262.486 221.129 243.417 301.516 247.698 294.594 262.633 221.269 243.6 301.655 247.657 294.748 262.704 221.312 243.64 301.467 247.234 294.75 262.496 220.932 243.141 300.082 245.973 294.178 261.491 219.152 240.841 294.82 243.508 291.681 258.753 214.134 234.02 279.123 235.302 283.498 252.007 207.673 220.682 242.684 242.207 257.084 231.231 212.282 215.997 268.158 359.095 278.146 375.814 250.065 251.857 253.541 291.099 277.494 290.381 274.572 258.134 241.842 287.289 255.341 279.86 278.884 260.539 241.313 288.033 250.922 280.011 280.369 261.998 241.716 288.649 250.305 280.595 280.787 262.525 241.831 288.792 250.242 280.744 280.792 262.603 241.859 288.768 250.258 280.729 280.716 262.586 241.897 288.723 250.295 280.699 280.667 262.554 241.921 288.698 250.317 280.665 280.657 262.556 241.926 288.693 250.33 280.652 280.664 262.553 241.912 288.716 250.318 280.67 280.696 262.544 241.874 288.79 250.304 280.727 280.722 262.542 241.824 288.887 250.285 280.792 280.742 262.524 241.691 288.939 250.215 280.793 280.581 262.474 241.265 288.879 249.868 280.37 280.014 262.446 241.13 289.264 249.253 278.877 279.861 264.104 247.259 288.354 250.686 274.57 290.383 278.562 272.761 273.075 256.778 250.064 375.818 330.92 229.59 370.502 256.16 324.504 271.125 245.272 238.522 321.702 256.72 318.331 260.062 239.472 233.557 302.387 255.912 299.287 244.141 225.762 229.475 296.9 250.381 292.877 240.812 222.445 228.24 295.648 248.397 291.16 240.334 221.811 227.804 295.297 247.701 290.638 240.248 221.649 227.688 295.201 247.467 290.495 240.262 221.641 227.721 295.212 247.465 290.492 240.313 221.705 227.792 295.25 247.522 290.537 240.363 221.757 227.845 295.277 247.579 290.572 240.377 221.78 227.854 295.277 247.606 290.587 240.373 221.755 227.828 295.3 247.592 290.592 240.346 221.714 227.775 295.312 247.542 290.6 240.288 221.648 227.583 295.139 247.335 290.482 240.036 221.445 226.435 293.533 246.255 289.337 238.992 220.426 221.643 286.829 241.704 284.053 236.371 217.398 211.825 267.648 230.546 269.12 235.136 217.095 214.061 233.777 215.945 241.242 252.53 226.27 202.001 303.39 230.884 277.792 236.109 209.216 215.468 322.762 228.166 302.266 247.423 222.037 230.789 327.432 251.345 316.795 247.436 224.739 233.5 324.896 257.582 317.124 243.979 222.686 233.278 323.477 257.887 316.361 242.531 221.437 233.067 322.904 257.677 315.944 242.042 220.947 232.999 322.697 257.547 315.77 241.933 220.812 233.046 322.68 257.52 315.754 241.967 220.854 233.134 322.762 257.595 315.832 242.042 220.936 233.229 322.847 257.679 315.923 242.104 221.005 233.304 322.92 257.761 315.997 242.131 221.045 233.358 322.978 257.827 316.072 242.132 221.061 233.441 323.027 257.886 316.134 242.096 221.059 233.545 322.824 257.95 316.094 241.951 220.966 233.282 320.868 257.765 315.048 240.834 219.726 229.401 310.582 254.767 308.421 234.992 213.33 215.169 283.122 241.802 287.437 220.369 198.745 206.651 254.338 222.91 266.902 219.669 195.613 199.448 262.559 214.82 253.528 213.352 196.319 208.413 296.45 220.771 273.772 227.445 203.008 220.737 316.52 239.284 299.632 243.299 215.928 226.572 321.798 249.267 307.733 247.335 220.129 227.77 322.385 251.593 309.015 247.567 220.576 227.948 322.307 251.923 309.134 247.429 220.486 228.021 322.243 251.981 309.129 247.378 220.451 228.097 322.259 252.024 309.15 247.414 220.505 228.203 322.352 252.098 309.227 247.498 220.602 228.322 322.496 252.205 309.34 247.59 220.706 228.431 322.627 252.322 309.479 247.67 220.804 228.546 322.817 252.443 309.639 247.737 220.9 228.737 323.118 252.618 309.886 247.825 221.066 229.195 323.681 252.995 310.389 248.06 221.463 230.506 324.703 254.07 311.611 248.502 222.182 233.665 323.894 256.756 313.686 246.819 221.456 234.536 307.016 258.018 308.656 234.149 211.723 228.88 294.405 254.283 305.515 225.816 200.182 234.932 243.638 230.719 248.051 215.767 212.109 235.653 272.791 249.746 261.451 222.744 207.644 227.828 287.022 241.911 275.582 233.664 211.904 228.024 291.997 244.038 281.207 239.353 215.655 228.785 293.128 245.642 282.335 240.775 216.731 229.066 293.27 246.089 282.424 241.006 216.929 229.173 293.258 246.204 282.407 241.052 216.995 229.264 293.282 246.254 282.427 241.107 217.072 229.364 293.364 246.334 282.489 241.191 217.178 229.482 293.484 246.433 282.599 241.31 217.294 229.602 293.637 246.554 282.728 241.423 217.409 229.704 293.801 246.668 282.865 241.535 217.515 229.776 294.043 246.776 283.027 241.689 217.638 229.833 294.635 246.893 283.329 242.072 217.928 230.22 296.929 247.315 284.437 243.452 219.044 233.255 306.204 249.792 289.985 248.431 223.149 249.841 330.104 262.064 311.568 258.399 235.455 263.114 353.281 293.837 352.893 252.561 230.916 371.137 261.581 326.133 327.54 264.16 276.624 314.123 280.924 326.247 280.369 251.242 262.001 283.674 281.241 285.289 280.794 245.023 249.41 278.858 281.127 279.187 283.62 245.746 247.43 279.189 281.354 279.984 284.564 246.581 247.505 279.5 281.422 280.595 284.768 246.844 247.621 279.612 281.396 280.842 284.786 246.92 247.697 279.7 281.397 280.956 284.785 246.973 247.792 279.798 281.469 281.054 284.823 247.06 247.909 279.919 281.572 281.164 284.921 247.176 248.047 280.058 281.716 281.292 285.059 247.303 248.194 280.206 281.83 281.446 285.204 247.415 248.304 280.319 281.814 281.587 285.298 247.441 248.301 280.255 281.477 281.605 285.173 247.288 248.022 279.754 280.897 281.301 284.578 246.978 247.275 278.056 283.01 280.445 283.766 248.039 246.432 271.501 306.635 278.273 286.425 262.446 247.95 246.126 397.396 272.113 327.73 285.06 273.797 
SCALARS volume float 1
LOOKUP_TABLE default
0.0193332 0.0195532 0.0192727 0.0196201 0.0194978 0.0195171 0.0194043 0.019397 0.0192466 0.0192042 0.0193733 0.0195126 0.0194139 0.0194035 0.0192359 0.0192283 0.0193891 0.019532 0.0194245 0.0194172 0.0192416 0.019246 0.0194028 0.019542 0.01943 0.0194253 0.0192458 0.0192547 0.0194091 0.0195463 0.0194322 0.0194287 0.0192478 0.0192589 0.0194117 0.0195481 0.0194328 0.0194298 0.0192485 0.0192606 0.0194126 0.0195486 0.0194329 0.0194301 0.0192489 0.0192612 0.0194128 0.0195486 0.0194328 0.01943 0.019249 0.0192614 0.0194126 0.0195485 0.0194326 0.01943 0.0192492 0.0192615 0.0194127 0.0195485 0.0194325 0.0194301 0.0192491 0.0192616 0.0194127 0.0195486 0.0194323 0.0194304 0.0192486 0.0192613 0.0194128 0.0195487 0.0194317 0.0194304 0.019247 0.0192602 0.0194124 0.0195488 0.0194297 0.0194293 0.0192432 0.0192577 0.0194108 0.019548 0.0194244 0.019426 0.0192353 0.0192536 0.0194068 0.0195423 0.0194068 0.0194203 0.0192216 0.0192457 0.0193923 0.019517 0.019338 0.0193882 0.0192187 0.0192144 0.0192901 0.0194265 0.0194521 0.0191855 0.0193169 0.0191484 0.0192468 0.0200644 0.0189442 0.0189867 0.0188079 0.0189122 0.0190934 0.0190976 0.0190635 0.0190432 0.0189789 0.0188854 0.0190527 0.0191654 0.0190846 0.0190704 0.0189763 0.018916 0.0190537 0.0191928 0.0190993 0.0190818 0.0189604 0.0189167 0.0190618 0.0192085 0.0191081 0.0190896 0.0189555 0.0189202 0.019067 0.0192157 0.0191118 0.0190936 0.0189556 0.0189236 0.0190696 0.0192183 0.0191132 0.0190954 0.0189566 0.0189255 0.0190707 0.019219 0.0191137 0.0190961 0.0189575 0.0189265 0.0190712 0.0192192 0.019114 0.0190964 0.0189583 0.0189271 0.0190715 0.0192194 0.0191141 0.0190966 0.0189586 0.0189274 0.0190717 0.0192196 0.0191138 0.0190966 0.0189586 0.0189273 0.0190715 0.0192194 0.0191126 0.019096 0.0189573 0.0189265 0.0190703 0.0192186 0.0191096 0.0190942 0.0189544 0.0189241 0.0190668 0.019216 0.0191028 0.0190901 0.0189492 0.0189201 0.0190589 0.0192089 0.0190885 0.019082 0.0189428 0.0189146 0.0190395 0.0191887 0.0190598 0.0190635 0.0189437 0.0189096 0.0190005 0.019145 0.0190467 0.0190349 0.0189859 0.0189193 0.0190451 0.0191516 0.0193007 0.0191831 0.0190627 0.018992 0.0194554 0.0198065 0.0188679 0.0188378 0.0188216 0.0187659 0.0188708 0.0188941 0.0188701 0.0188373 0.0189157 0.0187935 0.0188603 0.0188636 0.0188491 0.0188364 0.0188765 0.0187358 0.0188346 0.0188231 0.0188568 0.0188391 0.0188816 0.0187001 0.0188274 0.0188136 0.018866 0.0188431 0.018893 0.0186907 0.0188273 0.0188149 0.0188715 0.0188463 0.0189004 0.0186917 0.0188288 0.0188172 0.0188746 0.0188483 0.0189044 0.018694 0.0188303 0.0188187 0.0188761 0.0188494 0.0189065 0.0186958 0.0188315 0.0188199 0.018877 0.0188501 0.0189075 0.018697 0.0188322 0.0188207 0.0188775 0.0188505 0.0189078 0.0186976 0.0188325 0.0188213 0.0188772 0.0188504 0.0189077 0.0186977 0.0188319 0.018821 0.0188759 0.0188494 0.0189067 0.0186969 0.01883 0.0188193 0.0188729 0.018847 0.0189051 0.0186952 0.018826 0.0188146 0.0188676 0.0188428 0.0189038 0.0186929 0.0188197 0.018806 0.0188611 0.0188362 0.0189065 0.0186928 0.0188145 0.0187964 0.0188666 0.0188329 0.0189229 0.0187027 0.0188404 0.0188143 0.0189379 0.0188712 0.0189607 0.0187322 0.0189818 0.0189401 0.019102 0.0190343 0.0189568 0.0187656 0.0190589 0.0191544 0.0191115 0.0188469 0.0191668 0.0189145 0.0189413 0.0190109 0.0189767 0.0188077 0.019008 0.0188834 0.0189106 0.0188637 0.0189745 0.0187841 0.0189877 0.0187898 0.01889 0.0187919 0.0189977 0.0187788 0.0190348 0.0187592 0.018888 0.0187833 0.0190108 0.0187806 0.0190588 0.018757 0.0188899 0.0187892 0.0190173 0.0187836 0.0190672 0.0187612 0.0188922 0.018795 0.0190204 0.0187861 0.01907 0.018765 0.0188942 0.0187988 0.0190219 0.0187877 0.019071 0.0187675 0.0188954 0.0188011 0.0190226 0.0187886 0.0190713 0.0187688 0.018896 0.0188024 0.0190229 0.018789 0.0190712 0.0187694 0.0188962 0.0188033 0.0190228 0.0187889 0.019071 0.0187695 0.0188956 0.0188035 0.0190224 0.018788 0.0190703 0.0187692 0.0188946 0.018803 0.0190214 0.0187859 0.0190695 0.0187683 0.0188929 0.0188014 0.0190192 0.0187827 0.0190689 0.0187671 0.0188923 0.018799 0.0190165 0.0187803 0.0190696 0.0187668 0.018899 0.0188011 0.0190242 0.0187927 0.0190733 0.0187692 0.0189317 0.0188242 0.0190701 0.0188526 0.0190711 0.0187678 0.0189947 0.0188761 0.0190281 0.0189398 0.0190519 0.0187222 0.0188977 0.0186356 0.0194725 0.0190245 0.0196173 0.0192862 0.0192056 0.0193586 0.0192769 0.0189888 0.0191388 0.0191144 0.0191399 0.0191685 0.019341 0.0189712 0.0192431 0.0190714 0.0191534 0.0191811 0.0193624 0.0189695 0.019294 0.0190838 0.0191644 0.0192026 0.019367 0.0189726 0.0193019 0.0190925 0.0191689 0.0192129 0.0193688 0.0189764 0.0193024 0.0190973 0.0191711 0.0192179 0.0193695 0.0189791 0.0193025 0.0191 0.0191722 0.0192204 0.0193699 0.0189806 0.0193024 0.0191015 0.0191729 0.0192216 0.01937 0.0189813 0.0193025 0.0191022 0.0191731 0.0192222 0.01937 0.0189816 0.0193023 0.0191025 0.0191732 0.0192225 0.0193701 0.0189814 0.0193021 0.0191026 0.019173 0.0192229 0.01937 0.0189807 0.0193017 0.0191023 0.0191725 0.019223 0.0193696 0.0189791 0.0193008 0.0191014 0.0191717 0.0192221 0.0193684 0.0189765 0.0192991 0.0190991 0.0191715 0.019219 0.0193664 0.0189753 0.0192957 0.0190934 0.0191723 0.0192126 0.0193648 0.0189835 0.0192846 0.0190795 0.0191726 0.0191955 0.0193512 0.0190059 0.0192584 0.0190451 0.0191518 0.0190903 0.0191072 0.0189763 0.01932 0.0189555 0.0190372 0.0185458 0.0196692 0.0192953 0.0191685 0.0194909 0.0195293 0.01972 0.019614 0.0193454 0.0194779 0.0194419 0.0194668 0.0195489 0.0196526 0.0193404 0.0196433 0.0194662 0.0194796 0.0195978 0.0196499 0.0193409 0.0196198 0.019485 0.0194856 0.0196077 0.0196493 0.019343 0.019611 0.019488 0.0194884 0.01961 0.0196497 0.0193453 0.0196099 0.0194893 0.0194897 0.0196109 0.0196499 0.0193467 0.0196099 0.0194902 0.0194903 0.0196112 0.0196499 0.0193473 0.0196099 0.0194906 0.0194906 0.0196113 0.0196499 0.0193475 0.0196098 0.0194907 0.0194907 0.0196113 0.0196499 0.0193475 0.0196098 0.0194907 0.0194907 0.0196113 0.0196498 0.0193474 0.0196098 0.0194906 0.0194905 0.0196113 0.0196499 0.0193469 0.0196097 0.0194903 0.0194901 0.0196113 0.0196497 0.0193458 0.0196094 0.0194897 0.0194893 0.0196113 0.0196494 0.0193443 0.0196084 0.0194883 0.019488 0.0196123 0.0196496 0.019344 0.0196056 0.0194856 0.019485 0.01962 0.0196494 0.0193456 0.0195947 0.0194797 0.0194663 0.0196409 0.0196142 0.0193269 0.019549 0.0194669 0.019442 0.019485 0.0198271 0.0192388 0.0197266 0.0195293 0.0194909 0.0191946 0.0191341 0.0192986 0.0191798 0.0192644 0.0193027 0.0192543 0.0190879 0.0191291 0.018995 0.0190222 0.0191255 0.0191291 0.0190592 0.0191005 0.018933 0.0189661 0.0191332 0.0191371 0.0190641 0.0191066 0.0189274 0.0189638 0.0191477 0.0191494 0.0190716 0.0191149 0.0189311 0.0189675 0.0191556 0.0191565 0.0190765 0.01912 0.0189348 0.0189706 0.0191593 0.0191602 0.0190788 0.0191222 0.0189369 0.0189724 0.0191609 0.0191619 0.0190798 0.019123 0.0189379 0.0189733 0.0191614 0.0191625 0.0190803 0.0191233 0.0189385 0.0189738 0.0191616 0.0191628 0.0190806 0.0191237 0.0189389 0.0189743 0.0191619 0.0191631 0.0190809 0.0191242 0.0189391 0.0189745 0.0191624 0.0191632 0.019081 0.0191247 0.0189387 0.0189743 0.0191627 0.019163 0.0190802 0.0191247 0.0189374 0.018973 0.0191622 0.0191618 0.0190772 0.0191233 0.0189345 0.0189704 0.0191594 0.0191599 0.0190706 0.01912 0.0189305 0.0189683 0.0191534 0.0191587 0.0190621 0.0191203 0.0189273 0.0189758 0.0191464 0.0191605 0.0190459 0.0191216 0.0189209 0.0189865 0.0190946 0.0191454 0.0190278 0.019029 0.0188945 0.0189024 0.018772 0.0191311 0.0189044 0.0189068 0.0187948 0.0187932 0.0189021 0.0188501 0.0188483 0.0188788 0.0187547 0.0187246 0.0188006 0.018832 0.0188151 0.0188459 0.0187175 0.0187119 0.0188026 0.0188391 0.0188061 0.0188385 0.0186888 0.0186986 0.0188013 0.0188372 0.0188079 0.0188403 0.0186796 0.0186938 0.0188032 0.0188387 0.0188115 0.0188437 0.0186794 0.0186941 0.0188055 0.0188411 0.0188141 0.018846 0.0186812 0.0186957 0.0188071 0.0188428 0.0188155 0.0188472 0.0186827 0.0186971 0.0188081 0.0188437 0.0188164 0.0188479 0.0186838 0.018698 0.0188088 0.0188443 0.0188169 0.0188484 0.0186843 0.0186984 0.0188091 0.0188447 0.0188171 0.0188487 0.0186843 0.0186984 0.0188089 0.0188444 0.0188167 0.0188484 0.0186833 0.0186977 0.0188079 0.0188433 0.0188151 0.0188474 0.0186815 0.018696 0.0188056 0.0188409 0.0188116 0.0188454 0.0186794 0.0186942 0.0188022 0.0188379 0.0188071 0.0188442 0.0186796 0.0186947 0.018799 0.0188372 0.0188064 0.0188496 0.0186856 0.0187044 0.0187967 0.0188472 0.018821 0.0188624 0.0187004 0.0187273 0.0188027 0.0188819 0.0188985 0.0188937 0.0187402 0.0187555 0.0189348 0.0190038 0.0188338 0.0187617 0.0186878 0.0186445 0.0186932 0.0187009 0.0187473 0.0187333 0.018658 0.018621 0.0186544 0.0187088 0.0187211 0.0187062 0.0186243 0.0185899 0.0186394 0.0186695 0.0187187 0.0186994 0.0186098 0.0185625 0.0186296 0.018649 0.0187233 0.0186999 0.0186105 0.0185527 0.0186276 0.0186439 0.0187276 0.0187021 0.0186143 0.0185517 0.0186287 0.0186445 0.0187304 0.0187039 0.0186173 0.0185532 0.0186302 0.0186461 0.0187319 0.0187051 0.0186192 0.0185547 0.0186313 0.0186474 0.0187327 0.0187059 0.0186202 0.0185557 0.018632 0.0186481 0.018733 0.0187062 0.0186205 0.0185562 0.0186322 0.0186485 0.018733 0.0187063 0.0186203 0.0185561 0.0186319 0.0186481 0.0187323 0.018706 0.0186194 0.0185554 0.0186305 0.0186469 0.0187309 0.018705 0.0186178 0.0185542 0.0186287 0.0186449 0.0187289 0.0187033 0.0186165 0.0185537 0.0186276 0.0186438 0.0187286 0.0187021 0.0186179 0.0185571 0.0186301 0.0186489 0.0187385 0.0187076 0.0186259 0.0185703 0.0186429 0.0186723 0.0187764 0.0187329 0.018647 0.0185973 0.0186884 0.0187206 0.0188355 0.0187902 0.0186821 0.0186217 0.0187632 0.0187331 0.0188619 0.0187394 0.0187541 0.0186721 0.0186667 0.0187511 0.0187735 0.0187036 0.0186892 0.0186515 0.0186528 0.0187262 0.0187558 0.0186828 0.0186664 0.0186108 0.0186367 0.0186735 0.0187529 0.018677 0.0186722 0.0185874 0.0186291 0.0186563 0.0187551 0.0186772 0.0186792 0.0185814 0.0186283 0.018655 0.0187581 0.018679 0.0186834 0.0185819 0.0186298 0.0186573 0.0187603 0.0186808 0.0186859 0.0185838 0.0186314 0.0186595 0.0187617 0.0186819 0.0186874 0.0185853 0.0186325 0.0186611 0.0187625 0.0186826 0.0186883 0.0185863 0.0186331 0.0186618 0.0187626 0.0186828 0.0186885 0.0185866 0.0186332 0.0186619 0.0187622 0.0186826 0.0186882 0.0185863 0.0186326 0.0186614 0.0187611 0.0186819 0.018687 0.0185855 0.0186313 0.0186602 0.0187593 0.0186807 0.0186854 0.0185842 0.0186297 0.0186585 0.0187576 0.0186792 0.0186833 0.0185834 0.0186291 0.018658 0.0187602 0.0186802 0.0186822 0.0185857 0.0186332 0.0186633 0.0187771 0.0186913 0.0186877 0.0185956 0.0186499 0.0186796 0.0188142 0.018724 0.018711 0.0186116 0.0186867 0.018695 0.0188478 0.0187593 0.0187406 0.0186159 0.0187013 0.0186608 0.0189643 0.0188369 0.0188737 0.0188454 0.0187665 0.0189817 0.0189356 0.0188063 0.0188005 0.0188307 0.018777 0.0188967 0.0189313 0.0187817 0.018848 0.0188036 0.0187825 0.0188698 0.0189287 0.0187693 0.0188756 0.018792 0.0187863 0.0188736 0.0189304 0.0187678 0.0188819 0.0187899 0.0187896 0.0188796 0.0189334 0.0187698 0.0188842 0.0187912 0.0187921 0.0188834 0.0189356 0.0187719 0.0188859 0.0187929 0.0187938 0.0188856 0.0189369 0.0187732 0.0188871 0.0187943 0.0187948 0.0188868 0.0189373 0.0187738 0.0188876 0.0187951 0.0187951 0.0188873 0.0189374 0.0187739 0.0188877 0.0187951 0.018795 0.0188873 0.0189368 0.0187733 0.0188871 0.0187948 0.0187943 0.0188867 0.0189356 0.0187722 0.0188859 0.0187938 0.0187929 0.0188855 0.0189334 0.0187704 0.0188836 0.0187921 0.0187911 0.0188836 0.0189306 0.0187688 0.0188796 0.0187896 0.01879 0.018881 0.0189288 0.0187709 0.0188734 0.0187863 0.018792 0.0188744 0.0189315 0.0187821 0.01887 0.0187826 0.0188036 0.0188491 0.018942 0.0187999 0.0188989 0.018777 0.0188307 0.0188054 0.0189871 0.0188156 0.0189843 0.0187666 0.0188454 0.0188654 0.0189928 0.0190594 0.0184759 0.0190372 0.0189555 0.0193075 0.0192754 0.019036 0.0190896 0.0191518 0.0190451 0.0192607 0.0193033 0.0189905 0.0192063 0.0191726 0.0190795 0.0192843 0.0193143 0.0189814 0.019219 0.0191724 0.0190934 0.0192939 0.0193199 0.0189841 0.019223 0.0191714 0.0190991 0.0192968 0.019322 0.0189875 0.0192256 0.0191718 0.0191013 0.0192985 0.0193226 0.0189897 0.0192263 0.0191726 0.0191022 0.0192995 0.0193225 0.0189906 0.019226 0.019173 0.0191026 0.0193 0.0193223 0.0189908 0.0192257 0.0191732 0.0191025 0.0193001 0.0193221 0.0189906 0.0192252 0.0191732 0.0191022 0.0193002 0.0193218 0.01899 0.0192246 0.0191729 0.0191015 0.0193002 0.019321 0.0189887 0.0192235 0.0191722 0.0191 0.0193003 0.0193194 0.0189864 0.019221 0.0191711 0.0190972 0.0193001 0.0193158 0.0189837 0.0192159 0.0191689 0.0190926 0.0192997 0.0193073 0.018982 0.0192052 0.0191644 0.0190838 0.0192924 0.0192822 0.0189813 0.0191847 0.0191535 0.0190714 0.0192445 0.0192445 0.0189749 0.0191788 0.0191399 0.0191144 0.0191412 0.0195365 0.0190041 0.0193784 0.0192057 0.0192862 0.0195646 0.0189786 0.019045 0.0188811 0.0188837 0.0190733 0.0190295 0.0188887 0.0189836 0.0188259 0.0189542 0.0189477 0.0189463 0.0188191 0.0189198 0.0187179 0.0189194 0.0189136 0.0189191 0.0188058 0.0189041 0.0186891 0.0189061 0.0189159 0.0189182 0.0188092 0.0189045 0.0186862 0.0189027 0.01892 0.0189207 0.0188137 0.0189067 0.0186884 0.0189022 0.0189223 0.0189226 0.0188163 0.018908 0.0186904 0.0189022 0.0189232 0.0189238 0.0188175 0.0189085 0.0186915 0.0189024 0.0189237 0.0189245 0.0188183 0.0189089 0.0186922 0.0189028 0.0189241 0.0189249 0.0188188 0.0189095 0.0186927 0.0189031 0.0189247 0.0189253 0.0188194 0.01891 0.0186931 0.0189034 0.0189252 0.0189253 0.0188197 0.01891 0.018693 0.0189031 0.0189252 0.0189246 0.018819 0.0189087 0.0186919 0.0189015 0.0189239 0.0189225 0.0188161 0.0189064 0.01869 0.0188983 0.0189214 0.0189199 0.0188112 0.0189064 0.0186898 0.0188949 0.0189211 0.0189219 0.0188147 0.018923 0.0187008 0.0189041 0.0189403 0.0189419 0.0188474 0.0189724 0.0187343 0.0189483 0.0189798 0.0189696 0.0188638 0.0189864 0.0187494 0.0189457 0.0187812 0.0188933 0.0187787 0.0188501 0.0186536 0.0186853 0.0187472 0.0187407 0.0187309 0.0188079 0.0186136 0.0186647 0.0186774 0.0186892 0.0186878 0.0187617 0.0185726 0.0186423 0.0186534 0.0186802 0.0186725 0.0187394 0.0185462 0.0186301 0.0186461 0.0186753 0.0186703 0.0187359 0.0185339 0.0186261 0.0186455 0.0186745 0.0186721 0.0187374 0.0185314 0.018626 0.0186468 0.0186755 0.018674 0.0187391 0.0185322 0.0186271 0.0186481 0.0186768 0.0186752 0.0187401 0.0185334 0.0186281 0.018649 0.0186776 0.018676 0.0187407 0.0185343 0.0186288 0.0186495 0.0186782 0.0186765 0.0187411 0.0185347 0.0186291 0.0186498 0.0186784 0.0186767 0.0187413 0.0185347 0.018629 0.0186497 0.0186781 0.0186765 0.0187413 0.018534 0.0186284 0.0186489 0.0186772 0.0186756 0.0187405 0.0185326 0.0186272 0.0186474 0.0186756 0.0186737 0.0187387 0.018532 0.0186259 0.0186469 0.0186746 0.0186727 0.0187378 0.018536 0.0186271 0.018653 0.0186783 0.0186804 0.018746 0.0185513 0.0186369 0.0186736 0.0186943 0.0187052 0.0187711 0.0185779 0.0186629 0.0187012 0.0187193 0.0187355 0.01878 0.0186116 0.0186829 0.0187367 0.0187348 0.0186975 0.0187017 0.0185663 0.0185721 0.0185858 0.0185925 0.0186495 0.0186754 0.0185286 0.0185401 0.018541 0.0185645 0.0186277 0.0186453 0.0185042 0.0185105 0.0185216 0.0185444 0.018621 0.018632 0.0184859 0.0184905 0.0185099 0.0185304 0.0186205 0.0186295 0.0184771 0.0184831 0.0185056 0.0185262 0.0186219 0.0186303 0.0184755 0.0184822 0.0185054 0.0185264 0.0186233 0.0186314 0.0184764 0.0184834 0.0185062 0.0185276 0.0186242 0.0186323 0.0184776 0.0184845 0.0185071 0.0185286 0.0186247 0.0186327 0.0184784 0.0184852 0.0185076 0.0185291 0.018625 0.0186329 0.0184787 0.0184854 0.0185078 0.0185292 0.0186249 0.018633 0.0184784 0.0184851 0.0185074 0.0185286 0.0186244 0.0186327 0.0184776 0.0184845 0.0185063 0.0185277 0.0186235 0.0186319 0.0184765 0.0184837 0.0185051 0.0185266 0.0186228 0.0186311 0.0184762 0.018484 0.0185059 0.0185277 0.018624 0.0186317 0.0184805 0.0184886 0.0185134 0.0185349 0.0186324 0.018639 0.0184938 0.0185019 0.0185319 0.0185535 0.0186549 0.0186597 0.0185177 0.0185265 0.0185623 0.0185786 0.0186883 0.0186858 0.0185534 0.0185536 0.0186144 0.018598 0.0187248 0.0186676 0.0185943 0.0185787 0.0185525 0.018592 0.018682 0.0186416 0.0185634 0.0185415 0.0185259 0.0185663 0.0186609 0.0186187 0.0185455 0.0185096 0.0185036 0.0185385 0.0186511 0.0186107 0.0185302 0.0184911 0.0184899 0.0185253 0.0186489 0.0186097 0.0185238 0.0184845 0.018485 0.0185226 0.0186496 0.0186106 0.0185231 0.018484 0.0184847 0.0185236 0.0186509 0.0186117 0.0185245 0.0184853 0.0184857 0.018525 0.0186517 0.0186123 0.0185258 0.0184864 0.0184866 0.0185261 0.0186522 0.0186126 0.0185266 0.018487 0.0184871 0.0185265 0.0186522 0.0186126 0.0185267 0.0184871 0.018487 0.0185263 0.0186517 0.0186123 0.0185262 0.0184866 0.0184864 0.0185256 0.0186509 0.0186117 0.0185252 0.0184858 0.0184852 0.0185243 0.0186497 0.0186107 0.0185236 0.0184848 0.018484 0.018523 0.0186488 0.01861 0.0185228 0.018485 0.0184846 0.0185236 0.0186501 0.0186118 0.0185258 0.0184899 0.0184911 0.0185299 0.0186575 0.0186218 0.0185394 0.0185036 0.0185095 0.0185455 0.0186785 0.0186463 0.0185671 0.0185259 0.0185415 0.018564 0.0187229 0.0186756 0.0185938 0.0185525 0.0185787 0.0185924 0.0188439 0.0187629 0.0186615 0.0187013 0.0186159 0.0187368 0.0188113 0.0187223 0.0186954 0.0186866 0.0186116 0.0187084 0.0187669 0.0186932 0.0186807 0.0186499 0.0185955 0.0186849 0.0187481 0.0186835 0.018664 0.0186332 0.0185857 0.0186797 0.0187459 0.0186827 0.0186579 0.0186291 0.0185834 0.0186808 0.018748 0.0186842 0.0186581 0.0186297 0.0185841 0.018683 0.0187499 0.0186854 0.0186599 0.0186313 0.0185854 0.0186847 0.0187509 0.0186861 0.0186612 0.0186325 0.0185863 0.0186857 0.0187512 0.0186863 0.0186617 0.0186331 0.0185866 0.018686 0.0187511 0.0186861 0.0186616 0.0186331 0.0185862 0.0186858 0.0187503 0.0186855 0.0186608 0.0186325 0.0185853 0.0186849 0.0187489 0.0186844 0.0186593 0.0186314 0.0185838 0.0186834 0.0187466 0.0186829 0.018657 0.0186298 0.0185818 0.0186809 0.0187433 0.0186815 0.0186547 0.0186282 0.0185813 0.018677 0.0187403 0.0186818 0.0186564 0.0186291 0.0185874 0.0186707 0.0187435 0.0186887 0.0186744 0.0186367 0.0186108 0.0186663 0.0187679 0.0187126 0.0187263 0.0186528 0.0186515 0.0186876 0.0188554 0.0187531 0.0187457 0.0186667 0.018672 0.0187501 0.0188938 0.0190015 0.0186009 0.0188977 0.0187221 0.019055 0.0189377 0.0188783 0.0188898 0.0189947 0.0187679 0.0190748 0.0188919 0.0188232 0.0188327 0.0189317 0.0187691 0.0190712 0.0188891 0.0188136 0.0188031 0.018899 0.0187668 0.0190664 0.0188941 0.0188158 0.0187989 0.0188922 0.0187671 0.0190658 0.0188971 0.0188188 0.0188009 0.018893 0.0187683 0.0190665 0.0188981 0.0188208 0.0188026 0.0188946 0.0187692 0.0190674 0.0188982 0.0188217 0.0188031 0.0188957 0.0187696 0.019068 0.0188979 0.0188218 0.0188028 0.0188961 0.0187694 0.0190683 0.0188973 0.0188215 0.018802 0.018896 0.0187688 0.0190684 0.0188961 0.0188207 0.0188007 0.0188954 0.0187674 0.0190681 0.0188938 0.0188194 0.0187984 0.0188942 0.0187649 0.0190672 0.0188893 0.018817 0.0187946 0.0188922 0.0187612 0.0190646 0.0188813 0.018814 0.0187888 0.0188899 0.0187571 0.0190568 0.0188695 0.018811 0.0187834 0.0188879 0.0187592 0.019034 0.0188641 0.0188107 0.0187934 0.0188901 0.0187898 0.0189871 0.0189231 0.0188197 0.0188686 0.0189107 0.0188835 0.0189986 0.0190904 0.0188685 0.0190225 0.0189413 0.0189145 0.0191494 0.0188826 0.0190038 0.0187605 0.0187482 0.0190145 0.0189024 0.0188268 0.0190604 0.0188008 0.0190232 0.0189866 0.0189349 0.0187551 0.0190482 0.0187241 0.0190416 0.0189631 0.0189276 0.0187263 0.0190481 0.0186823 0.019048 0.0189616 0.018929 0.0187235 0.0190496 0.0186739 0.01905 0.0189635 0.0189304 0.0187264 0.0190501 0.0186748 0.0190503 0.0189642 0.018931 0.0187285 0.01905 0.0186764 0.0190502 0.0189643 0.0189314 0.0187295 0.0190499 0.0186772 0.0190501 0.0189644 0.0189317 0.0187301 0.0190501 0.0186777 0.0190503 0.0189648 0.0189319 0.0187306 0.0190504 0.0186781 0.0190505 0.0189653 0.0189322 0.018731 0.0190505 0.0186785 0.0190506 0.0189655 0.018932 0.018731 0.0190495 0.0186782 0.0190501 0.0189646 0.0189308 0.0187296 0.0190467 0.0186768 0.0190484 0.0189616 0.0189283 0.0187263 0.0190416 0.0186738 0.0190447 0.0189562 0.0189249 0.0187214 0.0190359 0.018671 0.0190385 0.0189517 0.0189243 0.0187247 0.0190409 0.018676 0.0190334 0.0189695 0.0189427 0.0187759 0.0190795 0.0187118 0.0190663 0.0190593 0.0190005 0.0188603 0.0191263 0.0187986 0.0191681 0.0190922 0.0189299 0.0187342 0.0188746 0.0186327 0.0187076 0.0186997 0.0186885 0.0187042 0.0188194 0.0186057 0.0187088 0.018703 0.0186765 0.0186737 0.0187848 0.018583 0.0187001 0.0186787 0.0186542 0.0186589 0.0187673 0.0185637 0.0186925 0.0186678 0.0186472 0.0186553 0.0187643 0.0185538 0.0186916 0.0186662 0.0186466 0.0186561 0.0187658 0.0185515 0.018693 0.0186673 0.0186476 0.0186574 0.0187673 0.0185521 0.0186945 0.0186684 0.0186486 0.0186582 0.0187681 0.018553 0.0186953 0.0186689 0.0186492 0.0186587 0.0187683 0.0185537 0.0186957 0.0186693 0.0186495 0.018659 0.0187686 0.0185539 0.0186959 0.0186696 0.0186496 0.018659 0.0187687 0.0185538 0.0186957 0.0186694 0.0186492 0.0186587 0.0187683 0.0185532 0.0186951 0.0186685 0.0186484 0.0186578 0.0187669 0.018552 0.0186938 0.0186666 0.018647 0.0186565 0.0187643 0.0185511 0.0186921 0.0186651 0.0186463 0.0186565 0.018761 0.0185541 0.0186913 0.0186693 0.0186481 0.0186642 0.0187622 0.0185686 0.0186946 0.0186897 0.018658 0.0186926 0.0187838 0.0185979 0.0187093 0.0187232 0.0186843 0.018731 0.0188141 0.0186316 0.0187416 0.0187501 0.0186913 0.018661 0.0187276 0.0185622 0.0186067 0.01858 0.018562 0.0186316 0.0186871 0.0185353 0.0185725 0.0185518 0.0185311 0.0186137 0.0186624 0.018514 0.0185467 0.018534 0.0185056 0.018607 0.0186514 0.0184984 0.0185265 0.0185242 0.0184923 0.0186058 0.018649 0.0184904 0.0185196 0.0185206 0.0184884 0.0186063 0.0186496 0.0184882 0.0185193 0.0185203 0.0184886 0.0186071 0.0186505 0.0184887 0.0185207 0.0185211 0.0184897 0.0186076 0.018651 0.0184896 0.0185216 0.0185218 0.0184905 0.0186078 0.0186511 0.0184902 0.0185221 0.018522 0.0184908 0.0186078 0.0186511 0.0184903 0.0185221 0.0185221 0.0184907 0.0186076 0.0186509 0.01849 0.0185217 0.0185216 0.0184901 0.018607 0.0186504 0.0184892 0.0185211 0.0185206 0.0184892 0.018606 0.0186494 0.0184882 0.0185203 0.0185194 0.0184888 0.0186053 0.0186488 0.018488 0.0185206 0.0185196 0.0184908 0.018607 0.0186508 0.018492 0.0185242 0.0185265 0.018498 0.0186161 0.0186606 0.0185053 0.018534 0.0185467 0.0185129 0.0186377 0.018684 0.018531 0.0185517 0.0185725 0.0185351 0.0186679 0.0187134 0.0185617 0.01858 0.0186067 0.0185618 0.0186979 0.0186794 0.018602 0.0186145 0.0185537 0.018553 0.0186653 0.0186539 0.0185784 0.0185624 0.0185266 0.0185169 0.0186434 0.0186328 0.018554 0.0185319 0.0185018 0.0184926 0.0186358 0.0186262 0.0185353 0.0185134 0.0184887 0.0184794 0.0186349 0.0186262 0.0185275 0.0185058 0.0184841 0.0184754 0.0186357 0.0186273 0.0185264 0.0185052 0.0184837 0.0184756 0.0186365 0.018628 0.0185275 0.0185063 0.0184845 0.0184768 0.0186369 0.0186283 0.0185286 0.0185073 0.0184852 0.0184777 0.0186369 0.0186281 0.0185291 0.0185078 0.0184853 0.0184779 0.0186367 0.0186279 0.018529 0.0185076 0.0184852 0.0184776 0.0186362 0.0186274 0.0185285 0.0185072 0.0184845 0.0184768 0.0186351 0.0186266 0.0185276 0.0185062 0.0184833 0.0184757 0.0186335 0.0186255 0.0185264 0.0185054 0.0184822 0.0184747 0.0186316 0.0186249 0.0185262 0.0185056 0.0184832 0.0184764 0.018631 0.0186281 0.0185303 0.01851 0.0184905 0.0184847 0.018637 0.0186425 0.0185437 0.0185217 0.0185105 0.0185028 0.0186604 0.0186736 0.0185632 0.018541 0.0185402 0.0185274 0.0186996 0.018712 0.0185955 0.0185858 0.0185721 0.0185665 0.0188483 0.0187706 0.0187413 0.0187632 0.0186217 0.018681 0.0187763 0.0187285 0.0187261 0.0186884 0.0185973 0.0186448 0.018733 0.0187086 0.0186747 0.0186429 0.0185702 0.018623 0.0187232 0.0187038 0.0186503 0.0186301 0.0185571 0.0186153 0.0187241 0.0187053 0.0186446 0.0186275 0.0185537 0.0186142 0.0187263 0.0187071 0.0186458 0.0186287 0.0185542 0.0186156 0.0187277 0.0187081 0.018648 0.0186306 0.0185554 0.0186171 0.0187283 0.0187083 0.0186493 0.0186318 0.0185561 0.018618 0.0187283 0.0187082 0.0186497 0.0186322 0.0185562 0.0186182 0.0187278 0.0187078 0.0186494 0.018632 0.0185557 0.0186179 0.018727 0.018707 0.0186486 0.0186313 0.0185548 0.0186169 0.0187254 0.0187058 0.0186473 0.0186302 0.0185532 0.0186151 0.0187227 0.0187038 0.0186458 0.0186287 0.0185517 0.0186122 0.0187185 0.0187014 0.0186454 0.0186276 0.0185528 0.0186086 0.0187147 0.0187008 0.0186509 0.0186296 0.0185625 0.0186079 0.0187182 0.0187102 0.0186711 0.0186394 0.0185899 0.0186217 0.0187469 0.0187454 0.0187062 0.0186544 0.018621 0.0186544 0.0188197 0.0187995 0.0186992 0.0186932 0.0186445 0.0186889 0.0190207 0.0190415 0.0191736 0.0190589 0.0187656 0.0189665 0.0188216 0.0188878 0.0189616 0.0189817 0.0187322 0.0189629 0.018742 0.018864 0.0188192 0.0188403 0.0187027 0.0189211 0.0187392 0.0188665 0.0187973 0.0188146 0.0186928 0.0189048 0.0187484 0.0188711 0.0188067 0.0188197 0.0186929 0.0189023 0.0187548 0.0188747 0.0188157 0.0188261 0.0186952 0.0189037 0.0187581 0.0188767 0.0188205 0.01883 0.0186969 0.0189052 0.0187595 0.0188775 0.0188225 0.0188319 0.0186976 0.0189061 0.0187595 0.0188776 0.0188228 0.0188325 0.0186976 0.0189063 0.0187588 0.0188773 0.0188222 0.0188322 0.0186969 0.018906 0.0187576 0.0188766 0.0188213 0.0188315 0.0186958 0.0189051 0.0187559 0.0188753 0.0188202 0.0188303 0.0186941 0.0189031 0.018753 0.018873 0.0188188 0.0188289 0.0186917 0.0188993 0.0187489 0.018869 0.0188166 0.0188273 0.0186908 0.018892 0.0187462 0.0188629 0.0188157 0.0188275 0.0187 0.01888 0.0187583 0.018858 0.0188257 0.0188347 0.0187358 0.018872 0.0188131 0.0188615 0.018866 0.0188603 0.0187936 0.0189064 0.0187858 0.0188953 0.0188986 0.0188708 0.018766 0.0188321 0.0189214 0.0192246 0.018976 0.0189272 0.0192646 0.0190164 0.0189313 0.0192997 0.018976 0.0192353 0.0192612 0.0190768 0.018913 0.0193152 0.0189671 0.019265 0.0192576 0.0190821 0.0188989 0.019328 0.0189491 0.0192753 0.0192588 0.0190854 0.0188973 0.0193328 0.0189462 0.0192792 0.0192605 0.0190873 0.0188994 0.0193338 0.0189485 0.0192803 0.019261 0.0190879 0.0189008 0.0193339 0.0189502 0.0192805 0.019261 0.0190881 0.0189013 0.0193339 0.0189509 0.0192806 0.0192611 0.0190883 0.0189015 0.019334 0.018951 0.0192807 0.0192613 0.0190885 0.0189018 0.0193341 0.0189512 0.0192808 0.0192615 0.0190886 0.0189019 0.019334 0.0189514 0.0192808 0.0192615 0.0190883 0.0189013 0.0193333 0.0189512 0.0192803 0.0192607 0.0190871 0.018899 0.0193312 0.0189497 0.019279 0.0192581 0.0190843 0.0188942 0.0193268 0.0189461 0.0192761 0.0192517 0.0190799 0.0188859 0.0193184 0.01894 0.0192714 0.0192394 0.019074 0.0188759 0.0193084 0.0189347 0.0192641 0.0192267 0.0190713 0.0188863 0.0193102 0.0189339 0.0192581 0.0192649 0.0191275 0.018996 0.0193532 0.0189836 0.0194209 0.0195823 0.0192191 0.0188049 0.0190032 0.0188162 0.0189098 0.0188839 0.0187558 0.0187784 0.0189282 0.0187659 0.0188806 0.0188969 0.0187695 0.01876 0.018934 0.0187522 0.0188806 0.0188922 0.0187522 0.0187526 0.0189399 0.0187463 0.0188826 0.0188883 0.018746 0.0187513 0.0189453 0.0187439 0.018887 0.0188893 0.0187469 0.0187526 0.018949 0.0187447 0.0188906 0.0188914 0.0187487 0.018754 0.0189508 0.0187464 0.0188925 0.0188927 0.0187497 0.0187547 0.0189514 0.0187476 0.0188933 0.0188932 0.0187502 0.0187549 0.0189514 0.018748 0.0188934 0.0188933 0.0187503 0.0187549 0.0189514 0.0187481 0.0188933 0.0188934 0.0187502 0.0187547 0.0189513 0.018748 0.0188932 0.0188932 0.0187498 0.018754 0.0189508 0.0187476 0.0188926 0.0188926 0.0187488 0.0187526 0.018949 0.0187466 0.0188914 0.0188906 0.0187471 0.0187512 0.0189449 0.018745 0.0188893 0.018887 0.018746 0.0187524 0.0189381 0.0187447 0.0188883 0.0188826 0.0187475 0.0187611 0.0189302 0.0187531 0.0188923 0.0188806 0.0187517 0.0187829 0.018926 0.0187728 0.0188969 0.0188806 0.0187646 0.0188291 0.0189471 0.0187536 0.0188839 0.0189098 0.0188172 0.0187289 0.0188487 0.01869 0.0187502 0.0187415 0.0186335 0.0187076 0.0187743 0.0186842 0.0187231 0.0187093 0.0185984 0.0186867 0.0187516 0.018659 0.0186896 0.0186946 0.0185682 0.0186824 0.0187519 0.018648 0.0186693 0.0186914 0.018554 0.0186833 0.0187546 0.0186455 0.0186651 0.0186921 0.0185514 0.0186846 0.0187568 0.0186461 0.0186667 0.0186938 0.0185525 0.0186854 0.0187581 0.0186475 0.0186685 0.0186951 0.0185538 0.0186856 0.0187584 0.0186485 0.0186694 0.0186957 0.0185545 0.0186855 0.0187583 0.0186489 0.0186695 0.0186959 0.0185545 0.0186852 0.018758 0.0186488 0.0186693 0.0186957 0.0185543 0.0186847 0.0187576 0.0186485 0.018669 0.0186953 0.0185537 0.0186838 0.0187569 0.0186479 0.0186683 0.0186944 0.0185528 0.0186825 0.0187555 0.018647 0.0186673 0.018693 0.0185522 0.0186816 0.0187538 0.0186459 0.0186662 0.0186916 0.0185542 0.0186857 0.0187554 0.0186461 0.0186677 0.0186924 0.018563 0.0187026 0.0187687 0.018653 0.0186788 0.0187001 0.0185807 0.018732 0.0188022 0.0186784 0.0187029 0.0187089 0.0186037 0.0187564 0.0188412 0.0186891 0.0186997 0.0187076 0.0186335 0.0187599 0.0187722 0.0187423 0.0187368 0.0186829 0.0186128 0.018736 0.0187538 0.0187184 0.0187012 0.0186629 0.018577 0.0187155 0.0187244 0.0186956 0.0186736 0.0186368 0.0185497 0.0187097 0.0187196 0.0186797 0.018653 0.018627 0.0185344 0.018711 0.0187221 0.0186758 0.0186468 0.0186259 0.0185307 0.0187127 0.018724 0.0186768 0.0186474 0.0186272 0.0185315 0.0187135 0.0187247 0.0186786 0.018649 0.0186284 0.0185329 0.0187136 0.0187247 0.0186796 0.0186497 0.0186291 0.0185336 0.0187133 0.0187243 0.0186799 0.0186499 0.0186291 0.0185336 0.0187129 0.0187239 0.0186797 0.0186495 0.0186289 0.0185332 0.0187121 0.0187232 0.0186791 0.018649 0.0186282 0.0185323 0.0187108 0.0187222 0.0186783 0.0186481 0.0186271 0.0185312 0.0187088 0.0187205 0.0186771 0.0186468 0.018626 0.0185303 0.0187067 0.0187192 0.018676 0.0186455 0.0186261 0.0185324 0.0187083 0.0187229 0.0186761 0.0186461 0.01863 0.0185437 0.0187232 0.0187446 0.0186789 0.0186534 0.0186423 0.018569 0.0187592 0.0187971 0.018688 0.0186775 0.0186648 0.0186096 0.0187825 0.0188636 0.01875 0.0187472 0.0186852 0.0186546 0.0189342 0.0188441 0.0190308 0.0189348 0.0187555 0.0187424 0.0188436 0.0188526 0.0188847 0.0188027 0.0187273 0.0186975 0.0188292 0.0188412 0.0188493 0.0187967 0.0187043 0.0186826 0.0188302 0.0188375 0.0188404 0.0187991 0.0186947 0.0186773 0.0188344 0.0188404 0.0188414 0.0188021 0.0186941 0.0186774 0.0188376 0.0188427 0.0188449 0.0188057 0.0186961 0.0186797 0.0188391 0.0188436 0.0188474 0.018808 0.0186977 0.0186815 0.0188394 0.0188436 0.0188486 0.018809 0.0186984 0.0186824 0.0188392 0.0188433 0.0188488 0.0188091 0.0186984 0.0186824 0.0188388 0.0188428 0.0188485 0.0188087 0.0186979 0.0186819 0.0188379 0.018842 0.0188479 0.0188081 0.0186971 0.0186808 0.0188365 0.0188407 0.018847 0.0188071 0.0186957 0.0186793 0.018834 0.0188382 0.0188454 0.0188055 0.0186941 0.0186774 0.0188304 0.0188346 0.0188432 0.0188032 0.0186939 0.0186773 0.0188277 0.0188326 0.0188415 0.0188013 0.0186985 0.0186854 0.0188337 0.0188424 0.0188413 0.0188026 0.0187119 0.0187123 0.0188538 0.0188871 0.0188289 0.0188006 0.0187247 0.0187494 0.0188879 0.0189694 0.0188626 0.0189021 0.0187932 0.0187955 0.0193007 0.0191289 0.0198815 0.0194554 0.0189921 0.0190699 0.019012 0.0190502 0.0191652 0.0190451 0.0189193 0.0189809 0.0190418 0.0190832 0.0191478 0.0190004 0.0189095 0.0189379 0.0190773 0.0190971 0.0191942 0.0190395 0.0189146 0.0189383 0.0190922 0.0191039 0.0192158 0.0190589 0.0189201 0.0189452 0.0190986 0.0191075 0.0192236 0.0190668 0.0189241 0.0189504 0.0191015 0.019109 0.0192264 0.0190703 0.0189264 0.0189533 0.0191025 0.0191095 0.0192272 0.0190715 0.0189273 0.0189545 0.0191027 0.0191094 0.0192272 0.0190717 0.0189273 0.0189547 0.0191026 0.0191092 0.019227 0.0190715 0.0189271 0.0189543 0.0191023 0.0191088 0.0192269 0.0190711 0.0189265 0.0189535 0.019102 0.019108 0.0192268 0.0190706 0.0189255 0.0189525 0.0191007 0.0191061 0.0192261 0.0190695 0.0189236 0.0189514 0.0190969 0.0191018 0.0192236 0.019067 0.0189203 0.0189507 0.0190871 0.0190935 0.0192166 0.0190618 0.0189167 0.0189536 0.0190692 0.0190811 0.0192011 0.0190537 0.018916 0.0189666 0.0190385 0.0190673 0.0191716 0.0190527 0.0188855 0.0189705 0.0188553 0.0190736 0.019097 0.0190934 0.0189121 0.0188207 0.0191525 0.0195557 0.0195876 0.0198677 0.0197796 0.0193638 0.0191953 0.0194801 0.019295 0.0195414 0.0195565 0.0193047 0.0192217 0.0194827 0.0193009 0.0195269 0.0195379 0.0193048 0.0192291 0.0194912 0.0193119 0.019533 0.0195378 0.019312 0.0192337 0.0194943 0.0193171 0.0195373 0.019539 0.019316 0.0192363 0.0194954 0.0193203 0.019539 0.0195395 0.0193174 0.0192374 0.0194959 0.0193219 0.0195397 0.0195398 0.0193179 0.0192377 0.0194962 0.0193224 0.0195399 0.0195399 0.0193181 0.0192377 0.0194963 0.0193226 0.01954 0.01954 0.0193181 0.0192378 0.0194963 0.0193225 0.01954 0.0195401 0.0193181 0.0192378 0.0194962 0.0193225 0.0195399 0.01954 0.019318 0.0192375 0.0194959 0.0193223 0.0195398 0.0195397 0.0193174 0.0192363 0.0194954 0.0193219 0.0195395 0.019539 0.0193158 0.0192335 0.0194942 0.0193205 0.019539 0.0195374 0.0193129 0.0192277 0.0194909 0.0193172 0.0195378 0.019533 0.0193077 0.019217 0.0194829 0.0193116 0.0195379 0.0195269 0.0192972 0.0191962 0.0194782 0.0193143 0.0195564 0.0195415 0.0192888 0.0191473 0.0195314 0.0193744 0.0197797 0.0198677 0.019553 0.0190019 0.019347 0.0192291 0.0195823 0.0194209 0.0189807 0.0189393 0.0192525 0.0191311 0.0192649 0.0192581 0.0189301 0.0189271 0.019275 0.0190702 0.0192267 0.019264 0.018932 0.0189339 0.0192895 0.0190729 0.0192394 0.0192714 0.0189394 0.0189398 0.0192977 0.0190788 0.0192516 0.0192762 0.0189465 0.0189437 0.0193018 0.0190833 0.0192581 0.019279 0.0189505 0.0189458 0.0193036 0.0190862 0.0192608 0.0192804 0.018952 0.0189465 0.0193042 0.0190874 0.0192615 0.0192808 0.0189523 0.0189464 0.0193043 0.0190877 0.0192615 0.0192807 0.0189521 0.0189462 0.0193041 0.0190876 0.0192613 0.0192807 0.018952 0.018946 0.0193041 0.0190874 0.019261 0.0192806 0.0189517 0.0189455 0.0193041 0.0190872 0.019261 0.0192804 0.0189511 0.0189443 0.0193039 0.019087 0.019261 0.0192801 0.0189495 0.0189428 0.0193027 0.0190864 0.0192605 0.0192793 0.0189473 0.018944 0.019298 0.0190848 0.0192588 0.0192752 0.0189496 0.0189557 0.0192865 0.0190826 0.0192577 0.019265 0.0189659 0.0189761 0.0192606 0.0190794 0.0192612 0.0192354 0.0189732 0.0189382 0.0190499 0.0190269 0.0192646 0.0189272 0.0189702 0.0188905 0.0191193 0.0189197 0.0190922 0.0191681 0.018798 0.0188538 0.0189977 0.0190014 0.0190593 0.0190663 0.0187117 0.0188103 0.0189676 0.0189435 0.0189694 0.0190334 0.0186739 0.0188061 0.0189715 0.018925 0.0189518 0.0190386 0.0186691 0.01881 0.0189786 0.0189259 0.0189561 0.0190446 0.0186725 0.0188129 0.0189834 0.0189295 0.0189617 0.0190483 0.0186758 0.018814 0.0189859 0.0189321 0.0189647 0.0190501 0.0186774 0.0188141 0.0189865 0.0189332 0.0189655 0.0190506 0.0186776 0.0188137 0.0189863 0.0189335 0.0189653 0.0190505 0.0186772 0.0188133 0.018986 0.0189332 0.0189647 0.0190503 0.0186768 0.0188128 0.0189858 0.0189329 0.0189644 0.0190501 0.0186763 0.0188119 0.0189858 0.0189326 0.0189643 0.0190501 0.0186755 0.0188102 0.0189856 0.0189323 0.0189642 0.0190503 0.018674 0.0188082 0.0189845 0.0189316 0.0189635 0.01905 0.018673 0.0188109 0.0189835 0.0189298 0.0189615 0.0190478 0.0186806 0.0188344 0.0189892 0.0189276 0.0189631 0.0190416 0.0187202 0.0188917 0.0190083 0.0189363 0.0189866 0.0190232 0.0187945 0.0188985 0.0188862 0.0189138 0.0190145 0.0187482 0.0187623 0.0189188 0.018962 0.0188728 0.0187812 0.0189457 0.0187474 0.0189158 0.018912 0.0189692 0.0189798 0.0189482 0.018732 0.0188848 0.0188647 0.0189476 0.0189403 0.0189041 0.0186971 0.0188791 0.0188558 0.0189283 0.0189211 0.0188949 0.0186861 0.018883 0.018858 0.0189264 0.0189213 0.0188984 0.0186866 0.0188858 0.0188603 0.0189292 0.018924 0.0189016 0.0186886 0.0188866 0.0188612 0.0189313 0.0189252 0.0189031 0.0186897 0.0188863 0.018861 0.018932 0.0189252 0.0189034 0.0186898 0.0188858 0.0188603 0.0189321 0.0189247 0.0189031 0.0186894 0.0188853 0.0188598 0.0189317 0.0189241 0.0189027 0.0186889 0.0188846 0.0188593 0.0189313 0.0189237 0.0189024 0.0186881 0.0188836 0.0188585 0.0189305 0.0189233 0.0189022 0.018687 0.0188814 0.0188567 0.0189295 0.0189223 0.0189022 0.018685 0.0188779 0.0188537 0.0189275 0.0189199 0.0189028 0.0186827 0.0188754 0.0188523 0.0189246 0.0189159 0.0189061 0.0186849 0.0188877 0.0188706 0.0189234 0.0189137 0.0189194 0.0187125 0.0189406 0.0189556 0.0189481 0.0189477 0.0189543 0.0188165 0.018988 0.0190545 0.0190471 0.0190732 0.0188837 0.0188815 0.0190982 0.0189989 0.0191305 0.018772 0.0189024 0.0188903 0.0191024 0.0191082 0.0191437 0.0190945 0.0189865 0.0189169 0.0191158 0.0191097 0.0191671 0.0191464 0.0189757 0.0189236 0.0191215 0.0191122 0.0191662 0.0191533 0.0189684 0.0189279 0.0191264 0.0191161 0.0191671 0.0191593 0.0189704 0.0189324 0.019129 0.0191174 0.019169 0.0191623 0.018973 0.0189353 0.0191298 0.0191174 0.0191701 0.0191627 0.0189743 0.0189366 0.0191297 0.0191168 0.0191703 0.0191623 0.0189745 0.0189369 0.0191295 0.0191163 0.0191702 0.0191619 0.0189742 0.0189366 0.0191292 0.019116 0.0191699 0.0191616 0.0189738 0.0189362 0.0191288 0.0191156 0.0191697 0.0191613 0.0189733 0.0189356 0.0191279 0.0191147 0.019169 0.0191608 0.0189723 0.0189346 0.0191257 0.0191123 0.0191675 0.0191594 0.0189705 0.0189324 0.0191212 0.0191067 0.0191639 0.0191556 0.0189675 0.0189285 0.0191138 0.0190973 0.0191569 0.0191477 0.0189638 0.0189241 0.0191068 0.019088 0.0191438 0.0191333 0.0189661 0.0189288 0.0191231 0.019124 0.0191294 0.0191255 0.0190223 0.0189872 0.0191555 0.0194015 0.0192743 0.0193028 0.0192644 0.0191692 0.0195024 0.0191953 0.0201554 0.0192468 0.0191485 0.0193074 0.0193801 0.0194108 0.0194224 0.01929 0.0192144 0.0192082 0.0194654 0.0194346 0.0195189 0.0193923 0.0192457 0.0192131 0.019483 0.0194375 0.0195475 0.0194068 0.0192537 0.0192282 0.0194869 0.0194397 0.0195535 0.0194107 0.0192578 0.0192365 0.0194883 0.0194405 0.0195545 0.0194124 0.0192602 0.0192402 0.0194888 0.0194405 0.0195545 0.0194128 0.0192613 0.0192418 0.019489 0.0194403 0.0195543 0.0194127 0.0192616 0.0192424 0.019489 0.0194402 0.0195542 0.0194127 0.0192615 0.0192424 0.0194892 0.0194402 0.0195542 0.0194127 0.0192614 0.0192423 0.0194893 0.0194402 0.0195544 0.0194127 0.0192612 0.0192421 0.0194892 0.0194399 0.0195543 0.0194126 0.0192606 0.0192418 0.0194886 0.0194389 0.0195539 0.0194118 0.0192589 0.0192408 0.0194865 0.0194355 0.0195523 0.0194092 0.0192548 0.0192385 0.0194808 0.0194276 0.0195483 0.0194028 0.019246 0.0192335 0.0194677 0.0194136 0.019539 0.0193891 0.0192283 0.0192269 0.0194326 0.0194056 0.0195189 0.0193733 0.0192043 0.0192396 0.0192956 0.0197182 0.0195082 0.0194979 0.0196202 0.0192599 
SCALARS volume_diff float 1
LOOKUP_TABLE default
0.0185616 0.0187816 0.0185011 0.0188485 0.0187262 0.0187455 0.0186327 0.0186253 0.018475 0.0184326 0.0186017 0.018741 0.0186423 0.0186319 0.0184643 0.0184567 0.0186175 0.0187604 0.0186529 0.0186456 0.01847 0.0184744 0.0186312 0.0187704 0.0186584 0.0186537 0.0184742 0.0184831 0.0186375 0.0187747 0.0186605 0.0186571 0.0184762 0.0184873 0.0186401 0.0187765 0.0186612 0.0186582 0.0184769 0.018489 0.018641 0.018777 0.0186613 0.0186584 0.0184773 0.0184896 0.0186412 0.018777 0.0186612 0.0186584 0.0184774 0.0184898 0.018641 0.0187769 0.018661 0.0186584 0.0184776 0.0184899 0.0186411 0.0187769 0.0186609 0.0186585 0.0184775 0.01849 0.0186411 0.0187769 0.0186607 0.0186588 0.018477 0.0184897 0.0186412 0.0187771 0.0186601 0.0186588 0.0184754 0.0184886 0.0186408 0.0187772 0.0186581 0.0186577 0.0184716 0.0184861 0.0186392 0.0187764 0.0186528 0.0186544 0.0184637 0.018482 0.0186352 0.0187707 0.0186352 0.0186487 0.0184499 0.0184741 0.0186207 0.0187454 0.0185664 0.0186165 0.0184471 0.0184428 0.0185185 0.0186549 0.0186805 0.0184139 0.0185453 0.0183768 0.0184752 0.0192928 0.0181726 0.0182151 0.0180363 0.0181406 0.0183218 0.018326 0.0182919 0.0182716 0.0182073 0.0181138 0.018281 0.0183938 0.018313 0.0182988 0.0182047 0.0181444 0.0182821 0.0184212 0.0183277 0.0183102 0.0181888 0.0181451 0.0182902 0.0184368 0.0183365 0.018318 0.0181839 0.0181486 0.0182954 0.0184441 0.0183402 0.018322 0.018184 0.018152 0.018298 0.0184467 0.0183416 0.0183238 0.018185 0.0181539 0.0182991 0.0184474 0.0183421 0.0183245 0.0181859 0.0181549 0.0182996 0.0184476 0.0183424 0.0183248 0.0181867 0.0181555 0.0182999 0.0184478 0.0183425 0.018325 0.018187 0.0181558 0.0183001 0.018448 0.0183422 0.018325 0.0181869 0.0181557 0.0182999 0.0184478 0.018341 0.0183244 0.0181857 0.0181549 0.0182987 0.018447 0.018338 0.0183225 0.0181828 0.0181525 0.0182952 0.0184444 0.0183312 0.0183185 0.0181776 0.0181485 0.0182873 0.0184373 0.0183169 0.0183104 0.0181712 0.018143 0.0182679 0.0184171 0.0182882 0.0182919 0.0181721 0.018138 0.0182289 0.0183734 0.0182751 0.0182633 0.0182143 0.0181477 0.0182735 0.01838 0.0185291 0.0184115 0.0182911 0.0182204 0.0186838 0.0190349 0.0180963 0.0180662 0.01805 0.0179943 0.0180992 0.0181225 0.0180985 0.0180657 0.018144 0.0180219 0.0180887 0.018092 0.0180775 0.0180648 0.0181049 0.0179642 0.018063 0.0180515 0.0180852 0.0180675 0.01811 0.0179285 0.0180558 0.018042 0.0180943 0.0180715 0.0181214 0.0179191 0.0180557 0.0180433 0.0180999 0.0180747 0.0181288 0.0179201 0.0180572 0.0180456 0.018103 0.0180767 0.0181328 0.0179224 0.0180587 0.0180471 0.0181045 0.0180777 0.0181349 0.0179242 0.0180598 0.0180483 0.0181054 0.0180785 0.0181359 0.0179254 0.0180606 0.0180491 0.0181059 0.0180789 0.0181362 0.017926 0.0180609 0.0180497 0.0181056 0.0180788 0.0181361 0.0179261 0.0180603 0.0180494 0.0181043 0.0180778 0.0181351 0.0179253 0.0180584 0.0180477 0.0181013 0.0180754 0.0181335 0.0179236 0.0180544 0.018043 0.018096 0.0180712 0.0181322 0.0179213 0.0180481 0.0180344 0.0180895 0.0180646 0.0181349 0.0179212 0.0180429 0.0180248 0.018095 0.0180613 0.0181513 0.0179311 0.0180688 0.0180427 0.0181663 0.0180996 0.0181891 0.0179605 0.0182102 0.0181685 0.0183304 0.0182627 0.0181852 0.017994 0.0182872 0.0183828 0.0183399 0.0180753 0.0183952 0.0181429 0.0181697 0.0182393 0.0182051 0.0180361 0.0182364 0.0181118 0.018139 0.0180921 0.0182029 0.0180125 0.018216 0.0180182 0.0181184 0.0180203 0.0182261 0.0180072 0.0182632 0.0179876 0.0181164 0.0180117 0.0182392 0.018009 0.0182872 0.0179854 0.0181183 0.0180175 0.0182457 0.018012 0.0182956 0.0179896 0.0181206 0.0180234 0.0182488 0.0180145 0.0182984 0.0179934 0.0181226 0.0180272 0.0182503 0.0180161 0.0182994 0.0179959 0.0181238 0.0180295 0.0182509 0.018017 0.0182997 0.0179972 0.0181244 0.0180308 0.0182513 0.0180174 0.0182996 0.0179978 0.0181246 0.0180317 0.0182512 0.0180173 0.0182994 0.0179979 0.018124 0.0180319 0.0182508 0.0180164 0.0182987 0.0179976 0.018123 0.0180314 0.0182498 0.0180143 0.0182979 0.0179967 0.0181213 0.0180298 0.0182476 0.0180111 0.0182973 0.0179955 0.0181207 0.0180274 0.0182449 0.0180087 0.018298 0.0179952 0.0181274 0.0180295 0.0182526 0.0180211 0.0183017 0.0179976 0.0181601 0.0180526 0.0182985 0.018081 0.0182995 0.0179962 0.0182231 0.0181045 0.0182565 0.0181681 0.0182803 0.0179506 0.0181261 0.017864 0.0187009 0.0182529 0.0188457 0.0185146 0.018434 0.018587 0.0185053 0.0182172 0.0183672 0.0183428 0.0183683 0.0183969 0.0185694 0.0181996 0.0184715 0.0182998 0.0183818 0.0184095 0.0185908 0.0181979 0.0185224 0.0183122 0.0183928 0.018431 0.0185954 0.018201 0.0185303 0.0183209 0.0183973 0.0184413 0.0185972 0.0182048 0.0185308 0.0183257 0.0183995 0.0184463 0.0185979 0.0182075 0.0185309 0.0183284 0.0184006 0.0184488 0.0185983 0.018209 0.0185308 0.0183299 0.0184013 0.01845 0.0185984 0.0182097 0.0185309 0.0183306 0.0184015 0.0184506 0.0185984 0.01821 0.0185307 0.0183309 0.0184016 0.0184509 0.0185985 0.0182098 0.0185305 0.018331 0.0184014 0.0184513 0.0185984 0.0182091 0.0185301 0.0183307 0.0184008 0.0184514 0.018598 0.0182075 0.0185292 0.0183298 0.0184 0.0184504 0.0185968 0.0182049 0.0185275 0.0183275 0.0183999 0.0184474 0.0185948 0.0182037 0.0185241 0.0183218 0.0184007 0.018441 0.0185932 0.0182119 0.018513 0.0183079 0.018401 0.0184239 0.0185796 0.0182343 0.0184868 0.0182734 0.0183802 0.0183187 0.0183356 0.0182047 0.0185484 0.0181839 0.0182656 0.0177742 0.0188976 0.0185237 0.0183969 0.0187193 0.0187577 0.0189484 0.0188424 0.0185738 0.0187063 0.0186703 0.0186952 0.0187773 0.0188809 0.0185687 0.0188717 0.0186946 0.018708 0.0188262 0.0188783 0.0185693 0.0188482 0.0187134 0.018714 0.0188361 0.0188777 0.0185714 0.0188394 0.0187164 0.0187168 0.0188384 0.0188781 0.0185737 0.0188383 0.0187177 0.0187181 0.0188393 0.0188783 0.0185751 0.0188382 0.0187186 0.0187187 0.0188396 0.0188783 0.0185757 0.0188383 0.018719 0.018719 0.0188397 0.0188783 0.0185759 0.0188382 0.0187191 0.0187191 0.0188397 0.0188783 0.0185759 0.0188382 0.0187191 0.0187191 0.0188397 0.0188782 0.0185758 0.0188382 0.018719 0.0187189 0.0188397 0.0188783 0.0185753 0.0188381 0.0187187 0.0187185 0.0188397 0.0188781 0.0185742 0.0188378 0.0187181 0.0187177 0.0188397 0.0188778 0.0185727 0.0188368 0.0187167 0.0187164 0.0188407 0.018878 0.0185724 0.018834 0.018714 0.0187134 0.0188484 0.0188778 0.018574 0.0188231 0.0187081 0.0186947 0.0188693 0.0188426 0.0185553 0.0187774 0.0186952 0.0186704 0.0187134 0.0190555 0.0184672 0.018955 0.0187577 0.0187193 0.018423 0.0183625 0.018527 0.0184082 0.0184928 0.0185311 0.0184827 0.0183163 0.0183575 0.0182234 0.0182506 0.0183539 0.0183575 0.0182876 0.0183289 0.0181614 0.0181945 0.0183616 0.0183655 0.0182925 0.018335 0.0181558 0.0181922 0.0183761 0.0183778 0.0183 0.0183433 0.0181595 0.0181959 0.018384 0.0183849 0.0183049 0.0183484 0.0181632 0.018199 0.0183877 0.0183886 0.0183072 0.0183506 0.0181653 0.0182008 0.0183893 0.0183903 0.0183082 0.0183514 0.0181663 0.0182017 0.0183898 0.0183909 0.0183087 0.0183517 0.0181669 0.0182022 0.01839 0.0183912 0.018309 0.0183521 0.0181673 0.0182027 0.0183903 0.0183915 0.0183093 0.0183526 0.0181675 0.0182029 0.0183908 0.0183916 0.0183094 0.0183531 0.0181671 0.0182027 0.0183911 0.0183914 0.0183086 0.0183531 0.0181658 0.0182014 0.0183906 0.0183902 0.0183056 0.0183517 0.0181629 0.0181988 0.0183878 0.0183883 0.018299 0.0183484 0.0181589 0.0181967 0.0183817 0.0183871 0.0182905 0.0183487 0.0181557 0.0182042 0.0183748 0.0183889 0.0182743 0.01835 0.0181493 0.0182149 0.018323 0.0183738 0.0182562 0.0182574 0.0181229 0.0181308 0.0180004 0.0183595 0.0181328 0.0181352 0.0180232 0.0180216 0.0181304 0.0180785 0.0180767 0.0181072 0.0179831 0.017953 0.018029 0.0180604 0.0180435 0.0180743 0.0179459 0.0179403 0.018031 0.0180675 0.0180345 0.0180669 0.0179172 0.017927 0.0180297 0.0180656 0.0180363 0.0180687 0.017908 0.0179222 0.0180316 0.0180671 0.0180399 0.018072 0.0179078 0.0179225 0.0180339 0.0180695 0.0180425 0.0180744 0.0179096 0.0179241 0.0180355 0.0180712 0.0180439 0.0180756 0.0179111 0.0179255 0.0180365 0.0180721 0.0180448 0.0180763 0.0179122 0.0179264 0.0180371 0.0180727 0.0180453 0.0180768 0.0179127 0.0179268 0.0180375 0.018073 0.0180455 0.0180771 0.0179127 0.0179268 0.0180373 0.0180728 0.0180451 0.0180768 0.0179117 0.0179261 0.0180363 0.0180717 0.0180435 0.0180758 0.0179099 0.0179244 0.018034 0.0180693 0.01804 0.0180738 0.0179078 0.0179226 0.0180306 0.0180663 0.0180355 0.0180726 0.017908 0.0179231 0.0180274 0.0180656 0.0180348 0.018078 0.017914 0.0179328 0.0180251 0.0180756 0.0180494 0.0180908 0.0179288 0.0179557 0.0180311 0.0181103 0.0181269 0.0181221 0.0179686 0.0179839 0.0181632 0.0182322 0.0180622 0.0179901 0.0179162 0.0178729 0.0179216 0.0179293 0.0179757 0.0179617 0.0178864 0.0178494 0.0178828 0.0179372 0.0179495 0.0179346 0.0178527 0.0178183 0.0178678 0.0178978 0.0179471 0.0179278 0.0178382 0.0177909 0.017858 0.0178774 0.0179517 0.0179283 0.0178389 0.0177811 0.017856 0.0178723 0.017956 0.0179305 0.0178427 0.0177801 0.0178571 0.0178729 0.0179588 0.0179323 0.0178457 0.0177816 0.0178585 0.0178745 0.0179603 0.0179335 0.0178475 0.0177831 0.0178597 0.0178758 0.0179611 0.0179343 0.0178486 0.0177841 0.0178604 0.0178765 0.0179614 0.0179346 0.0178489 0.0177846 0.0178606 0.0178769 0.0179614 0.0179347 0.0178487 0.0177845 0.0178602 0.0178765 0.0179607 0.0179344 0.0178478 0.0177838 0.0178589 0.0178753 0.0179593 0.0179334 0.0178462 0.0177826 0.0178571 0.0178732 0.0179572 0.0179317 0.0178449 0.0177821 0.017856 0.0178722 0.017957 0.0179305 0.0178463 0.0177854 0.0178585 0.0178773 0.0179669 0.017936 0.0178543 0.0177987 0.0178713 0.0179007 0.0180048 0.0179613 0.0178754 0.0178257 0.0179168 0.017949 0.0180639 0.0180186 0.0179105 0.0178501 0.0179916 0.0179615 0.0180903 0.0179678 0.0179825 0.0179005 0.0178951 0.0179794 0.0180019 0.017932 0.0179176 0.0178799 0.0178812 0.0179546 0.0179842 0.0179112 0.0178948 0.0178392 0.0178651 0.0179019 0.0179813 0.0179054 0.0179006 0.0178158 0.0178575 0.0178847 0.0179835 0.0179056 0.0179076 0.0178098 0.0178567 0.0178834 0.0179865 0.0179074 0.0179118 0.0178103 0.0178582 0.0178857 0.0179887 0.0179092 0.0179143 0.0178122 0.0178598 0.0178879 0.0179901 0.0179103 0.0179158 0.0178137 0.0178609 0.0178895 0.0179909 0.0179109 0.0179167 0.0178147 0.0178615 0.0178902 0.017991 0.0179112 0.0179169 0.017815 0.0178616 0.0178903 0.0179906 0.017911 0.0179166 0.0178147 0.017861 0.0178898 0.0179895 0.0179103 0.0179154 0.0178139 0.0178597 0.0178886 0.0179877 0.0179091 0.0179138 0.0178126 0.0178581 0.0178869 0.017986 0.0179076 0.0179116 0.0178118 0.0178575 0.0178864 0.0179886 0.0179086 0.0179106 0.0178141 0.0178616 0.0178917 0.0180055 0.0179197 0.0179161 0.017824 0.0178783 0.017908 0.0180426 0.0179524 0.0179394 0.01784 0.0179151 0.0179234 0.0180761 0.0179877 0.017969 0.0178443 0.0179297 0.0178892 0.0181927 0.0180653 0.0181021 0.0180738 0.0179949 0.0182101 0.018164 0.0180347 0.0180289 0.0180591 0.0180054 0.0181251 0.0181597 0.01801 0.0180764 0.018032 0.0180109 0.0180982 0.0181571 0.0179977 0.018104 0.0180204 0.0180147 0.018102 0.0181588 0.0179962 0.0181103 0.0180183 0.018018 0.018108 0.0181618 0.0179982 0.0181125 0.0180196 0.0180205 0.0181118 0.018164 0.0180003 0.0181143 0.0180213 0.0180222 0.018114 0.0181653 0.0180016 0.0181155 0.0180227 0.0180232 0.0181152 0.0181657 0.0180022 0.018116 0.0180235 0.0180235 0.0181157 0.0181658 0.0180023 0.018116 0.0180235 0.0180234 0.0181157 0.0181652 0.0180017 0.0181155 0.0180232 0.0180227 0.0181151 0.018164 0.0180006 0.0181143 0.0180222 0.0180213 0.0181139 0.0181618 0.0179988 0.018112 0.0180205 0.0180195 0.018112 0.018159 0.0179972 0.018108 0.018018 0.0180184 0.0181094 0.0181571 0.0179993 0.0181018 0.0180147 0.0180204 0.0181028 0.0181599 0.0180105 0.0180984 0.018011 0.018032 0.0180775 0.0181704 0.0180283 0.0181273 0.0180054 0.0180591 0.0180338 0.0182155 0.018044 0.0182127 0.017995 0.0180738 0.0180938 0.0182211 0.0182878 0.0177043 0.0182656 0.0181839 0.0185359 0.0185038 0.0182644 0.018318 0.0183802 0.0182735 0.0184891 0.0185317 0.0182189 0.0184347 0.018401 0.0183079 0.0185127 0.0185427 0.0182098 0.0184474 0.0184008 0.0183218 0.0185222 0.0185483 0.0182125 0.0184514 0.0183998 0.0183275 0.0185252 0.0185504 0.0182159 0.018454 0.0184002 0.0183297 0.0185269 0.018551 0.0182181 0.0184547 0.0184009 0.0183306 0.0185279 0.0185509 0.018219 0.0184544 0.0184014 0.018331 0.0185284 0.0185507 0.0182192 0.0184541 0.0184015 0.0183309 0.0185285 0.0185505 0.018219 0.0184536 0.0184016 0.0183306 0.0185285 0.0185502 0.0182184 0.018453 0.0184013 0.0183299 0.0185286 0.0185494 0.0182171 0.0184519 0.0184006 0.0183284 0.0185286 0.0185478 0.0182148 0.0184494 0.0183995 0.0183256 0.0185285 0.0185442 0.0182121 0.0184443 0.0183973 0.018321 0.0185281 0.0185357 0.0182104 0.0184336 0.0183928 0.0183122 0.0185208 0.0185106 0.0182097 0.0184131 0.0183819 0.0182998 0.0184729 0.0184729 0.0182033 0.0184072 0.0183683 0.0183428 0.0183696 0.0187649 0.0182324 0.0186068 0.0184341 0.0185146 0.018793 0.018207 0.0182734 0.0181095 0.0181121 0.0183017 0.0182579 0.0181171 0.018212 0.0180543 0.0181826 0.0181761 0.0181746 0.0180475 0.0181482 0.0179463 0.0181478 0.018142 0.0181475 0.0180342 0.0181325 0.0179175 0.0181345 0.0181442 0.0181466 0.0180376 0.0181329 0.0179146 0.0181311 0.0181484 0.018149 0.0180421 0.0181351 0.0179168 0.0181306 0.0181507 0.018151 0.0180447 0.0181364 0.0179188 0.0181306 0.0181516 0.0181522 0.0180459 0.0181369 0.0179199 0.0181308 0.0181521 0.0181529 0.0180466 0.0181373 0.0179206 0.0181312 0.0181525 0.0181533 0.0180472 0.0181379 0.0179211 0.0181315 0.0181531 0.0181537 0.0180478 0.0181384 0.0179215 0.0181318 0.0181536 0.0181537 0.0180481 0.0181384 0.0179214 0.0181315 0.0181536 0.018153 0.0180474 0.0181371 0.0179203 0.0181299 0.0181523 0.0181509 0.0180444 0.0181348 0.0179184 0.0181267 0.0181497 0.0181483 0.0180396 0.0181348 0.0179182 0.0181233 0.0181494 0.0181503 0.0180431 0.0181514 0.0179292 0.0181325 0.0181687 0.0181703 0.0180758 0.0182008 0.0179627 0.0181767 0.0182082 0.018198 0.0180922 0.0182148 0.0179778 0.0181741 0.0180096 0.0181217 0.0180071 0.0180785 0.017882 0.0179137 0.0179756 0.0179691 0.0179593 0.0180363 0.017842 0.0178931 0.0179058 0.0179176 0.0179162 0.0179901 0.017801 0.0178707 0.0178818 0.0179086 0.0179009 0.0179678 0.0177746 0.0178584 0.0178745 0.0179036 0.0178987 0.0179643 0.0177622 0.0178545 0.0178739 0.0179029 0.0179005 0.0179658 0.0177598 0.0178544 0.0178752 0.0179039 0.0179024 0.0179675 0.0177606 0.0178555 0.0178765 0.0179052 0.0179036 0.0179685 0.0177618 0.0178565 0.0178774 0.017906 0.0179044 0.0179691 0.0177627 0.0178572 0.0178779 0.0179065 0.0179049 0.0179695 0.0177631 0.0178575 0.0178782 0.0179067 0.0179051 0.0179697 0.0177631 0.0178574 0.0178781 0.0179065 0.0179049 0.0179697 0.0177624 0.0178568 0.0178773 0.0179056 0.017904 0.0179689 0.017761 0.0178556 0.0178758 0.017904 0.0179021 0.0179671 0.0177604 0.0178543 0.0178753 0.017903 0.0179011 0.0179662 0.0177644 0.0178555 0.0178814 0.0179067 0.0179088 0.0179744 0.0177797 0.0178653 0.017902 0.0179227 0.0179336 0.0179995 0.0178063 0.0178913 0.0179296 0.0179477 0.0179638 0.0180084 0.01784 0.0179113 0.0179651 0.0179632 0.0179259 0.0179301 0.0177947 0.0178005 0.0178142 0.0178209 0.0178779 0.0179038 0.017757 0.0177685 0.0177694 0.0177929 0.0178561 0.0178737 0.0177326 0.0177389 0.01775 0.0177728 0.0178494 0.0178604 0.0177143 0.0177189 0.0177383 0.0177588 0.0178489 0.0178578 0.0177055 0.0177115 0.017734 0.0177546 0.0178503 0.0178586 0.0177039 0.0177106 0.0177338 0.0177548 0.0178517 0.0178598 0.0177048 0.0177117 0.0177346 0.017756 0.0178526 0.0178607 0.017706 0.0177129 0.0177355 0.017757 0.0178531 0.0178611 0.0177068 0.0177136 0.017736 0.0177575 0.0178534 0.0178613 0.017707 0.0177138 0.0177362 0.0177576 0.0178533 0.0178614 0.0177068 0.0177135 0.0177358 0.017757 0.0178528 0.0178611 0.017706 0.0177129 0.0177347 0.0177561 0.0178519 0.0178603 0.0177048 0.0177121 0.0177335 0.017755 0.0178512 0.0178595 0.0177046 0.0177124 0.0177343 0.0177561 0.0178524 0.0178601 0.0177089 0.017717 0.0177418 0.0177633 0.0178608 0.0178674 0.0177222 0.0177302 0.0177603 0.0177819 0.0178833 0.0178881 0.0177461 0.0177549 0.0177907 0.017807 0.0179167 0.0179142 0.0177818 0.017782 0.0178428 0.0178264 0.0179532 0.017896 0.0178227 0.0178071 0.0177809 0.0178204 0.0179104 0.01787 0.0177918 0.0177699 0.0177543 0.0177947 0.0178893 0.0178471 0.0177739 0.017738 0.017732 0.0177669 0.0178795 0.0178391 0.0177586 0.0177195 0.0177183 0.0177537 0.0178773 0.0178381 0.0177522 0.0177129 0.0177134 0.017751 0.017878 0.017839 0.0177515 0.0177124 0.0177131 0.017752 0.0178793 0.0178401 0.0177529 0.0177136 0.0177141 0.0177534 0.0178801 0.0178407 0.0177542 0.0177148 0.017715 0.0177544 0.0178806 0.017841 0.017755 0.0177154 0.0177155 0.0177549 0.0178806 0.017841 0.0177551 0.0177155 0.0177154 0.0177547 0.0178801 0.0178407 0.0177546 0.017715 0.0177148 0.017754 0.0178793 0.0178401 0.0177536 0.0177142 0.0177136 0.0177527 0.0178781 0.0178391 0.017752 0.0177132 0.0177124 0.0177514 0.0178772 0.0178384 0.0177512 0.0177134 0.017713 0.017752 0.0178785 0.0178402 0.0177542 0.0177183 0.0177195 0.0177583 0.0178859 0.0178502 0.0177678 0.017732 0.0177379 0.0177739 0.0179069 0.0178747 0.0177955 0.0177543 0.0177699 0.0177924 0.0179513 0.0179039 0.0178222 0.0177809 0.0178071 0.0178208 0.0180723 0.0179913 0.0178899 0.0179297 0.0178443 0.0179652 0.0180397 0.0179507 0.0179238 0.017915 0.01784 0.0179367 0.0179953 0.0179216 0.0179091 0.0178783 0.0178239 0.0179133 0.0179765 0.0179119 0.0178924 0.0178616 0.0178141 0.0179081 0.0179743 0.0179111 0.0178863 0.0178575 0.0178118 0.0179092 0.0179764 0.0179126 0.0178865 0.0178581 0.0178125 0.0179114 0.0179783 0.0179138 0.0178883 0.0178597 0.0178138 0.0179131 0.0179793 0.0179145 0.0178896 0.0178609 0.0178147 0.0179141 0.0179796 0.0179147 0.0178901 0.0178615 0.017815 0.0179144 0.0179795 0.0179145 0.01789 0.0178615 0.0178146 0.0179142 0.0179787 0.0179139 0.0178891 0.0178608 0.0178137 0.0179133 0.0179773 0.0179128 0.0178877 0.0178598 0.0178122 0.0179118 0.017975 0.0179113 0.0178854 0.0178582 0.0178102 0.0179093 0.0179717 0.0179099 0.0178831 0.0178566 0.0178097 0.0179054 0.0179687 0.0179102 0.0178848 0.0178575 0.0178158 0.0178991 0.0179719 0.0179171 0.0179028 0.0178651 0.0178392 0.0178947 0.0179963 0.017941 0.0179547 0.0178812 0.0178799 0.017916 0.0180838 0.0179815 0.0179741 0.0178951 0.0179004 0.0179785 0.0181222 0.0182299 0.0178293 0.0181261 0.0179505 0.0182834 0.0181661 0.0181067 0.0181182 0.0182231 0.0179963 0.0183032 0.0181203 0.0180516 0.0180611 0.0181601 0.0179975 0.0182996 0.0181175 0.018042 0.0180315 0.0181274 0.0179952 0.0182948 0.0181225 0.0180442 0.0180273 0.0181206 0.0179955 0.0182942 0.0181255 0.0180472 0.0180293 0.0181214 0.0179967 0.0182949 0.0181265 0.0180492 0.0180309 0.018123 0.0179976 0.0182958 0.0181266 0.0180501 0.0180314 0.0181241 0.017998 0.0182964 0.0181263 0.0180502 0.0180312 0.0181245 0.0179978 0.0182967 0.0181257 0.0180499 0.0180304 0.0181244 0.0179972 0.0182968 0.0181245 0.0180491 0.0180291 0.0181238 0.0179958 0.0182965 0.0181222 0.0180478 0.0180268 0.0181226 0.0179933 0.0182956 0.0181177 0.0180454 0.018023 0.0181206 0.0179896 0.018293 0.0181097 0.0180424 0.0180172 0.0181183 0.0179855 0.0182852 0.0180978 0.0180394 0.0180118 0.0181163 0.0179876 0.0182624 0.0180925 0.018039 0.0180218 0.0181185 0.0180182 0.0182155 0.0181515 0.0180481 0.0180969 0.0181391 0.0181119 0.018227 0.0183187 0.0180969 0.0182509 0.0181697 0.0181429 0.0183778 0.018111 0.0182322 0.0179889 0.0179766 0.0182429 0.0181308 0.0180552 0.0182888 0.0180292 0.0182515 0.018215 0.0181633 0.0179835 0.0182766 0.0179525 0.01827 0.0181914 0.018156 0.0179547 0.0182765 0.0179107 0.0182763 0.01819 0.0181574 0.0179519 0.018278 0.0179023 0.0182784 0.0181919 0.0181588 0.0179548 0.0182785 0.0179032 0.0182787 0.0181926 0.0181594 0.0179569 0.0182784 0.0179048 0.0182786 0.0181927 0.0181598 0.0179579 0.0182783 0.0179056 0.0182785 0.0181928 0.0181601 0.0179585 0.0182785 0.0179061 0.0182787 0.0181932 0.0181603 0.017959 0.0182788 0.0179064 0.0182789 0.0181937 0.0181606 0.0179594 0.0182788 0.0179068 0.018279 0.0181939 0.0181604 0.0179594 0.0182779 0.0179066 0.0182785 0.018193 0.0181592 0.017958 0.0182751 0.0179052 0.0182768 0.01819 0.0181567 0.0179547 0.01827 0.0179022 0.0182731 0.0181846 0.0181533 0.0179498 0.0182643 0.0178994 0.0182669 0.0181801 0.0181527 0.0179531 0.0182693 0.0179044 0.0182618 0.0181978 0.0181711 0.0180043 0.0183078 0.0179402 0.0182947 0.0182877 0.0182289 0.0180887 0.0183547 0.018027 0.0183965 0.0183206 0.0181583 0.0179626 0.018103 0.0178611 0.017936 0.0179281 0.0179169 0.0179326 0.0180478 0.0178341 0.0179372 0.0179314 0.0179049 0.0179021 0.0180132 0.0178114 0.0179285 0.0179071 0.0178826 0.0178873 0.0179957 0.0177921 0.0179209 0.0178962 0.0178756 0.0178837 0.0179927 0.0177822 0.01792 0.0178946 0.017875 0.0178845 0.0179942 0.0177799 0.0179214 0.0178957 0.017876 0.0178858 0.0179957 0.0177805 0.0179229 0.0178968 0.017877 0.0178866 0.0179965 0.0177814 0.0179237 0.0178973 0.0178776 0.0178871 0.0179967 0.0177821 0.0179241 0.0178977 0.0178779 0.0178874 0.017997 0.0177823 0.0179243 0.017898 0.017878 0.0178874 0.017997 0.0177822 0.0179241 0.0178978 0.0178776 0.017887 0.0179967 0.0177816 0.0179235 0.0178969 0.0178768 0.0178862 0.0179953 0.0177804 0.0179222 0.017895 0.0178754 0.0178848 0.0179927 0.0177795 0.0179205 0.0178935 0.0178746 0.0178849 0.0179894 0.0177825 0.0179197 0.0178977 0.0178765 0.0178926 0.0179906 0.017797 0.017923 0.0179181 0.0178864 0.017921 0.0180122 0.0178263 0.0179377 0.0179516 0.0179127 0.0179594 0.0180425 0.01786 0.01797 0.0179785 0.0179197 0.0178893 0.017956 0.0177906 0.0178351 0.0178084 0.0177904 0.01786 0.0179155 0.0177637 0.0178008 0.0177802 0.0177595 0.0178421 0.0178907 0.0177424 0.0177751 0.0177624 0.017734 0.0178354 0.0178798 0.0177268 0.0177549 0.0177526 0.0177207 0.0178342 0.0178774 0.0177188 0.017748 0.017749 0.0177167 0.0178347 0.017878 0.0177166 0.0177477 0.0177487 0.017717 0.0178355 0.0178789 0.0177171 0.0177491 0.0177495 0.0177181 0.017836 0.0178794 0.017718 0.01775 0.0177502 0.0177189 0.0178362 0.0178795 0.0177186 0.0177505 0.0177504 0.0177191 0.0178362 0.0178795 0.0177187 0.0177505 0.0177505 0.0177191 0.017836 0.0178793 0.0177184 0.0177501 0.01775 0.0177185 0.0178353 0.0178788 0.0177176 0.0177495 0.017749 0.0177176 0.0178344 0.0178778 0.0177166 0.0177487 0.0177477 0.0177172 0.0178337 0.0178772 0.0177164 0.017749 0.017748 0.0177191 0.0178354 0.0178792 0.0177204 0.0177526 0.0177549 0.0177264 0.0178445 0.017889 0.0177337 0.0177624 0.0177751 0.0177413 0.0178661 0.0179124 0.0177594 0.0177801 0.0178009 0.0177635 0.0178963 0.0179418 0.0177901 0.0178084 0.0178351 0.0177902 0.0179263 0.0179078 0.0178303 0.0178428 0.017782 0.0177814 0.0178937 0.0178823 0.0178068 0.0177908 0.017755 0.0177453 0.0178718 0.0178612 0.0177824 0.0177603 0.0177302 0.017721 0.0178642 0.0178546 0.0177637 0.0177418 0.0177171 0.0177078 0.0178633 0.0178546 0.0177559 0.0177342 0.0177125 0.0177038 0.0178641 0.0178557 0.0177548 0.0177335 0.0177121 0.017704 0.0178649 0.0178564 0.0177559 0.0177347 0.0177129 0.0177052 0.0178653 0.0178567 0.017757 0.0177357 0.0177135 0.0177061 0.0178653 0.0178565 0.0177575 0.0177362 0.0177137 0.0177063 0.0178651 0.0178563 0.0177574 0.017736 0.0177136 0.017706 0.0178646 0.0178558 0.0177569 0.0177356 0.0177129 0.0177052 0.0178635 0.017855 0.0177559 0.0177346 0.0177117 0.0177041 0.0178619 0.0178539 0.0177548 0.0177338 0.0177106 0.0177031 0.01786 0.0178533 0.0177546 0.017734 0.0177116 0.0177048 0.0178594 0.0178565 0.0177587 0.0177384 0.0177189 0.0177131 0.0178654 0.0178709 0.0177721 0.01775 0.0177389 0.0177312 0.0178888 0.017902 0.0177916 0.0177694 0.0177686 0.0177558 0.017928 0.0179404 0.0178239 0.0178142 0.0178005 0.0177949 0.0180767 0.017999 0.0179697 0.0179916 0.0178501 0.0179094 0.0180047 0.0179568 0.0179545 0.0179167 0.0178257 0.0178731 0.0179614 0.017937 0.0179031 0.0178713 0.0177986 0.0178514 0.0179516 0.0179322 0.0178787 0.0178585 0.0177855 0.0178437 0.0179525 0.0179337 0.017873 0.0178559 0.0177821 0.0178426 0.0179547 0.0179355 0.0178742 0.0178571 0.0177826 0.017844 0.0179561 0.0179365 0.0178764 0.017859 0.0177838 0.0178455 0.0179567 0.0179367 0.0178777 0.0178602 0.0177845 0.0178464 0.0179567 0.0179366 0.0178781 0.0178606 0.0177846 0.0178466 0.0179562 0.0179362 0.0178778 0.0178603 0.0177841 0.0178463 0.0179554 0.0179354 0.017877 0.0178597 0.0177832 0.0178452 0.0179538 0.0179342 0.0178757 0.0178586 0.0177816 0.0178435 0.0179511 0.0179322 0.0178742 0.0178571 0.0177801 0.0178406 0.0179469 0.0179298 0.0178738 0.017856 0.0177812 0.017837 0.0179431 0.0179292 0.0178793 0.017858 0.0177909 0.0178363 0.0179466 0.0179386 0.0178995 0.0178678 0.0178183 0.0178501 0.0179753 0.0179738 0.0179346 0.0178828 0.0178494 0.0178828 0.0180481 0.0180279 0.0179276 0.0179216 0.0178729 0.0179173 0.0182491 0.0182699 0.018402 0.0182873 0.017994 0.0181949 0.01805 0.0181162 0.01819 0.0182101 0.0179605 0.0181913 0.0179704 0.0180924 0.0180476 0.0180687 0.0179311 0.0181495 0.0179676 0.0180949 0.0180257 0.018043 0.0179212 0.0181332 0.0179768 0.0180995 0.0180351 0.0180481 0.0179213 0.0181307 0.0179832 0.018103 0.0180441 0.0180545 0.0179236 0.018132 0.0179865 0.0181051 0.0180489 0.0180584 0.0179253 0.0181336 0.0179878 0.0181059 0.0180509 0.0180603 0.017926 0.0181345 0.0179879 0.018106 0.0180512 0.0180609 0.017926 0.0181347 0.0179872 0.0181057 0.0180506 0.0180606 0.0179253 0.0181344 0.017986 0.018105 0.0180497 0.0180599 0.0179242 0.0181335 0.0179843 0.0181037 0.0180486 0.0180587 0.0179225 0.0181315 0.0179814 0.0181014 0.0180472 0.0180573 0.01792 0.0181277 0.0179773 0.0180974 0.018045 0.0180557 0.0179192 0.0181204 0.0179746 0.0180913 0.0180441 0.0180559 0.0179284 0.0181083 0.0179867 0.0180864 0.0180541 0.0180631 0.0179642 0.0181004 0.0180415 0.0180899 0.0180944 0.0180887 0.018022 0.0181348 0.0180142 0.0181237 0.018127 0.0180992 0.0179944 0.0180605 0.0181498 0.018453 0.0182044 0.0181556 0.018493 0.0182448 0.0181597 0.0185281 0.0182044 0.0184637 0.0184896 0.0183052 0.0181414 0.0185435 0.0181955 0.0184934 0.018486 0.0183105 0.0181272 0.0185564 0.0181775 0.0185037 0.0184872 0.0183138 0.0181257 0.0185612 0.0181746 0.0185076 0.0184889 0.0183157 0.0181278 0.0185622 0.0181769 0.0185086 0.0184894 0.0183163 0.0181292 0.0185623 0.0181786 0.0185089 0.0184894 0.0183165 0.0181297 0.0185623 0.0181792 0.0185089 0.0184895 0.0183167 0.0181299 0.0185624 0.0181794 0.0185091 0.0184896 0.0183169 0.0181302 0.0185625 0.0181796 0.0185092 0.0184899 0.018317 0.0181303 0.0185624 0.0181798 0.0185092 0.0184899 0.0183167 0.0181297 0.0185617 0.0181795 0.0185087 0.0184891 0.0183155 0.0181274 0.0185596 0.0181781 0.0185074 0.0184864 0.0183127 0.0181226 0.0185552 0.0181745 0.0185045 0.0184801 0.0183083 0.0181143 0.0185468 0.0181684 0.0184998 0.0184678 0.0183024 0.0181043 0.0185368 0.0181631 0.0184925 0.0184551 0.0182997 0.0181147 0.0185386 0.0181623 0.0184865 0.0184933 0.0183559 0.0182244 0.0185816 0.018212 0.0186493 0.0188107 0.0184474 0.0180333 0.0182316 0.0180446 0.0181382 0.0181123 0.0179842 0.0180068 0.0181565 0.0179943 0.0181089 0.0181253 0.0179979 0.0179884 0.0181624 0.0179806 0.018109 0.0181206 0.0179806 0.017981 0.0181683 0.0179747 0.018111 0.0181167 0.0179744 0.0179796 0.0181737 0.0179723 0.0181154 0.0181177 0.0179753 0.017981 0.0181774 0.0179731 0.018119 0.0181198 0.017977 0.0179824 0.0181792 0.0179748 0.0181209 0.0181211 0.0179781 0.0179831 0.0181798 0.017976 0.0181217 0.0181216 0.0179786 0.0179833 0.0181798 0.0179764 0.0181218 0.0181217 0.0179787 0.0179833 0.0181798 0.0179765 0.0181217 0.0181218 0.0179786 0.0179831 0.0181797 0.0179764 0.0181216 0.0181216 0.0179782 0.0179824 0.0181792 0.017976 0.018121 0.018121 0.0179772 0.017981 0.0181774 0.017975 0.0181198 0.018119 0.0179755 0.0179796 0.0181733 0.0179734 0.0181177 0.0181154 0.0179744 0.0179808 0.0181665 0.0179731 0.0181167 0.018111 0.0179759 0.0179895 0.0181586 0.0179815 0.0181207 0.018109 0.0179801 0.0180113 0.0181544 0.0180012 0.0181253 0.018109 0.017993 0.0180575 0.0181754 0.017982 0.0181123 0.0181382 0.0180456 0.0179573 0.0180771 0.0179184 0.0179786 0.0179699 0.0178619 0.017936 0.0180027 0.0179126 0.0179515 0.0179377 0.0178268 0.0179151 0.01798 0.0178874 0.017918 0.017923 0.0177966 0.0179108 0.0179803 0.0178764 0.0178977 0.0179198 0.0177824 0.0179117 0.017983 0.0178739 0.0178935 0.0179205 0.0177798 0.017913 0.0179852 0.0178745 0.0178951 0.0179222 0.0177809 0.0179137 0.0179865 0.0178759 0.0178969 0.0179235 0.0177822 0.017914 0.0179868 0.0178769 0.0178978 0.0179241 0.0177829 0.0179139 0.0179866 0.0178773 0.0178979 0.0179243 0.0177829 0.0179136 0.0179864 0.0178772 0.0178977 0.0179241 0.0177827 0.0179131 0.017986 0.0178769 0.0178974 0.0179237 0.0177821 0.0179122 0.0179853 0.0178763 0.0178967 0.0179228 0.0177812 0.0179109 0.0179839 0.0178754 0.0178957 0.0179214 0.0177806 0.01791 0.0179822 0.0178743 0.0178946 0.01792 0.0177826 0.0179141 0.0179838 0.0178745 0.0178961 0.0179208 0.0177914 0.017931 0.0179971 0.0178814 0.0179072 0.0179285 0.0178091 0.0179604 0.0180306 0.0179068 0.0179313 0.0179373 0.0178321 0.0179848 0.0180696 0.0179175 0.0179281 0.017936 0.0178619 0.0179883 0.0180006 0.0179707 0.0179652 0.0179113 0.0178412 0.0179644 0.0179822 0.0179468 0.0179296 0.0178913 0.0178054 0.0179439 0.0179527 0.017924 0.017902 0.0178652 0.0177781 0.0179381 0.017948 0.0179081 0.0178814 0.0178554 0.0177628 0.0179394 0.0179505 0.0179042 0.0178752 0.0178543 0.0177591 0.0179411 0.0179524 0.0179052 0.0178758 0.0178556 0.0177599 0.0179419 0.0179531 0.017907 0.0178774 0.0178568 0.0177613 0.017942 0.0179531 0.017908 0.0178781 0.0178575 0.017762 0.0179417 0.0179527 0.0179083 0.0178783 0.0178575 0.017762 0.0179413 0.0179522 0.0179081 0.0178779 0.0178572 0.0177616 0.0179405 0.0179516 0.0179075 0.0178774 0.0178566 0.0177607 0.0179392 0.0179506 0.0179067 0.0178765 0.0178555 0.0177596 0.0179372 0.0179489 0.0179055 0.0178752 0.0178544 0.0177587 0.0179351 0.0179476 0.0179044 0.0178739 0.0178545 0.0177608 0.0179367 0.0179513 0.0179045 0.0178745 0.0178584 0.0177721 0.0179516 0.017973 0.0179073 0.0178818 0.0178707 0.0177974 0.0179875 0.0180255 0.0179164 0.0179059 0.0178932 0.017838 0.0180109 0.018092 0.0179784 0.0179756 0.0179136 0.017883 0.0181626 0.0180725 0.0182592 0.0181632 0.0179839 0.0179708 0.018072 0.018081 0.0181131 0.0180311 0.0179557 0.0179259 0.0180576 0.0180696 0.0180777 0.0180251 0.0179327 0.017911 0.0180586 0.0180659 0.0180688 0.0180275 0.0179231 0.0179057 0.0180628 0.0180688 0.0180698 0.0180305 0.0179225 0.0179058 0.0180659 0.0180711 0.0180733 0.0180341 0.0179245 0.0179081 0.0180675 0.018072 0.0180758 0.0180364 0.0179261 0.0179099 0.0180678 0.018072 0.018077 0.0180374 0.0179268 0.0179108 0.0180676 0.0180717 0.0180772 0.0180375 0.0179268 0.0179108 0.0180672 0.0180711 0.0180769 0.0180371 0.0179263 0.0179103 0.0180663 0.0180704 0.0180763 0.0180365 0.0179255 0.0179092 0.0180649 0.0180691 0.0180754 0.0180355 0.0179241 0.0179077 0.0180624 0.0180666 0.0180738 0.0180339 0.0179225 0.0179058 0.0180588 0.018063 0.0180716 0.0180316 0.0179222 0.0179057 0.0180561 0.018061 0.0180699 0.0180297 0.0179269 0.0179138 0.0180621 0.0180708 0.0180697 0.018031 0.0179403 0.0179407 0.0180822 0.0181155 0.0180573 0.018029 0.0179531 0.0179778 0.0181163 0.0181978 0.0180909 0.0181305 0.0180216 0.0180239 0.0185291 0.0183573 0.0191099 0.0186837 0.0182204 0.0182983 0.0182404 0.0182786 0.0183936 0.0182735 0.0181477 0.0182093 0.0182702 0.0183116 0.0183762 0.0182288 0.0181379 0.0181663 0.0183057 0.0183255 0.0184226 0.0182679 0.018143 0.0181667 0.0183206 0.0183323 0.0184442 0.0182873 0.0181485 0.0181736 0.018327 0.0183359 0.018452 0.0182952 0.0181525 0.0181788 0.0183299 0.0183374 0.0184548 0.0182987 0.0181548 0.0181817 0.0183309 0.0183378 0.0184556 0.0182999 0.0181557 0.0181829 0.0183311 0.0183378 0.0184556 0.0183001 0.0181557 0.0181831 0.018331 0.0183376 0.0184554 0.0182999 0.0181555 0.0181827 0.0183307 0.0183372 0.0184553 0.0182995 0.0181548 0.0181819 0.0183304 0.0183364 0.0184551 0.018299 0.0181539 0.0181809 0.0183291 0.0183345 0.0184545 0.0182979 0.018152 0.0181798 0.0183253 0.0183302 0.018452 0.0182954 0.0181486 0.0181791 0.0183154 0.0183219 0.018445 0.0182902 0.0181451 0.018182 0.0182976 0.0183095 0.0184295 0.0182821 0.0181444 0.018195 0.0182669 0.0182957 0.0184 0.0182811 0.0181139 0.0181989 0.0180837 0.018302 0.0183254 0.0183218 0.0181405 0.0180491 0.0183809 0.0187841 0.018816 0.0190961 0.019008 0.0185921 0.0184237 0.0187085 0.0185234 0.0187698 0.0187848 0.0185331 0.0184501 0.0187111 0.0185293 0.0187552 0.0187663 0.0185331 0.0184575 0.0187196 0.0185403 0.0187614 0.0187662 0.0185404 0.0184621 0.0187227 0.0185455 0.0187657 0.0187673 0.0185444 0.0184647 0.0187238 0.0185487 0.0187674 0.0187679 0.0185458 0.0184658 0.0187243 0.0185502 0.0187681 0.0187682 0.0185463 0.0184661 0.0187246 0.0185508 0.0187683 0.0187683 0.0185465 0.0184661 0.0187247 0.0185509 0.0187684 0.0187684 0.0185465 0.0184662 0.0187247 0.0185509 0.0187684 0.0187685 0.0185465 0.0184662 0.0187246 0.0185509 0.0187683 0.0187684 0.0185463 0.0184659 0.0187243 0.0185507 0.0187682 0.0187681 0.0185458 0.0184647 0.0187238 0.0185503 0.0187679 0.0187674 0.0185442 0.0184619 0.0187226 0.0185489 0.0187674 0.0187658 0.0185413 0.0184561 0.0187193 0.0185455 0.0187661 0.0187614 0.0185361 0.0184454 0.0187113 0.01854 0.0187663 0.0187552 0.0185256 0.0184246 0.0187066 0.0185427 0.0187848 0.0187699 0.0185172 0.0183757 0.0187598 0.0186028 0.0190081 0.0190961 0.0187814 0.0182303 0.0185754 0.0184575 0.0188107 0.0186493 0.0182091 0.0181676 0.0184809 0.0183595 0.0184933 0.0184865 0.0181585 0.0181555 0.0185034 0.0182986 0.0184551 0.0184924 0.0181604 0.0181623 0.0185179 0.0183013 0.0184678 0.0184998 0.0181678 0.0181682 0.0185261 0.0183072 0.01848 0.0185046 0.0181749 0.0181721 0.0185302 0.0183117 0.0184865 0.0185074 0.0181789 0.0181742 0.018532 0.0183146 0.0184892 0.0185087 0.0181804 0.0181749 0.0185326 0.0183158 0.0184899 0.0185092 0.0181807 0.0181748 0.0185327 0.0183161 0.0184899 0.0185091 0.0181805 0.0181746 0.0185325 0.0183159 0.0184897 0.0185091 0.0181804 0.0181743 0.0185324 0.0183158 0.0184894 0.018509 0.0181801 0.0181739 0.0185325 0.0183156 0.0184894 0.0185088 0.0181795 0.0181727 0.0185323 0.0183154 0.0184894 0.0185085 0.0181779 0.0181712 0.0185311 0.0183148 0.0184889 0.0185077 0.0181757 0.0181724 0.0185264 0.0183132 0.0184872 0.0185036 0.018178 0.0181841 0.0185149 0.018311 0.0184861 0.0184934 0.0181943 0.0182045 0.018489 0.0183078 0.0184896 0.0184638 0.0182016 0.0181666 0.0182783 0.0182553 0.018493 0.0181556 0.0181986 0.0181189 0.0183477 0.0181481 0.0183206 0.0183965 0.0180264 0.0180822 0.0182261 0.0182298 0.0182876 0.0182947 0.0179401 0.0180387 0.018196 0.0181719 0.0181978 0.0182618 0.0179023 0.0180345 0.0181999 0.0181534 0.0181802 0.018267 0.0178975 0.0180384 0.018207 0.0181543 0.0181845 0.018273 0.0179009 0.0180413 0.0182118 0.0181579 0.01819 0.0182767 0.0179042 0.0180424 0.0182143 0.0181605 0.0181931 0.0182785 0.0179057 0.0180425 0.0182149 0.0181616 0.0181939 0.018279 0.017906 0.0180421 0.0182147 0.0181619 0.0181937 0.0182789 0.0179056 0.0180417 0.0182144 0.0181616 0.0181931 0.0182787 0.0179052 0.0180412 0.0182142 0.0181613 0.0181928 0.0182785 0.0179047 0.0180403 0.0182142 0.018161 0.0181927 0.0182785 0.0179039 0.0180386 0.018214 0.0181607 0.0181926 0.0182787 0.0179024 0.0180366 0.0182129 0.01816 0.0181919 0.0182784 0.0179014 0.0180393 0.0182119 0.0181582 0.0181899 0.0182762 0.0179089 0.0180628 0.0182176 0.018156 0.0181915 0.01827 0.0179486 0.0181201 0.0182367 0.0181647 0.018215 0.0182516 0.0180229 0.0181269 0.0181146 0.0181421 0.0182429 0.0179766 0.0179907 0.0181472 0.0181904 0.0181012 0.0180096 0.0181741 0.0179758 0.0181442 0.0181404 0.0181976 0.0182082 0.0181766 0.0179604 0.0181132 0.0180931 0.018176 0.0181686 0.0181324 0.0179255 0.0181075 0.0180842 0.0181567 0.0181495 0.0181233 0.0179145 0.0181114 0.0180863 0.0181548 0.0181497 0.0181267 0.017915 0.0181142 0.0180887 0.0181576 0.0181524 0.01813 0.017917 0.018115 0.0180896 0.0181597 0.0181536 0.0181315 0.0179181 0.0181147 0.0180894 0.0181604 0.0181536 0.0181318 0.0179182 0.0181142 0.0180887 0.0181605 0.0181531 0.0181315 0.0179178 0.0181137 0.0180882 0.0181601 0.0181525 0.0181311 0.0179173 0.018113 0.0180877 0.0181596 0.0181521 0.0181308 0.0179165 0.018112 0.0180869 0.0181589 0.0181517 0.0181306 0.0179154 0.0181098 0.0180851 0.0181579 0.0181507 0.0181306 0.0179134 0.0181063 0.0180821 0.0181558 0.0181483 0.0181312 0.017911 0.0181038 0.0180807 0.018153 0.0181442 0.0181345 0.0179133 0.0181161 0.018099 0.0181518 0.0181421 0.0181478 0.0179409 0.018169 0.018184 0.0181764 0.0181761 0.0181827 0.0180449 0.0182164 0.0182829 0.0182755 0.0183016 0.0181121 0.0181099 0.0183266 0.0182272 0.0183589 0.0180004 0.0181308 0.0181187 0.0183308 0.0183366 0.0183721 0.0183229 0.0182149 0.0181453 0.0183442 0.0183381 0.0183955 0.0183747 0.0182041 0.018152 0.0183499 0.0183406 0.0183946 0.0183817 0.0181967 0.0181563 0.0183548 0.0183445 0.0183955 0.0183877 0.0181988 0.0181608 0.0183574 0.0183458 0.0183974 0.0183907 0.0182014 0.0181637 0.0183582 0.0183458 0.0183984 0.0183911 0.0182027 0.018165 0.0183581 0.0183452 0.0183987 0.0183907 0.0182029 0.0181653 0.0183579 0.0183447 0.0183986 0.0183903 0.0182026 0.018165 0.0183576 0.0183444 0.0183983 0.0183899 0.0182022 0.0181646 0.0183572 0.018344 0.0183981 0.0183897 0.0182017 0.018164 0.0183563 0.0183431 0.0183974 0.0183892 0.0182007 0.018163 0.0183541 0.0183407 0.0183958 0.0183878 0.0181989 0.0181608 0.0183496 0.0183351 0.0183923 0.018384 0.0181959 0.0181569 0.0183422 0.0183257 0.0183853 0.0183761 0.0181922 0.0181525 0.0183352 0.0183164 0.0183722 0.0183617 0.0181945 0.0181572 0.0183515 0.0183524 0.0183578 0.0183539 0.0182507 0.0182156 0.0183839 0.0186299 0.0185027 0.0185312 0.0184928 0.0183976 0.0187308 0.0184237 0.0193838 0.0184752 0.0183769 0.0185358 0.0186085 0.0186392 0.0186508 0.0185184 0.0184428 0.0184365 0.0186938 0.018663 0.0187473 0.0186207 0.0184741 0.0184415 0.0187114 0.0186659 0.0187759 0.0186352 0.0184821 0.0184566 0.0187153 0.018668 0.0187819 0.0186391 0.0184861 0.0184649 0.0187167 0.0186689 0.0187829 0.0186408 0.0184886 0.0184686 0.0187172 0.0186689 0.0187829 0.0186412 0.0184897 0.0184702 0.0187174 0.0186687 0.0187827 0.0186411 0.01849 0.0184708 0.0187174 0.0186686 0.0187826 0.0186411 0.0184899 0.0184708 0.0187176 0.0186686 0.0187826 0.0186411 0.0184898 0.0184707 0.0187176 0.0186686 0.0187828 0.0186411 0.0184896 0.0184705 0.0187176 0.0186683 0.0187827 0.018641 0.018489 0.0184702 0.018717 0.0186673 0.0187823 0.0186402 0.0184873 0.0184692 0.0187148 0.0186639 0.0187807 0.0186376 0.0184831 0.0184669 0.0187092 0.018656 0.0187767 0.0186312 0.0184743 0.0184619 0.0186961 0.0186419 0.0187674 0.0186175 0.0184567 0.0184553 0.018661 0.018634 0.0187473 0.0186017 0.0184327 0.0184679 0.018524 0.0189466 0.0187366 0.0187263 0.0188486 0.0184883 
