# vtk DataFile Version 5.1
vtk output
ASCII

DATASET UNSTRUCTURED_GRID
POINTS 1377 float
0 0 0
0.125 0 0
0.25 0 0
0.375 0 0
0.5 0 0
0.625 0 0
0.75 0 0
0.875 0 0
1 0 0
1.125 0 0
1.25 0 0
1.375 0 0
1.5 0 0
1.625 0 0
1.75 0 0
1.875 0 0
2 0 0
0 0.125 0
0.125 0.125 0
0.25 0.125 0
0.375 0.125 0
0.5 0.125 0
0.625 0.125 0
0.75 0.125 0
0.875 0.125 0
1 0.125 0
1.125 0.125 0
1.25 0.125 0
1.375 0.125 0
1.5 0.125 0
1.625 0.125 0
1.75 0.125 0
1.875 0.125 0
2 0.125 0
0 0.25 0
0.125 0.25 0
0.25 0.25 0
0.375 0.25 0
0.5 0.25 0
0.625 0.25 0
0.75 0.25 0
0.875 0.25 0
1 0.25 0
1.125 0.25 0
1.25 0.25 0
1.375 0.25 0
1.5 0.25 0
1.625 0.25 0
1.75 0.25 0
1.875 0.25 0
2 0.25 0
0 0.375 0
0.125 0.375 0
0.25 0.375 0
0.375 0.375 0
0.5 0.375 0
0.625 0.375 0
0.75 0.375 0
0.875 0.375 0
1 0.375 0
1.125 0.375 0
1.25 0.375 0
1.375 0.375 0
1.5 0.375 0
1.625 0.375 0
1.75 0.375 0
1.875 0.375 0
2 0.375 0
0 0.5 0
0.125 0.5 0
0.25 0.5 0
0.375 0.5 0
0.5 0.5 0
0.625 0.5 0
0.75 0.5 0
0.875 0.5 0
1 0.5 0
1.125 0.5 0
1.25 0.5 0
1.375 0.5 0
1.5 0.5 0
1.625 0.5 0
1.75 0.5 0
1.875 0.5 0
2 0.5 0
0 0.625 0
0.125 0.625 0
0.25 0.625 0
0.375 0.625 0
0.5 0.625 0
0.625 0.625 0
0.75 0.625 0
0.875 0.625 0
1 0.625 0
1.125 0.625 0
1.25 0.625 0
1.375 0.625 0
1.5 0.625 0
1.625 0.625 0
1.75 0.625 0
1.875 0.625 0
2 0.625 0
0 0.75 0
0.125 0.75 0
0.25 0.75 0
0.375 0.75 0
0.5 0.75 0
0.625 0.75 0
0.75 0.75 0
0.875 0.75 0
1 0.75 0
1.125 0.75 0
1.25 0.75 0
1.375 0.75 0
1.5 0.75 0
1.625 0.75 0
1.75 0.75 0
1.875 0.75 0
2 0.75 0
0 0.875 0
0.125 0.875 0
0.25 0.875 0
0.375 0.875 0
0.5 0.875 0
0.625 0.875 0
0.75 0.875 0
0.875 0.875 0
1 0.875 0
1.125 0.875 0
1.25 0.875 0
1.375 0.875 0
1.5 0.875 0
1.625 0.875 0
1.75 0.875 0
1.875 0.875 0
2 0.875 0
0 1 0
0.125 1 0
0.25 1 0
0.375 1 0
0.5 1 0
0.625 1 0
0.75 1 0
0.875 1 0
1 1 0
1.125 1 0
1.25 1 0
1.375 1 0
1.5 1 0
1.625 1 0
1.75 1 0
1.875 1 0
2 1 0
0 0 0.125
0.125 0 0.125
0.25 0 0.125
0.375 0 0.125
0.5 0 0.125
0.625 0 0.125
0.75 0 0.125
0.875 0 0.125
1 0 0.125
1.125 0 0.125
1.25 0 0.125
1.375 0 0.125
1.5 0 0.125
1.625 0 0.125
1.75 0 0.125
1.875 0 0.125
2 0 0.125
0 0.125 0.125
0.125 0.125 0.125
0.25 0.125 0.125
0.375 0.125 0.125
0.5 0.125 0.125
0.625 0.125 0.125
0.75 0.125 0.125
0.875 0.125 0.125
1 0.125 0.125
1.125 0.125 0.125
1.25 0.125 0.125
1.375 0.125 0.125
1.5 0.125 0.125
1.625 0.125 0.125
1.75 0.125 0.125
1.875 0.125 0.125
2 0.125 0.125
0 0.25 0.125
0.125 0.25 0.125
0.25 0.25 0.125
0.375 0.25 0.125
0.5 0.25 0.125
0.625 0.25 0.125
0.75 0.25 0.125
0.875 0.25 0.125
1 0.25 0.125
1.125 0.25 0.125
1.25 0.25 0.125
1.375 0.25 0.125
1.5 0.25 0.125
1.625 0.25 0.125
1.75 0.25 0.125
1.875 0.25 0.125
2 0.25 0.125
0 0.375 0.125
0.125 0.375 0.125
0.25 0.375 0.125
0.375 0.375 0.125
0.5 0.375 0.125
0.625 0.375 0.125
0.75 0.375 0.125
0.875 0.375 0.125
1 0.375 0.125
1.125 0.375 0.125
1.25 0.375 0.125
1.375 0.375 0.125
1.5 0.375 0.125
1.625 0.375 0.125
1.75 0.375 0.125
1.875 0.375 0.125
2 0.375 0.125
0 0.5 0.125
0.125 0.5 0.125
0.25 0.5 0.125
0.375 0.5 0.125
0.5 0.5 0.125
0.625 0.5 0.125
0.75 0.5 0.125
0.875 0.5 0.125
1 0.5 0.125
1.125 0.5 0.125
1.25 0.5 0.125
1.375 0.5 0.125
1.5 0.5 0.125
1.625 0.5 0.125
1.75 0.5 0.125
1.875 0.5 0.125
2 0.5 0.125
0 0.625 0.125
0.125 0.625 0.125
0.25 0.625 0.125
0.375 0.625 0.125
0.5 0.625 0.125
0.625 0.625 0.125
0.75 0.625 0.125
0.875 0.625 0.125
1 0.625 0.125
1.125 0.625 0.125
1.25 0.625 0.125
1.375 0.625 0.125
1.5 0.625 0.125
1.625 0.625 0.125
1.75 0.625 0.125
1.875 0.625 0.125
2 0.625 0.125
0 0.75 0.125
0.125 0.75 0.125
0.25 0.75 0.125
0.375 0.75 0.125
0.5 0.75 0.125
0.625 0.75 0.125
0.75 0.75 0.125
0.875 0.75 0.125
1 0.75 0.125
1.125 0.75 0.125
1.25 0.75 0.125
1.375 0.75 0.125
1.5 0.75 0.125
1.625 0.75 0.125
1.75 0.75 0.125
1.875 0.75 0.125
2 0.75 0.125
0 0.875 0.125
0.125 0.875 0.125
0.25 0.875 0.125
0.375 0.875 0.125
0.5 0.875 0.125
0.625 0.875 0.125
0.75 0.875 0.125
0.875 0.875 0.125
1 0.875 0.125
1.125 0.875 0.125
1.25 0.875 0.125
1.375 0.875 0.125
1.5 0.875 0.125
1.625 0.875 0.125
1.75 0.875 0.125
1.875 0.875 0.125
2 0.875 0.125
0 1 0.125
0.125 1 0.125
0.25 1 0.125
0.375 1 0.125
0.5 1 0.125
0.625 1 0.125
0.75 1 0.125
0.875 1 0.125
1 1 0.125
1.125 1 0.125
1.25 1 0.125
1.375 1 0.125
1.5 1 0.125
1.625 1 0.125
1.75 1 0.125
1.875 1 0.125
2 1 0.125
0 0 0.25
0.125 0 0.25
0.25 0 0.25
0.375 0 0.25
0.5 0 0.25
0.625 0 0.25
0.75 0 0.25
0.875 0 0.25
1 0 0.25
1.125 0 0.25
1.25 0 0.25
1.375 0 0.25
1.5 0 0.25
1.625 0 0.25
1.75 0 0.25
1.875 0 0.25
2 0 0.25
0 0.125 0.25
0.125 0.125 0.25
0.25 0.125 0.25
0.375 0.125 0.25
0.5 0.125 0.25
0.625 0.125 0.25
0.75 0.125 0.25
0.875 0.125 0.25
1 0.125 0.25
1.125 0.125 0.25
1.25 0.125 0.25
1.375 0.125 0.25
1.5 0.125 0.25
1.625 0.125 0.25
1.75 0.125 0.25
1.875 0.125 0.25
2 0.125 0.25
0 0.25 0.25
0.125 0.25 0.25
0.25 0.25 0.25
0.375 0.25 0.25
0.5 0.25 0.25
0.625 0.25 0.25
0.75 0.25 0.25
0.875 0.25 0.25
1 0.25 0.25
1.125 0.25 0.25
1.25 0.25 0.25
1.375 0.25 0.25
1.5 0.25 0.25
1.625 0.25 0.25
1.75 0.25 0.25
1.875 0.25 0.25
2 0.25 0.25
0 0.375 0.25
0.125 0.375 0.25
0.25 0.375 0.25
0.375 0.375 0.25
0.5 0.375 0.25
0.625 0.375 0.25
0.75 0.375 0.25
0.875 0.375 0.25
1 0.375 0.25
1.125 0.375 0.25
1.25 0.375 0.25
1.375 0.375 0.25
1.5 0.375 0.25
1.625 0.375 0.25
1.75 0.375 0.25
1.875 0.375 0.25
2 0.375 0.25
0 0.5 0.25
0.125 0.5 0.25
0.25 0.5 0.25
0.375 0.5 0.25
0.5 0.5 0.25
0.625 0.5 0.25
0.75 0.5 0.25
0.875 0.5 0.25
1 0.5 0.25
1.125 0.5 0.25
1.25 0.5 0.25
1.375 0.5 0.25
1.5 0.5 0.25
1.625 0.5 0.25
1.75 0.5 0.25
1.875 0.5 0.25
2 0.5 0.25
0 0.625 0.25
0.125 0.625 0.25
0.25 0.625 0.25
0.375 0.625 0.25
0.5 0.625 0.25
0.625 0.625 0.25
0.75 0.625 0.25
0.875 0.625 0.25
1 0.625 0.25
1.125 0.625 0.25
1.25 0.625 0.25
1.375 0.625 0.25
1.5 0.625 0.25
1.625 0.625 0.25
1.75 0.625 0.25
1.875 0.625 0.25
2 0.625 0.25
0 0.75 0.25
0.125 0.75 0.25
0.25 0.75 0.25
0.375 0.75 0.25
0.5 0.75 0.25
0.625 0.75 0.25
0.75 0.75 0.25
0.875 0.75 0.25
1 0.75 0.25
1.125 0.75 0.25
1.25 0.75 0.25
1.375 0.75 0.25
1.5 0.75 0.25
1.625 0.75 0.25
1.75 0.75 0.25
1.875 0.75 0.25
2 0.75 0.25
0 0.875 0.25
0.125 0.875 0.25
0.25 0.875 0.25
0.375 0.875 0.25
0.5 0.875 0.25
0.625 0.875 0.25
0.75 0.875 0.25
0.875 0.875 0.25
1 0.875 0.25
1.125 0.875 0.25
1.25 0.875 0.25
1.375 0.875 0.25
1.5 0.875 0.25
1.625 0.875 0.25
1.75 0.875 0.25
1.875 0.875 0.25
2 0.875 0.25
0 1 0.25
0.125 1 0.25
0.25 1 0.25
0.375 1 0.25
0.5 1 0.25
0.625 1 0.25
0.75 1 0.25
0.875 1 0.25
1 1 0.25
1.125 1 0.25
1.25 1 0.25
1.375 1 0.25
1.5 1 0.25
1.625 1 0.25
1.75 1 0.25
1.875 1 0.25
2 1 0.25
0 0 0.375
0.125 0 0.375
0.25 0 0.375
0.375 0 0.375
0.5 0 0.375
0.625 0 0.375
0.75 0 0.375
0.875 0 0.375
1 0 0.375
1.125 0 0.375
1.25 0 0.375
1.375 0 0.375
1.5 0 0.375
1.625 0 0.375
1.75 0 0.375
1.875 0 0.375
2 0 0.375
0 0.125 0.375
0.125 0.125 0.375
0.25 0.125 0.375
0.375 0.125 0.375
0.5 0.125 0.375
0.625 0.125 0.375
0.75 0.125 0.375
0.875 0.125 0.375
1 0.125 0.375
1.125 0.125 0.375
1.25 0.125 0.375
1.375 0.125 0.375
1.5 0.125 0.375
1.625 0.125 0.375
1.75 0.125 0.375
1.875 0.125 0.375
2 0.125 0.375
0 0.25 0.375
0.125 0.25 0.375
0.25 0.25 0.375
0.375 0.25 0.375
0.5 0.25 0.375
0.625 0.25 0.375
0.75 0.25 0.375
0.875 0.25 0.375
1 0.25 0.375
1.125 0.25 0.375
1.25 0.25 0.375
1.375 0.25 0.375
1.5 0.25 0.375
1.625 0.25 0.375
1.75 0.25 0.375
1.875 0.25 0.375
2 0.25 0.375
0 0.375 0.375
0.125 0.375 0.375
0.25 0.375 0.375
0.375 0.375 0.375
0.5 0.375 0.375
0.625 0.375 0.375
0.75 0.375 0.375
0.875 0.375 0.375
1 0.375 0.375
1.125 0.375 0.375
1.25 0.375 0.375
1.375 0.375 0.375
1.5 0.375 0.375
1.625 0.375 0.375
1.75 0.375 0.375
1.875 0.375 0.375
2 0.375 0.375
0 0.5 0.375
0.125 0.5 0.375
0.25 0.5 0.375
0.375 0.5 0.375
0.5 0.5 0.375
0.625 0.5 0.375
0.75 0.5 0.375
0.875 0.5 0.375
1 0.5 0.375
1.125 0.5 0.375
1.25 0.5 0.375
1.375 0.5 0.375
1.5 0.5 0.375
1.625 0.5 0.375
1.75 0.5 0.375
1.875 0.5 0.375
2 0.5 0.375
0 0.625 0.375
0.125 0.625 0.375
0.25 0.625 0.375
0.375 0.625 0.375
0.5 0.625 0.375
0.625 0.625 0.375
0.75 0.625 0.375
0.875 0.625 0.375
1 0.625 0.375
1.125 0.625 0.375
1.25 0.625 0.375
1.375 0.625 0.375
1.5 0.625 0.375
1.625 0.625 0.375
1.75 0.625 0.375
1.875 0.625 0.375
2 0.625 0.375
0 0.75 0.375
0.125 0.75 0.375
0.25 0.75 0.375
0.375 0.75 0.375
0.5 0.75 0.375
0.625 0.75 0.375
0.75 0.75 0.375
0.875 0.75 0.375
1 0.75 0.375
1.125 0.75 0.375
1.25 0.75 0.375
1.375 0.75 0.375
1.5 0.75 0.375
1.625 0.75 0.375
1.75 0.75 0.375
1.875 0.75 0.375
2 0.75 0.375
0 0.875 0.375
0.125 0.875 0.375
0.25 0.875 0.375
0.375 0.875 0.375
0.5 0.875 0.375
0.625 0.875 0.375
0.75 0.875 0.375
0.875 0.875 0.375
1 0.875 0.375
1.125 0.875 0.375
1.25 0.875 0.375
1.375 0.875 0.375
1.5 0.875 0.375
1.625 0.875 0.375
1.75 0.875 0.375
1.875 0.875 0.375
2 0.875 0.375
0 1 0.375
0.125 1 0.375
0.25 1 0.375
0.375 1 0.375
0.5 1 0.375
0.625 1 0.375
0.75 1 0.375
0.875 1 0.375
1 1 0.375
1.125 1 0.375
1.25 1 0.375
1.375 1 0.375
1.5 1 0.375
1.625 1 0.375
1.75 1 0.375
1.875 1 0.375
2 1 0.375
0 0 0.5
0.125 0 0.5
0.25 0 0.5
0.375 0 0.5
0.5 0 0.5
0.625 0 0.5
0.75 0 0.5
0.875 0 0.5
1 0 0.5
1.125 0 0.5
1.25 0 0.5
1.375 0 0.5
1.5 0 0.5
1.625 0 0.5
1.75 0 0.5
1.875 0 0.5
2 0 0.5
0 0.125 0.5
0.125 0.125 0.5
0.25 0.125 0.5
0.375 0.125 0.5
0.5 0.125 0.5
0.625 0.125 0.5
0.75 0.125 0.5
0.875 0.125 0.5
1 0.125 0.5
1.125 0.125 0.5
1.25 0.125 0.5
1.375 0.125 0.5
1.5 0.125 0.5
1.625 0.125 0.5
1.75 0.125 0.5
1.875 0.125 0.5
2 0.125 0.5
0 0.25 0.5
0.125 0.25 0.5
0.25 0.25 0.5
0.375 0.25 0.5
0.5 0.25 0.5
0.625 0.25 0.5
0.75 0.25 0.5
0.875 0.25 0.5
1 0.25 0.5
1.125 0.25 0.5
1.25 0.25 0.5
1.375 0.25 0.5
1.5 0.25 0.5
1.625 0.25 0.5
1.75 0.25 0.5
1.875 0.25 0.5
2 0.25 0.5
0 0.375 0.5
0.125 0.375 0.5
0.25 0.375 0.5
0.375 0.375 0.5
0.5 0.375 0.5
0.625 0.375 0.5
0.75 0.375 0.5
0.875 0.375 0.5
1 0.375 0.5
1.125 0.375 0.5
1.25 0.375 0.5
1.375 0.375 0.5
1.5 0.375 0.5
1.625 0.375 0.5
1.75 0.375 0.5
1.875 0.375 0.5
2 0.375 0.5
0 0.5 0.5
0.125 0.5 0.5
0.25 0.5 0.5
0.375 0.5 0.5
0.5 0.5 0.5
0.625 0.5 0.5
0.75 0.5 0.5
0.875 0.5 0.5
1 0.5 0.5
1.125 0.5 0.5
1.25 0.5 0.5
1.375 0.5 0.5
1.5 0.5 0.5
1.625 0.5 0.5
1.75 0.5 0.5
1.875 0.5 0.5
2 0.5 0.5
0 0.625 0.5
0.125 0.625 0.5
0.25 0.625 0.5
0.375 0.625 0.5
0.5 0.625 0.5
0.625 0.625 0.5
0.75 0.625 0.5
0.875 0.625 0.5
1 0.625 0.5
1.125 0.625 0.5
1.25 0.625 0.5
1.375 0.625 0.5
1.5 0.625 0.5
1.625 0.625 0.5
1.75 0.625 0.5
1.875 0.625 0.5
2 0.625 0.5
0 0.75 0.5
0.125 0.75 0.5
0.25 0.75 0.5
0.375 0.75 0.5
0.5 0.75 0.5
0.625 0.75 0.5
0.75 0.75 0.5
0.875 0.75 0.5
1 0.75 0.5
1.125 0.75 0.5
1.25 0.75 0.5
1.375 0.75 0.5
1.5 0.75 0.5
1.625 0.75 0.5
1.75 0.75 0.5
1.875 0.75 0.5
2 0.75 0.5
0 0.875 0.5
0.125 0.875 0.5
0.25 0.875 0.5
0.375 0.875 0.5
0.5 0.875 0.5
0.625 0.875 0.5
0.75 0.875 0.5
0.875 0.875 0.5
1 0.875 0.5
1.125 0.875 0.5
1.25 0.875 0.5
1.375 0.875 0.5
1.5 0.875 0.5
1.625 0.875 0.5
1.75 0.875 0.5
1.875 0.875 0.5
2 0.875 0.5
0 1 0.5
0.125 1 0.5
0.25 1 0.5
0.375 1 0.5
0.5 1 0.5
0.625 1 0.5
0.75 1 0.5
0.875 1 0.5
1 1 0.5
1.125 1 0.5
1.25 1 0.5
1.375 1 0.5
1.5 1 0.5
1.625 1 0.5
1.75 1 0.5
1.875 1 0.5
2 1 0.5
0 0 0.625
0.125 0 0.625
0.25 0 0.625
0.375 0 0.625
0.5 0 0.625
0.625 0 0.625
0.75 0 0.625
0.875 0 0.625
1 0 0.625
1.125 0 0.625
1.25 0 0.625
1.375 0 0.625
1.5 0 0.625
1.625 0 0.625
1.75 0 0.625
1.875 0 0.625
2 0 0.625
0 0.125 0.625
0.125 0.125 0.625
0.25 0.125 0.625
0.375 0.125 0.625
0.5 0.125 0.625
0.625 0.125 0.625
0.75 0.125 0.625
0.875 0.125 0.625
1 0.125 0.625
1.125 0.125 0.625
1.25 0.125 0.625
1.375 0.125 0.625
1.5 0.125 0.625
1.625 0.125 0.625
1.75 0.125 0.625
1.875 0.125 0.625
2 0.125 0.625
0 0.25 0.625
0.125 0.25 0.625
0.25 0.25 0.625
0.375 0.25 0.625
0.5 0.25 0.625
0.625 0.25 0.625
0.75 0.25 0.625
0.875 0.25 0.625
1 0.25 0.625
1.125 0.25 0.625
1.25 0.25 0.625
1.375 0.25 0.625
1.5 0.25 0.625
1.625 0.25 0.625
1.75 0.25 0.625
1.875 0.25 0.625
2 0.25 0.625
0 0.375 0.625
0.125 0.375 0.625
0.25 0.375 0.625
0.375 0.375 0.625
0.5 0.375 0.625
0.625 0.375 0.625
0.75 0.375 0.625
0.875 0.375 0.625
1 0.375 0.625
1.125 0.375 0.625
1.25 0.375 0.625
1.375 0.375 0.625
1.5 0.375 0.625
1.625 0.375 0.625
1.75 0.375 0.625
1.875 0.375 0.625
2 0.375 0.625
0 0.5 0.625
0.125 0.5 0.625
0.25 0.5 0.625
0.375 0.5 0.625
0.5 0.5 0.625
0.625 0.5 0.625
0.75 0.5 0.625
0.875 0.5 0.625
1 0.5 0.625
1.125 0.5 0.625
1.25 0.5 0.625
1.375 0.5 0.625
1.5 0.5 0.625
1.625 0.5 0.625
1.75 0.5 0.625
1.875 0.5 0.625
2 0.5 0.625
0 0.625 0.625
0.125 0.625 0.625
0.25 0.625 0.625
0.375 0.625 0.625
0.5 0.625 0.625
0.625 0.625 0.625
0.75 0.625 0.625
0.875 0.625 0.625
1 0.625 0.625
1.125 0.625 0.625
1.25 0.625 0.625
1.375 0.625 0.625
1.5 0.625 0.625
1.625 0.625 0.625
1.75 0.625 0.625
1.875 0.625 0.625
2 0.625 0.625
0 0.75 0.625
0.125 0.75 0.625
0.25 0.75 0.625
0.375 0.75 0.625
0.5 0.75 0.625
0.625 0.75 0.625
0.75 0.75 0.625
0.875 0.75 0.625
1 0.75 0.625
1.125 0.75 0.625
1.25 0.75 0.625
1.375 0.75 0.625
1.5 0.75 0.625
1.625 0.75 0.625
1.75 0.75 0.625
1.875 0.75 0.625
2 0.75 0.625
0 0.875 0.625
0.125 0.875 0.625
0.25 0.875 0.625
0.375 0.875 0.625
0.5 0.875 0.625
0.625 0.875 0.625
0.75 0.875 0.625
0.875 0.875 0.625
1 0.875 0.625
1.125 0.875 0.625
1.25 0.875 0.625
1.375 0.875 0.625
1.5 0.875 0.625
1.625 0.875 0.625
1.75 0.875 0.625
1.875 0.875 0.625
2 0.875 0.625
0 1 0.625
0.125 1 0.625
0.25 1 0.625
0.375 1 0.625
0.5 1 0.625
0.625 1 0.625
0.75 1 0.625
0.875 1 0.625
1 1 0.625
1.125 1 0.625
1.25 1 0.625
1.375 1 0.625
1.5 1 0.625
1.625 1 0.625
1.75 1 0.625
1.875 1 0.625
2 1 0.625
0 0 0.75
0.125 0 0.75
0.25 0 0.75
0.375 0 0.75
0.5 0 0.75
0.625 0 0.75
0.75 0 0.75
0.875 0 0.75
1 0 0.75
1.125 0 0.75
1.25 0 0.75
1.375 0 0.75
1.5 0 0.75
1.625 0 0.75
1.75 0 0.75
1.875 0 0.75
2 0 0.75
0 0.125 0.75
0.125 0.125 0.75
0.25 0.125 0.75
0.375 0.125 0.75
0.5 0.125 0.75
0.625 0.125 0.75
0.75 0.125 0.75
0.875 0.125 0.75
1 0.125 0.75
1.125 0.125 0.75
1.25 0.125 0.75
1.375 0.125 0.75
1.5 0.125 0.75
1.625 0.125 0.75
1.75 0.125 0.75
1.875 0.125 0.75
2 0.125 0.75
0 0.25 0.75
0.125 0.25 0.75
0.25 0.25 0.75
0.375 0.25 0.75
0.5 0.25 0.75
0.625 0.25 0.75
0.75 0.25 0.75
0.875 0.25 0.75
1 0.25 0.75
1.125 0.25 0.75
1.25 0.25 0.75
1.375 0.25 0.75
1.5 0.25 0.75
1.625 0.25 0.75
1.75 0.25 0.75
1.875 0.25 0.75
2 0.25 0.75
0 0.375 0.75
0.125 0.375 0.75
0.25 0.375 0.75
0.375 0.375 0.75
0.5 0.375 0.75
0.625 0.375 0.75
0.75 0.375 0.75
0.875 0.375 0.75
1 0.375 0.75
1.125 0.375 0.75
1.25 0.375 0.75
1.375 0.375 0.75
1.5 0.375 0.75
1.625 0.375 0.75
1.75 0.375 0.75
1.875 0.375 0.75
2 0.375 0.75
0 0.5 0.75
0.125 0.5 0.75
0.25 0.5 0.75
0.375 0.5 0.75
0.5 0.5 0.75
0.625 0.5 0.75
0.75 0.5 0.75
0.875 0.5 0.75
1 0.5 0.75
1.125 0.5 0.75
1.25 0.5 0.75
1.375 0.5 0.75
1.5 0.5 0.75
1.625 0.5 0.75
1.75 0.5 0.75
1.875 0.5 0.75
2 0.5 0.75
0 0.625 0.75
0.125 0.625 0.75
0.25 0.625 0.75
0.375 0.625 0.75
0.5 0.625 0.75
0.625 0.625 0.75
0.75 0.625 0.75
0.875 0.625 0.75
1 0.625 0.75
1.125 0.625 0.75
1.25 0.625 0.75
1.375 0.625 0.75
1.5 0.625 0.75
1.625 0.625 0.75
1.75 0.625 0.75
1.875 0.625 0.75
2 0.625 0.75
0 0.75 0.75
0.125 0.75 0.75
0.25 0.75 0.75
0.375 0.75 0.75
0.5 0.75 0.75
0.625 0.75 0.75
0.75 0.75 0.75
0.875 0.75 0.75
1 0.75 0.75
1.125 0.75 0.75
1.25 0.75 0.75
1.375 0.75 0.75
1.5 0.75 0.75
1.625 0.75 0.75
1.75 0.75 0.75
1.875 0.75 0.75
2 0.75 0.75
0 0.875 0.75
0.125 0.875 0.75
0.25 0.875 0.75
0.375 0.875 0.75
0.5 0.875 0.75
0.625 0.875 0.75
0.75 0.875 0.75
0.875 0.875 0.75
1 0.875 0.75
1.125 0.875 0.75
1.25 0.875 0.75
1.375 0.875 0.75
1.5 0.875 0.75
1.625 0.875 0.75
1.75 0.875 0.75
1.875 0.875 0.75
2 0.875 0.75
0 1 0.75
0.125 1 0.75
0.25 1 0.75
0.375 1 0.75
0.5 1 0.75
0.625 1 0.75
0.75 1 0.75
0.875 1 0.75
1 1 0.75
1.125 1 0.75
1.25 1 0.75
1.375 1 0.75
1.5 1 0.75
1.625 1 0.75
1.75 1 0.75
1.875 1 0.75
2 1 0.75
0 0 0.875
0.125 0 0.875
0.25 0 0.875
0.375 0 0.875
0.5 0 0.875
0.625 0 0.875
0.75 0 0.875
0.875 0 0.875
1 0 0.875
1.125 0 0.875
1.25 0 0.875
1.375 0 0.875
1.5 0 0.875
1.625 0 0.875
1.75 0 0.875
1.875 0 0.875
2 0 0.875
0 0.125 0.875
0.125 0.125 0.875
0.25 0.125 0.875
0.375 0.125 0.875
0.5 0.125 0.875
0.625 0.125 0.875
0.75 0.125 0.875
0.875 0.125 0.875
1 0.125 0.875
1.125 0.125 0.875
1.25 0.125 0.875
1.375 0.125 0.875
1.5 0.125 0.875
1.625 0.125 0.875
1.75 0.125 0.875
1.875 0.125 0.875
2 0.125 0.875
0 0.25 0.875
0.125 0.25 0.875
0.25 0.25 0.875
0.375 0.25 0.875
0.5 0.25 0.875
0.625 0.25 0.875
0.75 0.25 0.875
0.875 0.25 0.875
1 0.25 0.875
1.125 0.25 0.875
1.25 0.25 0.875
1.375 0.25 0.875
1.5 0.25 0.875
1.625 0.25 0.875
1.75 0.25 0.875
1.875 0.25 0.875
2 0.25 0.875
0 0.375 0.875
0.125 0.375 0.875
0.25 0.375 0.875
0.375 0.375 0.875
0.5 0.375 0.875
0.625 0.375 0.875
0.75 0.375 0.875
0.875 0.375 0.875
1 0.375 0.875
1.125 0.375 0.875
1.25 0.375 0.875
1.375 0.375 0.875
1.5 0.375 0.875
1.625 0.375 0.875
1.75 0.375 0.875
1.875 0.375 0.875
2 0.375 0.875
0 0.5 0.875
0.125 0.5 0.875
0.25 0.5 0.875
0.375 0.5 0.875
0.5 0.5 0.875
0.625 0.5 0.875
0.75 0.5 0.875
0.875 0.5 0.875
1 0.5 0.875
1.125 0.5 0.875
1.25 0.5 0.875
1.375 0.5 0.875
1.5 0.5 0.875
1.625 0.5 0.875
1.75 0.5 0.875
1.875 0.5 0.875
2 0.5 0.875
0 0.625 0.875
0.125 0.625 0.875
0.25 0.625 0.875
0.375 0.625 0.875
0.5 0.625 0.875
0.625 0.625 0.875
0.75 0.625 0.875
0.875 0.625 0.875
1 0.625 0.875
1.125 0.625 0.875
1.25 0.625 0.875
1.375 0.625 0.875
1.5 0.625 0.875
1.625 0.625 0.875
1.75 0.625 0.875
1.875 0.625 0.875
2 0.625 0.875
0 0.75 0.875
0.125 0.75 0.875
0.25 0.75 0.875
0.375 0.75 0.875
0.5 0.75 0.875
0.625 0.75 0.875
0.75 0.75 0.875
0.875 0.75 0.875
1 0.75 0.875
1.125 0.75 0.875
1.25 0.75 0.875
1.375 0.75 0.875
1.5 0.75 0.875
1.625 0.75 0.875
1.75 0.75 0.875
1.875 0.75 0.875
2 0.75 0.875
0 0.875 0.875
0.125 0.875 0.875
0.25 0.875 0.875
0.375 0.875 0.875
0.5 0.875 0.875
0.625 0.875 0.875
0.75 0.875 0.875
0.875 0.875 0.875
1 0.875 0.875
1.125 0.875 0.875
1.25 0.875 0.875
1.375 0.875 0.875
1.5 0.875 0.875
1.625 0.875 0.875
1.75 0.875 0.875
1.875 0.875 0.875
2 0.875 0.875
0 1 0.875
0.125 1 0.875
0.25 1 0.875
0.375 1 0.875
0.5 1 0.875
0.625 1 0.875
0.75 1 0.875
0.875 1 0.875
1 1 0.875
1.125 1 0.875
1.25 1 0.875
1.375 1 0.875
1.5 1 0.875
1.625 1 0.875
1.75 1 0.875
1.875 1 0.875
2 1 0.875
0 0 1
0.125 0 1
0.25 0 1
0.375 0 1
0.5 0 1
0.625 0 1
0.75 0 1
0.875 0 1
1 0 1
1.125 0 1
1.25 0 1
1.375 0 1
1.5 0 1
1.625 0 1
1.75 0 1
1.875 0 1
2 0 1
0 0.125 1
0.125 0.125 1
0.25 0.125 1
0.375 0.125 1
0.5 0.125 1
0.625 0.125 1
0.75 0.125 1
0.875 0.125 1
1 0.125 1
1.125 0.125 1
1.25 0.125 1
1.375 0.125 1
1.5 0.125 1
1.625 0.125 1
1.75 0.125 1
1.875 0.125 1
2 0.125 1
0 0.25 1
0.125 0.25 1
0.25 0.25 1
0.375 0.25 1
0.5 0.25 1
0.625 0.25 1
0.75 0.25 1
0.875 0.25 1
1 0.25 1
1.125 0.25 1
1.25 0.25 1
1.375 0.25 1
1.5 0.25 1
1.625 0.25 1
1.75 0.25 1
1.875 0.25 1
2 0.25 1
0 0.375 1
0.125 0.375 1
0.25 0.375 1
0.375 0.375 1
0.5 0.375 1
0.625 0.375 1
0.75 0.375 1
0.875 0.375 1
1 0.375 1
1.125 0.375 1
1.25 0.375 1
1.375 0.375 1
1.5 0.375 1
1.625 0.375 1
1.75 0.375 1
1.875 0.375 1
2 0.375 1
0 0.5 1
0.125 0.5 1
0.25 0.5 1
0.375 0.5 1
0.5 0.5 1
0.625 0.5 1
0.75 0.5 1
0.875 0.5 1
1 0.5 1
1.125 0.5 1
1.25 0.5 1
1.375 0.5 1
1.5 0.5 1
1.625 0.5 1
1.75 0.5 1
1.875 0.5 1
2 0.5 1
0 0.625 1
0.125 0.625 1
0.25 0.625 1
0.375 0.625 1
0.5 0.625 1
0.625 0.625 1
0.75 0.625 1
0.875 0.625 1
1 0.625 1
1.125 0.625 1
1.25 0.625 1
1.375 0.625 1
1.5 0.625 1
1.625 0.625 1
1.75 0.625 1
1.875 0.625 1
2 0.625 1
0 0.75 1
0.125 0.75 1
0.25 0.75 1
0.375 0.75 1
0.5 0.75 1
0.625 0.75 1
0.75 0.75 1
0.875 0.75 1
1 0.75 1
1.125 0.75 1
1.25 0.75 1
1.375 0.75 1
1.5 0.75 1
1.625 0.75 1
1.75 0.75 1
1.875 0.75 1
2 0.75 1
0 0.875 1
0.125 0.875 1
0.25 0.875 1
0.375 0.875 1
0.5 0.875 1
0.625 0.875 1
0.75 0.875 1
0.875 0.875 1
1 0.875 1
1.125 0.875 1
1.25 0.875 1
1.375 0.875 1
1.5 0.875 1
1.625 0.875 1
1.75 0.875 1
1.875 0.875 1
2 0.875 1
0 1 1
0.125 1 1
0.25 1 1
0.375 1 1
0.5 1 1
0.625 1 1
0.75 1 1
0.875 1 1
1 1 1
1.125 1 1
1.25 1 1
1.375 1 1
1.5 1 1
1.625 1 1
1.75 1 1
1.875 1 1
2 1 1

CELLS 6145 24576
OFFSETS vtktypeint64
0 4 8 12 16 20 24 28 32 36 40 44 48 52 56 60 64 68 72 76 80 84 88 92 96 100 104 108 112 116 120 124 128 132 136 140 144 148 152 156 160 164 168 172 176 180 184 188 192 196 200 204 208 212 216 220 224 228 232 236 240 244 248 252 256 260 264 268 272 276 280 284 288 292 296 300 304 308 312 316 320 324 328 332 336 340 344 348 352 356 360 364 368 372 376 380 384 388 392 396 400 404 408 412 416 420 424 428 432 436 440 444 448 452 456 460 464 468 472 476 480 484 488 492 496 500 504 508 512 516 520 524 528 532 536 540 544 548 552 556 560 564 568 572 576 580 584 588 592 596 600 604 608 612 616 620 624 628 632 636 640 644 648 652 656 660 664 668 672 676 680 684 688 692 696 700 704 708 712 716 720 724 728 732 736 740 744 748 752 756 760 764 768 772 776 780 784 788 792 796 800 804 808 812 816 820 824 828 832 836 840 844 848 852 856 860 864 868 872 876 880 884 888 892 896 900 904 908 912 916 920 924 928 932 936 940 944 948 952 956 960 964 968 972 976 980 984 988 992 996 1000 1004 1008 1012 1016 1020 1024 1028 1032 1036 1040 1044 1048 1052 1056 1060 1064 1068 1072 1076 1080 1084 1088 1092 1096 1100 1104 1108 1112 1116 1120 1124 1128 1132 1136 1140 1144 1148 1152 1156 1160 1164 1168 1172 1176 1180 1184 1188 1192 1196 1200 1204 1208 1212 1216 1220 1224 1228 1232 1236 1240 1244 1248 1252 1256 1260 1264 1268 1272 1276 1280 1284 1288 1292 1296 1300 1304 1308 1312 1316 1320 1324 1328 1332 1336 1340 1344 1348 1352 1356 1360 1364 1368 1372 1376 1380 1384 1388 1392 1396 1400 1404 1408 1412 1416 1420 1424 1428 1432 1436 1440 1444 1448 1452 1456 1460 1464 1468 1472 1476 1480 1484 1488 1492 1496 1500 1504 1508 1512 1516 1520 1524 1528 1532 1536 1540 1544 1548 1552 1556 1560 1564 1568 1572 1576 1580 1584 1588 1592 1596 1600 1604 1608 1612 1616 1620 1624 1628 1632 1636 1640 1644 1648 1652 1656 1660 1664 1668 1672 1676 1680 1684 1688 1692 1696 1700 1704 1708 1712 1716 1720 1724 1728 1732 1736 1740 1744 1748 1752 1756 1760 1764 1768 1772 1776 1780 1784 1788 1792 1796 1800 1804 1808 1812 1816 1820 1824 1828 1832 1836 1840 1844 1848 1852 1856 1860 1864 1868 1872 1876 1880 1884 1888 1892 1896 1900 1904 1908 1912 1916 1920 1924 1928 1932 1936 1940 1944 1948 1952 1956 1960 1964 1968 1972 1976 1980 1984 1988 1992 1996 2000 2004 2008 2012 2016 2020 2024 2028 2032 2036 2040 2044 2048 2052 2056 2060 2064 2068 2072 2076 2080 2084 2088 2092 2096 2100 2104 2108 2112 2116 2120 2124 2128 2132 2136 2140 2144 2148 2152 2156 2160 2164 2168 2172 2176 2180 2184 2188 2192 2196 2200 2204 2208 2212 2216 2220 2224 2228 2232 2236 2240 2244 2248 2252 2256 2260 2264 2268 2272 2276 2280 2284 2288 2292 2296 2300 2304 2308 2312 2316 2320 2324 2328 2332 2336 2340 2344 2348 2352 2356 2360 2364 2368 2372 2376 2380 2384 2388 2392 2396 2400 2404 2408 2412 2416 2420 2424 2428 2432 2436 2440 2444 2448 2452 2456 2460 2464 2468 2472 2476 2480 2484 2488 2492 2496 2500 2504 2508 2512 2516 2520 2524 2528 2532 2536 2540 2544 2548 2552 2556 2560 2564 2568 2572 2576 2580 2584 2588 2592 2596 2600 2604 2608 2612 2616 2620 2624 2628 2632 2636 2640 2644 2648 2652 2656 2660 2664 2668 2672 2676 2680 2684 2688 2692 2696 2700 2704 2708 2712 2716 2720 2724 2728 2732 2736 2740 2744 2748 2752 2756 2760 2764 2768 2772 2776 2780 2784 2788 2792 2796 2800 2804 2808 2812 2816 2820 2824 2828 2832 2836 2840 2844 2848 2852 2856 2860 2864 2868 2872 2876 2880 2884 2888 2892 2896 2900 2904 2908 2912 2916 2920 2924 2928 2932 2936 2940 2944 2948 2952 2956 2960 2964 2968 2972 2976 2980 2984 2988 2992 2996 3000 3004 3008 3012 3016 3020 3024 3028 3032 3036 3040 3044 3048 3052 3056 3060 3064 3068 3072 3076 3080 3084 3088 3092 3096 3100 3104 3108 3112 3116 3120 3124 3128 3132 3136 3140 3144 3148 3152 3156 3160 3164 3168 3172 3176 3180 3184 3188 3192 3196 3200 3204 3208 3212 3216 3220 3224 3228 3232 3236 3240 3244 3248 3252 3256 3260 3264 3268 3272 3276 3280 3284 3288 3292 3296 3300 3304 3308 3312 3316 3320 3324 3328 3332 3336 3340 3344 3348 3352 3356 3360 3364 3368 3372 3376 3380 3384 3388 3392 3396 3400 3404 3408 3412 3416 3420 3424 3428 3432 3436 3440 3444 3448 3452 3456 3460 3464 3468 3472 3476 3480 3484 3488 3492 3496 3500 3504 3508 3512 3516 3520 3524 3528 3532 3536 3540 3544 3548 3552 3556 3560 3564 3568 3572 3576 3580 3584 3588 3592 3596 3600 3604 3608 3612 3616 3620 3624 3628 3632 3636 3640 3644 3648 3652 3656 3660 3664 3668 3672 3676 3680 3684 3688 3692 3696 3700 3704 3708 3712 3716 3720 3724 3728 3732 3736 3740 3744 3748 3752 3756 3760 3764 3768 3772 3776 3780 3784 3788 3792 3796 3800 3804 3808 3812 3816 3820 3824 3828 3832 3836 3840 3844 3848 3852 3856 3860 3864 3868 3872 3876 3880 3884 3888 3892 3896 3900 3904 3908 3912 3916 3920 3924 3928 3932 3936 3940 3944 3948 3952 3956 3960 3964 3968 3972 3976 3980 3984 3988 3992 3996 4000 4004 4008 4012 4016 4020 4024 4028 4032 4036 4040 4044 4048 4052 4056 4060 4064 4068 4072 4076 4080 4084 4088 4092 4096 4100 4104 4108 4112 4116 4120 4124 4128 4132 4136 4140 4144 4148 4152 4156 4160 4164 4168 4172 4176 4180 4184 4188 4192 4196 4200 4204 4208 4212 4216 4220 4224 4228 4232 4236 4240 4244 4248 4252 4256 4260 4264 4268 4272 4276 4280 4284 4288 4292 4296 4300 4304 4308 4312 4316 4320 4324 4328 4332 4336 4340 4344 4348 4352 4356 4360 4364 4368 4372 4376 4380 4384 4388 4392 4396 4400 4404 4408 4412 4416 4420 4424 4428 4432 4436 4440 4444 4448 4452 4456 4460 4464 4468 4472 4476 4480 4484 4488 4492 4496 4500 4504 4508 4512 4516 4520 4524 4528 4532 4536 4540 4544 4548 4552 4556 4560 4564 4568 4572 4576 4580 4584 4588 4592 4596 4600 4604 4608 4612 4616 4620 4624 4628 4632 4636 4640 4644 4648 4652 4656 4660 4664 4668 4672 4676 4680 4684 4688 4692 4696 4700 4704 4708 4712 4716 4720 4724 4728 4732 4736 4740 4744 4748 4752 4756 4760 4764 4768 4772 4776 4780 4784 4788 4792 4796 4800 4804 4808 4812 4816 4820 4824 4828 4832 4836 4840 4844 4848 4852 4856 4860 4864 4868 4872 4876 4880 4884 4888 4892 4896 4900 4904 4908 4912 4916 4920 4924 4928 4932 4936 4940 4944 4948 4952 4956 4960 4964 4968 4972 4976 4980 4984 4988 4992 4996 5000 5004 5008 5012 5016 5020 5024 5028 5032 5036 5040 5044 5048 5052 5056 5060 5064 5068 5072 5076 5080 5084 5088 5092 5096 5100 5104 5108 5112 5116 5120 5124 5128 5132 5136 5140 5144 5148 5152 5156 5160 5164 5168 5172 5176 5180 5184 5188 5192 5196 5200 5204 5208 5212 5216 5220 5224 5228 5232 5236 5240 5244 5248 5252 5256 5260 5264 5268 5272 5276 5280 5284 5288 5292 5296 5300 5304 5308 5312 5316 5320 5324 5328 5332 5336 5340 5344 5348 5352 5356 5360 5364 5368 5372 5376 5380 5384 5388 5392 5396 5400 5404 5408 5412 5416 5420 5424 5428 5432 5436 5440 5444 5448 5452 5456 5460 5464 5468 5472 5476 5480 5484 5488 5492 5496 5500 5504 5508 5512 5516 5520 5524 5528 5532 5536 5540 5544 5548 5552 5556 5560 5564 5568 5572 5576 5580 5584 5588 5592 5596 5600 5604 5608 5612 5616 5620 5624 5628 5632 5636 5640 5644 5648 5652 5656 5660 5664 5668 5672 5676 5680 5684 5688 5692 5696 5700 5704 5708 5712 5716 5720 5724 5728 5732 5736 5740 5744 5748 5752 5756 5760 5764 5768 5772 5776 5780 5784 5788 5792 5796 5800 5804 5808 5812 5816 5820 5824 5828 5832 5836 5840 5844 5848 5852 5856 5860 5864 5868 5872 5876 5880 5884 5888 5892 5896 5900 5904 5908 5912 5916 5920 5924 5928 5932 5936 5940 5944 5948 5952 5956 5960 5964 5968 5972 5976 5980 5984 5988 5992 5996 6000 6004 6008 6012 6016 6020 6024 6028 6032 6036 6040 6044 6048 6052 6056 6060 6064 6068 6072 6076 6080 6084 6088 6092 6096 6100 6104 6108 6112 6116 6120 6124 6128 6132 6136 6140 6144 6148 6152 6156 6160 6164 6168 6172 6176 6180 6184 6188 6192 6196 6200 6204 6208 6212 6216 6220 6224 6228 6232 6236 6240 6244 6248 6252 6256 6260 6264 6268 6272 6276 6280 6284 6288 6292 6296 6300 6304 6308 6312 6316 6320 6324 6328 6332 6336 6340 6344 6348 6352 6356 6360 6364 6368 6372 6376 6380 6384 6388 6392 6396 6400 6404 6408 6412 6416 6420 6424 6428 6432 6436 6440 6444 6448 6452 6456 6460 6464 6468 6472 6476 6480 6484 6488 6492 6496 6500 6504 6508 6512 6516 6520 6524 6528 6532 6536 6540 6544 6548 6552 6556 6560 6564 6568 6572 6576 6580 6584 6588 6592 6596 6600 6604 6608 6612 6616 6620 6624 6628 6632 6636 6640 6644 6648 6652 6656 6660 6664 6668 6672 6676 6680 6684 6688 6692 6696 6700 6704 6708 6712 6716 6720 6724 6728 6732 6736 6740 6744 6748 6752 6756 6760 6764 6768 6772 6776 6780 6784 6788 6792 6796 6800 6804 6808 6812 6816 6820 6824 6828 6832 6836 6840 6844 6848 6852 6856 6860 6864 6868 6872 6876 6880 6884 6888 6892 6896 6900 6904 6908 6912 6916 6920 6924 6928 6932 6936 6940 6944 6948 6952 6956 6960 6964 6968 6972 6976 6980 6984 6988 6992 6996 7000 7004 7008 7012 7016 7020 7024 7028 7032 7036 7040 7044 7048 7052 7056 7060 7064 7068 7072 7076 7080 7084 7088 7092 7096 7100 7104 7108 7112 7116 7120 7124 7128 7132 7136 7140 7144 7148 7152 7156 7160 7164 7168 7172 7176 7180 7184 7188 7192 7196 7200 7204 7208 7212 7216 7220 7224 7228 7232 7236 7240 7244 7248 7252 7256 7260 7264 7268 7272 7276 7280 7284 7288 7292 7296 7300 7304 7308 7312 7316 7320 7324 7328 7332 7336 7340 7344 7348 7352 7356 7360 7364 7368 7372 7376 7380 7384 7388 7392 7396 7400 7404 7408 7412 7416 7420 7424 7428 7432 7436 7440 7444 7448 7452 7456 7460 7464 7468 7472 7476 7480 7484 7488 7492 7496 7500 7504 7508 7512 7516 7520 7524 7528 7532 7536 7540 7544 7548 7552 7556 7560 7564 7568 7572 7576 7580 7584 7588 7592 7596 7600 7604 7608 7612 7616 7620 7624 7628 7632 7636 7640 7644 7648 7652 7656 7660 7664 7668 7672 7676 7680 7684 7688 7692 7696 7700 7704 7708 7712 7716 7720 7724 7728 7732 7736 7740 7744 7748 7752 7756 7760 7764 7768 7772 7776 7780 7784 7788 7792 7796 7800 7804 7808 7812 7816 7820 7824 7828 7832 7836 7840 7844 7848 7852 7856 7860 7864 7868 7872 7876 7880 7884 7888 7892 7896 7900 7904 7908 7912 7916 7920 7924 7928 7932 7936 7940 7944 7948 7952 7956 7960 7964 7968 7972 7976 7980 7984 7988 7992 7996 8000 8004 8008 8012 8016 8020 8024 8028 8032 8036 8040 8044 8048 8052 8056 8060 8064 8068 8072 8076 8080 8084 8088 8092 8096 8100 8104 8108 8112 8116 8120 8124 8128 8132 8136 8140 8144 8148 8152 8156 8160 8164 8168 8172 8176 8180 8184 8188 8192 8196 8200 8204 8208 8212 8216 8220 8224 8228 8232 8236 8240 8244 8248 8252 8256 8260 8264 8268 8272 8276 8280 8284 8288 8292 8296 8300 8304 8308 8312 8316 8320 8324 8328 8332 8336 8340 8344 8348 8352 8356 8360 8364 8368 8372 8376 8380 8384 8388 8392 8396 8400 8404 8408 8412 8416 8420 8424 8428 8432 8436 8440 8444 8448 8452 8456 8460 8464 8468 8472 8476 8480 8484 8488 8492 8496 8500 8504 8508 8512 8516 8520 8524 8528 8532 8536 8540 8544 8548 8552 8556 8560 8564 8568 8572 8576 8580 8584 8588 8592 8596 8600 8604 8608 8612 8616 8620 8624 8628 8632 8636 8640 8644 8648 8652 8656 8660 8664 8668 8672 8676 8680 8684 8688 8692 8696 8700 8704 8708 8712 8716 8720 8724 8728 8732 8736 8740 8744 8748 8752 8756 8760 8764 8768 8772 8776 8780 8784 8788 8792 8796 8800 8804 8808 8812 8816 8820 8824 8828 8832 8836 8840 8844 8848 8852 8856 8860 8864 8868 8872 8876 8880 8884 8888 8892 8896 8900 8904 8908 8912 8916 8920 8924 8928 8932 8936 8940 8944 8948 8952 8956 8960 8964 8968 8972 8976 8980 8984 8988 8992 8996 9000 9004 9008 9012 9016 9020 9024 9028 9032 9036 9040 9044 9048 9052 9056 9060 9064 9068 9072 9076 9080 9084 9088 9092 9096 9100 9104 9108 9112 9116 9120 9124 9128 9132 9136 9140 9144 9148 9152 9156 9160 9164 9168 9172 9176 9180 9184 9188 9192 9196 9200 9204 9208 9212 9216 9220 9224 9228 9232 9236 9240 9244 9248 9252 9256 9260 9264 9268 9272 9276 9280 9284 9288 9292 9296 9300 9304 9308 9312 9316 9320 9324 9328 9332 9336 9340 9344 9348 9352 9356 9360 9364 9368 9372 9376 9380 9384 9388 9392 9396 9400 9404 9408 9412 9416 9420 9424 9428 9432 9436 9440 9444 9448 9452 9456 9460 9464 9468 9472 9476 9480 9484 9488 9492 9496 9500 9504 9508 9512 9516 9520 9524 9528 9532 9536 9540 9544 9548 9552 9556 9560 9564 9568 9572 9576 9580 9584 9588 9592 9596 9600 9604 9608 9612 9616 9620 9624 9628 9632 9636 9640 9644 9648 9652 9656 9660 9664 9668 9672 9676 9680 9684 9688 9692 9696 9700 9704 9708 9712 9716 9720 9724 9728 9732 9736 9740 9744 9748 9752 9756 9760 9764 9768 9772 9776 9780 9784 9788 9792 9796 9800 9804 9808 9812 9816 9820 9824 9828 9832 9836 9840 9844 9848 9852 9856 9860 9864 9868 9872 9876 9880 9884 9888 9892 9896 9900 9904 9908 9912 9916 9920 9924 9928 9932 9936 9940 9944 9948 9952 9956 9960 9964 9968 9972 9976 9980 9984 9988 9992 9996 10000 10004 10008 10012 10016 10020 10024 10028 10032 10036 10040 10044 10048 10052 10056 10060 10064 10068 10072 10076 10080 10084 10088 10092 10096 10100 10104 10108 10112 10116 10120 10124 10128 10132 10136 10140 10144 10148 10152 10156 10160 10164 10168 10172 10176 10180 10184 10188 10192 10196 10200 10204 10208 10212 10216 10220 10224 10228 10232 10236 10240 10244 10248 10252 10256 10260 10264 10268 10272 10276 10280 10284 10288 10292 10296 10300 10304 10308 10312 10316 10320 10324 10328 10332 10336 10340 10344 10348 10352 10356 10360 10364 10368 10372 10376 10380 10384 10388 10392 10396 10400 10404 10408 10412 10416 10420 10424 10428 10432 10436 10440 10444 10448 10452 10456 10460 10464 10468 10472 10476 10480 10484 10488 10492 10496 10500 10504 10508 10512 10516 10520 10524 10528 10532 10536 10540 10544 10548 10552 10556 10560 10564 10568 10572 10576 10580 10584 10588 10592 10596 10600 10604 10608 10612 10616 10620 10624 10628 10632 10636 10640 10644 10648 10652 10656 10660 10664 10668 10672 10676 10680 10684 10688 10692 10696 10700 10704 10708 10712 10716 10720 10724 10728 10732 10736 10740 10744 10748 10752 10756 10760 10764 10768 10772 10776 10780 10784 10788 10792 10796 10800 10804 10808 10812 10816 10820 10824 10828 10832 10836 10840 10844 10848 10852 10856 10860 10864 10868 10872 10876 10880 10884 10888 10892 10896 10900 10904 10908 10912 10916 10920 10924 10928 10932 10936 10940 10944 10948 10952 10956 10960 10964 10968 10972 10976 10980 10984 10988 10992 10996 11000 11004 11008 11012 11016 11020 11024 11028 11032 11036 11040 11044 11048 11052 11056 11060 11064 11068 11072 11076 11080 11084 11088 11092 11096 11100 11104 11108 11112 11116 11120 11124 11128 11132 11136 11140 11144 11148 11152 11156 11160 11164 11168 11172 11176 11180 11184 11188 11192 11196 11200 11204 11208 11212 11216 11220 11224 11228 11232 11236 11240 11244 11248 11252 11256 11260 11264 11268 11272 11276 11280 11284 11288 11292 11296 11300 11304 11308 11312 11316 11320 11324 11328 11332 11336 11340 11344 11348 11352 11356 11360 11364 11368 11372 11376 11380 11384 11388 11392 11396 11400 11404 11408 11412 11416 11420 11424 11428 11432 11436 11440 11444 11448 11452 11456 11460 11464 11468 11472 11476 11480 11484 11488 11492 11496 11500 11504 11508 11512 11516 11520 11524 11528 11532 11536 11540 11544 11548 11552 11556 11560 11564 11568 11572 11576 11580 11584 11588 11592 11596 11600 11604 11608 11612 11616 11620 11624 11628 11632 11636 11640 11644 11648 11652 11656 11660 11664 11668 11672 11676 11680 11684 11688 11692 11696 11700 11704 11708 11712 11716 11720 11724 11728 11732 11736 11740 11744 11748 11752 11756 11760 11764 11768 11772 11776 11780 11784 11788 11792 11796 11800 11804 11808 11812 11816 11820 11824 11828 11832 11836 11840 11844 11848 11852 11856 11860 11864 11868 11872 11876 11880 11884 11888 11892 11896 11900 11904 11908 11912 11916 11920 11924 11928 11932 11936 11940 11944 11948 11952 11956 11960 11964 11968 11972 11976 11980 11984 11988 11992 11996 12000 12004 12008 12012 12016 12020 12024 12028 12032 12036 12040 12044 12048 12052 12056 12060 12064 12068 12072 12076 12080 12084 12088 12092 12096 12100 12104 12108 12112 12116 12120 12124 12128 12132 12136 12140 12144 12148 12152 12156 12160 12164 12168 12172 12176 12180 12184 12188 12192 12196 12200 12204 12208 12212 12216 12220 12224 12228 12232 12236 12240 12244 12248 12252 12256 12260 12264 12268 12272 12276 12280 12284 12288 12292 12296 12300 12304 12308 12312 12316 12320 12324 12328 12332 12336 12340 12344 12348 12352 12356 12360 12364 12368 12372 12376 12380 12384 12388 12392 12396 12400 12404 12408 12412 12416 12420 12424 12428 12432 12436 12440 12444 12448 12452 12456 12460 12464 12468 12472 12476 12480 12484 12488 12492 12496 12500 12504 12508 12512 12516 12520 12524 12528 12532 12536 12540 12544 12548 12552 12556 12560 12564 12568 12572 12576 12580 12584 12588 12592 12596 12600 12604 12608 12612 12616 12620 12624 12628 12632 12636 12640 12644 12648 12652 12656 12660 12664 12668 12672 12676 12680 12684 12688 12692 12696 12700 12704 12708 12712 12716 12720 12724 12728 12732 12736 12740 12744 12748 12752 12756 12760 12764 12768 12772 12776 12780 12784 12788 12792 12796 12800 12804 12808 12812 12816 12820 12824 12828 12832 12836 12840 12844 12848 12852 12856 12860 12864 12868 12872 12876 12880 12884 12888 12892 12896 12900 12904 12908 12912 12916 12920 12924 12928 12932 12936 12940 12944 12948 12952 12956 12960 12964 12968 12972 12976 12980 12984 12988 12992 12996 13000 13004 13008 13012 13016 13020 13024 13028 13032 13036 13040 13044 13048 13052 13056 13060 13064 13068 13072 13076 13080 13084 13088 13092 13096 13100 13104 13108 13112 13116 13120 13124 13128 13132 13136 13140 13144 13148 13152 13156 13160 13164 13168 13172 13176 13180 13184 13188 13192 13196 13200 13204 13208 13212 13216 13220 13224 13228 13232 13236 13240 13244 13248 13252 13256 13260 13264 13268 13272 13276 13280 13284 13288 13292 13296 13300 13304 13308 13312 13316 13320 13324 13328 13332 13336 13340 13344 13348 13352 13356 13360 13364 13368 13372 13376 13380 13384 13388 13392 13396 13400 13404 13408 13412 13416 13420 13424 13428 13432 13436 13440 13444 13448 13452 13456 13460 13464 13468 13472 13476 13480 13484 13488 13492 13496 13500 13504 13508 13512 13516 13520 13524 13528 13532 13536 13540 13544 13548 13552 13556 13560 13564 13568 13572 13576 13580 13584 13588 13592 13596 13600 13604 13608 13612 13616 13620 13624 13628 13632 13636 13640 13644 13648 13652 13656 13660 13664 13668 13672 13676 13680 13684 13688 13692 13696 13700 13704 13708 13712 13716 13720 13724 13728 13732 13736 13740 13744 13748 13752 13756 13760 13764 13768 13772 13776 13780 13784 13788 13792 13796 13800 13804 13808 13812 13816 13820 13824 13828 13832 13836 13840 13844 13848 13852 13856 13860 13864 13868 13872 13876 13880 13884 13888 13892 13896 13900 13904 13908 13912 13916 13920 13924 13928 13932 13936 13940 13944 13948 13952 13956 13960 13964 13968 13972 13976 13980 13984 13988 13992 13996 14000 14004 14008 14012 14016 14020 14024 14028 14032 14036 14040 14044 14048 14052 14056 14060 14064 14068 14072 14076 14080 14084 14088 14092 14096 14100 14104 14108 14112 14116 14120 14124 14128 14132 14136 14140 14144 14148 14152 14156 14160 14164 14168 14172 14176 14180 14184 14188 14192 14196 14200 14204 14208 14212 14216 14220 14224 14228 14232 14236 14240 14244 14248 14252 14256 14260 14264 14268 14272 14276 14280 14284 14288 14292 14296 14300 14304 14308 14312 14316 14320 14324 14328 14332 14336 14340 14344 14348 14352 14356 14360 14364 14368 14372 14376 14380 14384 14388 14392 14396 14400 14404 14408 14412 14416 14420 14424 14428 14432 14436 14440 14444 14448 14452 14456 14460 14464 14468 14472 14476 14480 14484 14488 14492 14496 14500 14504 14508 14512 14516 14520 14524 14528 14532 14536 14540 14544 14548 14552 14556 14560 14564 14568 14572 14576 14580 14584 14588 14592 14596 14600 14604 14608 14612 14616 14620 14624 14628 14632 14636 14640 14644 14648 14652 14656 14660 14664 14668 14672 14676 14680 14684 14688 14692 14696 14700 14704 14708 14712 14716 14720 14724 14728 14732 14736 14740 14744 14748 14752 14756 14760 14764 14768 14772 14776 14780 14784 14788 14792 14796 14800 14804 14808 14812 14816 14820 14824 14828 14832 14836 14840 14844 14848 14852 14856 14860 14864 14868 14872 14876 14880 14884 14888 14892 14896 14900 14904 14908 14912 14916 14920 14924 14928 14932 14936 14940 14944 14948 14952 14956 14960 14964 14968 14972 14976 14980 14984 14988 14992 14996 15000 15004 15008 15012 15016 15020 15024 15028 15032 15036 15040 15044 15048 15052 15056 15060 15064 15068 15072 15076 15080 15084 15088 15092 15096 15100 15104 15108 15112 15116 15120 15124 15128 15132 15136 15140 15144 15148 15152 15156 15160 15164 15168 15172 15176 15180 15184 15188 15192 15196 15200 15204 15208 15212 15216 15220 15224 15228 15232 15236 15240 15244 15248 15252 15256 15260 15264 15268 15272 15276 15280 15284 15288 15292 15296 15300 15304 15308 15312 15316 15320 15324 15328 15332 15336 15340 15344 15348 15352 15356 15360 15364 15368 15372 15376 15380 15384 15388 15392 15396 15400 15404 15408 15412 15416 15420 15424 15428 15432 15436 15440 15444 15448 15452 15456 15460 15464 15468 15472 15476 15480 15484 15488 15492 15496 15500 15504 15508 15512 15516 15520 15524 15528 15532 15536 15540 15544 15548 15552 15556 15560 15564 15568 15572 15576 15580 15584 15588 15592 15596 15600 15604 15608 15612 15616 15620 15624 15628 15632 15636 15640 15644 15648 15652 15656 15660 15664 15668 15672 15676 15680 15684 15688 15692 15696 15700 15704 15708 15712 15716 15720 15724 15728 15732 15736 15740 15744 15748 15752 15756 15760 15764 15768 15772 15776 15780 15784 15788 15792 15796 15800 15804 15808 15812 15816 15820 15824 15828 15832 15836 15840 15844 15848 15852 15856 15860 15864 15868 15872 15876 15880 15884 15888 15892 15896 15900 15904 15908 15912 15916 15920 15924 15928 15932 15936 15940 15944 15948 15952 15956 15960 15964 15968 15972 15976 15980 15984 15988 15992 15996 16000 16004 16008 16012 16016 16020 16024 16028 16032 16036 16040 16044 16048 16052 16056 16060 16064 16068 16072 16076 16080 16084 16088 16092 16096 16100 16104 16108 16112 16116 16120 16124 16128 16132 16136 16140 16144 16148 16152 16156 16160 16164 16168 16172 16176 16180 16184 16188 16192 16196 16200 16204 16208 16212 16216 16220 16224 16228 16232 16236 16240 16244 16248 16252 16256 16260 16264 16268 16272 16276 16280 16284 16288 16292 16296 16300 16304 16308 16312 16316 16320 16324 16328 16332 16336 16340 16344 16348 16352 16356 16360 16364 16368 16372 16376 16380 16384 16388 16392 16396 16400 16404 16408 16412 16416 16420 16424 16428 16432 16436 16440 16444 16448 16452 16456 16460 16464 16468 16472 16476 16480 16484 16488 16492 16496 16500 16504 16508 16512 16516 16520 16524 16528 16532 16536 16540 16544 16548 16552 16556 16560 16564 16568 16572 16576 16580 16584 16588 16592 16596 16600 16604 16608 16612 16616 16620 16624 16628 16632 16636 16640 16644 16648 16652 16656 16660 16664 16668 16672 16676 16680 16684 16688 16692 16696 16700 16704 16708 16712 16716 16720 16724 16728 16732 16736 16740 16744 16748 16752 16756 16760 16764 16768 16772 16776 16780 16784 16788 16792 16796 16800 16804 16808 16812 16816 16820 16824 16828 16832 16836 16840 16844 16848 16852 16856 16860 16864 16868 16872 16876 16880 16884 16888 16892 16896 16900 16904 16908 16912 16916 16920 16924 16928 16932 16936 16940 16944 16948 16952 16956 16960 16964 16968 16972 16976 16980 16984 16988 16992 16996 17000 17004 17008 17012 17016 17020 17024 17028 17032 17036 17040 17044 17048 17052 17056 17060 17064 17068 17072 17076 17080 17084 17088 17092 17096 17100 17104 17108 17112 17116 17120 17124 17128 17132 17136 17140 17144 17148 17152 17156 17160 17164 17168 17172 17176 17180 17184 17188 17192 17196 17200 17204 17208 17212 17216 17220 17224 17228 17232 17236 17240 17244 17248 17252 17256 17260 17264 17268 17272 17276 17280 17284 17288 17292 17296 17300 17304 17308 17312 17316 17320 17324 17328 17332 17336 17340 17344 17348 17352 17356 17360 17364 17368 17372 17376 17380 17384 17388 17392 17396 17400 17404 17408 17412 17416 17420 17424 17428 17432 17436 17440 17444 17448 17452 17456 17460 17464 17468 17472 17476 17480 17484 17488 17492 17496 17500 17504 17508 17512 17516 17520 17524 17528 17532 17536 17540 17544 17548 17552 17556 17560 17564 17568 17572 17576 17580 17584 17588 17592 17596 17600 17604 17608 17612 17616 17620 17624 17628 17632 17636 17640 17644 17648 17652 17656 17660 17664 17668 17672 17676 17680 17684 17688 17692 17696 17700 17704 17708 17712 17716 17720 17724 17728 17732 17736 17740 17744 17748 17752 17756 17760 17764 17768 17772 17776 17780 17784 17788 17792 17796 17800 17804 17808 17812 17816 17820 17824 17828 17832 17836 17840 17844 17848 17852 17856 17860 17864 17868 17872 17876 17880 17884 17888 17892 17896 17900 17904 17908 17912 17916 17920 17924 17928 17932 17936 17940 17944 17948 17952 17956 17960 17964 17968 17972 17976 17980 17984 17988 17992 17996 18000 18004 18008 18012 18016 18020 18024 18028 18032 18036 18040 18044 18048 18052 18056 18060 18064 18068 18072 18076 18080 18084 18088 18092 18096 18100 18104 18108 18112 18116 18120 18124 18128 18132 18136 18140 18144 18148 18152 18156 18160 18164 18168 18172 18176 18180 18184 18188 18192 18196 18200 18204 18208 18212 18216 18220 18224 18228 18232 18236 18240 18244 18248 18252 18256 18260 18264 18268 18272 18276 18280 18284 18288 18292 18296 18300 18304 18308 18312 18316 18320 18324 18328 18332 18336 18340 18344 18348 18352 18356 18360 18364 18368 18372 18376 18380 18384 18388 18392 18396 18400 18404 18408 18412 18416 18420 18424 18428 18432 18436 18440 18444 18448 18452 18456 18460 18464 18468 18472 18476 18480 18484 18488 18492 18496 18500 18504 18508 18512 18516 18520 18524 18528 18532 18536 18540 18544 18548 18552 18556 18560 18564 18568 18572 18576 18580 18584 18588 18592 18596 18600 18604 18608 18612 18616 18620 18624 18628 18632 18636 18640 18644 18648 18652 18656 18660 18664 18668 18672 18676 18680 18684 18688 18692 18696 18700 18704 18708 18712 18716 18720 18724 18728 18732 18736 18740 18744 18748 18752 18756 18760 18764 18768 18772 18776 18780 18784 18788 18792 18796 18800 18804 18808 18812 18816 18820 18824 18828 18832 18836 18840 18844 18848 18852 18856 18860 18864 18868 18872 18876 18880 18884 18888 18892 18896 18900 18904 18908 18912 18916 18920 18924 18928 18932 18936 18940 18944 18948 18952 18956 18960 18964 18968 18972 18976 18980 18984 18988 18992 18996 19000 19004 19008 19012 19016 19020 19024 19028 19032 19036 19040 19044 19048 19052 19056 19060 19064 19068 19072 19076 19080 19084 19088 19092 19096 19100 19104 19108 19112 19116 19120 19124 19128 19132 19136 19140 19144 19148 19152 19156 19160 19164 19168 19172 19176 19180 19184 19188 19192 19196 19200 19204 19208 19212 19216 19220 19224 19228 19232 19236 19240 19244 19248 19252 19256 19260 19264 19268 19272 19276 19280 19284 19288 19292 19296 19300 19304 19308 19312 19316 19320 19324 19328 19332 19336 19340 19344 19348 19352 19356 19360 19364 19368 19372 19376 19380 19384 19388 19392 19396 19400 19404 19408 19412 19416 19420 19424 19428 19432 19436 19440 19444 19448 19452 19456 19460 19464 19468 19472 19476 19480 19484 19488 19492 19496 19500 19504 19508 19512 19516 19520 19524 19528 19532 19536 19540 19544 19548 19552 19556 19560 19564 19568 19572 19576 19580 19584 19588 19592 19596 19600 19604 19608 19612 19616 19620 19624 19628 19632 19636 19640 19644 19648 19652 19656 19660 19664 19668 19672 19676 19680 19684 19688 19692 19696 19700 19704 19708 19712 19716 19720 19724 19728 19732 19736 19740 19744 19748 19752 19756 19760 19764 19768 19772 19776 19780 19784 19788 19792 19796 19800 19804 19808 19812 19816 19820 19824 19828 19832 19836 19840 19844 19848 19852 19856 19860 19864 19868 19872 19876 19880 19884 19888 19892 19896 19900 19904 19908 19912 19916 19920 19924 19928 19932 19936 19940 19944 19948 19952 19956 19960 19964 19968 19972 19976 19980 19984 19988 19992 19996 20000 20004 20008 20012 20016 20020 20024 20028 20032 20036 20040 20044 20048 20052 20056 20060 20064 20068 20072 20076 20080 20084 20088 20092 20096 20100 20104 20108 20112 20116 20120 20124 20128 20132 20136 20140 20144 20148 20152 20156 20160 20164 20168 20172 20176 20180 20184 20188 20192 20196 20200 20204 20208 20212 20216 20220 20224 20228 20232 20236 20240 20244 20248 20252 20256 20260 20264 20268 20272 20276 20280 20284 20288 20292 20296 20300 20304 20308 20312 20316 20320 20324 20328 20332 20336 20340 20344 20348 20352 20356 20360 20364 20368 20372 20376 20380 20384 20388 20392 20396 20400 20404 20408 20412 20416 20420 20424 20428 20432 20436 20440 20444 20448 20452 20456 20460 20464 20468 20472 20476 20480 20484 20488 20492 20496 20500 20504 20508 20512 20516 20520 20524 20528 20532 20536 20540 20544 20548 20552 20556 20560 20564 20568 20572 20576 20580 20584 20588 20592 20596 20600 20604 20608 20612 20616 20620 20624 20628 20632 20636 20640 20644 20648 20652 20656 20660 20664 20668 20672 20676 20680 20684 20688 20692 20696 20700 20704 20708 20712 20716 20720 20724 20728 20732 20736 20740 20744 20748 20752 20756 20760 20764 20768 20772 20776 20780 20784 20788 20792 20796 20800 20804 20808 20812 20816 20820 20824 20828 20832 20836 20840 20844 20848 20852 20856 20860 20864 20868 20872 20876 20880 20884 20888 20892 20896 20900 20904 20908 20912 20916 20920 20924 20928 20932 20936 20940 20944 20948 20952 20956 20960 20964 20968 20972 20976 20980 20984 20988 20992 20996 21000 21004 21008 21012 21016 21020 21024 21028 21032 21036 21040 21044 21048 21052 21056 21060 21064 21068 21072 21076 21080 21084 21088 21092 21096 21100 21104 21108 21112 21116 21120 21124 21128 21132 21136 21140 21144 21148 21152 21156 21160 21164 21168 21172 21176 21180 21184 21188 21192 21196 21200 21204 21208 21212 21216 21220 21224 21228 21232 21236 21240 21244 21248 21252 21256 21260 21264 21268 21272 21276 21280 21284 21288 21292 21296 21300 21304 21308 21312 21316 21320 21324 21328 21332 21336 21340 21344 21348 21352 21356 21360 21364 21368 21372 21376 21380 21384 21388 21392 21396 21400 21404 21408 21412 21416 21420 21424 21428 21432 21436 21440 21444 21448 21452 21456 21460 21464 21468 21472 21476 21480 21484 21488 21492 21496 21500 21504 21508 21512 21516 21520 21524 21528 21532 21536 21540 21544 21548 21552 21556 21560 21564 21568 21572 21576 21580 21584 21588 21592 21596 21600 21604 21608 21612 21616 21620 21624 21628 21632 21636 21640 21644 21648 21652 21656 21660 21664 21668 21672 21676 21680 21684 21688 21692 21696 21700 21704 21708 21712 21716 21720 21724 21728 21732 21736 21740 21744 21748 21752 21756 21760 21764 21768 21772 21776 21780 21784 21788 21792 21796 21800 21804 21808 21812 21816 21820 21824 21828 21832 21836 21840 21844 21848 21852 21856 21860 21864 21868 21872 21876 21880 21884 21888 21892 21896 21900 21904 21908 21912 21916 21920 21924 21928 21932 21936 21940 21944 21948 21952 21956 21960 21964 21968 21972 21976 21980 21984 21988 21992 21996 22000 22004 22008 22012 22016 22020 22024 22028 22032 22036 22040 22044 22048 22052 22056 22060 22064 22068 22072 22076 22080 22084 22088 22092 22096 22100 22104 22108 22112 22116 22120 22124 22128 22132 22136 22140 22144 22148 22152 22156 22160 22164 22168 22172 22176 22180 22184 22188 22192 22196 22200 22204 22208 22212 22216 22220 22224 22228 22232 22236 22240 22244 22248 22252 22256 22260 22264 22268 22272 22276 22280 22284 22288 22292 22296 22300 22304 22308 22312 22316 22320 22324 22328 22332 22336 22340 22344 22348 22352 22356 22360 22364 22368 22372 22376 22380 22384 22388 22392 22396 22400 22404 22408 22412 22416 22420 22424 22428 22432 22436 22440 22444 22448 22452 22456 22460 22464 22468 22472 22476 22480 22484 22488 22492 22496 22500 22504 22508 22512 22516 22520 22524 22528 22532 22536 22540 22544 22548 22552 22556 22560 22564 22568 22572 22576 22580 22584 22588 22592 22596 22600 22604 22608 22612 22616 22620 22624 22628 22632 22636 22640 22644 22648 22652 22656 22660 22664 22668 22672 22676 22680 22684 22688 22692 22696 22700 22704 22708 22712 22716 22720 22724 22728 22732 22736 22740 22744 22748 22752 22756 22760 22764 22768 22772 22776 22780 22784 22788 22792 22796 22800 22804 22808 22812 22816 22820 22824 22828 22832 22836 22840 22844 22848 22852 22856 22860 22864 22868 22872 22876 22880 22884 22888 22892 22896 22900 22904 22908 22912 22916 22920 22924 22928 22932 22936 22940 22944 22948 22952 22956 22960 22964 22968 22972 22976 22980 22984 22988 22992 22996 23000 23004 23008 23012 23016 23020 23024 23028 23032 23036 23040 23044 23048 23052 23056 23060 23064 23068 23072 23076 23080 23084 23088 23092 23096 23100 23104 23108 23112 23116 23120 23124 23128 23132 23136 23140 23144 23148 23152 23156 23160 23164 23168 23172 23176 23180 23184 23188 23192 23196 23200 23204 23208 23212 23216 23220 23224 23228 23232 23236 23240 23244 23248 23252 23256 23260 23264 23268 23272 23276 23280 23284 23288 23292 23296 23300 23304 23308 23312 23316 23320 23324 23328 23332 23336 23340 23344 23348 23352 23356 23360 23364 23368 23372 23376 23380 23384 23388 23392 23396 23400 23404 23408 23412 23416 23420 23424 23428 23432 23436 23440 23444 23448 23452 23456 23460 23464 23468 23472 23476 23480 23484 23488 23492 23496 23500 23504 23508 23512 23516 23520 23524 23528 23532 23536 23540 23544 23548 23552 23556 23560 23564 23568 23572 23576 23580 23584 23588 23592 23596 23600 23604 23608 23612 23616 23620 23624 23628 23632 23636 23640 23644 23648 23652 23656 23660 23664 23668 23672 23676 23680 23684 23688 23692 23696 23700 23704 23708 23712 23716 23720 23724 23728 23732 23736 23740 23744 23748 23752 23756 23760 23764 23768 23772 23776 23780 23784 23788 23792 23796 23800 23804 23808 23812 23816 23820 23824 23828 23832 23836 23840 23844 23848 23852 23856 23860 23864 23868 23872 23876 23880 23884 23888 23892 23896 23900 23904 23908 23912 23916 23920 23924 23928 23932 23936 23940 23944 23948 23952 23956 23960 23964 23968 23972 23976 23980 23984 23988 23992 23996 24000 24004 24008 24012 24016 24020 24024 24028 24032 24036 24040 24044 24048 24052 24056 24060 24064 24068 24072 24076 24080 24084 24088 24092 24096 24100 24104 24108 24112 24116 24120 24124 24128 24132 24136 24140 24144 24148 24152 24156 24160 24164 24168 24172 24176 24180 24184 24188 24192 24196 24200 24204 24208 24212 24216 24220 24224 24228 24232 24236 24240 24244 24248 24252 24256 24260 24264 24268 24272 24276 24280 24284 24288 24292 24296 24300 24304 24308 24312 24316 24320 24324 24328 24332 24336 24340 24344 24348 24352 24356 24360 24364 24368 24372 24376 24380 24384 24388 24392 24396 24400 24404 24408 24412 24416 24420 24424 24428 24432 24436 24440 24444 24448 24452 24456 24460 24464 24468 24472 24476 24480 24484 24488 24492 24496 24500 24504 24508 24512 24516 24520 24524 24528 24532 24536 24540 24544 24548 24552 24556 24560 24564 24568 24572 24576 
CONNECTIVITY vtktypeint64
0 17 171 18 
153 171 154 0 
0 17 170 171 
153 171 0 170 
154 0 171 1 
171 0 18 1 
1 18 172 19 
154 172 155 1 
1 18 171 172 
154 172 1 171 
155 1 172 2 
172 1 19 2 
2 19 173 20 
155 173 156 2 
2 19 172 173 
155 173 2 172 
156 2 173 3 
173 2 20 3 
3 20 174 21 
156 174 157 3 
3 20 173 174 
156 174 3 173 
157 3 174 4 
174 3 21 4 
4 21 175 22 
157 175 158 4 
4 21 174 175 
157 175 4 174 
158 4 175 5 
175 4 22 5 
5 22 176 23 
158 176 159 5 
5 22 175 176 
158 176 5 175 
159 5 176 6 
176 5 23 6 
6 23 177 24 
159 177 160 6 
6 23 176 177 
159 177 6 176 
160 6 177 7 
177 6 24 7 
7 24 178 25 
160 178 161 7 
7 24 177 178 
160 178 7 177 
161 7 178 8 
178 7 25 8 
8 25 179 26 
161 179 162 8 
8 25 178 179 
161 179 8 178 
162 8 179 9 
179 8 26 9 
9 26 180 27 
162 180 163 9 
9 26 179 180 
162 180 9 179 
163 9 180 10 
180 9 27 10 
10 27 181 28 
163 181 164 10 
10 27 180 181 
163 181 10 180 
164 10 181 11 
181 10 28 11 
11 28 182 29 
164 182 165 11 
11 28 181 182 
164 182 11 181 
165 11 182 12 
182 11 29 12 
12 29 183 30 
165 183 166 12 
12 29 182 183 
165 183 12 182 
166 12 183 13 
183 12 30 13 
13 30 184 31 
166 184 167 13 
13 30 183 184 
166 184 13 183 
167 13 184 14 
184 13 31 14 
14 31 185 32 
167 185 168 14 
14 31 184 185 
167 185 14 184 
168 14 185 15 
185 14 32 15 
15 32 186 33 
168 186 169 15 
15 32 185 186 
168 186 15 185 
169 15 186 16 
186 15 33 16 
17 34 188 35 
170 188 171 17 
17 34 187 188 
170 188 17 187 
171 17 188 18 
188 17 35 18 
18 35 189 36 
171 189 172 18 
18 35 188 189 
171 189 18 188 
172 18 189 19 
189 18 36 19 
19 36 190 37 
172 190 173 19 
19 36 189 190 
172 190 19 189 
173 19 190 20 
190 19 37 20 
20 37 191 38 
173 191 174 20 
20 37 190 191 
173 191 20 190 
174 20 191 21 
191 20 38 21 
21 38 192 39 
174 192 175 21 
21 38 191 192 
174 192 21 191 
175 21 192 22 
192 21 39 22 
22 39 193 40 
175 193 176 22 
22 39 192 193 
175 193 22 192 
176 22 193 23 
193 22 40 23 
23 40 194 41 
176 194 177 23 
23 40 193 194 
176 194 23 193 
177 23 194 24 
194 23 41 24 
24 41 195 42 
177 195 178 24 
24 41 194 195 
177 195 24 194 
178 24 195 25 
195 24 42 25 
25 42 196 43 
178 196 179 25 
25 42 195 196 
178 196 25 195 
179 25 196 26 
196 25 43 26 
26 43 197 44 
179 197 180 26 
26 43 196 197 
179 197 26 196 
180 26 197 27 
197 26 44 27 
27 44 198 45 
180 198 181 27 
27 44 197 198 
180 198 27 197 
181 27 198 28 
198 27 45 28 
28 45 199 46 
181 199 182 28 
28 45 198 199 
181 199 28 198 
182 28 199 29 
199 28 46 29 
29 46 200 47 
182 200 183 29 
29 46 199 200 
182 200 29 199 
183 29 200 30 
200 29 47 30 
30 47 201 48 
183 201 184 30 
30 47 200 201 
183 201 30 200 
184 30 201 31 
201 30 48 31 
31 48 202 49 
184 202 185 31 
31 48 201 202 
184 202 31 201 
185 31 202 32 
202 31 49 32 
32 49 203 50 
185 203 186 32 
32 49 202 203 
185 203 32 202 
186 32 203 33 
203 32 50 33 
34 51 205 52 
187 205 188 34 
34 51 204 205 
187 205 34 204 
188 34 205 35 
205 34 52 35 
35 52 206 53 
188 206 189 35 
35 52 205 206 
188 206 35 205 
189 35 206 36 
206 35 53 36 
36 53 207 54 
189 207 190 36 
36 53 206 207 
189 207 36 206 
190 36 207 37 
207 36 54 37 
37 54 208 55 
190 208 191 37 
37 54 207 208 
190 208 37 207 
191 37 208 38 
208 37 55 38 
38 55 209 56 
191 209 192 38 
38 55 208 209 
191 209 38 208 
192 38 209 39 
209 38 56 39 
39 56 210 57 
192 210 193 39 
39 56 209 210 
192 210 39 209 
193 39 210 40 
210 39 57 40 
40 57 211 58 
193 211 194 40 
40 57 210 211 
193 211 40 210 
194 40 211 41 
211 40 58 41 
41 58 212 59 
194 212 195 41 
41 58 211 212 
194 212 41 211 
195 41 212 42 
212 41 59 42 
42 59 213 60 
195 213 196 42 
42 59 212 213 
195 213 42 212 
196 42 213 43 
213 42 60 43 
43 60 214 61 
196 214 197 43 
43 60 213 214 
196 214 43 213 
197 43 214 44 
214 43 61 44 
44 61 215 62 
197 215 198 44 
44 61 214 215 
197 215 44 214 
198 44 215 45 
215 44 62 45 
45 62 216 63 
198 216 199 45 
45 62 215 216 
198 216 45 215 
199 45 216 46 
216 45 63 46 
46 63 217 64 
199 217 200 46 
46 63 216 217 
199 217 46 216 
200 46 217 47 
217 46 64 47 
47 64 218 65 
200 218 201 47 
47 64 217 218 
200 218 47 217 
201 47 218 48 
218 47 65 48 
48 65 219 66 
201 219 202 48 
48 65 218 219 
201 219 48 218 
202 48 219 49 
219 48 66 49 
49 66 220 67 
202 220 203 49 
49 66 219 220 
202 220 49 219 
203 49 220 50 
220 49 67 50 
51 68 222 69 
204 222 205 51 
51 68 221 222 
204 222 51 221 
205 51 222 52 
222 51 69 52 
52 69 223 70 
205 223 206 52 
52 69 222 223 
205 223 52 222 
206 52 223 53 
223 52 70 53 
53 70 224 71 
206 224 207 53 
53 70 223 224 
206 224 53 223 
207 53 224 54 
224 53 71 54 
54 71 225 72 
207 225 208 54 
54 71 224 225 
207 225 54 224 
208 54 225 55 
225 54 72 55 
55 72 226 73 
208 226 209 55 
55 72 225 226 
208 226 55 225 
209 55 226 56 
226 55 73 56 
56 73 227 74 
209 227 210 56 
56 73 226 227 
209 227 56 226 
210 56 227 57 
227 56 74 57 
57 74 228 75 
210 228 211 57 
57 74 227 228 
210 228 57 227 
211 57 228 58 
228 57 75 58 
58 75 229 76 
211 229 212 58 
58 75 228 229 
211 229 58 228 
212 58 229 59 
229 58 76 59 
59 76 230 77 
212 230 213 59 
59 76 229 230 
212 230 59 229 
213 59 230 60 
230 59 77 60 
60 77 231 78 
213 231 214 60 
60 77 230 231 
213 231 60 230 
214 60 231 61 
231 60 78 61 
61 78 232 79 
214 232 215 61 
61 78 231 232 
214 232 61 231 
215 61 232 62 
232 61 79 62 
62 79 233 80 
215 233 216 62 
62 79 232 233 
215 233 62 232 
216 62 233 63 
233 62 80 63 
63 80 234 81 
216 234 217 63 
63 80 233 234 
216 234 63 233 
217 63 234 64 
234 63 81 64 
64 81 235 82 
217 235 218 64 
64 81 234 235 
217 235 64 234 
218 64 235 65 
235 64 82 65 
65 82 236 83 
218 236 219 65 
65 82 235 236 
218 236 65 235 
219 65 236 66 
236 65 83 66 
66 83 237 84 
219 237 220 66 
66 83 236 237 
219 237 66 236 
220 66 237 67 
237 66 84 67 
68 85 239 86 
221 239 222 68 
68 85 238 239 
221 239 68 238 
222 68 239 69 
239 68 86 69 
69 86 240 87 
222 240 223 69 
69 86 239 240 
222 240 69 239 
223 69 240 70 
240 69 87 70 
70 87 241 88 
223 241 224 70 
70 87 240 241 
223 241 70 240 
224 70 241 71 
241 70 88 71 
71 88 242 89 
224 242 225 71 
71 88 241 242 
224 242 71 241 
225 71 242 72 
242 71 89 72 
72 89 243 90 
225 243 226 72 
72 89 242 243 
225 243 72 242 
226 72 243 73 
243 72 90 73 
73 90 244 91 
226 244 227 73 
73 90 243 244 
226 244 73 243 
227 73 244 74 
244 73 91 74 
74 91 245 92 
227 245 228 74 
74 91 244 245 
227 245 74 244 
228 74 245 75 
245 74 92 75 
75 92 246 93 
228 246 229 75 
75 92 245 246 
228 246 75 245 
229 75 246 76 
246 75 93 76 
76 93 247 94 
229 247 230 76 
76 93 246 247 
229 247 76 246 
230 76 247 77 
247 76 94 77 
77 94 248 95 
230 248 231 77 
77 94 247 248 
230 248 77 247 
231 77 248 78 
248 77 95 78 
78 95 249 96 
231 249 232 78 
78 95 248 249 
231 249 78 248 
232 78 249 79 
249 78 96 79 
79 96 250 97 
232 250 233 79 
79 96 249 250 
232 250 79 249 
233 79 250 80 
250 79 97 80 
80 97 251 98 
233 251 234 80 
80 97 250 251 
233 251 80 250 
234 80 251 81 
251 80 98 81 
81 98 252 99 
234 252 235 81 
81 98 251 252 
234 252 81 251 
235 81 252 82 
252 81 99 82 
82 99 253 100 
235 253 236 82 
82 99 252 253 
235 253 82 252 
236 82 253 83 
253 82 100 83 
83 100 254 101 
236 254 237 83 
83 100 253 254 
236 254 83 253 
237 83 254 84 
254 83 101 84 
85 102 256 103 
238 256 239 85 
85 102 255 256 
238 256 85 255 
239 85 256 86 
256 85 103 86 
86 103 257 104 
239 257 240 86 
86 103 256 257 
239 257 86 256 
240 86 257 87 
257 86 104 87 
87 104 258 105 
240 258 241 87 
87 104 257 258 
240 258 87 257 
241 87 258 88 
258 87 105 88 
88 105 259 106 
241 259 242 88 
88 105 258 259 
241 259 88 258 
242 88 259 89 
259 88 106 89 
89 106 260 107 
242 260 243 89 
89 106 259 260 
242 260 89 259 
243 89 260 90 
260 89 107 90 
90 107 261 108 
243 261 244 90 
90 107 260 261 
243 261 90 260 
244 90 261 91 
261 90 108 91 
91 108 262 109 
244 262 245 91 
91 108 261 262 
244 262 91 261 
245 91 262 92 
262 91 109 92 
92 109 263 110 
245 263 246 92 
92 109 262 263 
245 263 92 262 
246 92 263 93 
263 92 110 93 
93 110 264 111 
246 264 247 93 
93 110 263 264 
246 264 93 263 
247 93 264 94 
264 93 111 94 
94 111 265 112 
247 265 248 94 
94 111 264 265 
247 265 94 264 
248 94 265 95 
265 94 112 95 
95 112 266 113 
248 266 249 95 
95 112 265 266 
248 266 95 265 
249 95 266 96 
266 95 113 96 
96 113 267 114 
249 267 250 96 
96 113 266 267 
249 267 96 266 
250 96 267 97 
267 96 114 97 
97 114 268 115 
250 268 251 97 
97 114 267 268 
250 268 97 267 
251 97 268 98 
268 97 115 98 
98 115 269 116 
251 269 252 98 
98 115 268 269 
251 269 98 268 
252 98 269 99 
269 98 116 99 
99 116 270 117 
252 270 253 99 
99 116 269 270 
252 270 99 269 
253 99 270 100 
270 99 117 100 
100 117 271 118 
253 271 254 100 
100 117 270 271 
253 271 100 270 
254 100 271 101 
271 100 118 101 
102 119 273 120 
255 273 256 102 
102 119 272 273 
255 273 102 272 
256 102 273 103 
273 102 120 103 
103 120 274 121 
256 274 257 103 
103 120 273 274 
256 274 103 273 
257 103 274 104 
274 103 121 104 
104 121 275 122 
257 275 258 104 
104 121 274 275 
257 275 104 274 
258 104 275 105 
275 104 122 105 
105 122 276 123 
258 276 259 105 
105 122 275 276 
258 276 105 275 
259 105 276 106 
276 105 123 106 
106 123 277 124 
259 277 260 106 
106 123 276 277 
259 277 106 276 
260 106 277 107 
277 106 124 107 
107 124 278 125 
260 278 261 107 
107 124 277 278 
260 278 107 277 
261 107 278 108 
278 107 125 108 
108 125 279 126 
261 279 262 108 
108 125 278 279 
261 279 108 278 
262 108 279 109 
279 108 126 109 
109 126 280 127 
262 280 263 109 
109 126 279 280 
262 280 109 279 
263 109 280 110 
280 109 127 110 
110 127 281 128 
263 281 264 110 
110 127 280 281 
263 281 110 280 
264 110 281 111 
281 110 128 111 
111 128 282 129 
264 282 265 111 
111 128 281 282 
264 282 111 281 
265 111 282 112 
282 111 129 112 
112 129 283 130 
265 283 266 112 
112 129 282 283 
265 283 112 282 
266 112 283 113 
283 112 130 113 
113 130 284 131 
266 284 267 113 
113 130 283 284 
266 284 113 283 
267 113 284 114 
284 113 131 114 
114 131 285 132 
267 285 268 114 
114 131 284 285 
267 285 114 284 
268 114 285 115 
285 114 132 115 
115 132 286 133 
268 286 269 115 
115 132 285 286 
268 286 115 285 
269 115 286 116 
286 115 133 116 
116 133 287 134 
269 287 270 116 
116 133 286 287 
269 287 116 286 
270 116 287 117 
287 116 134 117 
117 134 288 135 
270 288 271 117 
117 134 287 288 
270 288 117 287 
271 117 288 118 
288 117 135 118 
119 136 290 137 
272 290 273 119 
119 136 289 290 
272 290 119 289 
273 119 290 120 
290 119 137 120 
120 137 291 138 
273 291 274 120 
120 137 290 291 
273 291 120 290 
274 120 291 121 
291 120 138 121 
121 138 292 139 
274 292 275 121 
121 138 291 292 
274 292 121 291 
275 121 292 122 
292 121 139 122 
122 139 293 140 
275 293 276 122 
122 139 292 293 
275 293 122 292 
276 122 293 123 
293 122 140 123 
123 140 294 141 
276 294 277 123 
123 140 293 294 
276 294 123 293 
277 123 294 124 
294 123 141 124 
124 141 295 142 
277 295 278 124 
124 141 294 295 
277 295 124 294 
278 124 295 125 
295 124 142 125 
125 142 296 143 
278 296 279 125 
125 142 295 296 
278 296 125 295 
279 125 296 126 
296 125 143 126 
126 143 297 144 
279 297 280 126 
126 143 296 297 
279 297 126 296 
280 126 297 127 
297 126 144 127 
127 144 298 145 
280 298 281 127 
127 144 297 298 
280 298 127 297 
281 127 298 128 
298 127 145 128 
128 145 299 146 
281 299 282 128 
128 145 298 299 
281 299 128 298 
282 128 299 129 
299 128 146 129 
129 146 300 147 
282 300 283 129 
129 146 299 300 
282 300 129 299 
283 129 300 130 
300 129 147 130 
130 147 301 148 
283 301 284 130 
130 147 300 301 
283 301 130 300 
284 130 301 131 
301 130 148 131 
131 148 302 149 
284 302 285 131 
131 148 301 302 
284 302 131 301 
285 131 302 132 
302 131 149 132 
132 149 303 150 
285 303 286 132 
132 149 302 303 
285 303 132 302 
286 132 303 133 
303 132 150 133 
133 150 304 151 
286 304 287 133 
133 150 303 304 
286 304 133 303 
287 133 304 134 
304 133 151 134 
134 151 305 152 
287 305 288 134 
134 151 304 305 
287 305 134 304 
288 134 305 135 
305 134 152 135 
153 170 324 171 
306 324 307 153 
153 170 323 324 
306 324 153 323 
307 153 324 154 
324 153 171 154 
154 171 325 172 
307 325 308 154 
154 171 324 325 
307 325 154 324 
308 154 325 155 
325 154 172 155 
155 172 326 173 
308 326 309 155 
155 172 325 326 
308 326 155 325 
309 155 326 156 
326 155 173 156 
156 173 327 174 
309 327 310 156 
156 173 326 327 
309 327 156 326 
310 156 327 157 
327 156 174 157 
157 174 328 175 
310 328 311 157 
157 174 327 328 
310 328 157 327 
311 157 328 158 
328 157 175 158 
158 175 329 176 
311 329 312 158 
158 175 328 329 
311 329 158 328 
312 158 329 159 
329 158 176 159 
159 176 330 177 
312 330 313 159 
159 176 329 330 
312 330 159 329 
313 159 330 160 
330 159 177 160 
160 177 331 178 
313 331 314 160 
160 177 330 331 
313 331 160 330 
314 160 331 161 
331 160 178 161 
161 178 332 179 
314 332 315 161 
161 178 331 332 
314 332 161 331 
315 161 332 162 
332 161 179 162 
162 179 333 180 
315 333 316 162 
162 179 332 333 
315 333 162 332 
316 162 333 163 
333 162 180 163 
163 180 334 181 
316 334 317 163 
163 180 333 334 
316 334 163 333 
317 163 334 164 
334 163 181 164 
164 181 335 182 
317 335 318 164 
164 181 334 335 
317 335 164 334 
318 164 335 165 
335 164 182 165 
165 182 336 183 
318 336 319 165 
165 182 335 336 
318 336 165 335 
319 165 336 166 
336 165 183 166 
166 183 337 184 
319 337 320 166 
166 183 336 337 
319 337 166 336 
320 166 337 167 
337 166 184 167 
167 184 338 185 
320 338 321 167 
167 184 337 338 
320 338 167 337 
321 167 338 168 
338 167 185 168 
168 185 339 186 
321 339 322 168 
168 185 338 339 
321 339 168 338 
322 168 339 169 
339 168 186 169 
170 187 341 188 
323 341 324 170 
170 187 340 341 
323 341 170 340 
324 170 341 171 
341 170 188 171 
171 188 342 189 
324 342 325 171 
171 188 341 342 
324 342 171 341 
325 171 342 172 
342 171 189 172 
172 189 343 190 
325 343 326 172 
172 189 342 343 
325 343 172 342 
326 172 343 173 
343 172 190 173 
173 190 344 191 
326 344 327 173 
173 190 343 344 
326 344 173 343 
327 173 344 174 
344 173 191 174 
174 191 345 192 
327 345 328 174 
174 191 344 345 
327 345 174 344 
328 174 345 175 
345 174 192 175 
175 192 346 193 
328 346 329 175 
175 192 345 346 
328 346 175 345 
329 175 346 176 
346 175 193 176 
176 193 347 194 
329 347 330 176 
176 193 346 347 
329 347 176 346 
330 176 347 177 
347 176 194 177 
177 194 348 195 
330 348 331 177 
177 194 347 348 
330 348 177 347 
331 177 348 178 
348 177 195 178 
178 195 349 196 
331 349 332 178 
178 195 348 349 
331 349 178 348 
332 178 349 179 
349 178 196 179 
179 196 350 197 
332 350 333 179 
179 196 349 350 
332 350 179 349 
333 179 350 180 
350 179 197 180 
180 197 351 198 
333 351 334 180 
180 197 350 351 
333 351 180 350 
334 180 351 181 
351 180 198 181 
181 198 352 199 
334 352 335 181 
181 198 351 352 
334 352 181 351 
335 181 352 182 
352 181 199 182 
182 199 353 200 
335 353 336 182 
182 199 352 353 
335 353 182 352 
336 182 353 183 
353 182 200 183 
183 200 354 201 
336 354 337 183 
183 200 353 354 
336 354 183 353 
337 183 354 184 
354 183 201 184 
184 201 355 202 
337 355 338 184 
184 201 354 355 
337 355 184 354 
338 184 355 185 
355 184 202 185 
185 202 356 203 
338 356 339 185 
185 202 355 356 
338 356 185 355 
339 185 356 186 
356 185 203 186 
187 204 358 205 
340 358 341 187 
187 204 357 358 
340 358 187 357 
341 187 358 188 
358 187 205 188 
188 205 359 206 
341 359 342 188 
188 205 358 359 
341 359 188 358 
342 188 359 189 
359 188 206 189 
189 206 360 207 
342 360 343 189 
189 206 359 360 
342 360 189 359 
343 189 360 190 
360 189 207 190 
190 207 361 208 
343 361 344 190 
190 207 360 361 
343 361 190 360 
344 190 361 191 
361 190 208 191 
191 208 362 209 
344 362 345 191 
191 208 361 362 
344 362 191 361 
345 191 362 192 
362 191 209 192 
192 209 363 210 
345 363 346 192 
192 209 362 363 
345 363 192 362 
346 192 363 193 
363 192 210 193 
193 210 364 211 
346 364 347 193 
193 210 363 364 
346 364 193 363 
347 193 364 194 
364 193 211 194 
194 211 365 212 
347 365 348 194 
194 211 364 365 
347 365 194 364 
348 194 365 195 
365 194 212 195 
195 212 366 213 
348 366 349 195 
195 212 365 366 
348 366 195 365 
349 195 366 196 
366 195 213 196 
196 213 367 214 
349 367 350 196 
196 213 366 367 
349 367 196 366 
350 196 367 197 
367 196 214 197 
197 214 368 215 
350 368 351 197 
197 214 367 368 
350 368 197 367 
351 197 368 198 
368 197 215 198 
198 215 369 216 
351 369 352 198 
198 215 368 369 
351 369 198 368 
352 198 369 199 
369 198 216 199 
199 216 370 217 
352 370 353 199 
199 216 369 370 
352 370 199 369 
353 199 370 200 
370 199 217 200 
200 217 371 218 
353 371 354 200 
200 217 370 371 
353 371 200 370 
354 200 371 201 
371 200 218 201 
201 218 372 219 
354 372 355 201 
201 218 371 372 
354 372 201 371 
355 201 372 202 
372 201 219 202 
202 219 373 220 
355 373 356 202 
202 219 372 373 
355 373 202 372 
356 202 373 203 
373 202 220 203 
204 221 375 222 
357 375 358 204 
204 221 374 375 
357 375 204 374 
358 204 375 205 
375 204 222 205 
205 222 376 223 
358 376 359 205 
205 222 375 376 
358 376 205 375 
359 205 376 206 
376 205 223 206 
206 223 377 224 
359 377 360 206 
206 223 376 377 
359 377 206 376 
360 206 377 207 
377 206 224 207 
207 224 378 225 
360 378 361 207 
207 224 377 378 
360 378 207 377 
361 207 378 208 
378 207 225 208 
208 225 379 226 
361 379 362 208 
208 225 378 379 
361 379 208 378 
362 208 379 209 
379 208 226 209 
209 226 380 227 
362 380 363 209 
209 226 379 380 
362 380 209 379 
363 209 380 210 
380 209 227 210 
210 227 381 228 
363 381 364 210 
210 227 380 381 
363 381 210 380 
364 210 381 211 
381 210 228 211 
211 228 382 229 
364 382 365 211 
211 228 381 382 
364 382 211 381 
365 211 382 212 
382 211 229 212 
212 229 383 230 
365 383 366 212 
212 229 382 383 
365 383 212 382 
366 212 383 213 
383 212 230 213 
213 230 384 231 
366 384 367 213 
213 230 383 384 
366 384 213 383 
367 213 384 214 
384 213 231 214 
214 231 385 232 
367 385 368 214 
214 231 384 385 
367 385 214 384 
368 214 385 215 
385 214 232 215 
215 232 386 233 
368 386 369 215 
215 232 385 386 
368 386 215 385 
369 215 386 216 
386 215 233 216 
216 233 387 234 
369 387 370 216 
216 233 386 387 
369 387 216 386 
370 216 387 217 
387 216 234 217 
217 234 388 235 
370 388 371 217 
217 234 387 388 
370 388 217 387 
371 217 388 218 
388 217 235 218 
218 235 389 236 
371 389 372 218 
218 235 388 389 
371 389 218 388 
372 218 389 219 
389 218 236 219 
219 236 390 237 
372 390 373 219 
219 236 389 390 
372 390 219 389 
373 219 390 220 
390 219 237 220 
221 238 392 239 
374 392 375 221 
221 238 391 392 
374 392 221 391 
375 221 392 222 
392 221 239 222 
222 239 393 240 
375 393 376 222 
222 239 392 393 
375 393 222 392 
376 222 393 223 
393 222 240 223 
223 240 394 241 
376 394 377 223 
223 240 393 394 
376 394 223 393 
377 223 394 224 
394 223 241 224 
224 241 395 242 
377 395 378 224 
224 241 394 395 
377 395 224 394 
378 224 395 225 
395 224 242 225 
225 242 396 243 
378 396 379 225 
225 242 395 396 
378 396 225 395 
379 225 396 226 
396 225 243 226 
226 243 397 244 
379 397 380 226 
226 243 396 397 
379 397 226 396 
380 226 397 227 
397 226 244 227 
227 244 398 245 
380 398 381 227 
227 244 397 398 
380 398 227 397 
381 227 398 228 
398 227 245 228 
228 245 399 246 
381 399 382 228 
228 245 398 399 
381 399 228 398 
382 228 399 229 
399 228 246 229 
229 246 400 247 
382 400 383 229 
229 246 399 400 
382 400 229 399 
383 229 400 230 
400 229 247 230 
230 247 401 248 
383 401 384 230 
230 247 400 401 
383 401 230 400 
384 230 401 231 
401 230 248 231 
231 248 402 249 
384 402 385 231 
231 248 401 402 
384 402 231 401 
385 231 402 232 
402 231 249 232 
232 249 403 250 
385 403 386 232 
232 249 402 403 
385 403 232 402 
386 232 403 233 
403 232 250 233 
233 250 404 251 
386 404 387 233 
233 250 403 404 
386 404 233 403 
387 233 404 234 
404 233 251 234 
234 251 405 252 
387 405 388 234 
234 251 404 405 
387 405 234 404 
388 234 405 235 
405 234 252 235 
235 252 406 253 
388 406 389 235 
235 252 405 406 
388 406 235 405 
389 235 406 236 
406 235 253 236 
236 253 407 254 
389 407 390 236 
236 253 406 407 
389 407 236 406 
390 236 407 237 
407 236 254 237 
238 255 409 256 
391 409 392 238 
238 255 408 409 
391 409 238 408 
392 238 409 239 
409 238 256 239 
239 256 410 257 
392 410 393 239 
239 256 409 410 
392 410 239 409 
393 239 410 240 
410 239 257 240 
240 257 411 258 
393 411 394 240 
240 257 410 411 
393 411 240 410 
394 240 411 241 
411 240 258 241 
241 258 412 259 
394 412 395 241 
241 258 411 412 
394 412 241 411 
395 241 412 242 
412 241 259 242 
242 259 413 260 
395 413 396 242 
242 259 412 413 
395 413 242 412 
396 242 413 243 
413 242 260 243 
243 260 414 261 
396 414 397 243 
243 260 413 414 
396 414 243 413 
397 243 414 244 
414 243 261 244 
244 261 415 262 
397 415 398 244 
244 261 414 415 
397 415 244 414 
398 244 415 245 
415 244 262 245 
245 262 416 263 
398 416 399 245 
245 262 415 416 
398 416 245 415 
399 245 416 246 
416 245 263 246 
246 263 417 264 
399 417 400 246 
246 263 416 417 
399 417 246 416 
400 246 417 247 
417 246 264 247 
247 264 418 265 
400 418 401 247 
247 264 417 418 
400 418 247 417 
401 247 418 248 
418 247 265 248 
248 265 419 266 
401 419 402 248 
248 265 418 419 
401 419 248 418 
402 248 419 249 
419 248 266 249 
249 266 420 267 
402 420 403 249 
249 266 419 420 
402 420 249 419 
403 249 420 250 
420 249 267 250 
250 267 421 268 
403 421 404 250 
250 267 420 421 
403 421 250 420 
404 250 421 251 
421 250 268 251 
251 268 422 269 
404 422 405 251 
251 268 421 422 
404 422 251 421 
405 251 422 252 
422 251 269 252 
252 269 423 270 
405 423 406 252 
252 269 422 423 
405 423 252 422 
406 252 423 253 
423 252 270 253 
253 270 424 271 
406 424 407 253 
253 270 423 424 
406 424 253 423 
407 253 424 254 
424 253 271 254 
255 272 426 273 
408 426 409 255 
255 272 425 426 
408 426 255 425 
409 255 426 256 
426 255 273 256 
256 273 427 274 
409 427 410 256 
256 273 426 427 
409 427 256 426 
410 256 427 257 
427 256 274 257 
257 274 428 275 
410 428 411 257 
257 274 427 428 
410 428 257 427 
411 257 428 258 
428 257 275 258 
258 275 429 276 
411 429 412 258 
258 275 428 429 
411 429 258 428 
412 258 429 259 
429 258 276 259 
259 276 430 277 
412 430 413 259 
259 276 429 430 
412 430 259 429 
413 259 430 260 
430 259 277 260 
260 277 431 278 
413 431 414 260 
260 277 430 431 
413 431 260 430 
414 260 431 261 
431 260 278 261 
261 278 432 279 
414 432 415 261 
261 278 431 432 
414 432 261 431 
415 261 432 262 
432 261 279 262 
262 279 433 280 
415 433 416 262 
262 279 432 433 
415 433 262 432 
416 262 433 263 
433 262 280 263 
263 280 434 281 
416 434 417 263 
263 280 433 434 
416 434 263 433 
417 263 434 264 
434 263 281 264 
264 281 435 282 
417 435 418 264 
264 281 434 435 
417 435 264 434 
418 264 435 265 
435 264 282 265 
265 282 436 283 
418 436 419 265 
265 282 435 436 
418 436 265 435 
419 265 436 266 
436 265 283 266 
266 283 437 284 
419 437 420 266 
266 283 436 437 
419 437 266 436 
420 266 437 267 
437 266 284 267 
267 284 438 285 
420 438 421 267 
267 284 437 438 
420 438 267 437 
421 267 438 268 
438 267 285 268 
268 285 439 286 
421 439 422 268 
268 285 438 439 
421 439 268 438 
422 268 439 269 
439 268 286 269 
269 286 440 287 
422 440 423 269 
269 286 439 440 
422 440 269 439 
423 269 440 270 
440 269 287 270 
270 287 441 288 
423 441 424 270 
270 287 440 441 
423 441 270 440 
424 270 441 271 
441 270 288 271 
272 289 443 290 
425 443 426 272 
272 289 442 443 
425 443 272 442 
426 272 443 273 
443 272 290 273 
273 290 444 291 
426 444 427 273 
273 290 443 444 
426 444 273 443 
427 273 444 274 
444 273 291 274 
274 291 445 292 
427 445 428 274 
274 291 444 445 
427 445 274 444 
428 274 445 275 
445 274 292 275 
275 292 446 293 
428 446 429 275 
275 292 445 446 
428 446 275 445 
429 275 446 276 
446 275 293 276 
276 293 447 294 
429 447 430 276 
276 293 446 447 
429 447 276 446 
430 276 447 277 
447 276 294 277 
277 294 448 295 
430 448 431 277 
277 294 447 448 
430 448 277 447 
431 277 448 278 
448 277 295 278 
278 295 449 296 
431 449 432 278 
278 295 448 449 
431 449 278 448 
432 278 449 279 
449 278 296 279 
279 296 450 297 
432 450 433 279 
279 296 449 450 
432 450 279 449 
433 279 450 280 
450 279 297 280 
280 297 451 298 
433 451 434 280 
280 297 450 451 
433 451 280 450 
434 280 451 281 
451 280 298 281 
281 298 452 299 
434 452 435 281 
281 298 451 452 
434 452 281 451 
435 281 452 282 
452 281 299 282 
282 299 453 300 
435 453 436 282 
282 299 452 453 
435 453 282 452 
436 282 453 283 
453 282 300 283 
283 300 454 301 
436 454 437 283 
283 300 453 454 
436 454 283 453 
437 283 454 284 
454 283 301 284 
284 301 455 302 
437 455 438 284 
284 301 454 455 
437 455 284 454 
438 284 455 285 
455 284 302 285 
285 302 456 303 
438 456 439 285 
285 302 455 456 
438 456 285 455 
439 285 456 286 
456 285 303 286 
286 303 457 304 
439 457 440 286 
286 303 456 457 
439 457 286 456 
440 286 457 287 
457 286 304 287 
287 304 458 305 
440 458 441 287 
287 304 457 458 
440 458 287 457 
441 287 458 288 
458 287 305 288 
306 323 477 324 
459 477 460 306 
306 323 476 477 
459 477 306 476 
460 306 477 307 
477 306 324 307 
307 324 478 325 
460 478 461 307 
307 324 477 478 
460 478 307 477 
461 307 478 308 
478 307 325 308 
308 325 479 326 
461 479 462 308 
308 325 478 479 
461 479 308 478 
462 308 479 309 
479 308 326 309 
309 326 480 327 
462 480 463 309 
309 326 479 480 
462 480 309 479 
463 309 480 310 
480 309 327 310 
310 327 481 328 
463 481 464 310 
310 327 480 481 
463 481 310 480 
464 310 481 311 
481 310 328 311 
311 328 482 329 
464 482 465 311 
311 328 481 482 
464 482 311 481 
465 311 482 312 
482 311 329 312 
312 329 483 330 
465 483 466 312 
312 329 482 483 
465 483 312 482 
466 312 483 313 
483 312 330 313 
313 330 484 331 
466 484 467 313 
313 330 483 484 
466 484 313 483 
467 313 484 314 
484 313 331 314 
314 331 485 332 
467 485 468 314 
314 331 484 485 
467 485 314 484 
468 314 485 315 
485 314 332 315 
315 332 486 333 
468 486 469 315 
315 332 485 486 
468 486 315 485 
469 315 486 316 
486 315 333 316 
316 333 487 334 
469 487 470 316 
316 333 486 487 
469 487 316 486 
470 316 487 317 
487 316 334 317 
317 334 488 335 
470 488 471 317 
317 334 487 488 
470 488 317 487 
471 317 488 318 
488 317 335 318 
318 335 489 336 
471 489 472 318 
318 335 488 489 
471 489 318 488 
472 318 489 319 
489 318 336 319 
319 336 490 337 
472 490 473 319 
319 336 489 490 
472 490 319 489 
473 319 490 320 
490 319 337 320 
320 337 491 338 
473 491 474 320 
320 337 490 491 
473 491 320 490 
474 320 491 321 
491 320 338 321 
321 338 492 339 
474 492 475 321 
321 338 491 492 
474 492 321 491 
475 321 492 322 
492 321 339 322 
323 340 494 341 
476 494 477 323 
323 340 493 494 
476 494 323 493 
477 323 494 324 
494 323 341 324 
324 341 495 342 
477 495 478 324 
324 341 494 495 
477 495 324 494 
478 324 495 325 
495 324 342 325 
325 342 496 343 
478 496 479 325 
325 342 495 496 
478 496 325 495 
479 325 496 326 
496 325 343 326 
326 343 497 344 
479 497 480 326 
326 343 496 497 
479 497 326 496 
480 326 497 327 
497 326 344 327 
327 344 498 345 
480 498 481 327 
327 344 497 498 
480 498 327 497 
481 327 498 328 
498 327 345 328 
328 345 499 346 
481 499 482 328 
328 345 498 499 
481 499 328 498 
482 328 499 329 
499 328 346 329 
329 346 500 347 
482 500 483 329 
329 346 499 500 
482 500 329 499 
483 329 500 330 
500 329 347 330 
330 347 501 348 
483 501 484 330 
330 347 500 501 
483 501 330 500 
484 330 501 331 
501 330 348 331 
331 348 502 349 
484 502 485 331 
331 348 501 502 
484 502 331 501 
485 331 502 332 
502 331 349 332 
332 349 503 350 
485 503 486 332 
332 349 502 503 
485 503 332 502 
486 332 503 333 
503 332 350 333 
333 350 504 351 
486 504 487 333 
333 350 503 504 
486 504 333 503 
487 333 504 334 
504 333 351 334 
334 351 505 352 
487 505 488 334 
334 351 504 505 
487 505 334 504 
488 334 505 335 
505 334 352 335 
335 352 506 353 
488 506 489 335 
335 352 505 506 
488 506 335 505 
489 335 506 336 
506 335 353 336 
336 353 507 354 
489 507 490 336 
336 353 506 507 
489 507 336 506 
490 336 507 337 
507 336 354 337 
337 354 508 355 
490 508 491 337 
337 354 507 508 
490 508 337 507 
491 337 508 338 
508 337 355 338 
338 355 509 356 
491 509 492 338 
338 355 508 509 
491 509 338 508 
492 338 509 339 
509 338 356 339 
340 357 511 358 
493 511 494 340 
340 357 510 511 
493 511 340 510 
494 340 511 341 
511 340 358 341 
341 358 512 359 
494 512 495 341 
341 358 511 512 
494 512 341 511 
495 341 512 342 
512 341 359 342 
342 359 513 360 
495 513 496 342 
342 359 512 513 
495 513 342 512 
496 342 513 343 
513 342 360 343 
343 360 514 361 
496 514 497 343 
343 360 513 514 
496 514 343 513 
497 343 514 344 
514 343 361 344 
344 361 515 362 
497 515 498 344 
344 361 514 515 
497 515 344 514 
498 344 515 345 
515 344 362 345 
345 362 516 363 
498 516 499 345 
345 362 515 516 
498 516 345 515 
499 345 516 346 
516 345 363 346 
346 363 517 364 
499 517 500 346 
346 363 516 517 
499 517 346 516 
500 346 517 347 
517 346 364 347 
347 364 518 365 
500 518 501 347 
347 364 517 518 
500 518 347 517 
501 347 518 348 
518 347 365 348 
348 365 519 366 
501 519 502 348 
348 365 518 519 
501 519 348 518 
502 348 519 349 
519 348 366 349 
349 366 520 367 
502 520 503 349 
349 366 519 520 
502 520 349 519 
503 349 520 350 
520 349 367 350 
350 367 521 368 
503 521 504 350 
350 367 520 521 
503 521 350 520 
504 350 521 351 
521 350 368 351 
351 368 522 369 
504 522 505 351 
351 368 521 522 
504 522 351 521 
505 351 522 352 
522 351 369 352 
352 369 523 370 
505 523 506 352 
352 369 522 523 
505 523 352 522 
506 352 523 353 
523 352 370 353 
353 370 524 371 
506 524 507 353 
353 370 523 524 
506 524 353 523 
507 353 524 354 
524 353 371 354 
354 371 525 372 
507 525 508 354 
354 371 524 525 
507 525 354 524 
508 354 525 355 
525 354 372 355 
355 372 526 373 
508 526 509 355 
355 372 525 526 
508 526 355 525 
509 355 526 356 
526 355 373 356 
357 374 528 375 
510 528 511 357 
357 374 527 528 
510 528 357 527 
511 357 528 358 
528 357 375 358 
358 375 529 376 
511 529 512 358 
358 375 528 529 
511 529 358 528 
512 358 529 359 
529 358 376 359 
359 376 530 377 
512 530 513 359 
359 376 529 530 
512 530 359 529 
513 359 530 360 
530 359 377 360 
360 377 531 378 
513 531 514 360 
360 377 530 531 
513 531 360 530 
514 360 531 361 
531 360 378 361 
361 378 532 379 
514 532 515 361 
361 378 531 532 
514 532 361 531 
515 361 532 362 
532 361 379 362 
362 379 533 380 
515 533 516 362 
362 379 532 533 
515 533 362 532 
516 362 533 363 
533 362 380 363 
363 380 534 381 
516 534 517 363 
363 380 533 534 
516 534 363 533 
517 363 534 364 
534 363 381 364 
364 381 535 382 
517 535 518 364 
364 381 534 535 
517 535 364 534 
518 364 535 365 
535 364 382 365 
365 382 536 383 
518 536 519 365 
365 382 535 536 
518 536 365 535 
519 365 536 366 
536 365 383 366 
366 383 537 384 
519 537 520 366 
366 383 536 537 
519 537 366 536 
520 366 537 367 
537 366 384 367 
367 384 538 385 
520 538 521 367 
367 384 537 538 
520 538 367 537 
521 367 538 368 
538 367 385 368 
368 385 539 386 
521 539 522 368 
368 385 538 539 
521 539 368 538 
522 368 539 369 
539 368 386 369 
369 386 540 387 
522 540 523 369 
369 386 539 540 
522 540 369 539 
523 369 540 370 
540 369 387 370 
370 387 541 388 
523 541 524 370 
370 387 540 541 
523 541 370 540 
524 370 541 371 
541 370 388 371 
371 388 542 389 
524 542 525 371 
371 388 541 542 
524 542 371 541 
525 371 542 372 
542 371 389 372 
372 389 543 390 
525 543 526 372 
372 389 542 543 
525 543 372 542 
526 372 543 373 
543 372 390 373 
374 391 545 392 
527 545 528 374 
374 391 544 545 
527 545 374 544 
528 374 545 375 
545 374 392 375 
375 392 546 393 
528 546 529 375 
375 392 545 546 
528 546 375 545 
529 375 546 376 
546 375 393 376 
376 393 547 394 
529 547 530 376 
376 393 546 547 
529 547 376 546 
530 376 547 377 
547 376 394 377 
377 394 548 395 
530 548 531 377 
377 394 547 548 
530 548 377 547 
531 377 548 378 
548 377 395 378 
378 395 549 396 
531 549 532 378 
378 395 548 549 
531 549 378 548 
532 378 549 379 
549 378 396 379 
379 396 550 397 
532 550 533 379 
379 396 549 550 
532 550 379 549 
533 379 550 380 
550 379 397 380 
380 397 551 398 
533 551 534 380 
380 397 550 551 
533 551 380 550 
534 380 551 381 
551 380 398 381 
381 398 552 399 
534 552 535 381 
381 398 551 552 
534 552 381 551 
535 381 552 382 
552 381 399 382 
382 399 553 400 
535 553 536 382 
382 399 552 553 
535 553 382 552 
536 382 553 383 
553 382 400 383 
383 400 554 401 
536 554 537 383 
383 400 553 554 
536 554 383 553 
537 383 554 384 
554 383 401 384 
384 401 555 402 
537 555 538 384 
384 401 554 555 
537 555 384 554 
538 384 555 385 
555 384 402 385 
385 402 556 403 
538 556 539 385 
385 402 555 556 
538 556 385 555 
539 385 556 386 
556 385 403 386 
386 403 557 404 
539 557 540 386 
386 403 556 557 
539 557 386 556 
540 386 557 387 
557 386 404 387 
387 404 558 405 
540 558 541 387 
387 404 557 558 
540 558 387 557 
541 387 558 388 
558 387 405 388 
388 405 559 406 
541 559 542 388 
388 405 558 559 
541 559 388 558 
542 388 559 389 
559 388 406 389 
389 406 560 407 
542 560 543 389 
389 406 559 560 
542 560 389 559 
543 389 560 390 
560 389 407 390 
391 408 562 409 
544 562 545 391 
391 408 561 562 
544 562 391 561 
545 391 562 392 
562 391 409 392 
392 409 563 410 
545 563 546 392 
392 409 562 563 
545 563 392 562 
546 392 563 393 
563 392 410 393 
393 410 564 411 
546 564 547 393 
393 410 563 564 
546 564 393 563 
547 393 564 394 
564 393 411 394 
394 411 565 412 
547 565 548 394 
394 411 564 565 
547 565 394 564 
548 394 565 395 
565 394 412 395 
395 412 566 413 
548 566 549 395 
395 412 565 566 
548 566 395 565 
549 395 566 396 
566 395 413 396 
396 413 567 414 
549 567 550 396 
396 413 566 567 
549 567 396 566 
550 396 567 397 
567 396 414 397 
397 414 568 415 
550 568 551 397 
397 414 567 568 
550 568 397 567 
551 397 568 398 
568 397 415 398 
398 415 569 416 
551 569 552 398 
398 415 568 569 
551 569 398 568 
552 398 569 399 
569 398 416 399 
399 416 570 417 
552 570 553 399 
399 416 569 570 
552 570 399 569 
553 399 570 400 
570 399 417 400 
400 417 571 418 
553 571 554 400 
400 417 570 571 
553 571 400 570 
554 400 571 401 
571 400 418 401 
401 418 572 419 
554 572 555 401 
401 418 571 572 
554 572 401 571 
555 401 572 402 
572 401 419 402 
402 419 573 420 
555 573 556 402 
402 419 572 573 
555 573 402 572 
556 402 573 403 
573 402 420 403 
403 420 574 421 
556 574 557 403 
403 420 573 574 
556 574 403 573 
557 403 574 404 
574 403 421 404 
404 421 575 422 
557 575 558 404 
404 421 574 575 
557 575 404 574 
558 404 575 405 
575 404 422 405 
405 422 576 423 
558 576 559 405 
405 422 575 576 
558 576 405 575 
559 405 576 406 
576 405 423 406 
406 423 577 424 
559 577 560 406 
406 423 576 577 
559 577 406 576 
560 406 577 407 
577 406 424 407 
408 425 579 426 
561 579 562 408 
408 425 578 579 
561 579 408 578 
562 408 579 409 
579 408 426 409 
409 426 580 427 
562 580 563 409 
409 426 579 580 
562 580 409 579 
563 409 580 410 
580 409 427 410 
410 427 581 428 
563 581 564 410 
410 427 580 581 
563 581 410 580 
564 410 581 411 
581 410 428 411 
411 428 582 429 
564 582 565 411 
411 428 581 582 
564 582 411 581 
565 411 582 412 
582 411 429 412 
412 429 583 430 
565 583 566 412 
412 429 582 583 
565 583 412 582 
566 412 583 413 
583 412 430 413 
413 430 584 431 
566 584 567 413 
413 430 583 584 
566 584 413 583 
567 413 584 414 
584 413 431 414 
414 431 585 432 
567 585 568 414 
414 431 584 585 
567 585 414 584 
568 414 585 415 
585 414 432 415 
415 432 586 433 
568 586 569 415 
415 432 585 586 
568 586 415 585 
569 415 586 416 
586 415 433 416 
416 433 587 434 
569 587 570 416 
416 433 586 587 
569 587 416 586 
570 416 587 417 
587 416 434 417 
417 434 588 435 
570 588 571 417 
417 434 587 588 
570 588 417 587 
571 417 588 418 
588 417 435 418 
418 435 589 436 
571 589 572 418 
418 435 588 589 
571 589 418 588 
572 418 589 419 
589 418 436 419 
419 436 590 437 
572 590 573 419 
419 436 589 590 
572 590 419 589 
573 419 590 420 
590 419 437 420 
420 437 591 438 
573 591 574 420 
420 437 590 591 
573 591 420 590 
574 420 591 421 
591 420 438 421 
421 438 592 439 
574 592 575 421 
421 438 591 592 
574 592 421 591 
575 421 592 422 
592 421 439 422 
422 439 593 440 
575 593 576 422 
422 439 592 593 
575 593 422 592 
576 422 593 423 
593 422 440 423 
423 440 594 441 
576 594 577 423 
423 440 593 594 
576 594 423 593 
577 423 594 424 
594 423 441 424 
425 442 596 443 
578 596 579 425 
425 442 595 596 
578 596 425 595 
579 425 596 426 
596 425 443 426 
426 443 597 444 
579 597 580 426 
426 443 596 597 
579 597 426 596 
580 426 597 427 
597 426 444 427 
427 444 598 445 
580 598 581 427 
427 444 597 598 
580 598 427 597 
581 427 598 428 
598 427 445 428 
428 445 599 446 
581 599 582 428 
428 445 598 599 
581 599 428 598 
582 428 599 429 
599 428 446 429 
429 446 600 447 
582 600 583 429 
429 446 599 600 
582 600 429 599 
583 429 600 430 
600 429 447 430 
430 447 601 448 
583 601 584 430 
430 447 600 601 
583 601 430 600 
584 430 601 431 
601 430 448 431 
431 448 602 449 
584 602 585 431 
431 448 601 602 
584 602 431 601 
585 431 602 432 
602 431 449 432 
432 449 603 450 
585 603 586 432 
432 449 602 603 
585 603 432 602 
586 432 603 433 
603 432 450 433 
433 450 604 451 
586 604 587 433 
433 450 603 604 
586 604 433 603 
587 433 604 434 
604 433 451 434 
434 451 605 452 
587 605 588 434 
434 451 604 605 
587 605 434 604 
588 434 605 435 
605 434 452 435 
435 452 606 453 
588 606 589 435 
435 452 605 606 
588 606 435 605 
589 435 606 436 
606 435 453 436 
436 453 607 454 
589 607 590 436 
436 453 606 607 
589 607 436 606 
590 436 607 437 
607 436 454 437 
437 454 608 455 
590 608 591 437 
437 454 607 608 
590 608 437 607 
591 437 608 438 
608 437 455 438 
438 455 609 456 
591 609 592 438 
438 455 608 609 
591 609 438 608 
592 438 609 439 
609 438 456 439 
439 456 610 457 
592 610 593 439 
439 456 609 610 
592 610 439 609 
593 439 610 440 
610 439 457 440 
440 457 611 458 
593 611 594 440 
440 457 610 611 
593 611 440 610 
594 440 611 441 
611 440 458 441 
459 476 630 477 
612 630 613 459 
459 476 629 630 
612 630 459 629 
613 459 630 460 
630 459 477 460 
460 477 631 478 
613 631 614 460 
460 477 630 631 
613 631 460 630 
614 460 631 461 
631 460 478 461 
461 478 632 479 
614 632 615 461 
461 478 631 632 
614 632 461 631 
615 461 632 462 
632 461 479 462 
462 479 633 480 
615 633 616 462 
462 479 632 633 
615 633 462 632 
616 462 633 463 
633 462 480 463 
463 480 634 481 
616 634 617 463 
463 480 633 634 
616 634 463 633 
617 463 634 464 
634 463 481 464 
464 481 635 482 
617 635 618 464 
464 481 634 635 
617 635 464 634 
618 464 635 465 
635 464 482 465 
465 482 636 483 
618 636 619 465 
465 482 635 636 
618 636 465 635 
619 465 636 466 
636 465 483 466 
466 483 637 484 
619 637 620 466 
466 483 636 637 
619 637 466 636 
620 466 637 467 
637 466 484 467 
467 484 638 485 
620 638 621 467 
467 484 637 638 
620 638 467 637 
621 467 638 468 
638 467 485 468 
468 485 639 486 
621 639 622 468 
468 485 638 639 
621 639 468 638 
622 468 639 469 
639 468 486 469 
469 486 640 487 
622 640 623 469 
469 486 639 640 
622 640 469 639 
623 469 640 470 
640 469 487 470 
470 487 641 488 
623 641 624 470 
470 487 640 641 
623 641 470 640 
624 470 641 471 
641 470 488 471 
471 488 642 489 
624 642 625 471 
471 488 641 642 
624 642 471 641 
625 471 642 472 
642 471 489 472 
472 489 643 490 
625 643 626 472 
472 489 642 643 
625 643 472 642 
626 472 643 473 
643 472 490 473 
473 490 644 491 
626 644 627 473 
473 490 643 644 
626 644 473 643 
627 473 644 474 
644 473 491 474 
474 491 645 492 
627 645 628 474 
474 491 644 645 
627 645 474 644 
628 474 645 475 
645 474 492 475 
476 493 647 494 
629 647 630 476 
476 493 646 647 
629 647 476 646 
630 476 647 477 
647 476 494 477 
477 494 648 495 
630 648 631 477 
477 494 647 648 
630 648 477 647 
631 477 648 478 
648 477 495 478 
478 495 649 496 
631 649 632 478 
478 495 648 649 
631 649 478 648 
632 478 649 479 
649 478 496 479 
479 496 650 497 
632 650 633 479 
479 496 649 650 
632 650 479 649 
633 479 650 480 
650 479 497 480 
480 497 651 498 
633 651 634 480 
480 497 650 651 
633 651 480 650 
634 480 651 481 
651 480 498 481 
481 498 652 499 
634 652 635 481 
481 498 651 652 
634 652 481 651 
635 481 652 482 
652 481 499 482 
482 499 653 500 
635 653 636 482 
482 499 652 653 
635 653 482 652 
636 482 653 483 
653 482 500 483 
483 500 654 501 
636 654 637 483 
483 500 653 654 
636 654 483 653 
637 483 654 484 
654 483 501 484 
484 501 655 502 
637 655 638 484 
484 501 654 655 
637 655 484 654 
638 484 655 485 
655 484 502 485 
485 502 656 503 
638 656 639 485 
485 502 655 656 
638 656 485 655 
639 485 656 486 
656 485 503 486 
486 503 657 504 
639 657 640 486 
486 503 656 657 
639 657 486 656 
640 486 657 487 
657 486 504 487 
487 504 658 505 
640 658 641 487 
487 504 657 658 
640 658 487 657 
641 487 658 488 
658 487 505 488 
488 505 659 506 
641 659 642 488 
488 505 658 659 
641 659 488 658 
642 488 659 489 
659 488 506 489 
489 506 660 507 
642 660 643 489 
489 506 659 660 
642 660 489 659 
643 489 660 490 
660 489 507 490 
490 507 661 508 
643 661 644 490 
490 507 660 661 
643 661 490 660 
644 490 661 491 
661 490 508 491 
491 508 662 509 
644 662 645 491 
491 508 661 662 
644 662 491 661 
645 491 662 492 
662 491 509 492 
493 510 664 511 
646 664 647 493 
493 510 663 664 
646 664 493 663 
647 493 664 494 
664 493 511 494 
494 511 665 512 
647 665 648 494 
494 511 664 665 
647 665 494 664 
648 494 665 495 
665 494 512 495 
495 512 666 513 
648 666 649 495 
495 512 665 666 
648 666 495 665 
649 495 666 496 
666 495 513 496 
496 513 667 514 
649 667 650 496 
496 513 666 667 
649 667 496 666 
650 496 667 497 
667 496 514 497 
497 514 668 515 
650 668 651 497 
497 514 667 668 
650 668 497 667 
651 497 668 498 
668 497 515 498 
498 515 669 516 
651 669 652 498 
498 515 668 669 
651 669 498 668 
652 498 669 499 
669 498 516 499 
499 516 670 517 
652 670 653 499 
499 516 669 670 
652 670 499 669 
653 499 670 500 
670 499 517 500 
500 517 671 518 
653 671 654 500 
500 517 670 671 
653 671 500 670 
654 500 671 501 
671 500 518 501 
501 518 672 519 
654 672 655 501 
501 518 671 672 
654 672 501 671 
655 501 672 502 
672 501 519 502 
502 519 673 520 
655 673 656 502 
502 519 672 673 
655 673 502 672 
656 502 673 503 
673 502 520 503 
503 520 674 521 
656 674 657 503 
503 520 673 674 
656 674 503 673 
657 503 674 504 
674 503 521 504 
504 521 675 522 
657 675 658 504 
504 521 674 675 
657 675 504 674 
658 504 675 505 
675 504 522 505 
505 522 676 523 
658 676 659 505 
505 522 675 676 
658 676 505 675 
659 505 676 506 
676 505 523 506 
506 523 677 524 
659 677 660 506 
506 523 676 677 
659 677 506 676 
660 506 677 507 
677 506 524 507 
507 524 678 525 
660 678 661 507 
507 524 677 678 
660 678 507 677 
661 507 678 508 
678 507 525 508 
508 525 679 526 
661 679 662 508 
508 525 678 679 
661 679 508 678 
662 508 679 509 
679 508 526 509 
510 527 681 528 
663 681 664 510 
510 527 680 681 
663 681 510 680 
664 510 681 511 
681 510 528 511 
511 528 682 529 
664 682 665 511 
511 528 681 682 
664 682 511 681 
665 511 682 512 
682 511 529 512 
512 529 683 530 
665 683 666 512 
512 529 682 683 
665 683 512 682 
666 512 683 513 
683 512 530 513 
513 530 684 531 
666 684 667 513 
513 530 683 684 
666 684 513 683 
667 513 684 514 
684 513 531 514 
514 531 685 532 
667 685 668 514 
514 531 684 685 
667 685 514 684 
668 514 685 515 
685 514 532 515 
515 532 686 533 
668 686 669 515 
515 532 685 686 
668 686 515 685 
669 515 686 516 
686 515 533 516 
516 533 687 534 
669 687 670 516 
516 533 686 687 
669 687 516 686 
670 516 687 517 
687 516 534 517 
517 534 688 535 
670 688 671 517 
517 534 687 688 
670 688 517 687 
671 517 688 518 
688 517 535 518 
518 535 689 536 
671 689 672 518 
518 535 688 689 
671 689 518 688 
672 518 689 519 
689 518 536 519 
519 536 690 537 
672 690 673 519 
519 536 689 690 
672 690 519 689 
673 519 690 520 
690 519 537 520 
520 537 691 538 
673 691 674 520 
520 537 690 691 
673 691 520 690 
674 520 691 521 
691 520 538 521 
521 538 692 539 
674 692 675 521 
521 538 691 692 
674 692 521 691 
675 521 692 522 
692 521 539 522 
522 539 693 540 
675 693 676 522 
522 539 692 693 
675 693 522 692 
676 522 693 523 
693 522 540 523 
523 540 694 541 
676 694 677 523 
523 540 693 694 
676 694 523 693 
677 523 694 524 
694 523 541 524 
524 541 695 542 
677 695 678 524 
524 541 694 695 
677 695 524 694 
678 524 695 525 
695 524 542 525 
525 542 696 543 
678 696 679 525 
525 542 695 696 
678 696 525 695 
679 525 696 526 
696 525 543 526 
527 544 698 545 
680 698 681 527 
527 544 697 698 
680 698 527 697 
681 527 698 528 
698 527 545 528 
528 545 699 546 
681 699 682 528 
528 545 698 699 
681 699 528 698 
682 528 699 529 
699 528 546 529 
529 546 700 547 
682 700 683 529 
529 546 699 700 
682 700 529 699 
683 529 700 530 
700 529 547 530 
530 547 701 548 
683 701 684 530 
530 547 700 701 
683 701 530 700 
684 530 701 531 
701 530 548 531 
531 548 702 549 
684 702 685 531 
531 548 701 702 
684 702 531 701 
685 531 702 532 
702 531 549 532 
532 549 703 550 
685 703 686 532 
532 549 702 703 
685 703 532 702 
686 532 703 533 
703 532 550 533 
533 550 704 551 
686 704 687 533 
533 550 703 704 
686 704 533 703 
687 533 704 534 
704 533 551 534 
534 551 705 552 
687 705 688 534 
534 551 704 705 
687 705 534 704 
688 534 705 535 
705 534 552 535 
535 552 706 553 
688 706 689 535 
535 552 705 706 
688 706 535 705 
689 535 706 536 
706 535 553 536 
536 553 707 554 
689 707 690 536 
536 553 706 707 
689 707 536 706 
690 536 707 537 
707 536 554 537 
537 554 708 555 
690 708 691 537 
537 554 707 708 
690 708 537 707 
691 537 708 538 
708 537 555 538 
538 555 709 556 
691 709 692 538 
538 555 708 709 
691 709 538 708 
692 538 709 539 
709 538 556 539 
539 556 710 557 
692 710 693 539 
539 556 709 710 
692 710 539 709 
693 539 710 540 
710 539 557 540 
540 557 711 558 
693 711 694 540 
540 557 710 711 
693 711 540 710 
694 540 711 541 
711 540 558 541 
541 558 712 559 
694 712 695 541 
541 558 711 712 
694 712 541 711 
695 541 712 542 
712 541 559 542 
542 559 713 560 
695 713 696 542 
542 559 712 713 
695 713 542 712 
696 542 713 543 
713 542 560 543 
544 561 715 562 
697 715 698 544 
544 561 714 715 
697 715 544 714 
698 544 715 545 
715 544 562 545 
545 562 716 563 
698 716 699 545 
545 562 715 716 
698 716 545 715 
699 545 716 546 
716 545 563 546 
546 563 717 564 
699 717 700 546 
546 563 716 717 
699 717 546 716 
700 546 717 547 
717 546 564 547 
547 564 718 565 
700 718 701 547 
547 564 717 718 
700 718 547 717 
701 547 718 548 
718 547 565 548 
548 565 719 566 
701 719 702 548 
548 565 718 719 
701 719 548 718 
702 548 719 549 
719 548 566 549 
549 566 720 567 
702 720 703 549 
549 566 719 720 
702 720 549 719 
703 549 720 550 
720 549 567 550 
550 567 721 568 
703 721 704 550 
550 567 720 721 
703 721 550 720 
704 550 721 551 
721 550 568 551 
551 568 722 569 
704 722 705 551 
551 568 721 722 
704 722 551 721 
705 551 722 552 
722 551 569 552 
552 569 723 570 
705 723 706 552 
552 569 722 723 
705 723 552 722 
706 552 723 553 
723 552 570 553 
553 570 724 571 
706 724 707 553 
553 570 723 724 
706 724 553 723 
707 553 724 554 
724 553 571 554 
554 571 725 572 
707 725 708 554 
554 571 724 725 
707 725 554 724 
708 554 725 555 
725 554 572 555 
555 572 726 573 
708 726 709 555 
555 572 725 726 
708 726 555 725 
709 555 726 556 
726 555 573 556 
556 573 727 574 
709 727 710 556 
556 573 726 727 
709 727 556 726 
710 556 727 557 
727 556 574 557 
557 574 728 575 
710 728 711 557 
557 574 727 728 
710 728 557 727 
711 557 728 558 
728 557 575 558 
558 575 729 576 
711 729 712 558 
558 575 728 729 
711 729 558 728 
712 558 729 559 
729 558 576 559 
559 576 730 577 
712 730 713 559 
559 576 729 730 
712 730 559 729 
713 559 730 560 
730 559 577 560 
561 578 732 579 
714 732 715 561 
561 578 731 732 
714 732 561 731 
715 561 732 562 
732 561 579 562 
562 579 733 580 
715 733 716 562 
562 579 732 733 
715 733 562 732 
716 562 733 563 
733 562 580 563 
563 580 734 581 
716 734 717 563 
563 580 733 734 
716 734 563 733 
717 563 734 564 
734 563 581 564 
564 581 735 582 
717 735 718 564 
564 581 734 735 
717 735 564 734 
718 564 735 565 
735 564 582 565 
565 582 736 583 
718 736 719 565 
565 582 735 736 
718 736 565 735 
719 565 736 566 
736 565 583 566 
566 583 737 584 
719 737 720 566 
566 583 736 737 
719 737 566 736 
720 566 737 567 
737 566 584 567 
567 584 738 585 
720 738 721 567 
567 584 737 738 
720 738 567 737 
721 567 738 568 
738 567 585 568 
568 585 739 586 
721 739 722 568 
568 585 738 739 
721 739 568 738 
722 568 739 569 
739 568 586 569 
569 586 740 587 
722 740 723 569 
569 586 739 740 
722 740 569 739 
723 569 740 570 
740 569 587 570 
570 587 741 588 
723 741 724 570 
570 587 740 741 
723 741 570 740 
724 570 741 571 
741 570 588 571 
571 588 742 589 
724 742 725 571 
571 588 741 742 
724 742 571 741 
725 571 742 572 
742 571 589 572 
572 589 743 590 
725 743 726 572 
572 589 742 743 
725 743 572 742 
726 572 743 573 
743 572 590 573 
573 590 744 591 
726 744 727 573 
573 590 743 744 
726 744 573 743 
727 573 744 574 
744 573 591 574 
574 591 745 592 
727 745 728 574 
574 591 744 745 
727 745 574 744 
728 574 745 575 
745 574 592 575 
575 592 746 593 
728 746 729 575 
575 592 745 746 
728 746 575 745 
729 575 746 576 
746 575 593 576 
576 593 747 594 
729 747 730 576 
576 593 746 747 
729 747 576 746 
730 576 747 577 
747 576 594 577 
578 595 749 596 
731 749 732 578 
578 595 748 749 
731 749 578 748 
732 578 749 579 
749 578 596 579 
579 596 750 597 
732 750 733 579 
579 596 749 750 
732 750 579 749 
733 579 750 580 
750 579 597 580 
580 597 751 598 
733 751 734 580 
580 597 750 751 
733 751 580 750 
734 580 751 581 
751 580 598 581 
581 598 752 599 
734 752 735 581 
581 598 751 752 
734 752 581 751 
735 581 752 582 
752 581 599 582 
582 599 753 600 
735 753 736 582 
582 599 752 753 
735 753 582 752 
736 582 753 583 
753 582 600 583 
583 600 754 601 
736 754 737 583 
583 600 753 754 
736 754 583 753 
737 583 754 584 
754 583 601 584 
584 601 755 602 
737 755 738 584 
584 601 754 755 
737 755 584 754 
738 584 755 585 
755 584 602 585 
585 602 756 603 
738 756 739 585 
585 602 755 756 
738 756 585 755 
739 585 756 586 
756 585 603 586 
586 603 757 604 
739 757 740 586 
586 603 756 757 
739 757 586 756 
740 586 757 587 
757 586 604 587 
587 604 758 605 
740 758 741 587 
587 604 757 758 
740 758 587 757 
741 587 758 588 
758 587 605 588 
588 605 759 606 
741 759 742 588 
588 605 758 759 
741 759 588 758 
742 588 759 589 
759 588 606 589 
589 606 760 607 
742 760 743 589 
589 606 759 760 
742 760 589 759 
743 589 760 590 
760 589 607 590 
590 607 761 608 
743 761 744 590 
590 607 760 761 
743 761 590 760 
744 590 761 591 
761 590 608 591 
591 608 762 609 
744 762 745 591 
591 608 761 762 
744 762 591 761 
745 591 762 592 
762 591 609 592 
592 609 763 610 
745 763 746 592 
592 609 762 763 
745 763 592 762 
746 592 763 593 
763 592 610 593 
593 610 764 611 
746 764 747 593 
593 610 763 764 
746 764 593 763 
747 593 764 594 
764 593 611 594 
612 629 783 630 
765 783 766 612 
612 629 782 783 
765 783 612 782 
766 612 783 613 
783 612 630 613 
613 630 784 631 
766 784 767 613 
613 630 783 784 
766 784 613 783 
767 613 784 614 
784 613 631 614 
614 631 785 632 
767 785 768 614 
614 631 784 785 
767 785 614 784 
768 614 785 615 
785 614 632 615 
615 632 786 633 
768 786 769 615 
615 632 785 786 
768 786 615 785 
769 615 786 616 
786 615 633 616 
616 633 787 634 
769 787 770 616 
616 633 786 787 
769 787 616 786 
770 616 787 617 
787 616 634 617 
617 634 788 635 
770 788 771 617 
617 634 787 788 
770 788 617 787 
771 617 788 618 
788 617 635 618 
618 635 789 636 
771 789 772 618 
618 635 788 789 
771 789 618 788 
772 618 789 619 
789 618 636 619 
619 636 790 637 
772 790 773 619 
619 636 789 790 
772 790 619 789 
773 619 790 620 
790 619 637 620 
620 637 791 638 
773 791 774 620 
620 637 790 791 
773 791 620 790 
774 620 791 621 
791 620 638 621 
621 638 792 639 
774 792 775 621 
621 638 791 792 
774 792 621 791 
775 621 792 622 
792 621 639 622 
622 639 793 640 
775 793 776 622 
622 639 792 793 
775 793 622 792 
776 622 793 623 
793 622 640 623 
623 640 794 641 
776 794 777 623 
623 640 793 794 
776 794 623 793 
777 623 794 624 
794 623 641 624 
624 641 795 642 
777 795 778 624 
624 641 794 795 
777 795 624 794 
778 624 795 625 
795 624 642 625 
625 642 796 643 
778 796 779 625 
625 642 795 796 
778 796 625 795 
779 625 796 626 
796 625 643 626 
626 643 797 644 
779 797 780 626 
626 643 796 797 
779 797 626 796 
780 626 797 627 
797 626 644 627 
627 644 798 645 
780 798 781 627 
627 644 797 798 
780 798 627 797 
781 627 798 628 
798 627 645 628 
629 646 800 647 
782 800 783 629 
629 646 799 800 
782 800 629 799 
783 629 800 630 
800 629 647 630 
630 647 801 648 
783 801 784 630 
630 647 800 801 
783 801 630 800 
784 630 801 631 
801 630 648 631 
631 648 802 649 
784 802 785 631 
631 648 801 802 
784 802 631 801 
785 631 802 632 
802 631 649 632 
632 649 803 650 
785 803 786 632 
632 649 802 803 
785 803 632 802 
786 632 803 633 
803 632 650 633 
633 650 804 651 
786 804 787 633 
633 650 803 804 
786 804 633 803 
787 633 804 634 
804 633 651 634 
634 651 805 652 
787 805 788 634 
634 651 804 805 
787 805 634 804 
788 634 805 635 
805 634 652 635 
635 652 806 653 
788 806 789 635 
635 652 805 806 
788 806 635 805 
789 635 806 636 
806 635 653 636 
636 653 807 654 
789 807 790 636 
636 653 806 807 
789 807 636 806 
790 636 807 637 
807 636 654 637 
637 654 808 655 
790 808 791 637 
637 654 807 808 
790 808 637 807 
791 637 808 638 
808 637 655 638 
638 655 809 656 
791 809 792 638 
638 655 808 809 
791 809 638 808 
792 638 809 639 
809 638 656 639 
639 656 810 657 
792 810 793 639 
639 656 809 810 
792 810 639 809 
793 639 810 640 
810 639 657 640 
640 657 811 658 
793 811 794 640 
640 657 810 811 
793 811 640 810 
794 640 811 641 
811 640 658 641 
641 658 812 659 
794 812 795 641 
641 658 811 812 
794 812 641 811 
795 641 812 642 
812 641 659 642 
642 659 813 660 
795 813 796 642 
642 659 812 813 
795 813 642 812 
796 642 813 643 
813 642 660 643 
643 660 814 661 
796 814 797 643 
643 660 813 814 
796 814 643 813 
797 643 814 644 
814 643 661 644 
644 661 815 662 
797 815 798 644 
644 661 814 815 
797 815 644 814 
798 644 815 645 
815 644 662 645 
646 663 817 664 
799 817 800 646 
646 663 816 817 
799 817 646 816 
800 646 817 647 
817 646 664 647 
647 664 818 665 
800 818 801 647 
647 664 817 818 
800 818 647 817 
801 647 818 648 
818 647 665 648 
648 665 819 666 
801 819 802 648 
648 665 818 819 
801 819 648 818 
802 648 819 649 
819 648 666 649 
649 666 820 667 
802 820 803 649 
649 666 819 820 
802 820 649 819 
803 649 820 650 
820 649 667 650 
650 667 821 668 
803 821 804 650 
650 667 820 821 
803 821 650 820 
804 650 821 651 
821 650 668 651 
651 668 822 669 
804 822 805 651 
651 668 821 822 
804 822 651 821 
805 651 822 652 
822 651 669 652 
652 669 823 670 
805 823 806 652 
652 669 822 823 
805 823 652 822 
806 652 823 653 
823 652 670 653 
653 670 824 671 
806 824 807 653 
653 670 823 824 
806 824 653 823 
807 653 824 654 
824 653 671 654 
654 671 825 672 
807 825 808 654 
654 671 824 825 
807 825 654 824 
808 654 825 655 
825 654 672 655 
655 672 826 673 
808 826 809 655 
655 672 825 826 
808 826 655 825 
809 655 826 656 
826 655 673 656 
656 673 827 674 
809 827 810 656 
656 673 826 827 
809 827 656 826 
810 656 827 657 
827 656 674 657 
657 674 828 675 
810 828 811 657 
657 674 827 828 
810 828 657 827 
811 657 828 658 
828 657 675 658 
658 675 829 676 
811 829 812 658 
658 675 828 829 
811 829 658 828 
812 658 829 659 
829 658 676 659 
659 676 830 677 
812 830 813 659 
659 676 829 830 
812 830 659 829 
813 659 830 660 
830 659 677 660 
660 677 831 678 
813 831 814 660 
660 677 830 831 
813 831 660 830 
814 660 831 661 
831 660 678 661 
661 678 832 679 
814 832 815 661 
661 678 831 832 
814 832 661 831 
815 661 832 662 
832 661 679 662 
663 680 834 681 
816 834 817 663 
663 680 833 834 
816 834 663 833 
817 663 834 664 
834 663 681 664 
664 681 835 682 
817 835 818 664 
664 681 834 835 
817 835 664 834 
818 664 835 665 
835 664 682 665 
665 682 836 683 
818 836 819 665 
665 682 835 836 
818 836 665 835 
819 665 836 666 
836 665 683 666 
666 683 837 684 
819 837 820 666 
666 683 836 837 
819 837 666 836 
820 666 837 667 
837 666 684 667 
667 684 838 685 
820 838 821 667 
667 684 837 838 
820 838 667 837 
821 667 838 668 
838 667 685 668 
668 685 839 686 
821 839 822 668 
668 685 838 839 
821 839 668 838 
822 668 839 669 
839 668 686 669 
669 686 840 687 
822 840 823 669 
669 686 839 840 
822 840 669 839 
823 669 840 670 
840 669 687 670 
670 687 841 688 
823 841 824 670 
670 687 840 841 
823 841 670 840 
824 670 841 671 
841 670 688 671 
671 688 842 689 
824 842 825 671 
671 688 841 842 
824 842 671 841 
825 671 842 672 
842 671 689 672 
672 689 843 690 
825 843 826 672 
672 689 842 843 
825 843 672 842 
826 672 843 673 
843 672 690 673 
673 690 844 691 
826 844 827 673 
673 690 843 844 
826 844 673 843 
827 673 844 674 
844 673 691 674 
674 691 845 692 
827 845 828 674 
674 691 844 845 
827 845 674 844 
828 674 845 675 
845 674 692 675 
675 692 846 693 
828 846 829 675 
675 692 845 846 
828 846 675 845 
829 675 846 676 
846 675 693 676 
676 693 847 694 
829 847 830 676 
676 693 846 847 
829 847 676 846 
830 676 847 677 
847 676 694 677 
677 694 848 695 
830 848 831 677 
677 694 847 848 
830 848 677 847 
831 677 848 678 
848 677 695 678 
678 695 849 696 
831 849 832 678 
678 695 848 849 
831 849 678 848 
832 678 849 679 
849 678 696 679 
680 697 851 698 
833 851 834 680 
680 697 850 851 
833 851 680 850 
834 680 851 681 
851 680 698 681 
681 698 852 699 
834 852 835 681 
681 698 851 852 
834 852 681 851 
835 681 852 682 
852 681 699 682 
682 699 853 700 
835 853 836 682 
682 699 852 853 
835 853 682 852 
836 682 853 683 
853 682 700 683 
683 700 854 701 
836 854 837 683 
683 700 853 854 
836 854 683 853 
837 683 854 684 
854 683 701 684 
684 701 855 702 
837 855 838 684 
684 701 854 855 
837 855 684 854 
838 684 855 685 
855 684 702 685 
685 702 856 703 
838 856 839 685 
685 702 855 856 
838 856 685 855 
839 685 856 686 
856 685 703 686 
686 703 857 704 
839 857 840 686 
686 703 856 857 
839 857 686 856 
840 686 857 687 
857 686 704 687 
687 704 858 705 
840 858 841 687 
687 704 857 858 
840 858 687 857 
841 687 858 688 
858 687 705 688 
688 705 859 706 
841 859 842 688 
688 705 858 859 
841 859 688 858 
842 688 859 689 
859 688 706 689 
689 706 860 707 
842 860 843 689 
689 706 859 860 
842 860 689 859 
843 689 860 690 
860 689 707 690 
690 707 861 708 
843 861 844 690 
690 707 860 861 
843 861 690 860 
844 690 861 691 
861 690 708 691 
691 708 862 709 
844 862 845 691 
691 708 861 862 
844 862 691 861 
845 691 862 692 
862 691 709 692 
692 709 863 710 
845 863 846 692 
692 709 862 863 
845 863 692 862 
846 692 863 693 
863 692 710 693 
693 710 864 711 
846 864 847 693 
693 710 863 864 
846 864 693 863 
847 693 864 694 
864 693 711 694 
694 711 865 712 
847 865 848 694 
694 711 864 865 
847 865 694 864 
848 694 865 695 
865 694 712 695 
695 712 866 713 
848 866 849 695 
695 712 865 866 
848 866 695 865 
849 695 866 696 
866 695 713 696 
697 714 868 715 
850 868 851 697 
697 714 867 868 
850 868 697 867 
851 697 868 698 
868 697 715 698 
698 715 869 716 
851 869 852 698 
698 715 868 869 
851 869 698 868 
852 698 869 699 
869 698 716 699 
699 716 870 717 
852 870 853 699 
699 716 869 870 
852 870 699 869 
853 699 870 700 
870 699 717 700 
700 717 871 718 
853 871 854 700 
700 717 870 871 
853 871 700 870 
854 700 871 701 
871 700 718 701 
701 718 872 719 
854 872 855 701 
701 718 871 872 
854 872 701 871 
855 701 872 702 
872 701 719 702 
702 719 873 720 
855 873 856 702 
702 719 872 873 
855 873 702 872 
856 702 873 703 
873 702 720 703 
703 720 874 721 
856 874 857 703 
703 720 873 874 
856 874 703 873 
857 703 874 704 
874 703 721 704 
704 721 875 722 
857 875 858 704 
704 721 874 875 
857 875 704 874 
858 704 875 705 
875 704 722 705 
705 722 876 723 
858 876 859 705 
705 722 875 876 
858 876 705 875 
859 705 876 706 
876 705 723 706 
706 723 877 724 
859 877 860 706 
706 723 876 877 
859 877 706 876 
860 706 877 707 
877 706 724 707 
707 724 878 725 
860 878 861 707 
707 724 877 878 
860 878 707 877 
861 707 878 708 
878 707 725 708 
708 725 879 726 
861 879 862 708 
708 725 878 879 
861 879 708 878 
862 708 879 709 
879 708 726 709 
709 726 880 727 
862 880 863 709 
709 726 879 880 
862 880 709 879 
863 709 880 710 
880 709 727 710 
710 727 881 728 
863 881 864 710 
710 727 880 881 
863 881 710 880 
864 710 881 711 
881 710 728 711 
711 728 882 729 
864 882 865 711 
711 728 881 882 
864 882 711 881 
865 711 882 712 
882 711 729 712 
712 729 883 730 
865 883 866 712 
712 729 882 883 
865 883 712 882 
866 712 883 713 
883 712 730 713 
714 731 885 732 
867 885 868 714 
714 731 884 885 
867 885 714 884 
868 714 885 715 
885 714 732 715 
715 732 886 733 
868 886 869 715 
715 732 885 886 
868 886 715 885 
869 715 886 716 
886 715 733 716 
716 733 887 734 
869 887 870 716 
716 733 886 887 
869 887 716 886 
870 716 887 717 
887 716 734 717 
717 734 888 735 
870 888 871 717 
717 734 887 888 
870 888 717 887 
871 717 888 718 
888 717 735 718 
718 735 889 736 
871 889 872 718 
718 735 888 889 
871 889 718 888 
872 718 889 719 
889 718 736 719 
719 736 890 737 
872 890 873 719 
719 736 889 890 
872 890 719 889 
873 719 890 720 
890 719 737 720 
720 737 891 738 
873 891 874 720 
720 737 890 891 
873 891 720 890 
874 720 891 721 
891 720 738 721 
721 738 892 739 
874 892 875 721 
721 738 891 892 
874 892 721 891 
875 721 892 722 
892 721 739 722 
722 739 893 740 
875 893 876 722 
722 739 892 893 
875 893 722 892 
876 722 893 723 
893 722 740 723 
723 740 894 741 
876 894 877 723 
723 740 893 894 
876 894 723 893 
877 723 894 724 
894 723 741 724 
724 741 895 742 
877 895 878 724 
724 741 894 895 
877 895 724 894 
878 724 895 725 
895 724 742 725 
725 742 896 743 
878 896 879 725 
725 742 895 896 
878 896 725 895 
879 725 896 726 
896 725 743 726 
726 743 897 744 
879 897 880 726 
726 743 896 897 
879 897 726 896 
880 726 897 727 
897 726 744 727 
727 744 898 745 
880 898 881 727 
727 744 897 898 
880 898 727 897 
881 727 898 728 
898 727 745 728 
728 745 899 746 
881 899 882 728 
728 745 898 899 
881 899 728 898 
882 728 899 729 
899 728 746 729 
729 746 900 747 
882 900 883 729 
729 746 899 900 
882 900 729 899 
883 729 900 730 
900 729 747 730 
731 748 902 749 
884 902 885 731 
731 748 901 902 
884 902 731 901 
885 731 902 732 
902 731 749 732 
732 749 903 750 
885 903 886 732 
732 749 902 903 
885 903 732 902 
886 732 903 733 
903 732 750 733 
733 750 904 751 
886 904 887 733 
733 750 903 904 
886 904 733 903 
887 733 904 734 
904 733 751 734 
734 751 905 752 
887 905 888 734 
734 751 904 905 
887 905 734 904 
888 734 905 735 
905 734 752 735 
735 752 906 753 
888 906 889 735 
735 752 905 906 
888 906 735 905 
889 735 906 736 
906 735 753 736 
736 753 907 754 
889 907 890 736 
736 753 906 907 
889 907 736 906 
890 736 907 737 
907 736 754 737 
737 754 908 755 
890 908 891 737 
737 754 907 908 
890 908 737 907 
891 737 908 738 
908 737 755 738 
738 755 909 756 
891 909 892 738 
738 755 908 909 
891 909 738 908 
892 738 909 739 
909 738 756 739 
739 756 910 757 
892 910 893 739 
739 756 909 910 
892 910 739 909 
893 739 910 740 
910 739 757 740 
740 757 911 758 
893 911 894 740 
740 757 910 911 
893 911 740 910 
894 740 911 741 
911 740 758 741 
741 758 912 759 
894 912 895 741 
741 758 911 912 
894 912 741 911 
895 741 912 742 
912 741 759 742 
742 759 913 760 
895 913 896 742 
742 759 912 913 
895 913 742 912 
896 742 913 743 
913 742 760 743 
743 760 914 761 
896 914 897 743 
743 760 913 914 
896 914 743 913 
897 743 914 744 
914 743 761 744 
744 761 915 762 
897 915 898 744 
744 761 914 915 
897 915 744 914 
898 744 915 745 
915 744 762 745 
745 762 916 763 
898 916 899 745 
745 762 915 916 
898 916 745 915 
899 745 916 746 
916 745 763 746 
746 763 917 764 
899 917 900 746 
746 763 916 917 
899 917 746 916 
900 746 917 747 
917 746 764 747 
765 782 936 783 
918 936 919 765 
765 782 935 936 
918 936 765 935 
919 765 936 766 
936 765 783 766 
766 783 937 784 
919 937 920 766 
766 783 936 937 
919 937 766 936 
920 766 937 767 
937 766 784 767 
767 784 938 785 
920 938 921 767 
767 784 937 938 
920 938 767 937 
921 767 938 768 
938 767 785 768 
768 785 939 786 
921 939 922 768 
768 785 938 939 
921 939 768 938 
922 768 939 769 
939 768 786 769 
769 786 940 787 
922 940 923 769 
769 786 939 940 
922 940 769 939 
923 769 940 770 
940 769 787 770 
770 787 941 788 
923 941 924 770 
770 787 940 941 
923 941 770 940 
924 770 941 771 
941 770 788 771 
771 788 942 789 
924 942 925 771 
771 788 941 942 
924 942 771 941 
925 771 942 772 
942 771 789 772 
772 789 943 790 
925 943 926 772 
772 789 942 943 
925 943 772 942 
926 772 943 773 
943 772 790 773 
773 790 944 791 
926 944 927 773 
773 790 943 944 
926 944 773 943 
927 773 944 774 
944 773 791 774 
774 791 945 792 
927 945 928 774 
774 791 944 945 
927 945 774 944 
928 774 945 775 
945 774 792 775 
775 792 946 793 
928 946 929 775 
775 792 945 946 
928 946 775 945 
929 775 946 776 
946 775 793 776 
776 793 947 794 
929 947 930 776 
776 793 946 947 
929 947 776 946 
930 776 947 777 
947 776 794 777 
777 794 948 795 
930 948 931 777 
777 794 947 948 
930 948 777 947 
931 777 948 778 
948 777 795 778 
778 795 949 796 
931 949 932 778 
778 795 948 949 
931 949 778 948 
932 778 949 779 
949 778 796 779 
779 796 950 797 
932 950 933 779 
779 796 949 950 
932 950 779 949 
933 779 950 780 
950 779 797 780 
780 797 951 798 
933 951 934 780 
780 797 950 951 
933 951 780 950 
934 780 951 781 
951 780 798 781 
782 799 953 800 
935 953 936 782 
782 799 952 953 
935 953 782 952 
936 782 953 783 
953 782 800 783 
783 800 954 801 
936 954 937 783 
783 800 953 954 
936 954 783 953 
937 783 954 784 
954 783 801 784 
784 801 955 802 
937 955 938 784 
784 801 954 955 
937 955 784 954 
938 784 955 785 
955 784 802 785 
785 802 956 803 
938 956 939 785 
785 802 955 956 
938 956 785 955 
939 785 956 786 
956 785 803 786 
786 803 957 804 
939 957 940 786 
786 803 956 957 
939 957 786 956 
940 786 957 787 
957 786 804 787 
787 804 958 805 
940 958 941 787 
787 804 957 958 
940 958 787 957 
941 787 958 788 
958 787 805 788 
788 805 959 806 
941 959 942 788 
788 805 958 959 
941 959 788 958 
942 788 959 789 
959 788 806 789 
789 806 960 807 
942 960 943 789 
789 806 959 960 
942 960 789 959 
943 789 960 790 
960 789 807 790 
790 807 961 808 
943 961 944 790 
790 807 960 961 
943 961 790 960 
944 790 961 791 
961 790 808 791 
791 808 962 809 
944 962 945 791 
791 808 961 962 
944 962 791 961 
945 791 962 792 
962 791 809 792 
792 809 963 810 
945 963 946 792 
792 809 962 963 
945 963 792 962 
946 792 963 793 
963 792 810 793 
793 810 964 811 
946 964 947 793 
793 810 963 964 
946 964 793 963 
947 793 964 794 
964 793 811 794 
794 811 965 812 
947 965 948 794 
794 811 964 965 
947 965 794 964 
948 794 965 795 
965 794 812 795 
795 812 966 813 
948 966 949 795 
795 812 965 966 
948 966 795 965 
949 795 966 796 
966 795 813 796 
796 813 967 814 
949 967 950 796 
796 813 966 967 
949 967 796 966 
950 796 967 797 
967 796 814 797 
797 814 968 815 
950 968 951 797 
797 814 967 968 
950 968 797 967 
951 797 968 798 
968 797 815 798 
799 816 970 817 
952 970 953 799 
799 816 969 970 
952 970 799 969 
953 799 970 800 
970 799 817 800 
800 817 971 818 
953 971 954 800 
800 817 970 971 
953 971 800 970 
954 800 971 801 
971 800 818 801 
801 818 972 819 
954 972 955 801 
801 818 971 972 
954 972 801 971 
955 801 972 802 
972 801 819 802 
802 819 973 820 
955 973 956 802 
802 819 972 973 
955 973 802 972 
956 802 973 803 
973 802 820 803 
803 820 974 821 
956 974 957 803 
803 820 973 974 
956 974 803 973 
957 803 974 804 
974 803 821 804 
804 821 975 822 
957 975 958 804 
804 821 974 975 
957 975 804 974 
958 804 975 805 
975 804 822 805 
805 822 976 823 
958 976 959 805 
805 822 975 976 
958 976 805 975 
959 805 976 806 
976 805 823 806 
806 823 977 824 
959 977 960 806 
806 823 976 977 
959 977 806 976 
960 806 977 807 
977 806 824 807 
807 824 978 825 
960 978 961 807 
807 824 977 978 
960 978 807 977 
961 807 978 808 
978 807 825 808 
808 825 979 826 
961 979 962 808 
808 825 978 979 
961 979 808 978 
962 808 979 809 
979 808 826 809 
809 826 980 827 
962 980 963 809 
809 826 979 980 
962 980 809 979 
963 809 980 810 
980 809 827 810 
810 827 981 828 
963 981 964 810 
810 827 980 981 
963 981 810 980 
964 810 981 811 
981 810 828 811 
811 828 982 829 
964 982 965 811 
811 828 981 982 
964 982 811 981 
965 811 982 812 
982 811 829 812 
812 829 983 830 
965 983 966 812 
812 829 982 983 
965 983 812 982 
966 812 983 813 
983 812 830 813 
813 830 984 831 
966 984 967 813 
813 830 983 984 
966 984 813 983 
967 813 984 814 
984 813 831 814 
814 831 985 832 
967 985 968 814 
814 831 984 985 
967 985 814 984 
968 814 985 815 
985 814 832 815 
816 833 987 834 
969 987 970 816 
816 833 986 987 
969 987 816 986 
970 816 987 817 
987 816 834 817 
817 834 988 835 
970 988 971 817 
817 834 987 988 
970 988 817 987 
971 817 988 818 
988 817 835 818 
818 835 989 836 
971 989 972 818 
818 835 988 989 
971 989 818 988 
972 818 989 819 
989 818 836 819 
819 836 990 837 
972 990 973 819 
819 836 989 990 
972 990 819 989 
973 819 990 820 
990 819 837 820 
820 837 991 838 
973 991 974 820 
820 837 990 991 
973 991 820 990 
974 820 991 821 
991 820 838 821 
821 838 992 839 
974 992 975 821 
821 838 991 992 
974 992 821 991 
975 821 992 822 
992 821 839 822 
822 839 993 840 
975 993 976 822 
822 839 992 993 
975 993 822 992 
976 822 993 823 
993 822 840 823 
823 840 994 841 
976 994 977 823 
823 840 993 994 
976 994 823 993 
977 823 994 824 
994 823 841 824 
824 841 995 842 
977 995 978 824 
824 841 994 995 
977 995 824 994 
978 824 995 825 
995 824 842 825 
825 842 996 843 
978 996 979 825 
825 842 995 996 
978 996 825 995 
979 825 996 826 
996 825 843 826 
826 843 997 844 
979 997 980 826 
826 843 996 997 
979 997 826 996 
980 826 997 827 
997 826 844 827 
827 844 998 845 
980 998 981 827 
827 844 997 998 
980 998 827 997 
981 827 998 828 
998 827 845 828 
828 845 999 846 
981 999 982 828 
828 845 998 999 
981 999 828 998 
982 828 999 829 
999 828 846 829 
829 846 1000 847 
982 1000 983 829 
829 846 999 1000 
982 1000 829 999 
983 829 1000 830 
1000 829 847 830 
830 847 1001 848 
983 1001 984 830 
830 847 1000 1001 
983 1001 830 1000 
984 830 1001 831 
1001 830 848 831 
831 848 1002 849 
984 1002 985 831 
831 848 1001 1002 
984 1002 831 1001 
985 831 1002 832 
1002 831 849 832 
833 850 1004 851 
986 1004 987 833 
833 850 1003 1004 
986 1004 833 1003 
987 833 1004 834 
1004 833 851 834 
834 851 1005 852 
987 1005 988 834 
834 851 1004 1005 
987 1005 834 1004 
988 834 1005 835 
1005 834 852 835 
835 852 1006 853 
988 1006 989 835 
835 852 1005 1006 
988 1006 835 1005 
989 835 1006 836 
1006 835 853 836 
836 853 1007 854 
989 1007 990 836 
836 853 1006 1007 
989 1007 836 1006 
990 836 1007 837 
1007 836 854 837 
837 854 1008 855 
990 1008 991 837 
837 854 1007 1008 
990 1008 837 1007 
991 837 1008 838 
1008 837 855 838 
838 855 1009 856 
991 1009 992 838 
838 855 1008 1009 
991 1009 838 1008 
992 838 1009 839 
1009 838 856 839 
839 856 1010 857 
992 1010 993 839 
839 856 1009 1010 
992 1010 839 1009 
993 839 1010 840 
1010 839 857 840 
840 857 1011 858 
993 1011 994 840 
840 857 1010 1011 
993 1011 840 1010 
994 840 1011 841 
1011 840 858 841 
841 858 1012 859 
994 1012 995 841 
841 858 1011 1012 
994 1012 841 1011 
995 841 1012 842 
1012 841 859 842 
842 859 1013 860 
995 1013 996 842 
842 859 1012 1013 
995 1013 842 1012 
996 842 1013 843 
1013 842 860 843 
843 860 1014 861 
996 1014 997 843 
843 860 1013 1014 
996 1014 843 1013 
997 843 1014 844 
1014 843 861 844 
844 861 1015 862 
997 1015 998 844 
844 861 1014 1015 
997 1015 844 1014 
998 844 1015 845 
1015 844 862 845 
845 862 1016 863 
998 1016 999 845 
845 862 1015 1016 
998 1016 845 1015 
999 845 1016 846 
1016 845 863 846 
846 863 1017 864 
999 1017 1000 846 
846 863 1016 1017 
999 1017 846 1016 
1000 846 1017 847 
1017 846 864 847 
847 864 1018 865 
1000 1018 1001 847 
847 864 1017 1018 
1000 1018 847 1017 
1001 847 1018 848 
1018 847 865 848 
848 865 1019 866 
1001 1019 1002 848 
848 865 1018 1019 
1001 1019 848 1018 
1002 848 1019 849 
1019 848 866 849 
850 867 1021 868 
1003 1021 1004 850 
850 867 1020 1021 
1003 1021 850 1020 
1004 850 1021 851 
1021 850 868 851 
851 868 1022 869 
1004 1022 1005 851 
851 868 1021 1022 
1004 1022 851 1021 
1005 851 1022 852 
1022 851 869 852 
852 869 1023 870 
1005 1023 1006 852 
852 869 1022 1023 
1005 1023 852 1022 
1006 852 1023 853 
1023 852 870 853 
853 870 1024 871 
1006 1024 1007 853 
853 870 1023 1024 
1006 1024 853 1023 
1007 853 1024 854 
1024 853 871 854 
854 871 1025 872 
1007 1025 1008 854 
854 871 1024 1025 
1007 1025 854 1024 
1008 854 1025 855 
1025 854 872 855 
855 872 1026 873 
1008 1026 1009 855 
855 872 1025 1026 
1008 1026 855 1025 
1009 855 1026 856 
1026 855 873 856 
856 873 1027 874 
1009 1027 1010 856 
856 873 1026 1027 
1009 1027 856 1026 
1010 856 1027 857 
1027 856 874 857 
857 874 1028 875 
1010 1028 1011 857 
857 874 1027 1028 
1010 1028 857 1027 
1011 857 1028 858 
1028 857 875 858 
858 875 1029 876 
1011 1029 1012 858 
858 875 1028 1029 
1011 1029 858 1028 
1012 858 1029 859 
1029 858 876 859 
859 876 1030 877 
1012 1030 1013 859 
859 876 1029 1030 
1012 1030 859 1029 
1013 859 1030 860 
1030 859 877 860 
860 877 1031 878 
1013 1031 1014 860 
860 877 1030 1031 
1013 1031 860 1030 
1014 860 1031 861 
1031 860 878 861 
861 878 1032 879 
1014 1032 1015 861 
861 878 1031 1032 
1014 1032 861 1031 
1015 861 1032 862 
1032 861 879 862 
862 879 1033 880 
1015 1033 1016 862 
862 879 1032 1033 
1015 1033 862 1032 
1016 862 1033 863 
1033 862 880 863 
863 880 1034 881 
1016 1034 1017 863 
863 880 1033 1034 
1016 1034 863 1033 
1017 863 1034 864 
1034 863 881 864 
864 881 1035 882 
1017 1035 1018 864 
864 881 1034 1035 
1017 1035 864 1034 
1018 864 1035 865 
1035 864 882 865 
865 882 1036 883 
1018 1036 1019 865 
865 882 1035 1036 
1018 1036 865 1035 
1019 865 1036 866 
1036 865 883 866 
867 884 1038 885 
1020 1038 1021 867 
867 884 1037 1038 
1020 1038 867 1037 
1021 867 1038 868 
1038 867 885 868 
868 885 1039 886 
1021 1039 1022 868 
868 885 1038 1039 
1021 1039 868 1038 
1022 868 1039 869 
1039 868 886 869 
869 886 1040 887 
1022 1040 1023 869 
869 886 1039 1040 
1022 1040 869 1039 
1023 869 1040 870 
1040 869 887 870 
870 887 1041 888 
1023 1041 1024 870 
870 887 1040 1041 
1023 1041 870 1040 
1024 870 1041 871 
1041 870 888 871 
871 888 1042 889 
1024 1042 1025 871 
871 888 1041 1042 
1024 1042 871 1041 
1025 871 1042 872 
1042 871 889 872 
872 889 1043 890 
1025 1043 1026 872 
872 889 1042 1043 
1025 1043 872 1042 
1026 872 1043 873 
1043 872 890 873 
873 890 1044 891 
1026 1044 1027 873 
873 890 1043 1044 
1026 1044 873 1043 
1027 873 1044 874 
1044 873 891 874 
874 891 1045 892 
1027 1045 1028 874 
874 891 1044 1045 
1027 1045 874 1044 
1028 874 1045 875 
1045 874 892 875 
875 892 1046 893 
1028 1046 1029 875 
875 892 1045 1046 
1028 1046 875 1045 
1029 875 1046 876 
1046 875 893 876 
876 893 1047 894 
1029 1047 1030 876 
876 893 1046 1047 
1029 1047 876 1046 
1030 876 1047 877 
1047 876 894 877 
877 894 1048 895 
1030 1048 1031 877 
877 894 1047 1048 
1030 1048 877 1047 
1031 877 1048 878 
1048 877 895 878 
878 895 1049 896 
1031 1049 1032 878 
878 895 1048 1049 
1031 1049 878 1048 
1032 878 1049 879 
1049 878 896 879 
879 896 1050 897 
1032 1050 1033 879 
879 896 1049 1050 
1032 1050 879 1049 
1033 879 1050 880 
1050 879 897 880 
880 897 1051 898 
1033 1051 1034 880 
880 897 1050 1051 
1033 1051 880 1050 
1034 880 1051 881 
1051 880 898 881 
881 898 1052 899 
1034 1052 1035 881 
881 898 1051 1052 
1034 1052 881 1051 
1035 881 1052 882 
1052 881 899 882 
882 899 1053 900 
1035 1053 1036 882 
882 899 1052 1053 
1035 1053 882 1052 
1036 882 1053 883 
1053 882 900 883 
884 901 1055 902 
1037 1055 1038 884 
884 901 1054 1055 
1037 1055 884 1054 
1038 884 1055 885 
1055 884 902 885 
885 902 1056 903 
1038 1056 1039 885 
885 902 1055 1056 
1038 1056 885 1055 
1039 885 1056 886 
1056 885 903 886 
886 903 1057 904 
1039 1057 1040 886 
886 903 1056 1057 
1039 1057 886 1056 
1040 886 1057 887 
1057 886 904 887 
887 904 1058 905 
1040 1058 1041 887 
887 904 1057 1058 
1040 1058 887 1057 
1041 887 1058 888 
1058 887 905 888 
888 905 1059 906 
1041 1059 1042 888 
888 905 1058 1059 
1041 1059 888 1058 
1042 888 1059 889 
1059 888 906 889 
889 906 1060 907 
1042 1060 1043 889 
889 906 1059 1060 
1042 1060 889 1059 
1043 889 1060 890 
1060 889 907 890 
890 907 1061 908 
1043 1061 1044 890 
890 907 1060 1061 
1043 1061 890 1060 
1044 890 1061 891 
1061 890 908 891 
891 908 1062 909 
1044 1062 1045 891 
891 908 1061 1062 
1044 1062 891 1061 
1045 891 1062 892 
1062 891 909 892 
892 909 1063 910 
1045 1063 1046 892 
892 909 1062 1063 
1045 1063 892 1062 
1046 892 1063 893 
1063 892 910 893 
893 910 1064 911 
1046 1064 1047 893 
893 910 1063 1064 
1046 1064 893 1063 
1047 893 1064 894 
1064 893 911 894 
894 911 1065 912 
1047 1065 1048 894 
894 911 1064 1065 
1047 1065 894 1064 
1048 894 1065 895 
1065 894 912 895 
895 912 1066 913 
1048 1066 1049 895 
895 912 1065 1066 
1048 1066 895 1065 
1049 895 1066 896 
1066 895 913 896 
896 913 1067 914 
1049 1067 1050 896 
896 913 1066 1067 
1049 1067 896 1066 
1050 896 1067 897 
1067 896 914 897 
897 914 1068 915 
1050 1068 1051 897 
897 914 1067 1068 
1050 1068 897 1067 
1051 897 1068 898 
1068 897 915 898 
898 915 1069 916 
1051 1069 1052 898 
898 915 1068 1069 
1051 1069 898 1068 
1052 898 1069 899 
1069 898 916 899 
899 916 1070 917 
1052 1070 1053 899 
899 916 1069 1070 
1052 1070 899 1069 
1053 899 1070 900 
1070 899 917 900 
918 935 1089 936 
1071 1089 1072 918 
918 935 1088 1089 
1071 1089 918 1088 
1072 918 1089 919 
1089 918 936 919 
919 936 1090 937 
1072 1090 1073 919 
919 936 1089 1090 
1072 1090 919 1089 
1073 919 1090 920 
1090 919 937 920 
920 937 1091 938 
1073 1091 1074 920 
920 937 1090 1091 
1073 1091 920 1090 
1074 920 1091 921 
1091 920 938 921 
921 938 1092 939 
1074 1092 1075 921 
921 938 1091 1092 
1074 1092 921 1091 
1075 921 1092 922 
1092 921 939 922 
922 939 1093 940 
1075 1093 1076 922 
922 939 1092 1093 
1075 1093 922 1092 
1076 922 1093 923 
1093 922 940 923 
923 940 1094 941 
1076 1094 1077 923 
923 940 1093 1094 
1076 1094 923 1093 
1077 923 1094 924 
1094 923 941 924 
924 941 1095 942 
1077 1095 1078 924 
924 941 1094 1095 
1077 1095 924 1094 
1078 924 1095 925 
1095 924 942 925 
925 942 1096 943 
1078 1096 1079 925 
925 942 1095 1096 
1078 1096 925 1095 
1079 925 1096 926 
1096 925 943 926 
926 943 1097 944 
1079 1097 1080 926 
926 943 1096 1097 
1079 1097 926 1096 
1080 926 1097 927 
1097 926 944 927 
927 944 1098 945 
1080 1098 1081 927 
927 944 1097 1098 
1080 1098 927 1097 
1081 927 1098 928 
1098 927 945 928 
928 945 1099 946 
1081 1099 1082 928 
928 945 1098 1099 
1081 1099 928 1098 
1082 928 1099 929 
1099 928 946 929 
929 946 1100 947 
1082 1100 1083 929 
929 946 1099 1100 
1082 1100 929 1099 
1083 929 1100 930 
1100 929 947 930 
930 947 1101 948 
1083 1101 1084 930 
930 947 1100 1101 
1083 1101 930 1100 
1084 930 1101 931 
1101 930 948 931 
931 948 1102 949 
1084 1102 1085 931 
931 948 1101 1102 
1084 1102 931 1101 
1085 931 1102 932 
1102 931 949 932 
932 949 1103 950 
1085 1103 1086 932 
932 949 1102 1103 
1085 1103 932 1102 
1086 932 1103 933 
1103 932 950 933 
933 950 1104 951 
1086 1104 1087 933 
933 950 1103 1104 
1086 1104 933 1103 
1087 933 1104 934 
1104 933 951 934 
935 952 1106 953 
1088 1106 1089 935 
935 952 1105 1106 
1088 1106 935 1105 
1089 935 1106 936 
1106 935 953 936 
936 953 1107 954 
1089 1107 1090 936 
936 953 1106 1107 
1089 1107 936 1106 
1090 936 1107 937 
1107 936 954 937 
937 954 1108 955 
1090 1108 1091 937 
937 954 1107 1108 
1090 1108 937 1107 
1091 937 1108 938 
1108 937 955 938 
938 955 1109 956 
1091 1109 1092 938 
938 955 1108 1109 
1091 1109 938 1108 
1092 938 1109 939 
1109 938 956 939 
939 956 1110 957 
1092 1110 1093 939 
939 956 1109 1110 
1092 1110 939 1109 
1093 939 1110 940 
1110 939 957 940 
940 957 1111 958 
1093 1111 1094 940 
940 957 1110 1111 
1093 1111 940 1110 
1094 940 1111 941 
1111 940 958 941 
941 958 1112 959 
1094 1112 1095 941 
941 958 1111 1112 
1094 1112 941 1111 
1095 941 1112 942 
1112 941 959 942 
942 959 1113 960 
1095 1113 1096 942 
942 959 1112 1113 
1095 1113 942 1112 
1096 942 1113 943 
1113 942 960 943 
943 960 1114 961 
1096 1114 1097 943 
943 960 1113 1114 
1096 1114 943 1113 
1097 943 1114 944 
1114 943 961 944 
944 961 1115 962 
1097 1115 1098 944 
944 961 1114 1115 
1097 1115 944 1114 
1098 944 1115 945 
1115 944 962 945 
945 962 1116 963 
1098 1116 1099 945 
945 962 1115 1116 
1098 1116 945 1115 
1099 945 1116 946 
1116 945 963 946 
946 963 1117 964 
1099 1117 1100 946 
946 963 1116 1117 
1099 1117 946 1116 
1100 946 1117 947 
1117 946 964 947 
947 964 1118 965 
1100 1118 1101 947 
947 964 1117 1118 
1100 1118 947 1117 
1101 947 1118 948 
1118 947 965 948 
948 965 1119 966 
1101 1119 1102 948 
948 965 1118 1119 
1101 1119 948 1118 
1102 948 1119 949 
1119 948 966 949 
949 966 1120 967 
1102 1120 1103 949 
949 966 1119 1120 
1102 1120 949 1119 
1103 949 1120 950 
1120 949 967 950 
950 967 1121 968 
1103 1121 1104 950 
950 967 1120 1121 
1103 1121 950 1120 
1104 950 1121 951 
1121 950 968 951 
952 969 1123 970 
1105 1123 1106 952 
952 969 1122 1123 
1105 1123 952 1122 
1106 952 1123 953 
1123 952 970 953 
953 970 1124 971 
1106 1124 1107 953 
953 970 1123 1124 
1106 1124 953 1123 
1107 953 1124 954 
1124 953 971 954 
954 971 1125 972 
1107 1125 1108 954 
954 971 1124 1125 
1107 1125 954 1124 
1108 954 1125 955 
1125 954 972 955 
955 972 1126 973 
1108 1126 1109 955 
955 972 1125 1126 
1108 1126 955 1125 
1109 955 1126 956 
1126 955 973 956 
956 973 1127 974 
1109 1127 1110 956 
956 973 1126 1127 
1109 1127 956 1126 
1110 956 1127 957 
1127 956 974 957 
957 974 1128 975 
1110 1128 1111 957 
957 974 1127 1128 
1110 1128 957 1127 
1111 957 1128 958 
1128 957 975 958 
958 975 1129 976 
1111 1129 1112 958 
958 975 1128 1129 
1111 1129 958 1128 
1112 958 1129 959 
1129 958 976 959 
959 976 1130 977 
1112 1130 1113 959 
959 976 1129 1130 
1112 1130 959 1129 
1113 959 1130 960 
1130 959 977 960 
960 977 1131 978 
1113 1131 1114 960 
960 977 1130 1131 
1113 1131 960 1130 
1114 960 1131 961 
1131 960 978 961 
961 978 1132 979 
1114 1132 1115 961 
961 978 1131 1132 
1114 1132 961 1131 
1115 961 1132 962 
1132 961 979 962 
962 979 1133 980 
1115 1133 1116 962 
962 979 1132 1133 
1115 1133 962 1132 
1116 962 1133 963 
1133 962 980 963 
963 980 1134 981 
1116 1134 1117 963 
963 980 1133 1134 
1116 1134 963 1133 
1117 963 1134 964 
1134 963 981 964 
964 981 1135 982 
1117 1135 1118 964 
964 981 1134 1135 
1117 1135 964 1134 
1118 964 1135 965 
1135 964 982 965 
965 982 1136 983 
1118 1136 1119 965 
965 982 1135 1136 
1118 1136 965 1135 
1119 965 1136 966 
1136 965 983 966 
966 983 1137 984 
1119 1137 1120 966 
966 983 1136 1137 
1119 1137 966 1136 
1120 966 1137 967 
1137 966 984 967 
967 984 1138 985 
1120 1138 1121 967 
967 984 1137 1138 
1120 1138 967 1137 
1121 967 1138 968 
1138 967 985 968 
969 986 1140 987 
1122 1140 1123 969 
969 986 1139 1140 
1122 1140 969 1139 
1123 969 1140 970 
1140 969 987 970 
970 987 1141 988 
1123 1141 1124 970 
970 987 1140 1141 
1123 1141 970 1140 
1124 970 1141 971 
1141 970 988 971 
971 988 1142 989 
1124 1142 1125 971 
971 988 1141 1142 
1124 1142 971 1141 
1125 971 1142 972 
1142 971 989 972 
972 989 1143 990 
1125 1143 1126 972 
972 989 1142 1143 
1125 1143 972 1142 
1126 972 1143 973 
1143 972 990 973 
973 990 1144 991 
1126 1144 1127 973 
973 990 1143 1144 
1126 1144 973 1143 
1127 973 1144 974 
1144 973 991 974 
974 991 1145 992 
1127 1145 1128 974 
974 991 1144 1145 
1127 1145 974 1144 
1128 974 1145 975 
1145 974 992 975 
975 992 1146 993 
1128 1146 1129 975 
975 992 1145 1146 
1128 1146 975 1145 
1129 975 1146 976 
1146 975 993 976 
976 993 1147 994 
1129 1147 1130 976 
976 993 1146 1147 
1129 1147 976 1146 
1130 976 1147 977 
1147 976 994 977 
977 994 1148 995 
1130 1148 1131 977 
977 994 1147 1148 
1130 1148 977 1147 
1131 977 1148 978 
1148 977 995 978 
978 995 1149 996 
1131 1149 1132 978 
978 995 1148 1149 
1131 1149 978 1148 
1132 978 1149 979 
1149 978 996 979 
979 996 1150 997 
1132 1150 1133 979 
979 996 1149 1150 
1132 1150 979 1149 
1133 979 1150 980 
1150 979 997 980 
980 997 1151 998 
1133 1151 1134 980 
980 997 1150 1151 
1133 1151 980 1150 
1134 980 1151 981 
1151 980 998 981 
981 998 1152 999 
1134 1152 1135 981 
981 998 1151 1152 
1134 1152 981 1151 
1135 981 1152 982 
1152 981 999 982 
982 999 1153 1000 
1135 1153 1136 982 
982 999 1152 1153 
1135 1153 982 1152 
1136 982 1153 983 
1153 982 1000 983 
983 1000 1154 1001 
1136 1154 1137 983 
983 1000 1153 1154 
1136 1154 983 1153 
1137 983 1154 984 
1154 983 1001 984 
984 1001 1155 1002 
1137 1155 1138 984 
984 1001 1154 1155 
1137 1155 984 1154 
1138 984 1155 985 
1155 984 1002 985 
986 1003 1157 1004 
1139 1157 1140 986 
986 1003 1156 1157 
1139 1157 986 1156 
1140 986 1157 987 
1157 986 1004 987 
987 1004 1158 1005 
1140 1158 1141 987 
987 1004 1157 1158 
1140 1158 987 1157 
1141 987 1158 988 
1158 987 1005 988 
988 1005 1159 1006 
1141 1159 1142 988 
988 1005 1158 1159 
1141 1159 988 1158 
1142 988 1159 989 
1159 988 1006 989 
989 1006 1160 1007 
1142 1160 1143 989 
989 1006 1159 1160 
1142 1160 989 1159 
1143 989 1160 990 
1160 989 1007 990 
990 1007 1161 1008 
1143 1161 1144 990 
990 1007 1160 1161 
1143 1161 990 1160 
1144 990 1161 991 
1161 990 1008 991 
991 1008 1162 1009 
1144 1162 1145 991 
991 1008 1161 1162 
1144 1162 991 1161 
1145 991 1162 992 
1162 991 1009 992 
992 1009 1163 1010 
1145 1163 1146 992 
992 1009 1162 1163 
1145 1163 992 1162 
1146 992 1163 993 
1163 992 1010 993 
993 1010 1164 1011 
1146 1164 1147 993 
993 1010 1163 1164 
1146 1164 993 1163 
1147 993 1164 994 
1164 993 1011 994 
994 1011 1165 1012 
1147 1165 1148 994 
994 1011 1164 1165 
1147 1165 994 1164 
1148 994 1165 995 
1165 994 1012 995 
995 1012 1166 1013 
1148 1166 1149 995 
995 1012 1165 1166 
1148 1166 995 1165 
1149 995 1166 996 
1166 995 1013 996 
996 1013 1167 1014 
1149 1167 1150 996 
996 1013 1166 1167 
1149 1167 996 1166 
1150 996 1167 997 
1167 996 1014 997 
997 1014 1168 1015 
1150 1168 1151 997 
997 1014 1167 1168 
1150 1168 997 1167 
1151 997 1168 998 
1168 997 1015 998 
998 1015 1169 1016 
1151 1169 1152 998 
998 1015 1168 1169 
1151 1169 998 1168 
1152 998 1169 999 
1169 998 1016 999 
999 1016 1170 1017 
1152 1170 1153 999 
999 1016 1169 1170 
1152 1170 999 1169 
1153 999 1170 1000 
1170 999 1017 1000 
1000 1017 1171 1018 
1153 1171 1154 1000 
1000 1017 1170 1171 
1153 1171 1000 1170 
1154 1000 1171 1001 
1171 1000 1018 1001 
1001 1018 1172 1019 
1154 1172 1155 1001 
1001 1018 1171 1172 
1154 1172 1001 1171 
1155 1001 1172 1002 
1172 1001 1019 1002 
1003 1020 1174 1021 
1156 1174 1157 1003 
1003 1020 1173 1174 
1156 1174 1003 1173 
1157 1003 1174 1004 
1174 1003 1021 1004 
1004 1021 1175 1022 
1157 1175 1158 1004 
1004 1021 1174 1175 
1157 1175 1004 1174 
1158 1004 1175 1005 
1175 1004 1022 1005 
1005 1022 1176 1023 
1158 1176 1159 1005 
1005 1022 1175 1176 
1158 1176 1005 1175 
1159 1005 1176 1006 
1176 1005 1023 1006 
1006 1023 1177 1024 
1159 1177 1160 1006 
1006 1023 1176 1177 
1159 1177 1006 1176 
1160 1006 1177 1007 
1177 1006 1024 1007 
1007 1024 1178 1025 
1160 1178 1161 1007 
1007 1024 1177 1178 
1160 1178 1007 1177 
1161 1007 1178 1008 
1178 1007 1025 1008 
1008 1025 1179 1026 
1161 1179 1162 1008 
1008 1025 1178 1179 
1161 1179 1008 1178 
1162 1008 1179 1009 
1179 1008 1026 1009 
1009 1026 1180 1027 
1162 1180 1163 1009 
1009 1026 1179 1180 
1162 1180 1009 1179 
1163 1009 1180 1010 
1180 1009 1027 1010 
1010 1027 1181 1028 
1163 1181 1164 1010 
1010 1027 1180 1181 
1163 1181 1010 1180 
1164 1010 1181 1011 
1181 1010 1028 1011 
1011 1028 1182 1029 
1164 1182 1165 1011 
1011 1028 1181 1182 
1164 1182 1011 1181 
1165 1011 1182 1012 
1182 1011 1029 1012 
1012 1029 1183 1030 
1165 1183 1166 1012 
1012 1029 1182 1183 
1165 1183 1012 1182 
1166 1012 1183 1013 
1183 1012 1030 1013 
1013 1030 1184 1031 
1166 1184 1167 1013 
1013 1030 1183 1184 
1166 1184 1013 1183 
1167 1013 1184 1014 
1184 1013 1031 1014 
1014 1031 1185 1032 
1167 1185 1168 1014 
1014 1031 1184 1185 
1167 1185 1014 1184 
1168 1014 1185 1015 
1185 1014 1032 1015 
1015 1032 1186 1033 
1168 1186 1169 1015 
1015 1032 1185 1186 
1168 1186 1015 1185 
1169 1015 1186 1016 
1186 1015 1033 1016 
1016 1033 1187 1034 
1169 1187 1170 1016 
1016 1033 1186 1187 
1169 1187 1016 1186 
1170 1016 1187 1017 
1187 1016 1034 1017 
1017 1034 1188 1035 
1170 1188 1171 1017 
1017 1034 1187 1188 
1170 1188 1017 1187 
1171 1017 1188 1018 
1188 1017 1035 1018 
1018 1035 1189 1036 
1171 1189 1172 1018 
1018 1035 1188 1189 
1171 1189 1018 1188 
1172 1018 1189 1019 
1189 1018 1036 1019 
1020 1037 1191 1038 
1173 1191 1174 1020 
1020 1037 1190 1191 
1173 1191 1020 1190 
1174 1020 1191 1021 
1191 1020 1038 1021 
1021 1038 1192 1039 
1174 1192 1175 1021 
1021 1038 1191 1192 
1174 1192 1021 1191 
1175 1021 1192 1022 
1192 1021 1039 1022 
1022 1039 1193 1040 
1175 1193 1176 1022 
1022 1039 1192 1193 
1175 1193 1022 1192 
1176 1022 1193 1023 
1193 1022 1040 1023 
1023 1040 1194 1041 
1176 1194 1177 1023 
1023 1040 1193 1194 
1176 1194 1023 1193 
1177 1023 1194 1024 
1194 1023 1041 1024 
1024 1041 1195 1042 
1177 1195 1178 1024 
1024 1041 1194 1195 
1177 1195 1024 1194 
1178 1024 1195 1025 
1195 1024 1042 1025 
1025 1042 1196 1043 
1178 1196 1179 1025 
1025 1042 1195 1196 
1178 1196 1025 1195 
1179 1025 1196 1026 
1196 1025 1043 1026 
1026 1043 1197 1044 
1179 1197 1180 1026 
1026 1043 1196 1197 
1179 1197 1026 1196 
1180 1026 1197 1027 
1197 1026 1044 1027 
1027 1044 1198 1045 
1180 1198 1181 1027 
1027 1044 1197 1198 
1180 1198 1027 1197 
1181 1027 1198 1028 
1198 1027 1045 1028 
1028 1045 1199 1046 
1181 1199 1182 1028 
1028 1045 1198 1199 
1181 1199 1028 1198 
1182 1028 1199 1029 
1199 1028 1046 1029 
1029 1046 1200 1047 
1182 1200 1183 1029 
1029 1046 1199 1200 
1182 1200 1029 1199 
1183 1029 1200 1030 
1200 1029 1047 1030 
1030 1047 1201 1048 
1183 1201 1184 1030 
1030 1047 1200 1201 
1183 1201 1030 1200 
1184 1030 1201 1031 
1201 1030 1048 1031 
1031 1048 1202 1049 
1184 1202 1185 1031 
1031 1048 1201 1202 
1184 1202 1031 1201 
1185 1031 1202 1032 
1202 1031 1049 1032 
1032 1049 1203 1050 
1185 1203 1186 1032 
1032 1049 1202 1203 
1185 1203 1032 1202 
1186 1032 1203 1033 
1203 1032 1050 1033 
1033 1050 1204 1051 
1186 1204 1187 1033 
1033 1050 1203 1204 
1186 1204 1033 1203 
1187 1033 1204 1034 
1204 1033 1051 1034 
1034 1051 1205 1052 
1187 1205 1188 1034 
1034 1051 1204 1205 
1187 1205 1034 1204 
1188 1034 1205 1035 
1205 1034 1052 1035 
1035 1052 1206 1053 
1188 1206 1189 1035 
1035 1052 1205 1206 
1188 1206 1035 1205 
1189 1035 1206 1036 
1206 1035 1053 1036 
1037 1054 1208 1055 
1190 1208 1191 1037 
1037 1054 1207 1208 
1190 1208 1037 1207 
1191 1037 1208 1038 
1208 1037 1055 1038 
1038 1055 1209 1056 
1191 1209 1192 1038 
1038 1055 1208 1209 
1191 1209 1038 1208 
1192 1038 1209 1039 
1209 1038 1056 1039 
1039 1056 1210 1057 
1192 1210 1193 1039 
1039 1056 1209 1210 
1192 1210 1039 1209 
1193 1039 1210 1040 
1210 1039 1057 1040 
1040 1057 1211 1058 
1193 1211 1194 1040 
1040 1057 1210 1211 
1193 1211 1040 1210 
1194 1040 1211 1041 
1211 1040 1058 1041 
1041 1058 1212 1059 
1194 1212 1195 1041 
1041 1058 1211 1212 
1194 1212 1041 1211 
1195 1041 1212 1042 
1212 1041 1059 1042 
1042 1059 1213 1060 
1195 1213 1196 1042 
1042 1059 1212 1213 
1195 1213 1042 1212 
1196 1042 1213 1043 
1213 1042 1060 1043 
1043 1060 1214 1061 
1196 1214 1197 1043 
1043 1060 1213 1214 
1196 1214 1043 1213 
1197 1043 1214 1044 
1214 1043 1061 1044 
1044 1061 1215 1062 
1197 1215 1198 1044 
1044 1061 1214 1215 
1197 1215 1044 1214 
1198 1044 1215 1045 
1215 1044 1062 1045 
1045 1062 1216 1063 
1198 1216 1199 1045 
1045 1062 1215 1216 
1198 1216 1045 1215 
1199 1045 1216 1046 
1216 1045 1063 1046 
1046 1063 1217 1064 
1199 1217 1200 1046 
1046 1063 1216 1217 
1199 1217 1046 1216 
1200 1046 1217 1047 
1217 1046 1064 1047 
1047 1064 1218 1065 
1200 1218 1201 1047 
1047 1064 1217 1218 
1200 1218 1047 1217 
1201 1047 1218 1048 
1218 1047 1065 1048 
1048 1065 1219 1066 
1201 1219 1202 1048 
1048 1065 1218 1219 
1201 1219 1048 1218 
1202 1048 1219 1049 
1219 1048 1066 1049 
1049 1066 1220 1067 
1202 1220 1203 1049 
1049 1066 1219 1220 
1202 1220 1049 1219 
1203 1049 1220 1050 
1220 1049 1067 1050 
1050 1067 1221 1068 
1203 1221 1204 1050 
1050 1067 1220 1221 
1203 1221 1050 1220 
1204 1050 1221 1051 
1221 1050 1068 1051 
1051 1068 1222 1069 
1204 1222 1205 1051 
1051 1068 1221 1222 
1204 1222 1051 1221 
1205 1051 1222 1052 
1222 1051 1069 1052 
1052 1069 1223 1070 
1205 1223 1206 1052 
1052 1069 1222 1223 
1205 1223 1052 1222 
1206 1052 1223 1053 
1223 1052 1070 1053 
1071 1088 1242 1089 
1224 1242 1225 1071 
1071 1088 1241 1242 
1224 1242 1071 1241 
1225 1071 1242 1072 
1242 1071 1089 1072 
1072 1089 1243 1090 
1225 1243 1226 1072 
1072 1089 1242 1243 
1225 1243 1072 1242 
1226 1072 1243 1073 
1243 1072 1090 1073 
1073 1090 1244 1091 
1226 1244 1227 1073 
1073 1090 1243 1244 
1226 1244 1073 1243 
1227 1073 1244 1074 
1244 1073 1091 1074 
1074 1091 1245 1092 
1227 1245 1228 1074 
1074 1091 1244 1245 
1227 1245 1074 1244 
1228 1074 1245 1075 
1245 1074 1092 1075 
1075 1092 1246 1093 
1228 1246 1229 1075 
1075 1092 1245 1246 
1228 1246 1075 1245 
1229 1075 1246 1076 
1246 1075 1093 1076 
1076 1093 1247 1094 
1229 1247 1230 1076 
1076 1093 1246 1247 
1229 1247 1076 1246 
1230 1076 1247 1077 
1247 1076 1094 1077 
1077 1094 1248 1095 
1230 1248 1231 1077 
1077 1094 1247 1248 
1230 1248 1077 1247 
1231 1077 1248 1078 
1248 1077 1095 1078 
1078 1095 1249 1096 
1231 1249 1232 1078 
1078 1095 1248 1249 
1231 1249 1078 1248 
1232 1078 1249 1079 
1249 1078 1096 1079 
1079 1096 1250 1097 
1232 1250 1233 1079 
1079 1096 1249 1250 
1232 1250 1079 1249 
1233 1079 1250 1080 
1250 1079 1097 1080 
1080 1097 1251 1098 
1233 1251 1234 1080 
1080 1097 1250 1251 
1233 1251 1080 1250 
1234 1080 1251 1081 
1251 1080 1098 1081 
1081 1098 1252 1099 
1234 1252 1235 1081 
1081 1098 1251 1252 
1234 1252 1081 1251 
1235 1081 1252 1082 
1252 1081 1099 1082 
1082 1099 1253 1100 
1235 1253 1236 1082 
1082 1099 1252 1253 
1235 1253 1082 1252 
1236 1082 1253 1083 
1253 1082 1100 1083 
1083 1100 1254 1101 
1236 1254 1237 1083 
1083 1100 1253 1254 
1236 1254 1083 1253 
1237 1083 1254 1084 
1254 1083 1101 1084 
1084 1101 1255 1102 
1237 1255 1238 1084 
1084 1101 1254 1255 
1237 1255 1084 1254 
1238 1084 1255 1085 
1255 1084 1102 1085 
1085 1102 1256 1103 
1238 1256 1239 1085 
1085 1102 1255 1256 
1238 1256 1085 1255 
1239 1085 1256 1086 
1256 1085 1103 1086 
1086 1103 1257 1104 
1239 1257 1240 1086 
1086 1103 1256 1257 
1239 1257 1086 1256 
1240 1086 1257 1087 
1257 1086 1104 1087 
1088 1105 1259 1106 
1241 1259 1242 1088 
1088 1105 1258 1259 
1241 1259 1088 1258 
1242 1088 1259 1089 
1259 1088 1106 1089 
1089 1106 1260 1107 
1242 1260 1243 1089 
1089 1106 1259 1260 
1242 1260 1089 1259 
1243 1089 1260 1090 
1260 1089 1107 1090 
1090 1107 1261 1108 
1243 1261 1244 1090 
1090 1107 1260 1261 
1243 1261 1090 1260 
1244 1090 1261 1091 
1261 1090 1108 1091 
1091 1108 1262 1109 
1244 1262 1245 1091 
1091 1108 1261 1262 
1244 1262 1091 1261 
1245 1091 1262 1092 
1262 1091 1109 1092 
1092 1109 1263 1110 
1245 1263 1246 1092 
1092 1109 1262 1263 
1245 1263 1092 1262 
1246 1092 1263 1093 
1263 1092 1110 1093 
1093 1110 1264 1111 
1246 1264 1247 1093 
1093 1110 1263 1264 
1246 1264 1093 1263 
1247 1093 1264 1094 
1264 1093 1111 1094 
1094 1111 1265 1112 
1247 1265 1248 1094 
1094 1111 1264 1265 
1247 1265 1094 1264 
1248 1094 1265 1095 
1265 1094 1112 1095 
1095 1112 1266 1113 
1248 1266 1249 1095 
1095 1112 1265 1266 
1248 1266 1095 1265 
1249 1095 1266 1096 
1266 1095 1113 1096 
1096 1113 1267 1114 
1249 1267 1250 1096 
1096 1113 1266 1267 
1249 1267 1096 1266 
1250 1096 1267 1097 
1267 1096 1114 1097 
1097 1114 1268 1115 
1250 1268 1251 1097 
1097 1114 1267 1268 
1250 1268 1097 1267 
1251 1097 1268 1098 
1268 1097 1115 1098 
1098 1115 1269 1116 
1251 1269 1252 1098 
1098 1115 1268 1269 
1251 1269 1098 1268 
1252 1098 1269 1099 
1269 1098 1116 1099 
1099 1116 1270 1117 
1252 1270 1253 1099 
1099 1116 1269 1270 
1252 1270 1099 1269 
1253 1099 1270 1100 
1270 1099 1117 1100 
1100 1117 1271 1118 
1253 1271 1254 1100 
1100 1117 1270 1271 
1253 1271 1100 1270 
1254 1100 1271 1101 
1271 1100 1118 1101 
1101 1118 1272 1119 
1254 1272 1255 1101 
1101 1118 1271 1272 
1254 1272 1101 1271 
1255 1101 1272 1102 
1272 1101 1119 1102 
1102 1119 1273 1120 
1255 1273 1256 1102 
1102 1119 1272 1273 
1255 1273 1102 1272 
1256 1102 1273 1103 
1273 1102 1120 1103 
1103 1120 1274 1121 
1256 1274 1257 1103 
1103 1120 1273 1274 
1256 1274 1103 1273 
1257 1103 1274 1104 
1274 1103 1121 1104 
1105 1122 1276 1123 
1258 1276 1259 1105 
1105 1122 1275 1276 
1258 1276 1105 1275 
1259 1105 1276 1106 
1276 1105 1123 1106 
1106 1123 1277 1124 
1259 1277 1260 1106 
1106 1123 1276 1277 
1259 1277 1106 1276 
1260 1106 1277 1107 
1277 1106 1124 1107 
1107 1124 1278 1125 
1260 1278 1261 1107 
1107 1124 1277 1278 
1260 1278 1107 1277 
1261 1107 1278 1108 
1278 1107 1125 1108 
1108 1125 1279 1126 
1261 1279 1262 1108 
1108 1125 1278 1279 
1261 1279 1108 1278 
1262 1108 1279 1109 
1279 1108 1126 1109 
1109 1126 1280 1127 
1262 1280 1263 1109 
1109 1126 1279 1280 
1262 1280 1109 1279 
1263 1109 1280 1110 
1280 1109 1127 1110 
1110 1127 1281 1128 
1263 1281 1264 1110 
1110 1127 1280 1281 
1263 1281 1110 1280 
1264 1110 1281 1111 
1281 1110 1128 1111 
1111 1128 1282 1129 
1264 1282 1265 1111 
1111 1128 1281 1282 
1264 1282 1111 1281 
1265 1111 1282 1112 
1282 1111 1129 1112 
1112 1129 1283 1130 
1265 1283 1266 1112 
1112 1129 1282 1283 
1265 1283 1112 1282 
1266 1112 1283 1113 
1283 1112 1130 1113 
1113 1130 1284 1131 
1266 1284 1267 1113 
1113 1130 1283 1284 
1266 1284 1113 1283 
1267 1113 1284 1114 
1284 1113 1131 1114 
1114 1131 1285 1132 
1267 1285 1268 1114 
1114 1131 1284 1285 
1267 1285 1114 1284 
1268 1114 1285 1115 
1285 1114 1132 1115 
1115 1132 1286 1133 
1268 1286 1269 1115 
1115 1132 1285 1286 
1268 1286 1115 1285 
1269 1115 1286 1116 
1286 1115 1133 1116 
1116 1133 1287 1134 
1269 1287 1270 1116 
1116 1133 1286 1287 
1269 1287 1116 1286 
1270 1116 1287 1117 
1287 1116 1134 1117 
1117 1134 1288 1135 
1270 1288 1271 1117 
1117 1134 1287 1288 
1270 1288 1117 1287 
1271 1117 1288 1118 
1288 1117 1135 1118 
1118 1135 1289 1136 
1271 1289 1272 1118 
1118 1135 1288 1289 
1271 1289 1118 1288 
1272 1118 1289 1119 
1289 1118 1136 1119 
1119 1136 1290 1137 
1272 1290 1273 1119 
1119 1136 1289 1290 
1272 1290 1119 1289 
1273 1119 1290 1120 
1290 1119 1137 1120 
1120 1137 1291 1138 
1273 1291 1274 1120 
1120 1137 1290 1291 
1273 1291 1120 1290 
1274 1120 1291 1121 
1291 1120 1138 1121 
1122 1139 1293 1140 
1275 1293 1276 1122 
1122 1139 1292 1293 
1275 1293 1122 1292 
1276 1122 1293 1123 
1293 1122 1140 1123 
1123 1140 1294 1141 
1276 1294 1277 1123 
1123 1140 1293 1294 
1276 1294 1123 1293 
1277 1123 1294 1124 
1294 1123 1141 1124 
1124 1141 1295 1142 
1277 1295 1278 1124 
1124 1141 1294 1295 
1277 1295 1124 1294 
1278 1124 1295 1125 
1295 1124 1142 1125 
1125 1142 1296 1143 
1278 1296 1279 1125 
1125 1142 1295 1296 
1278 1296 1125 1295 
1279 1125 1296 1126 
1296 1125 1143 1126 
1126 1143 1297 1144 
1279 1297 1280 1126 
1126 1143 1296 1297 
1279 1297 1126 1296 
1280 1126 1297 1127 
1297 1126 1144 1127 
1127 1144 1298 1145 
1280 1298 1281 1127 
1127 1144 1297 1298 
1280 1298 1127 1297 
1281 1127 1298 1128 
1298 1127 1145 1128 
1128 1145 1299 1146 
1281 1299 1282 1128 
1128 1145 1298 1299 
1281 1299 1128 1298 
1282 1128 1299 1129 
1299 1128 1146 1129 
1129 1146 1300 1147 
1282 1300 1283 1129 
1129 1146 1299 1300 
1282 1300 1129 1299 
1283 1129 1300 1130 
1300 1129 1147 1130 
1130 1147 1301 1148 
1283 1301 1284 1130 
1130 1147 1300 1301 
1283 1301 1130 1300 
1284 1130 1301 1131 
1301 1130 1148 1131 
1131 1148 1302 1149 
1284 1302 1285 1131 
1131 1148 1301 1302 
1284 1302 1131 1301 
1285 1131 1302 1132 
1302 1131 1149 1132 
1132 1149 1303 1150 
1285 1303 1286 1132 
1132 1149 1302 1303 
1285 1303 1132 1302 
1286 1132 1303 1133 
1303 1132 1150 1133 
1133 1150 1304 1151 
1286 1304 1287 1133 
1133 1150 1303 1304 
1286 1304 1133 1303 
1287 1133 1304 1134 
1304 1133 1151 1134 
1134 1151 1305 1152 
1287 1305 1288 1134 
1134 1151 1304 1305 
1287 1305 1134 1304 
1288 1134 1305 1135 
1305 1134 1152 1135 
1135 1152 1306 1153 
1288 1306 1289 1135 
1135 1152 1305 1306 
1288 1306 1135 1305 
1289 1135 1306 1136 
1306 1135 1153 1136 
1136 1153 1307 1154 
1289 1307 1290 1136 
1136 1153 1306 1307 
1289 1307 1136 1306 
1290 1136 1307 1137 
1307 1136 1154 1137 
1137 1154 1308 1155 
1290 1308 1291 1137 
1137 1154 1307 1308 
1290 1308 1137 1307 
1291 1137 1308 1138 
1308 1137 1155 1138 
1139 1156 1310 1157 
1292 1310 1293 1139 
1139 1156 1309 1310 
1292 1310 1139 1309 
1293 1139 1310 1140 
1310 1139 1157 1140 
1140 1157 1311 1158 
1293 1311 1294 1140 
1140 1157 1310 1311 
1293 1311 1140 1310 
1294 1140 1311 1141 
1311 1140 1158 1141 
1141 1158 1312 1159 
1294 1312 1295 1141 
1141 1158 1311 1312 
1294 1312 1141 1311 
1295 1141 1312 1142 
1312 1141 1159 1142 
1142 1159 1313 1160 
1295 1313 1296 1142 
1142 1159 1312 1313 
1295 1313 1142 1312 
1296 1142 1313 1143 
1313 1142 1160 1143 
1143 1160 1314 1161 
1296 1314 1297 1143 
1143 1160 1313 1314 
1296 1314 1143 1313 
1297 1143 1314 1144 
1314 1143 1161 1144 
1144 1161 1315 1162 
1297 1315 1298 1144 
1144 1161 1314 1315 
1297 1315 1144 1314 
1298 1144 1315 1145 
1315 1144 1162 1145 
1145 1162 1316 1163 
1298 1316 1299 1145 
1145 1162 1315 1316 
1298 1316 1145 1315 
1299 1145 1316 1146 
1316 1145 1163 1146 
1146 1163 1317 1164 
1299 1317 1300 1146 
1146 1163 1316 1317 
1299 1317 1146 1316 
1300 1146 1317 1147 
1317 1146 1164 1147 
1147 1164 1318 1165 
1300 1318 1301 1147 
1147 1164 1317 1318 
1300 1318 1147 1317 
1301 1147 1318 1148 
1318 1147 1165 1148 
1148 1165 1319 1166 
1301 1319 1302 1148 
1148 1165 1318 1319 
1301 1319 1148 1318 
1302 1148 1319 1149 
1319 1148 1166 1149 
1149 1166 1320 1167 
1302 1320 1303 1149 
1149 1166 1319 1320 
1302 1320 1149 1319 
1303 1149 1320 1150 
1320 1149 1167 1150 
1150 1167 1321 1168 
1303 1321 1304 1150 
1150 1167 1320 1321 
1303 1321 1150 1320 
1304 1150 1321 1151 
1321 1150 1168 1151 
1151 1168 1322 1169 
1304 1322 1305 1151 
1151 1168 1321 1322 
1304 1322 1151 1321 
1305 1151 1322 1152 
1322 1151 1169 1152 
1152 1169 1323 1170 
1305 1323 1306 1152 
1152 1169 1322 1323 
1305 1323 1152 1322 
1306 1152 1323 1153 
1323 1152 1170 1153 
1153 1170 1324 1171 
1306 1324 1307 1153 
1153 1170 1323 1324 
1306 1324 1153 1323 
1307 1153 1324 1154 
1324 1153 1171 1154 
1154 1171 1325 1172 
1307 1325 1308 1154 
1154 1171 1324 1325 
1307 1325 1154 1324 
1308 1154 1325 1155 
1325 1154 1172 1155 
1156 1173 1327 1174 
1309 1327 1310 1156 
1156 1173 1326 1327 
1309 1327 1156 1326 
1310 1156 1327 1157 
1327 1156 1174 1157 
1157 1174 1328 1175 
1310 1328 1311 1157 
1157 1174 1327 1328 
1310 1328 1157 1327 
1311 1157 1328 1158 
1328 1157 1175 1158 
1158 1175 1329 1176 
1311 1329 1312 1158 
1158 1175 1328 1329 
1311 1329 1158 1328 
1312 1158 1329 1159 
1329 1158 1176 1159 
1159 1176 1330 1177 
1312 1330 1313 1159 
1159 1176 1329 1330 
1312 1330 1159 1329 
1313 1159 1330 1160 
1330 1159 1177 1160 
1160 1177 1331 1178 
1313 1331 1314 1160 
1160 1177 1330 1331 
1313 1331 1160 1330 
1314 1160 1331 1161 
1331 1160 1178 1161 
1161 1178 1332 1179 
1314 1332 1315 1161 
1161 1178 1331 1332 
1314 1332 1161 1331 
1315 1161 1332 1162 
1332 1161 1179 1162 
1162 1179 1333 1180 
1315 1333 1316 1162 
1162 1179 1332 1333 
1315 1333 1162 1332 
1316 1162 1333 1163 
1333 1162 1180 1163 
1163 1180 1334 1181 
1316 1334 1317 1163 
1163 1180 1333 1334 
1316 1334 1163 1333 
1317 1163 1334 1164 
1334 1163 1181 1164 
1164 1181 1335 1182 
1317 1335 1318 1164 
1164 1181 1334 1335 
1317 1335 1164 1334 
1318 1164 1335 1165 
1335 1164 1182 1165 
1165 1182 1336 1183 
1318 1336 1319 1165 
1165 1182 1335 1336 
1318 1336 1165 1335 
1319 1165 1336 1166 
1336 1165 1183 1166 
1166 1183 1337 1184 
1319 1337 1320 1166 
1166 1183 1336 1337 
1319 1337 1166 1336 
1320 1166 1337 1167 
1337 1166 1184 1167 
1167 1184 1338 1185 
1320 1338 1321 1167 
1167 1184 1337 1338 
1320 1338 1167 1337 
1321 1167 1338 1168 
1338 1167 1185 1168 
1168 1185 1339 1186 
1321 1339 1322 1168 
1168 1185 1338 1339 
1321 1339 1168 1338 
1322 1168 1339 1169 
1339 1168 1186 1169 
1169 1186 1340 1187 
1322 1340 1323 1169 
1169 1186 1339 1340 
1322 1340 1169 1339 
1323 1169 1340 1170 
1340 1169 1187 1170 
1170 1187 1341 1188 
1323 1341 1324 1170 
1170 1187 1340 1341 
1323 1341 1170 1340 
1324 1170 1341 1171 
1341 1170 1188 1171 
1171 1188 1342 1189 
1324 1342 1325 1171 
1171 1188 1341 1342 
1324 1342 1171 1341 
1325 1171 1342 1172 
1342 1171 1189 1172 
1173 1190 1344 1191 
1326 1344 1327 1173 
1173 1190 1343 1344 
1326 1344 1173 1343 
1327 1173 1344 1174 
1344 1173 1191 1174 
1174 1191 1345 1192 
1327 1345 1328 1174 
1174 1191 1344 1345 
1327 1345 1174 1344 
1328 1174 1345 1175 
1345 1174 1192 1175 
1175 1192 1346 1193 
1328 1346 1329 1175 
1175 1192 1345 1346 
1328 1346 1175 1345 
1329 1175 1346 1176 
1346 1175 1193 1176 
1176 1193 1347 1194 
1329 1347 1330 1176 
1176 1193 1346 1347 
1329 1347 1176 1346 
1330 1176 1347 1177 
1347 1176 1194 1177 
1177 1194 1348 1195 
1330 1348 1331 1177 
1177 1194 1347 1348 
1330 1348 1177 1347 
1331 1177 1348 1178 
1348 1177 1195 1178 
1178 1195 1349 1196 
1331 1349 1332 1178 
1178 1195 1348 1349 
1331 1349 1178 1348 
1332 1178 1349 1179 
1349 1178 1196 1179 
1179 1196 1350 1197 
1332 1350 1333 1179 
1179 1196 1349 1350 
1332 1350 1179 1349 
1333 1179 1350 1180 
1350 1179 1197 1180 
1180 1197 1351 1198 
1333 1351 1334 1180 
1180 1197 1350 1351 
1333 1351 1180 1350 
1334 1180 1351 1181 
1351 1180 1198 1181 
1181 1198 1352 1199 
1334 1352 1335 1181 
1181 1198 1351 1352 
1334 1352 1181 1351 
1335 1181 1352 1182 
1352 1181 1199 1182 
1182 1199 1353 1200 
1335 1353 1336 1182 
1182 1199 1352 1353 
1335 1353 1182 1352 
1336 1182 1353 1183 
1353 1182 1200 1183 
1183 1200 1354 1201 
1336 1354 1337 1183 
1183 1200 1353 1354 
1336 1354 1183 1353 
1337 1183 1354 1184 
1354 1183 1201 1184 
1184 1201 1355 1202 
1337 1355 1338 1184 
1184 1201 1354 1355 
1337 1355 1184 1354 
1338 1184 1355 1185 
1355 1184 1202 1185 
1185 1202 1356 1203 
1338 1356 1339 1185 
1185 1202 1355 1356 
1338 1356 1185 1355 
1339 1185 1356 1186 
1356 1185 1203 1186 
1186 1203 1357 1204 
1339 1357 1340 1186 
1186 1203 1356 1357 
1339 1357 1186 1356 
1340 1186 1357 1187 
1357 1186 1204 1187 
1187 1204 1358 1205 
1340 1358 1341 1187 
1187 1204 1357 1358 
1340 1358 1187 1357 
1341 1187 1358 1188 
1358 1187 1205 1188 
1188 1205 1359 1206 
1341 1359 1342 1188 
1188 1205 1358 1359 
1341 1359 1188 1358 
1342 1188 1359 1189 
1359 1188 1206 1189 
1190 1207 1361 1208 
1343 1361 1344 1190 
1190 1207 1360 1361 
1343 1361 1190 1360 
1344 1190 1361 1191 
1361 1190 1208 1191 
1191 1208 1362 1209 
1344 1362 1345 1191 
1191 1208 1361 1362 
1344 1362 1191 1361 
1345 1191 1362 1192 
1362 1191 1209 1192 
1192 1209 1363 1210 
1345 1363 1346 1192 
1192 1209 1362 1363 
1345 1363 1192 1362 
1346 1192 1363 1193 
1363 1192 1210 1193 
1193 1210 1364 1211 
1346 1364 1347 1193 
1193 1210 1363 1364 
1346 1364 1193 1363 
1347 1193 1364 1194 
1364 1193 1211 1194 
1194 1211 1365 1212 
1347 1365 1348 1194 
1194 1211 1364 1365 
1347 1365 1194 1364 
1348 1194 1365 1195 
1365 1194 1212 1195 
1195 1212 1366 1213 
1348 1366 1349 1195 
1195 1212 1365 1366 
1348 1366 1195 1365 
1349 1195 1366 1196 
1366 1195 1213 1196 
1196 1213 1367 1214 
1349 1367 1350 1196 
1196 1213 1366 1367 
1349 1367 1196 1366 
1350 1196 1367 1197 
1367 1196 1214 1197 
1197 1214 1368 1215 
1350 1368 1351 1197 
1197 1214 1367 1368 
1350 1368 1197 1367 
1351 1197 1368 1198 
1368 1197 1215 1198 
1198 1215 1369 1216 
1351 1369 1352 1198 
1198 1215 1368 1369 
1351 1369 1198 1368 
1352 1198 1369 1199 
1369 1198 1216 1199 
1199 1216 1370 1217 
1352 1370 1353 1199 
1199 1216 1369 1370 
1352 1370 1199 1369 
1353 1199 1370 1200 
1370 1199 1217 1200 
1200 1217 1371 1218 
1353 1371 1354 1200 
1200 1217 1370 1371 
1353 1371 1200 1370 
1354 1200 1371 1201 
1371 1200 1218 1201 
1201 1218 1372 1219 
1354 1372 1355 1201 
1201 1218 1371 1372 
1354 1372 1201 1371 
1355 1201 1372 1202 
1372 1201 1219 1202 
1202 1219 1373 1220 
1355 1373 1356 1202 
1202 1219 1372 1373 
1355 1373 1202 1372 
1356 1202 1373 1203 
1373 1202 1220 1203 
1203 1220 1374 1221 
1356 1374 1357 1203 
1203 1220 1373 1374 
1356 1374 1203 1373 
1357 1203 1374 1204 
1374 1203 1221 1204 
1204 1221 1375 1222 
1357 1375 1358 1204 
1204 1221 1374 1375 
1357 1375 1204 1374 
1358 1204 1375 1205 
1375 1204 1222 1205 
1205 1222 1376 1223 
1358 1376 1359 1205 
1205 1222 1375 1376 
1358 1376 1205 1375 
1359 1205 1376 1206 
1376 1205 1223 1206 
CELL_TYPES 6144
10 10 10 10 10 10 10 10 10 10 10 10 10 10 10 10 10 10 10 10 10 10 10 10 10 10 10 10 10 10 10 10 10 10 10 10 10 10 10 10 10 10 10 10 10 10 10 10 10 10 10 10 10 10 10 10 10 10 10 10 10 10 10 10 10 10 10 10 10 10 10 10 10 10 10 10 10 10 10 10 10 10 10 10 10 10 10 10 10 10 10 10 10 10 10 10 10 10 10 10 10 10 10 10 10 10 10 10 10 10 10 10 10 10 10 10 10 10 10 10 10 10 10 10 10 10 10 10 10 10 10 10 10 10 10 10 10 10 10 10 10 10 10 10 10 10 10 10 10 10 10 10 10 10 10 10 10 10 10 10 10 10 10 10 10 10 10 10 10 10 10 10 10 10 10 10 10 10 10 10 10 10 10 10 10 10 10 10 10 10 10 10 10 10 10 10 10 10 10 10 10 10 10 10 10 10 10 10 10 10 10 10 10 10 10 10 10 10 10 10 10 10 10 10 10 10 10 10 10 10 10 10 10 10 10 10 10 10 10 10 10 10 10 10 10 10 10 10 10 10 10 10 10 10 10 10 10 10 10 10 10 10 10 10 10 10 10 10 10 10 10 10 10 10 10 10 10 10 10 10 10 10 10 10 10 10 10 10 10 10 10 10 10 10 10 10 10 10 10 10 10 10 10 10 10 10 10 10 10 10 10 10 10 10 10 10 10 10 10 10 10 10 10 10 10 10 10 10 10 10 10 10 10 10 10 10 10 10 10 10 10 10 10 10 10 10 10 10 10 10 10 10 10 10 10 10 10 10 10 10 10 10 10 10 10 10 10 10 10 10 10 10 10 10 10 10 10 10 10 10 10 10 10 10 10 10 10 10 10 10 10 10 10 10 10 10 10 10 10 10 10 10 10 10 10 10 10 10 10 10 10 10 10 10 10 10 10 10 10 10 10 10 10 10 10 10 10 10 10 10 10 10 10 10 10 10 10 10 10 10 10 10 10 10 10 10 10 10 10 10 10 10 10 10 10 10 10 10 10 10 10 10 10 10 10 10 10 10 10 10 10 10 10 10 10 10 10 10 10 10 10 10 10 10 10 10 10 10 10 10 10 10 10 10 10 10 10 10 10 10 10 10 10 10 10 10 10 10 10 10 10 10 10 10 10 10 10 10 10 10 10 10 10 10 10 10 10 10 10 10 10 10 10 10 10 10 10 10 10 10 10 10 10 10 10 10 10 10 10 10 10 10 10 10 10 10 10 10 10 10 10 10 10 10 10 10 10 10 10 10 10 10 10 10 10 10 10 10 10 10 10 10 10 10 10 10 10 10 10 10 10 10 10 10 10 10 10 10 10 10 10 10 10 10 10 10 10 10 10 10 10 10 10 10 10 10 10 10 10 10 10 10 10 10 10 10 10 10 10 10 10 10 10 10 10 10 10 10 10 10 10 10 10 10 10 10 10 10 10 10 10 10 10 10 10 10 10 10 10 10 10 10 10 10 10 10 10 10 10 10 10 10 10 10 10 10 10 10 10 10 10 10 10 10 10 10 10 10 10 10 10 10 10 10 10 10 10 10 10 10 10 10 10 10 10 10 10 10 10 10 10 10 10 10 10 10 10 10 10 10 10 10 10 10 10 10 10 10 10 10 10 10 10 10 10 10 10 10 10 10 10 10 10 10 10 10 10 10 10 10 10 10 10 10 10 10 10 10 10 10 10 10 10 10 10 10 10 10 10 10 10 10 10 10 10 10 10 10 10 10 10 10 10 10 10 10 10 10 10 10 10 10 10 10 10 10 10 10 10 10 10 10 10 10 10 10 10 10 10 10 10 10 10 10 10 10 10 10 10 10 10 10 10 10 10 10 10 10 10 10 10 10 10 10 10 10 10 10 10 10 10 10 10 10 10 10 10 10 10 10 10 10 10 10 10 10 10 10 10 10 10 10 10 10 10 10 10 10 10 10 10 10 10 10 10 10 10 10 10 10 10 10 10 10 10 10 10 10 10 10 10 10 10 10 10 10 10 10 10 10 10 10 10 10 10 10 10 10 10 10 10 10 10 10 10 10 10 10 10 10 10 10 10 10 10 10 10 10 10 10 10 10 10 10 10 10 10 10 10 10 10 10 10 10 10 10 10 10 10 10 10 10 10 10 10 10 10 10 10 10 10 10 10 10 10 10 10 10 10 10 10 10 10 10 10 10 10 10 10 10 10 10 10 10 10 10 10 10 10 10 10 10 10 10 10 10 10 10 10 10 10 10 10 10 10 10 10 10 10 10 10 10 10 10 10 10 10 10 10 10 10 10 10 10 10 10 10 10 10 10 10 10 10 10 10 10 10 10 10 10 10 10 10 10 10 10 10 10 10 10 10 10 10 10 10 10 10 10 10 10 10 10 10 10 10 10 10 10 10 10 10 10 10 10 10 10 10 10 10 10 10 10 10 10 10 10 10 10 10 10 10 10 10 10 10 10 10 10 10 10 10 10 10 10 10 10 10 10 10 10 10 10 10 10 10 10 10 10 10 10 10 10 10 10 10 10 10 10 10 10 10 10 10 10 10 10 10 10 10 10 10 10 10 10 10 10 10 10 10 10 10 10 10 10 10 10 10 10 10 10 10 10 10 10 10 10 10 10 10 10 10 10 10 10 10 10 10 10 10 10 10 10 10 10 10 10 10 10 10 10 10 10 10 10 10 10 10 10 10 10 10 10 10 10 10 10 10 10 10 10 10 10 10 10 10 10 10 10 10 10 10 10 10 10 10 10 10 10 10 10 10 10 10 10 10 10 10 10 10 10 10 10 10 10 10 10 10 10 10 10 10 10 10 10 10 10 10 10 10 10 10 10 10 10 10 10 10 10 10 10 10 10 10 10 10 10 10 10 10 10 10 10 10 10 10 10 10 10 10 10 10 10 10 10 10 10 10 10 10 10 10 10 10 10 10 10 10 10 10 10 10 10 10 10 10 10 10 10 10 10 10 10 10 10 10 10 10 10 10 10 10 10 10 10 10 10 10 10 10 10 10 10 10 10 10 10 10 10 10 10 10 10 10 10 10 10 10 10 10 10 10 10 10 10 10 10 10 10 10 10 10 10 10 10 10 10 10 10 10 10 10 10 10 10 10 10 10 10 10 10 10 10 10 10 10 10 10 10 10 10 10 10 10 10 10 10 10 10 10 10 10 10 10 10 10 10 10 10 10 10 10 10 10 10 10 10 10 10 10 10 10 10 10 10 10 10 10 10 10 10 10 10 10 10 10 10 10 10 10 10 10 10 10 10 10 10 10 10 10 10 10 10 10 10 10 10 10 10 10 10 10 10 10 10 10 10 10 10 10 10 10 10 10 10 10 10 10 10 10 10 10 10 10 10 10 10 10 10 10 10 10 10 10 10 10 10 10 10 10 10 10 10 10 10 10 10 10 10 10 10 10 10 10 10 10 10 10 10 10 10 10 10 10 10 10 10 10 10 10 10 10 10 10 10 10 10 10 10 10 10 10 10 10 10 10 10 10 10 10 10 10 10 10 10 10 10 10 10 10 10 10 10 10 10 10 10 10 10 10 10 10 10 10 10 10 10 10 10 10 10 10 10 10 10 10 10 10 10 10 10 10 10 10 10 10 10 10 10 10 10 10 10 10 10 10 10 10 10 10 10 10 10 10 10 10 10 10 10 10 10 10 10 10 10 10 10 10 10 10 10 10 10 10 10 10 10 10 10 10 10 10 10 10 10 10 10 10 10 10 10 10 10 10 10 10 10 10 10 10 10 10 10 10 10 10 10 10 10 10 10 10 10 10 10 10 10 10 10 10 10 10 10 10 10 10 10 10 10 10 10 10 10 10 10 10 10 10 10 10 10 10 10 10 10 10 10 10 10 10 10 10 10 10 10 10 10 10 10 10 10 10 10 10 10 10 10 10 10 10 10 10 10 10 10 10 10 10 10 10 10 10 10 10 10 10 10 10 10 10 10 10 10 10 10 10 10 10 10 10 10 10 10 10 10 10 10 10 10 10 10 10 10 10 10 10 10 10 10 10 10 10 10 10 10 10 10 10 10 10 10 10 10 10 10 10 10 10 10 10 10 10 10 10 10 10 10 10 10 10 10 10 10 10 10 10 10 10 10 10 10 10 10 10 10 10 10 10 10 10 10 10 10 10 10 10 10 10 10 10 10 10 10 10 10 10 10 10 10 10 10 10 10 10 10 10 10 10 10 10 10 10 10 10 10 10 10 10 10 10 10 10 10 10 10 10 10 10 10 10 10 10 10 10 10 10 10 10 10 10 10 10 10 10 10 10 10 10 10 10 10 10 10 10 10 10 10 10 10 10 10 10 10 10 10 10 10 10 10 10 10 10 10 10 10 10 10 10 10 10 10 10 10 10 10 10 10 10 10 10 10 10 10 10 10 10 10 10 10 10 10 10 10 10 10 10 10 10 10 10 10 10 10 10 10 10 10 10 10 10 10 10 10 10 10 10 10 10 10 10 10 10 10 10 10 10 10 10 10 10 10 10 10 10 10 10 10 10 10 10 10 10 10 10 10 10 10 10 10 10 10 10 10 10 10 10 10 10 10 10 10 10 10 10 10 10 10 10 10 10 10 10 10 10 10 10 10 10 10 10 10 10 10 10 10 10 10 10 10 10 10 10 10 10 10 10 10 10 10 10 10 10 10 10 10 10 10 10 10 10 10 10 10 10 10 10 10 10 10 10 10 10 10 10 10 10 10 10 10 10 10 10 10 10 10 10 10 10 10 10 10 10 10 10 10 10 10 10 10 10 10 10 10 10 10 10 10 10 10 10 10 10 10 10 10 10 10 10 10 10 10 10 10 10 10 10 10 10 10 10 10 10 10 10 10 10 10 10 10 10 10 10 10 10 10 10 10 10 10 10 10 10 10 10 10 10 10 10 10 10 10 10 10 10 10 10 10 10 10 10 10 10 10 10 10 10 10 10 10 10 10 10 10 10 10 10 10 10 10 10 10 10 10 10 10 10 10 10 10 10 10 10 10 10 10 10 10 10 10 10 10 10 10 10 10 10 10 10 10 10 10 10 10 10 10 10 10 10 10 10 10 10 10 10 10 10 10 10 10 10 10 10 10 10 10 10 10 10 10 10 10 10 10 10 10 10 10 10 10 10 10 10 10 10 10 10 10 10 10 10 10 10 10 10 10 10 10 10 10 10 10 10 10 10 10 10 10 10 10 10 10 10 10 10 10 10 10 10 10 10 10 10 10 10 10 10 10 10 10 10 10 10 10 10 10 10 10 10 10 10 10 10 10 10 10 10 10 10 10 10 10 10 10 10 10 10 10 10 10 10 10 10 10 10 10 10 10 10 10 10 10 10 10 10 10 10 10 10 10 10 10 10 10 10 10 10 10 10 10 10 10 10 10 10 10 10 10 10 10 10 10 10 10 10 10 10 10 10 10 10 10 10 10 10 10 10 10 10 10 10 10 10 10 10 10 10 10 10 10 10 10 10 10 10 10 10 10 10 10 10 10 10 10 10 10 10 10 10 10 10 10 10 10 10 10 10 10 10 10 10 10 10 10 10 10 10 10 10 10 10 10 10 10 10 10 10 10 10 10 10 10 10 10 10 10 10 10 10 10 10 10 10 10 10 10 10 10 10 10 10 10 10 10 10 10 10 10 10 10 10 10 10 10 10 10 10 10 10 10 10 10 10 10 10 10 10 10 10 10 10 10 10 10 10 10 10 10 10 10 10 10 10 10 10 10 10 10 10 10 10 10 10 10 10 10 10 10 10 10 10 10 10 10 10 10 10 10 10 10 10 10 10 10 10 10 10 10 10 10 10 10 10 10 10 10 10 10 10 10 10 10 10 10 10 10 10 10 10 10 10 10 10 10 10 10 10 10 10 10 10 10 10 10 10 10 10 10 10 10 10 10 10 10 10 10 10 10 10 10 10 10 10 10 10 10 10 10 10 10 10 10 10 10 10 10 10 10 10 10 10 10 10 10 10 10 10 10 10 10 10 10 10 10 10 10 10 10 10 10 10 10 10 10 10 10 10 10 10 10 10 10 10 10 10 10 10 10 10 10 10 10 10 10 10 10 10 10 10 10 10 10 10 10 10 10 10 10 10 10 10 10 10 10 10 10 10 10 10 10 10 10 10 10 10 10 10 10 10 10 10 10 10 10 10 10 10 10 10 10 10 10 10 10 10 10 10 10 10 10 10 10 10 10 10 10 10 10 10 10 10 10 10 10 10 10 10 10 10 10 10 10 10 10 10 10 10 10 10 10 10 10 10 10 10 10 10 10 10 10 10 10 10 10 10 10 10 10 10 10 10 10 10 10 10 10 10 10 10 10 10 10 10 10 10 10 10 10 10 10 10 10 10 10 10 10 10 10 10 10 10 10 10 10 10 10 10 10 10 10 10 10 10 10 10 10 10 10 10 10 10 10 10 10 10 10 10 10 10 10 10 10 10 10 10 10 10 10 10 10 10 10 10 10 10 10 10 10 10 10 10 10 10 10 10 10 10 10 10 10 10 10 10 10 10 10 10 10 10 10 10 10 10 10 10 10 10 10 10 10 10 10 10 10 10 10 10 10 10 10 10 10 10 10 10 10 10 10 10 10 10 10 10 10 10 10 10 10 10 10 10 10 10 10 10 10 10 10 10 10 10 10 10 10 10 10 10 10 10 10 10 10 10 10 10 10 10 10 10 10 10 10 10 10 10 10 10 10 10 10 10 10 10 10 10 10 10 10 10 10 10 10 10 10 10 10 10 10 10 10 10 10 10 10 10 10 10 10 10 10 10 10 10 10 10 10 10 10 10 10 10 10 10 10 10 10 10 10 10 10 10 10 10 10 10 10 10 10 10 10 10 10 10 10 10 10 10 10 10 10 10 10 10 10 10 10 10 10 10 10 10 10 10 10 10 10 10 10 10 10 10 10 10 10 10 10 10 10 10 10 10 10 10 10 10 10 10 10 10 10 10 10 10 10 10 10 10 10 10 10 10 10 10 10 10 10 10 10 10 10 10 10 10 10 10 10 10 10 10 10 10 10 10 10 10 10 10 10 10 10 10 10 10 10 10 10 10 10 10 10 10 10 10 10 10 10 10 10 10 10 10 10 10 10 10 10 10 10 10 10 10 10 10 10 10 10 10 10 10 10 10 10 10 10 10 10 10 10 10 10 10 10 10 10 10 10 10 10 10 10 10 10 10 10 10 10 10 10 10 10 10 10 10 10 10 10 10 10 10 10 10 10 10 10 10 10 10 10 10 10 10 10 10 10 10 10 10 10 10 10 10 10 10 10 10 10 10 10 10 10 10 10 10 10 10 10 10 10 10 10 10 10 10 10 10 10 10 10 10 10 10 10 10 10 10 10 10 10 10 10 10 10 10 10 10 10 10 10 10 10 10 10 10 10 10 10 10 10 10 10 10 10 10 10 10 10 10 10 10 10 10 10 10 10 10 10 10 10 10 10 10 10 10 10 10 10 10 10 10 10 10 10 10 10 10 10 10 10 10 10 10 10 10 10 10 10 10 10 10 10 10 10 10 10 10 10 10 10 10 10 10 10 10 10 10 10 10 10 10 10 10 10 10 10 10 10 10 10 10 10 10 10 10 10 10 10 10 10 10 10 10 10 10 10 10 10 10 10 10 10 10 10 10 10 10 10 10 10 10 10 10 10 10 10 10 10 10 10 10 10 10 10 10 10 10 10 10 10 10 10 10 10 10 10 10 10 10 10 10 10 10 10 10 10 10 10 10 10 10 10 10 10 10 10 10 10 10 10 10 10 10 10 10 10 10 10 10 10 10 10 10 10 10 10 10 10 10 10 10 10 10 10 10 10 10 10 10 10 10 10 10 10 10 10 10 10 10 10 10 10 10 10 10 10 10 10 10 10 10 10 10 10 10 10 10 10 10 10 10 10 10 10 10 10 10 10 10 10 10 10 10 10 10 10 10 10 10 10 10 10 10 10 10 10 10 10 10 10 10 10 10 10 10 10 10 10 10 10 10 10 10 10 10 10 10 10 10 10 10 10 10 10 10 10 10 10 10 10 10 10 10 10 10 10 10 10 10 10 10 10 10 10 10 10 10 10 10 10 10 10 10 10 10 10 10 10 10 10 10 10 10 10 10 10 10 10 10 10 10 10 10 10 10 10 10 10 10 10 10 10 10 10 10 10 10 10 10 10 10 10 10 10 10 10 10 10 10 10 10 10 10 10 10 10 10 10 10 10 10 10 10 10 10 10 10 10 10 10 10 10 10 10 10 10 10 10 10 10 10 10 10 10 10 10 10 10 10 10 10 10 10 10 10 10 10 10 10 10 10 10 10 10 10 10 10 10 10 10 10 10 10 10 10 10 10 10 10 10 10 10 10 10 10 10 10 10 10 10 10 10 10 10 10 10 10 10 10 10 10 10 10 10 10 10 10 10 10 10 10 10 10 10 10 10 10 10 10 10 10 10 10 10 10 10 10 10 10 10 10 10 10 10 10 10 10 10 10 10 10 10 10 10 10 10 10 10 10 10 10 10 10 10 10 10 10 10 10 10 10 10 10 10 10 10 10 10 10 10 10 10 10 10 10 10 10 10 10 10 10 10 10 10 10 10 10 10 10 10 10 10 10 10 10 10 10 10 10 10 10 10 10 10 10 10 10 10 10 10 10 10 10 10 10 10 10 10 10 10 10 10 10 10 10 10 10 10 10 10 10 10 10 10 10 10 10 10 10 10 10 10 10 10 10 10 10 10 10 10 10 10 10 10 10 10 10 10 10 10 10 10 10 10 10 10 10 10 10 10 10 10 10 10 10 10 10 10 10 10 10 10 10 10 10 10 10 10 10 10 10 10 10 10 10 10 10 10 10 10 10 10 10 10 10 10 10 10 10 10 10 10 10 10 10 10 10 10 10 10 10 10 10 10 10 10 10 10 10 10 10 10 10 10 10 10 10 10 10 10 10 10 10 10 10 10 10 10 10 10 10 10 10 10 10 10 10 10 10 10 10 10 10 10 10 10 10 10 10 10 10 10 10 10 10 10 10 10 10 10 10 10 10 10 10 10 10 10 10 10 10 10 10 10 10 10 10 10 10 10 10 10 10 10 10 10 10 10 10 10 10 10 10 10 10 10 10 10 10 10 10 10 10 10 10 10 10 10 10 10 10 10 10 10 10 10 10 10 10 10 10 10 10 10 10 10 10 10 10 10 10 10 10 10 10 10 10 10 10 10 10 10 10 10 10 10 10 10 10 10 10 10 10 10 10 10 10 10 10 10 10 10 10 10 10 10 10 10 10 10 10 10 10 10 10 10 10 10 10 10 10 10 10 10 10 10 10 10 10 10 10 10 10 10 10 10 10 10 10 10 10 10 10 10 10 10 10 10 10 10 10 10 10 10 10 10 10 10 10 10 10 10 10 10 10 10 10 10 10 10 10 10 10 10 10 10 10 10 10 10 10 10 10 10 10 10 10 10 10 10 10 10 10 10 10 10 10 10 10 10 10 10 10 10 10 10 10 10 10 10 10 10 10 10 10 10 10 10 10 10 10 10 10 10 10 10 10 10 10 10 10 10 10 10 10 10 10 10 10 10 10 10 10 10 10 10 10 10 10 10 10 10 10 10 10 10 10 10 10 10 10 10 10 10 10 10 10 10 10 10 10 10 10 10 10 10 10 10 10 10 10 10 10 10 10 10 10 10 10 10 10 10 10 10 10 10 10 10 10 10 10 10 10 10 10 10 10 10 10 10 10 10 10 10 10 10 10 10 10 10 10 10 10 10 10 10 10 10 10 10 10 10 10 10 10 10 10 10 10 10 10 10 10 10 10 10 10 10 10 10 10 10 10 10 10 10 10 10 10 10 10 10 10 10 10 10 10 10 10 10 10 10 10 10 10 10 10 10 10 10 10 10 10 10 10 10 10 10 10 10 10 10 10 10 10 10 10 10 10 10 10 10 10 10 10 10 10 10 10 10 10 10 10 10 10 10 10 10 10 10 10 10 10 10 10 10 10 10 10 10 10 10 10 10 10 10 10 10 10 10 10 10 10 10 10 10 10 10 10 10 10 10 10 10 10 10 10 10 10 10 10 10 10 10 10 10 10 10 10 10 10 10 10 10 10 10 10 10 10 10 10 10 10 10 10 10 10 10 10 10 10 10 10 10 10 10 10 10 10 10 10 10 10 10 10 10 10 10 10 10 10 10 10 10 10 10 10 10 10 10 10 10 10 10 10 10 10 10 10 10 10 10 10 10 10 10 10 10 10 10 10 10 10 10 10 10 10 10 10 10 10 10 10 10 10 10 10 10 10 10 10 10 10 10 10 10 10 10 10 10 10 10 10 10 10 10 10 10 10 10 10 10 10 10 10 10 10 10 10 10 10 10 10 10 10 10 10 10 10 10 10 10 10 10 10 10 10 10 10 10 10 10 10 10 10 10 10 10 10 10 10 10 10 10 10 10 10 10 10 10 10 10 10 10 10 10 10 10 10 10 10 10 10 10 10 10 10 10 10 10 10 10 10 10 10 10 10 10 10 10 10 10 10 10 10 10 10 10 10 10 10 10 10 10 10 10 10 10 10 10 10 10 10 10 10 10 10 10 10 10 10 10 10 10 10 10 10 10 10 10 10 10 10 10 10 10 10 10 10 10 10 10 10 10 10 10 10 10 10 10 10 10 10 10 10 10 10 10 10 10 10 10 10 10 10 10 10 10 10 10 10 10 10 10 10 10 10 10 10 10 10 10 10 10 10 10 10 10 10 10 10 10 10 10 10 10 10 10 10 10 10 10 10 10 10 10 10 10 10 10 10 10 10 10 10 10 10 10 10 10 10 10 10 10 10 10 10 10 10 10 10 10 10 10 10 10 10 10 10 10 10 10 10 10 10 10 10 10 10 10 10 10 10 10 10 10 10 10 10 10 10 10 10 10 10 10 10 10 10 10 10 10 10 10 10 10 10 10 10 10 10 10 10 10 10 10 10 10 10 10 10 10 10 10 10 10 10 10 10 10 10 10 10 10 10 10 10 10 10 10 10 10 10 10 10 10 10 10 10 10 10 10 10 10 10 10 10 10 10 10 10 10 10 10 10 10 10 10 10 10 10 10 10 10 10 10 10 10 10 10 10 10 10 10 10 10 10 10 10 10 10 10 10 10 10 10 10 10 10 10 10 10 10 10 10 10 10 10 10 10 10 10 10 10 10 10 10 10 10 10 10 10 10 10 10 10 10 10 10 10 10 10 10 10 10 10 10 10 10 10 10 10 10 10 10 10 10 10 10 10 10 10 10 10 10 10 10 10 10 10 10 10 10 10 10 10 10 10 10 10 10 10 10 10 10 10 10 10 10 10 10 10 10 10 10 10 10 10 10 10 10 10 10 10 10 10 10 10 10 10 10 10 10 10 10 10 10 10 10 10 10 10 10 10 10 10 10 10 10 10 10 10 10 10 10 10 10 10 10 10 10 10 10 10 10 10 10 10 10 10 10 10 10 10 10 10 10 10 10 10 10 10 10 10 10 10 10 10 10 10 10 10 10 10 10 10 10 10 10 10 10 10 10 10 10 10 10 10 10 10 10 10 10 10 10 10 10 10 10 10 10 10 10 10 10 10 10 10 10 10 10 10 10 10 10 10 10 10 10 10 10 10 10 10 10 10 10 10 10 10 10 10 10 10 10 10 10 10 10 10 10 10 10 10 10 10 10 10 10 10 10 10 10 10 10 10 10 10 10 10 10 10 10 10 10 10 10 10 10 10 10 10 10 10 10 10 10 10 10 10 10 10 10 10 10 10 10 10 10 10 10 10 10 10 10 10 10 10 10 10 10 10 10 10 10 10 10 10 10 10 10 10 10 10 10 10 10 10 10 10 10 10 10 10 10 10 10 10 10 10 10 10 10 10 10 10 10 10 10 10 10 10 10 10 10 10 10 10 10 10 10 10 10 10 10 10 10 10 10 10 10 10 10 10 10 10 10 10 10 10 10 10 10 10 10 10 10 10 10 10 10 10 10 10 10 10 10 10 10 10 10 10 10 10 10 10 10 10 10 10 10 10 10 10 10 10 10 10 10 10 10 10 10 10 10 10 10 10 10 10 10 10 10 10 10 10 10 10 10 10 10 10 10 10 10 10 10 10 10 10 10 10 10 10 10 10 10 10 10 10 10 10 10 10 10 10 10 10 10 10 10 10 10 10 10 10 10 10 10 10 10 10 10 10 10 10 10 10 10 10 10 10 10 10 10 10 10 10 10 10 10 10 10 10 10 10 10 10 10 10 10 10 10 10 10 10 10 10 10 10 10 10 10 10 10 10 10 10 10 10 10 10 10 10 10 10 10 10 10 10 10 10 10 10 10 10 10 10 10 10 10 10 10 10 10 10 10 10 10 10 10 10 10 10 10 10 10 10 10 10 10 10 10 10 10 10 10 10 10 10 10 10 10 10 10 10 10 10 10 10 10 10 10 10 10 10 10 10 10 10 10 10 10 10 10 10 10 10 10 10 10 10 10 10 10 10 10 10 10 10 10 10 10 10 10 10 10 10 10 10 10 10 10 10 10 10 10 10 10 10 10 10 10 10 10 10 10 10 10 10 10 10 10 10 10 10 10 10 10 10 10 10 10 10 10 10 10 10 10 10 10 10 10 10 10 10 10 10 10 10 10 10 10 10 10 10 10 10 10 10 10 10 10 10 10 10 10 10 10 10 10 10 10 10 10 10 10 10 10 10 10 10 10 10 10 10 10 10 10 10 10 10 10 10 10 10 10 10 10 10 10 10 10 10 10 10 10 10 10 10 10 10 10 10 10 10 10 10 10 10 10 10 10 10 10 10 10 10 10 10 10 10 10 10 10 10 10 10 10 10 10 10 10 10 10 10 10 10 10 10 10 10 10 10 10 10 10 10 10 10 10 10 10 10 10 10 10 10 10 10 10 10 10 10 10 10 10 10 10 10 10 10 10 10 10 10 10 10 10 10 10 10 10 10 10 10 10 10 10 10 10 10 10 10 10 10 10 10 10 10 10 10 10 10 10 10 10 10 10 10 10 10 10 10 10 10 10 10 10 10 10 10 10 10 10 10 10 10 10 10 10 10 10 10 10 10 10 10 10 10 10 10 10 10 10 10 10 10 10 10 10 10 10 10 10 10 10 10 10 10 10 10 10 10 10 10 10 10 10 10 10 10 10 10 10 10 10 10 10 10 10 10 10 10 10 10 10 10 10 10 10 10 10 10 10 10 10 10 10 10 10 10 10 10 10 10 10 10 10 10 10 10 10 10 10 10 10 10 10 10 10 10 10 10 10 10 10 10 10 10 10 10 10 10 10 10 10 10 10 10 10 10 10 10 10 10 10 10 10 10 10 10 10 10 10 10 10 10 10 10 10 10 10 10 10 10 10 10 10 10 10 10 10 10 10 10 10 10 10 10 10 10 10 10 10 10 10 10 10 10 10 10 10 10 10 10 10 10 10 10 10 10 10 10 10 10 10 10 10 10 10 10 10 10 10 10 10 10 10 10 10 10 10 10 10 10 10 10 10 10 10 10 10 10 10 10 10 10 10 10 10 10 10 10 10 10 10 10 10 10 10 10 10 10 10 10 10 10 10 10 10 10 10 10 10 10 10 10 10 10 10 10 10 10 10 10 10 10 10 10 10 10 10 10 10 10 10 10 10 10 10 10 10 10 10 10 10 10 10 10 10 10 10 10 10 10 10 10 10 10 10 10 10 10 10 10 10 10 10 10 10 10 10 10 10 10 10 10 10 10 10 10 10 10 10 10 10 10 10 10 10 10 10 10 10 10 10 10 10 10 10 10 10 10 10 10 10 10 10 10 10 10 10 10 10 10 10 10 10 10 10 10 10 10 10 10 10 10 

POINT_DATA 1377
SCALARS weights float 1
LOOKUP_TABLE default
0.488281 0.651042 0.651042 0.651042 0.651042 0.651042 0.651042 0.651042 0.651042 0.651042 0.651042 0.651042 0.651042 0.651042 0.651042 0.651042 0.16276 0.651042 0.976562 0.976562 0.976562 0.976562 0.976562 0.976562 0.976562 0.976562 0.976562 0.976562 0.976562 0.976562 0.976562 0.976562 0.976562 0.325521 0.651042 0.976562 0.976562 0.976562 0.976562 0.976562 0.976562 0.976562 0.976562 0.976562 0.976562 0.976562 0.976562 0.976562 0.976562 0.976562 0.325521 0.651042 0.976562 0.976562 0.976562 0.976562 0.976562 0.976562 0.976562 0.976562 0.976562 0.976562 0.976562 0.976562 0.976562 0.976562 0.976562 0.325521 0.651042 0.976562 0.976562 0.976562 0.976562 0.976562 0.976562 0.976562 0.976562 0.976562 0.976562 0.976562 0.976562 0.976562 0.976562 0.976562 0.325521 0.651042 0.976562 0.976562 0.976562 0.976562 0.976562 0.976562 0.976562 0.976562 0.976562 0.976562 0.976562 0.976562 0.976562 0.976562 0.976562 0.325521 0.651042 0.976562 0.976562 0.976562 0.976562 0.976562 0.976562 0.976562 0.976562 0.976562 0.976562 0.976562 0.976562 0.976562 0.976562 0.976562 0.325521 0.651042 0.976562 0.976562 0.976562 0.976562 0.976562 0.976562 0.976562 0.976562 0.976562 0.976562 0.976562 0.976562 0.976562 0.976562 0.976562 0.325521 0.16276 0.325521 0.325521 0.325521 0.325521 0.325521 0.325521 0.325521 0.325521 0.325521 0.325521 0.325521 0.325521 0.325521 0.325521 0.325521 0.16276 0.651042 0.976562 0.976562 0.976562 0.976562 0.976562 0.976562 0.976562 0.976562 0.976562 0.976562 0.976562 0.976562 0.976562 0.976562 0.976562 0.325521 0.976562 1.95313 1.95313 1.95313 1.95313 1.95313 1.95313 1.95313 1.95313 1.95313 1.95313 1.95313 1.95313 1.95313 1.95313 1.95313 0.976562 0.976562 1.95313 1.95313 1.95313 1.95313 1.95313 1.95313 1.95313 1.95313 1.95313 1.95313 1.95313 1.95313 1.95313 1.95313 1.95313 0.976562 0.976562 1.95313 1.95313 1.95313 1.95313 1.95313 1.95313 1.95313 1.95313 1.95313 1.95313 1.95313 1.95313 1.95313 1.95313 1.95313 0.976562 0.976562 1.95313 1.95313 1.95313 1.95313 1.95313 1.95313 1.95313 1.95313 1.95313 1.95313 1.95313 1.95313 1.95313 1.95313 1.95313 0.976562 0.976562 1.95313 1.95313 1.95313 1.95313 1.95313 1.95313 1.95313 1.95313 1.95313 1.95313 1.95313 1.95313 1.95313 1.95313 1.95313 0.976562 0.976562 1.95313 1.95313 1.95313 1.95313 1.95313 1.95313 1.95313 1.95313 1.95313 1.95313 1.95313 1.95313 1.95313 1.95313 1.95313 0.976562 0.976562 1.95313 1.95313 1.95313 1.95313 1.95313 1.95313 1.95313 1.95313 1.95313 1.95313 1.95313 1.95313 1.95313 1.95313 1.95313 0.976562 0.325521 0.976562 0.976562 0.976562 0.976562 0.976562 0.976562 0.976562 0.976562 0.976562 0.976562 0.976562 0.976562 0.976562 0.976562 0.976562 0.651042 0.651042 0.976562 0.976562 0.976562 0.976562 0.976562 0.976562 0.976562 0.976562 0.976562 0.976562 0.976562 0.976562 0.976562 0.976562 0.976562 0.325521 0.976562 1.95313 1.95313 1.95313 1.95313 1.95313 1.95313 1.95313 1.95313 1.95313 1.95313 1.95313 1.95313 1.95313 1.95313 1.95313 0.976562 0.976562 1.95313 1.95313 1.95313 1.95313 1.95313 1.95313 1.95313 1.95313 1.95313 1.95313 1.95313 1.95313 1.95313 1.95313 1.95313 0.976562 0.976562 1.95313 1.95313 1.95313 1.95313 1.95313 1.95313 1.95313 1.95313 1.95313 1.95313 1.95313 1.95313 1.95313 1.95313 1.95313 0.976562 0.976562 1.95313 1.95313 1.95313 1.95313 1.95313 1.95313 1.95313 1.95313 1.95313 1.95313 1.95313 1.95313 1.95313 1.95313 1.95313 0.976562 0.976562 1.95313 1.95313 1.95313 1.95313 1.95313 1.95313 1.95313 1.95313 1.95313 1.95313 1.95313 1.95313 1.95313 1.95313 1.95313 0.976562 0.976562 1.95313 1.95313 1.95313 1.95313 1.95313 1.95313 1.95313 1.95313 1.95313 1.95313 1.95313 1.95313 1.95313 1.95313 1.95313 0.976562 0.976562 1.95313 1.95313 1.95313 1.95313 1.95313 1.95313 1.95313 1.95313 1.95313 1.95313 1.95313 1.95313 1.95313 1.95313 1.95313 0.976562 0.325521 0.976562 0.976562 0.976562 0.976562 0.976562 0.976562 0.976562 0.976562 0.976562 0.976562 0.976562 0.976562 0.976562 0.976562 0.976562 0.651042 0.651042 0.976562 0.976562 0.976562 0.976562 0.976562 0.976562 0.976562 0.976562 0.976562 0.976562 0.976562 0.976562 0.976562 0.976562 0.976562 0.325521 0.976562 1.95313 1.95313 1.95313 1.95313 1.95313 1.95313 1.95313 1.95313 1.95313 1.95313 1.95313 1.95313 1.95313 1.95313 1.95313 0.976562 0.976562 1.95313 1.95313 1.95313 1.95313 1.95313 1.95313 1.95313 1.95313 1.95313 1.95313 1.95313 1.95313 1.95313 1.95313 1.95313 0.976562 0.976562 1.95313 1.95313 1.95313 1.95313 1.95313 1.95313 1.95313 1.95313 1.95313 1.95313 1.95313 1.95313 1.95313 1.95313 1.95313 0.976562 0.976562 1.95313 1.95313 1.95313 1.95313 1.95313 1.95313 1.95313 1.95313 1.95313 1.95313 1.95313 1.95313 1.95313 1.95313 1.95313 0.976562 0.976562 1.95313 1.95313 1.95313 1.95313 1.95313 1.95313 1.95313 1.95313 1.95313 1.95313 1.95313 1.95313 1.95313 1.95313 1.95313 0.976562 0.976562 1.95313 1.95313 1.95313 1.95313 1.95313 1.95313 1.95313 1.95313 1.95313 1.95313 1.95313 1.95313 1.95313 1.95313 1.95313 0.976562 0.976562 1.95313 1.95313 1.95313 1.95313 1.95313 1.95313 1.95313 1.95313 1.95313 1.95313 1.95313 1.95313 1.95313 1.95313 1.95313 0.976562 0.325521 0.976562 0.976562 0.976562 0.976562 0.976562 0.976562 0.976562 0.976562 0.976562 0.976562 0.976562 0.976562 0.976562 0.976562 0.976562 0.651042 0.651042 0.976562 0.976562 0.976562 0.976562 0.976562 0.976562 0.976562 0.976562 0.976562 0.976562 0.976562 0.976562 0.976562 0.976562 0.976562 0.325521 0.976562 1.95313 1.95313 1.95313 1.95313 1.95313 1.95313 1.95313 1.95313 1.95313 1.95313 1.95313 1.95313 1.95313 1.95313 1.95313 0.976562 0.976562 1.95313 1.95313 1.95313 1.95313 1.95313 1.95313 1.95313 1.95313 1.95313 1.95313 1.95313 1.95313 1.95313 1.95313 1.95313 0.976562 0.976562 1.95313 1.95313 1.95313 1.95313 1.95313 1.95313 1.95313 1.95313 1.95313 1.95313 1.95313 1.95313 1.95313 1.95313 1.95313 0.976562 0.976562 1.95313 1.95313 1.95313 1.95313 1.95313 1.95313 1.95313 1.95313 1.95313 1.95313 1.95313 1.95313 1.95313 1.95313 1.95313 0.976562 0.976562 1.95313 1.95313 1.95313 1.95313 1.95313 1.95313 1.95313 1.95313 1.95313 1.95313 1.95313 1.95313 1.95313 1.95313 1.95313 0.976562 0.976562 1.95313 1.95313 1.95313 1.95313 1.95313 1.95313 1.95313 1.95313 1.95313 1.95313 1.95313 1.95313 1.95313 1.95313 1.95313 0.976562 0.976562 1.95313 1.95313 1.95313 1.95313 1.95313 1.95313 1.95313 1.95313 1.95313 1.95313 1.95313 1.95313 1.95313 1.95313 1.95313 0.976562 0.325521 0.976562 0.976562 0.976562 0.976562 0.976562 0.976562 0.976562 0.976562 0.976562 0.976562 0.976562 0.976562 0.976562 0.976562 0.976562 0.651042 0.651042 0.976562 0.976562 0.976562 0.976562 0.976562 0.976562 0.976562 0.976562 0.976562 0.976562 0.976562 0.976562 0.976562 0.976562 0.976562 0.325521 0.976562 1.95313 1.95313 1.95313 1.95313 1.95313 1.95313 1.95313 1.95313 1.95313 1.95313 1.95313 1.95313 1.95313 1.95313 1.95313 0.976562 0.976562 1.95313 1.95313 1.95313 1.95313 1.95313 1.95313 1.95313 1.95313 1.95313 1.95313 1.95313 1.95313 1.95313 1.95313 1.95313 0.976562 0.976562 1.95313 1.95313 1.95313 1.95313 1.95313 1.95313 1.95313 1.95313 1.95313 1.95313 1.95313 1.95313 1.95313 1.95313 1.95313 0.976562 0.976562 1.95313 1.95313 1.95313 1.95313 1.95313 1.95313 1.95313 1.95313 1.95313 1.95313 1.95313 1.95313 1.95313 1.95313 1.95313 0.976562 0.976562 1.95313 1.95313 1.95313 1.95313 1.95313 1.95313 1.95313 1.95313 1.95313 1.95313 1.95313 1.95313 1.95313 1.95313 1.95313 0.976562 0.976562 1.95313 1.95313 1.95313 1.95313 1.95313 1.95313 1.95313 1.95313 1.95313 1.95313 1.95313 1.95313 1.95313 1.95313 1.95313 0.976562 0.976562 1.95313 1.95313 1.95313 1.95313 1.95313 1.95313 1.95313 1.95313 1.95313 1.95313 1.95313 1.95313 1.95313 1.95313 1.95313 0.976562 0.325521 0.976562 0.976562 0.976562 0.976562 0.976562 0.976562 0.976562 0.976562 0.976562 0.976562 0.976562 0.976562 0.976562 0.976562 0.976562 0.651042 0.651042 0.976562 0.976562 0.976562 0.976562 0.976562 0.976562 0.976562 0.976562 0.976562 0.976562 0.976562 0.976562 0.976562 0.976562 0.976562 0.325521 0.976562 1.95313 1.95313 1.95313 1.95313 1.95313 1.95313 1.95313 1.95313 1.95313 1.95313 1.95313 1.95313 1.95313 1.95313 1.95313 0.976562 0.976562 1.95313 1.95313 1.95313 1.95313 1.95313 1.95313 1.95313 1.95313 1.95313 1.95313 1.95313 1.95313 1.95313 1.95313 1.95313 0.976562 0.976562 1.95313 1.95313 1.95313 1.95313 1.95313 1.95313 1.95313 1.95313 1.95313 1.95313 1.95313 1.95313 1.95313 1.95313 1.95313 0.976562 0.976562 1.95313 1.95313 1.95313 1.95313 1.95313 1.95313 1.95313 1.95313 1.95313 1.95313 1.95313 1.95313 1.95313 1.95313 1.95313 0.976562 0.976562 1.95313 1.95313 1.95313 1.95313 1.95313 1.95313 1.95313 1.95313 1.95313 1.95313 1.95313 1.95313 1.95313 1.95313 1.95313 0.976562 0.976562 1.95313 1.95313 1.95313 1.95313 1.95313 1.95313 1.95313 1.95313 1.95313 1.95313 1.95313 1.95313 1.95313 1.95313 1.95313 0.976562 0.976562 1.95313 1.95313 1.95313 1.95313 1.95313 1.95313 1.95313 1.95313 1.95313 1.95313 1.95313 1.95313 1.95313 1.95313 1.95313 0.976562 0.325521 0.976562 0.976562 0.976562 0.976562 0.976562 0.976562 0.976562 0.976562 0.976562 0.976562 0.976562 0.976562 0.976562 0.976562 0.976562 0.651042 0.651042 0.976562 0.976562 0.976562 0.976562 0.976562 0.976562 0.976562 0.976562 0.976562 0.976562 0.976562 0.976562 0.976562 0.976562 0.976562 0.325521 0.976562 1.95313 1.95313 1.95313 1.95313 1.95313 1.95313 1.95313 1.95313 1.95313 1.95313 1.95313 1.95313 1.95313 1.95313 1.95313 0.976562 0.976562 1.95313 1.95313 1.95313 1.95313 1.95313 1.95313 1.95313 1.95313 1.95313 1.95313 1.95313 1.95313 1.95313 1.95313 1.95313 0.976562 0.976562 1.95313 1.95313 1.95313 1.95313 1.95313 1.95313 1.95313 1.95313 1.95313 1.95313 1.95313 1.95313 1.95313 1.95313 1.95313 0.976562 0.976562 1.95313 1.95313 1.95313 1.95313 1.95313 1.95313 1.95313 1.95313 1.95313 1.95313 1.95313 1.95313 1.95313 1.95313 1.95313 0.976562 0.976562 1.95313 1.95313 1.95313 1.95313 1.95313 1.95313 1.95313 1.95313 1.95313 1.95313 1.95313 1.95313 1.95313 1.95313 1.95313 0.976562 0.976562 1.95313 1.95313 1.95313 1.95313 1.95313 1.95313 1.95313 1.95313 1.95313 1.95313 1.95313 1.95313 1.95313 1.95313 1.95313 0.976562 0.976562 1.95313 1.95313 1.95313 1.95313 1.95313 1.95313 1.95313 1.95313 1.95313 1.95313 1.95313 1.95313 1.95313 1.95313 1.95313 0.976562 0.325521 0.976562 0.976562 0.976562 0.976562 0.976562 0.976562 0.976562 0.976562 0.976562 0.976562 0.976562 0.976562 0.976562 0.976562 0.976562 0.651042 0.16276 0.325521 0.325521 0.325521 0.325521 0.325521 0.325521 0.325521 0.325521 0.325521 0.325521 0.325521 0.325521 0.325521 0.325521 0.325521 0.16276 0.325521 0.976562 0.976562 0.976562 0.976562 0.976562 0.976562 0.976562 0.976562 0.976562 0.976562 0.976562 0.976562 0.976562 0.976562 0.976562 0.651042 0.325521 0.976562 0.976562 0.976562 0.976562 0.976562 0.976562 0.976562 0.976562 0.976562 0.976562 0.976562 0.976562 0.976562 0.976562 0.976562 0.651042 0.325521 0.976562 0.976562 0.976562 0.976562 0.976562 0.976562 0.976562 0.976562 0.976562 0.976562 0.976562 0.976562 0.976562 0.976562 0.976562 0.651042 0.325521 0.976562 0.976562 0.976562 0.976562 0.976562 0.976562 0.976562 0.976562 0.976562 0.976562 0.976562 0.976562 0.976562 0.976562 0.976562 0.651042 0.325521 0.976562 0.976562 0.976562 0.976562 0.976562 0.976562 0.976562 0.976562 0.976562 0.976562 0.976562 0.976562 0.976562 0.976562 0.976562 0.651042 0.325521 0.976562 0.976562 0.976562 0.976562 0.976562 0.976562 0.976562 0.976562 0.976562 0.976562 0.976562 0.976562 0.976562 0.976562 0.976562 0.651042 0.325521 0.976562 0.976562 0.976562 0.976562 0.976562 0.976562 0.976562 0.976562 0.976562 0.976562 0.976562 0.976562 0.976562 0.976562 0.976562 0.651042 0.16276 0.651042 0.651042 0.651042 0.651042 0.651042 0.651042 0.651042 0.651042 0.651042 0.651042 0.651042 0.651042 0.651042 0.651042 0.651042 0.488281 
VECTORS u float
0 -0.0129188 0.0132588  0.0252024 0.261049 -0.123998  0.0402166 0.537208 -0.150664  0.0505298 0.7945 -0.0721266  0.0575814 0.998833 0.0982217  0.0621828 1.12076 0.333405  0.0650086 1.14257 0.596698  0.0664584 1.06176 0.847219  0.0665336 0.891642 1.04637  0.0650235 0.658895 1.16427  0.0607623 0.400063 1.18379  0.0523052 0.154924 1.1041  0.0386688 -0.0406913 0.939989  0.0214716 -0.161767 0.71654  0.00619292 -0.194933 0.462092  -0.000186682 -0.138472 0.208697  0 0 0  0 -0.0129614 0.00998658  0.00344683 0.211055 -0.084197  0.0106701 0.46006 -0.0887363  0.0175187 0.688284 0.00264138  0.0226389 0.861841 0.17416  0.0259873 0.95525 0.398793  0.0278887 0.954949 0.641556  0.0286368 0.861605 0.864807  0.0282136 0.690345 1.03416  0.026477 0.467892 1.12404  0.0225639 0.228958 1.12126  0.0155609 0.0101687 1.0275  0.005198 -0.156064 0.858204  -0.00638402 -0.246698 0.638462  -0.0134568 -0.24881 0.397757  -0.00897706 -0.160169 0.170857  0 0 0  0 -0.0130038 0.00671437  -0.00326519 0.192584 -0.0486249  -0.000511855 0.411858 -0.0205322  0.00410473 0.607178 0.0918734  0.00815094 0.743423 0.272589  0.0108908 0.798623 0.492369  0.0123538 0.764509 0.71614  0.0127202 0.647078 0.908683  0.0119996 0.465408 1.04026  0.010146 0.248022 1.09097  0.00666749 0.0286986 1.05356  0.00119197 -0.158943 0.934335  -0.00592411 -0.286659 0.751661  -0.0125735 -0.335395 0.532894  -0.0145664 -0.297148 0.310949  -0.00793076 -0.177139 0.12255  0 0 0  0 -0.0130463 0.00344217  -0.00271713 0.184805 -0.00973329  -0.000105426 0.377194 0.0571902  0.00434914 0.533419 0.196781  0.00841457 0.62478 0.38911  0.011117 0.634039 0.602917  0.0124195 0.55959 0.803351  0.0125249 0.413957 0.958465  0.0115322 0.220918 1.04433  0.00953972 0.0109036 1.04825  0.00640523 -0.183648 0.970211  0.00216174 -0.332984 0.822361  -0.0025208 -0.414265 0.626902  -0.00620818 -0.414696 0.414152  -0.00699759 -0.334762 0.218862  -0.00407469 -0.189616 0.0742224  0 0 0  0 -0.0130888 0.000169963  0.00164954 0.179354 0.0350195  0.00659996 0.345034 0.144496  0.0120005 0.459046 0.313393  0.0162511 0.500282 0.516593  0.0187546 0.459401 0.72121  0.0196223 0.342369 0.893598  0.0192208 0.168439 1.00616  0.017803 -0.0341239 1.04168  0.0155727 -0.233358 0.995395  0.0125871 -0.398623 0.875101  0.00904953 -0.504721 0.699351  0.00555563 -0.535281 0.494761  0.003003 -0.485219 0.293457  0.00161827 -0.364337 0.129187  0.000135541 -0.19695 0.0279003  0 0 0  0 -0.0131313 -0.00310224  0.00760256 0.17274 0.0853072  0.0154375 0.310133 0.238712  0.0215595 0.38015 0.436023  0.0253479 0.369643 0.647654  0.0269277 0.278052 0.83979  0.0268166 0.11926 0.981087  0.0255608 -0.0810727 1.04887  0.0235335 -0.29071 1.0329  0.0209432 -0.476575 0.936455  0.0178604 -0.610115 0.775153  0.0144631 -0.671087 0.574061  0.0111457 -0.6503 0.364079  0.00857103 -0.550918 0.177906  0.00677025 -0.390154 0.0454785  0.00321901 -0.200203 -0.0147751  0 0 0  0 -0.0131738 -0.00637442  0.0130957 0.163528 0.139019  0.0225864 0.270764 0.335256  0.0280874 0.296559 0.558116  0.0303075 0.235607 0.775413  0.0301976 0.095504 0.953298  0.0286472 -0.102443 1.06301  0.0263507 -0.326904 1.08679  0.0236459 -0.541957 1.02101  0.0206518 -0.713632 0.876573  0.0173268 -0.815453 0.676695  0.0137513 -0.832217 0.452781  0.0102222 -0.762142 0.23952  0.00737917 -0.616627 0.0695218  0.00599968 -0.418136 -0.0321038  0.00404406 -0.202472 -0.0534884  0 0 0  0 -0.0132163 -0.00964665  0.0157502 0.151599 0.191391  0.0243392 0.228733 0.426737  0.0276086 0.213249 0.672349  0.0274433 0.105868 0.894945  0.0253277 -0.0792159 1.06048  0.022328 -0.314301 1.14203  0.0190678 -0.562554 1.12571  0.0157681 -0.784353 1.01373  0.0123835 -0.944396 0.824002  0.00874329 -1.01776 0.587001  0.00492644 -0.993812 0.340294  0.00129294 -0.877726 0.122337  -0.00136948 -0.688907 -0.0341347  -0.00194931 -0.456474 -0.10776  0.000933528 -0.210499 -0.0916699  0 0 0  0 -0.0132588 -0.0129188  0.0117991 0.136734 0.228543  0.0171708 0.190862 0.496591  0.0178788 0.143956 0.766075  0.0157021 -0.00218636 1.00084  0.0120617 -0.228769 1.16373  0.00796646 -0.501813 1.22722  0.00396734 -0.778584 1.17965  0.000138879 -1.01475 1.02766  -0.00368762 -1.17243 0.795225  -0.00774288 -1.22675 0.519784  -0.0118933 -1.17002 0.245278  -0.0155885 -1.01294 0.0147903  -0.0178176 -0.782165 -0.137117  -0.0171527 -0.514232 -0.190817  -0.0118012 -0.245113 -0.143625  0 0 0  0 -0.00964665 0.0132163  0.0257704 0.209889 -0.147636  0.045807 0.455389 -0.205188  0.0581885 0.6946 -0.164791  0.0663772 0.896074 -0.0355897  0.0717 1.03052 0.161029  0.0749899 1.07817 0.393636  0.0767789 1.03276 0.625577  0.0772271 0.902402 0.82093  0.0760177 0.708121 0.950272  0.0726659 0.480259 0.994926  0.0660958 0.253715 0.949659  0.0552169 0.0621981 0.823387  0.0399678 -0.0682228 0.636604  0.02256 -0.122546 0.416373  0.00745642 -0.0975791 0.193255  0 0 0  0 -0.00968915 0.00994408  0.00564857 0.164974 -0.0978215  0.0183314 0.38133 -0.126349  0.026232 0.583793 -0.072599  0.0316368 0.7473 0.0544381  0.0351155 0.848225 0.234467  0.0370815 0.871823 0.439067  0.0379041 0.815163 0.63626  0.0376956 0.687756 0.795588  0.0362632 0.509766 0.892925  0.0333328 0.308811 0.913851  0.0282289 0.115794 0.855952  0.0206157 -0.0402275 0.728646  0.0110793 -0.136605 0.551517  0.00222445 -0.160262 0.350529  -0.00176978 -0.109704 0.155897  0 0 0  0 -0.00973162 0.00667188  0.00170302 0.151366 -0.0553147  0.00484368 0.328759 -0.0521914  0.00954768 0.494805 0.0223275  0.0135435 0.617989 0.156277  0.0162345 0.6792 0.327275  0.0176661 0.669747 0.508084  0.0180613 0.591919 0.670446  0.0175548 0.458508 0.789459  0.0161206 0.290471 0.847128  0.0137318 0.113831 0.834804  0.0101204 -0.0440587 0.754625  0.00531709 -0.158957 0.619021  -3.69549e-06 -0.213634 0.448915  -0.00397551 -0.200583 0.270441  -0.00383699 -0.123482 0.112007  0 0 0  0 -0.00977412 0.00339967  0.00167051 0.142638 -0.0133907  0.00298372 0.291178 0.0277382  0.00665003 0.416549 0.128614  0.0103621 0.494015 0.272631  0.012933 0.509386 0.435641  0.0142006 0.460782 0.591217  0.0143538 0.356756 0.714963  0.0136132 0.214226 0.788044  0.0121026 0.0555948 0.799635  0.0099597 -0.0945303 0.748167  0.007195 -0.212866 0.641679  0.00399101 -0.281124 0.496621  0.000742674 -0.289156 0.335719  -0.00176787 -0.237116 0.184443  -0.0022018 -0.135187 0.0667131  0 0 0  0 -0.00981662 0.000127465  0.00325432 0.134149 0.0298368  0.00645268 0.25701 0.113017  0.0107214 0.341079 0.242627  0.0143823 0.369371 0.397098  0.0166582 0.335838 0.550886  0.017472 0.245953 0.678978  0.0171369 0.114601 0.761365  0.0159575 -0.0370525 0.785663  0.014138 -0.185176 0.748667  0.0118936 -0.306802 0.656407  0.00935924 -0.383104 0.523269  0.00672388 -0.402427 0.369982  0.00428808 -0.36226 0.220399  0.00206208 -0.270571 0.0982832  0.000218749 -0.144229 0.0219186  0 0 0  0 -0.00985909 -0.00314474  0.00495227 0.124312 0.0743104  0.0107003 0.221346 0.201167  0.0154609 0.263892 0.359112  0.0185006 0.242881 0.522756  0.0197678 0.160694 0.665816  0.0195928 0.0302686 0.765425  0.0184178 -0.127444 0.80607  0.0166068 -0.287374 0.781783  0.0143496 -0.424407 0.696856  0.0118259 -0.517288 0.564776  0.00918269 -0.551712 0.406259  0.00667 -0.522658 0.245938  0.00463617 -0.43511 0.108539  0.00319338 -0.303572 0.0151205  0.00147021 -0.151724 -0.0211552  0 0 0  0 -0.00990158 -0.00641695  0.0056587 0.112916 0.119009  0.0126082 0.183291 0.288807  0.0165887 0.185083 0.473152  0.0180429 0.11671 0.644606  0.0176688 -0.0119646 0.77678  0.0161453 -0.181115 0.848869  0.014007 -0.36422 0.849497  0.0115578 -0.532336 0.778639  0.00889444 -0.65902 0.647694  0.00609994 -0.724568 0.477368  0.00331438 -0.719008 0.294439  0.000878096 -0.643683 0.127292  -0.000660896 -0.510599 0.00140844  -0.000596404 -0.339987 -0.0647845  0.000356555 -0.160081 -0.0627258  0 0 0  0 -0.00994408 -0.00968915  0.00433487 0.100403 0.161636  0.0101379 0.144567 0.371539  0.0119251 0.108395 0.580489  0.0111332 -0.00396878 0.76022  0.00891966 -0.176627 0.883853  0.00609422 -0.383587 0.931725  0.00310528 -0.592705 0.895656  0.000133514 -0.77092 0.780884  -0.00285232 -0.889955 0.605518  -0.00587404 -0.931119 0.397352  -0.00874722 -0.88838 0.189292  -0.0110079 -0.769172 0.0136687  -0.0118481 -0.59251 -0.103098  -0.0101031 -0.384746 -0.14454  -0.00432694 -0.173986 -0.105808  0 0 0  0 -0.00998658 -0.0129613  -0.000931665 0.0871636 0.195243  0.00196892 0.109588 0.44093  0.00143793 0.041834 0.675412  -0.00116676 -0.109947 0.868316  -0.00473994 -0.325046 0.989892  -0.00851518 -0.57108 1.0199  -0.0121109 -0.809847 0.952343  -0.0154992 -1.00339 0.79694  -0.018813 -1.12071 0.577932  -0.0221192 -1.1431 0.330193  -0.0251762 -1.0674 0.0931958  -0.0273333 -0.90662 -0.0959081  -0.0275403 -0.687016 -0.208789  -0.0243125 -0.442127 -0.230497  -0.0157491 -0.205106 -0.159482  0 0 0  0 -0.00637442 0.0131738  0.0189963 0.150368 -0.166592  0.0374359 0.355553 -0.260882  0.0512395 0.576131 -0.265833  0.0603506 0.778331 -0.184484  0.0664809 0.931893 -0.031217  0.0705101 1.01364 0.169075  0.0729905 1.01182 0.384383  0.0742137 0.927797 0.580969  0.0739059 0.775812 0.728876  0.0715131 0.579877 0.806345  0.0668092 0.369915 0.80324  0.0586936 0.177748 0.7215  0.0460144 0.0309946 0.575672  0.0289843 -0.0521356 0.388848  0.0107957 -0.0633241 0.188043  0 0 0  0 -0.00641695 0.00990158  0.00456502 0.118909 -0.110185  0.0178587 0.293467 -0.16848  0.0272113 0.471379 -0.15542  0.0329286 0.627903 -0.0755162  0.0365729 0.740558 0.0586259  0.038739 0.792534 0.225677  0.0398469 0.776356 0.399295  0.0400838 0.695254 0.552444  0.0393773 0.562243 0.661746  0.0373915 0.398077 0.710665  0.0339272 0.228194 0.692458  0.0285002 0.0784657 0.610524  0.0208466 -0.0288877 0.477977  0.0117112 -0.0791395 0.315245  0.00353277 -0.0673674 0.147089  0 0 0  0 -0.00645941 0.00662941  0.00159745 0.107043 -0.0645891  0.00570619 0.243519 -0.0869977  0.0118305 0.381565 -0.0507078  0.0157901 0.493704 0.0350318  0.0183619 0.563526 0.157363  0.0198048 0.58077 0.296903  0.0203492 0.543407 0.431699  0.0201962 0.457815 0.540951  0.0193886 0.337571 0.607997  0.0178777 0.201285 0.622611  0.0156337 0.0702952 0.582747  0.0124007 -0.0351517 0.494933  0.00820827 -0.0992776 0.372893  0.00363278 -0.11332 0.23544  0.000357032 -0.0768996 0.103794  0 0 0  0 -0.00650191 0.00335717  0.00113855 0.0979584 -0.021567  0.00365615 0.206339 -0.00379151  0.00689602 0.30192 0.0571301  0.0102137 0.367376 0.152478  0.0125825 0.390624 0.26592  0.0138209 0.368622 0.378945  0.0141106 0.305619 0.473903  0.0136962 0.212001 0.536379  0.0127378 0.102575 0.557085  0.0113426 -0.00570986 0.533043  0.00965953 -0.0959071 0.468044  0.00760841 -0.15407 0.372425  0.00518537 -0.171721 0.261132  0.00253427 -0.14734 0.15135  0.000427008 -0.0863432 0.0596533  0 0 0  0 -0.00654441 8.49962e-05  0.00154838 0.0889431 0.0208547  0.00467125 0.171582 0.0802389  0.00760978 0.226494 0.169083  0.010467 0.243385 0.274882  0.0123697 0.218321 0.379412  0.0131018 0.155502 0.465519  0.0128672 0.0654895 0.519845  0.0119625 -0.0371994 0.534369  0.0106301 -0.136386 0.507284  0.00905621 -0.216662 0.44309  0.00745511 -0.265448 0.351872  0.00588322 -0.27536 0.248048  0.00441158 -0.245415 0.14766  0.00286186 -0.181425 0.0661691  0.00111473 -0.0951965 0.0152325  0 0 0  0 -0.00658691 -0.00318721  0.00177442 0.079349 0.0633786  0.00540259 0.136507 0.164232  0.00830266 0.151528 0.281589  0.0103085 0.120487 0.397644  0.0111091 0.0475284 0.493058  0.0108082 -0.0557213 0.552472  0.00972861 -0.172685 0.566778  0.00817394 -0.284817 0.534097  0.00638771 -0.374529 0.459862  0.00454998 -0.427799 0.355855  0.00290358 -0.436221 0.23843  0.00169301 -0.39863 0.125992  0.00106072 -0.321431 0.0360307  0.00106776 -0.217146 -0.0180405  0.000809789 -0.104136 -0.0289731  0 0 0  0 -0.00662941 -0.00645941  0.00128387 0.0695515 0.106189  0.00425801 0.101184 0.247388  0.00621307 0.0770631 0.392564  0.0066576 -0.000492334 0.518494  0.0058881 -0.120029 0.60526  0.00431013 -0.262962 0.639137  0.00230145 -0.406895 0.614854  0.000121951 -0.529188 0.536338  -0.00205982 -0.61066 0.415965  -0.00409436 -0.638488 0.272662  -0.00570607 -0.608161 0.128914  -0.00652087 -0.524462 0.00728905  -0.00612962 -0.400641 -0.0733771  -0.0042057 -0.256264 -0.10115  -0.00126517 -0.11447 -0.0731883  0 0 0  0 -0.00667191 -0.00973162  -0.00034824 0.0602191 0.148803  0.000629276 0.0669162 0.328777  0.00074172 0.00504613 0.501204  -0.000750035 -0.117525 0.637527  -0.00312966 -0.282803 0.71706  -0.00586903 -0.465542 0.727135  -0.00864172 -0.637412 0.665778  -0.0112968 -0.771395 0.542293  -0.0137601 -0.846304 0.375947  -0.0159385 -0.85018 0.192897  -0.0174969 -0.782307 0.0220053  -0.0179148 -0.653476 -0.109875  -0.0165118 -0.483972 -0.182517  -0.0125668 -0.299818 -0.18539  -0.00564551 -0.128444 -0.119448  0 0 0  0 -0.00671434 -0.0130038  -0.00404198 0.0520363 0.188163  -0.00597724 0.0362037 0.404503  -0.00730661 -0.0604185 0.605737  -0.0100838 -0.226832 0.755635  -0.0135527 -0.438375 0.831055  -0.0170947 -0.662624 0.819798  -0.0203929 -0.864945 0.722892  -0.0233972 -1.01348 0.554761  -0.0261117 -1.08448 0.34136  -0.0284569 -1.06623 0.116424  -0.0300506 -0.961456 -0.084167  -0.0302041 -0.78724 -0.228596  -0.0280184 -0.571763 -0.294998  -0.0225474 -0.348538 -0.274874  -0.013081 -0.149797 -0.17278  0 0 0  0 -0.00310224 0.0131313  0.00820331 0.088817 -0.178807  0.0201144 0.248132 -0.308659  0.0321717 0.444068 -0.363003  0.0415598 0.644746 -0.335713  0.0481299 0.818533 -0.232318  0.0527905 0.938522 -0.0697563  0.0560434 0.986432 0.125901  0.0582547 0.955506 0.323652  0.0593247 0.851709 0.492773  0.0585796 0.692241 0.607908  0.0551314 0.501768 0.652811  0.0497955 0.30849 0.622077  0.0408958 0.141858 0.522038  0.0270916 0.0250635 0.369757  0.0102229 -0.0266363 0.188202  0 0 0  0 -0.00314474 0.00985909  0.00272246 0.0723268 -0.121472  0.0118954 0.201122 -0.210266  0.0205286 0.352293 -0.240694  0.0267061 0.502113 -0.209952  0.0306061 0.627949 -0.123657  0.0330741 0.710722 0.00445119  0.0345793 0.737976 0.154166  0.0353713 0.706064 0.302072  0.035545 0.620344 0.425396  0.0347738 0.494458 0.505307  0.0325866 0.347897 0.529754  0.028976 0.203307 0.496267  0.0234387 0.0823033 0.41053  0.0154905 0.00222014 0.286117  0.00612164 -0.0266222 0.141999  0 0 0  0 -0.00318721 0.00658691  0.000733018 0.0622129 -0.0741365  0.00365451 0.157206 -0.123153  0.00973797 0.266323 -0.127677  0.0139642 0.368379 -0.0903704  0.0164918 0.448171 -0.0166637  0.0179754 0.493512 0.0820782  0.0187153 0.497731 0.190289  0.01894 0.460644 0.291158  0.0187719 0.388312 0.369185  0.0181803 0.292043 0.412408  0.0169863 0.186839 0.414055  0.0150126 0.0892479 0.374672  0.011964 0.0137986 0.300715  0.00769377 -0.0287721 0.203407  0.00290203 -0.0330972 0.0973134  0 0 0  0 -0.00322971 0.0033147  0.000100479 0.0534192 -0.0302034  0.00174889 0.120994 -0.038057  0.00454554 0.187576 -0.0171803  0.00779724 0.241762 0.0298136  0.00984037 0.27413 0.0939608  0.01096 0.279706 0.165418  0.0113491 0.258068 0.233  0.0112367 0.213014 0.286345  0.010807 0.151824 0.31742  0.0101843 0.0840667 0.321644  0.00943911 0.0202756 0.298293  0.00847518 -0.0295 0.251359  0.00698924 -0.0580634 0.188401  0.00476968 -0.0617783 0.118818  0.00200188 -0.04105 0.0526668  0 0 0  0 -0.00327221 4.24981e-05  -0.000129394 0.0447097 0.0121845  0.00125253 0.0865505 0.0454282  0.00325438 0.112987 0.0943465  0.00518912 0.119183 0.15137  0.00656056 0.103337 0.20712  0.00712287 0.0679137 0.252212  0.00697696 0.0189294 0.279592  0.00638211 -0.0356276 0.285245  0.00559258 -0.0870368 0.268594  0.00479913 -0.12718 0.232538  0.00416803 -0.149779 0.182848  0.0037905 -0.151368 0.127406  0.00347185 -0.13223 0.0749034  0.00287092 -0.0959757 0.0331158  0.00157881 -0.049295 0.00762668  0 0 0  0 -0.00331467 -0.00322971  -0.000407875 0.0361567 0.0541739  0.000447661 0.0528967 0.127838  0.00172529 0.0401692 0.205296  0.00251848 -0.000934899 0.273395  0.00274038 -0.0647728 0.321268  0.00228369 -0.141275 0.340712  0.00133145 -0.218168 0.328734  0.000121951 -0.283218 0.287383  -0.00108767 -0.326134 0.223317  -0.00205755 -0.340017 0.146715  -0.00254047 -0.322472 0.0697393  -0.00235713 -0.27626 0.00471956  -0.00160778 -0.209264 -0.0380918  -0.000385404 -0.132287 -0.0527544  0.000430346 -0.0583408 -0.0379335  0 0 0  0 -0.00335717 -0.00650191  -0.000792868 0.028327 0.0969442  -0.00100936 0.0203127 0.210353  -0.000962883 -0.0311305 0.316107  -0.00155103 -0.119154 0.395611  -0.00272512 -0.230636 0.43604  -0.00433147 -0.348233 0.430516  -0.0061475 -0.453482 0.379824  -0.00793558 -0.529841 0.291946  -0.00950181 -0.565235 0.180632  -0.0105964 -0.553841 0.0633198  -0.010914 -0.497013 -0.0413978  -0.0101541 -0.403513 -0.116706  -0.00820053 -0.288386 -0.15066  -0.00534737 -0.170831 -0.138615  -0.00175309 -0.068684 -0.0841175  0 0 0  0 -0.00339967 -0.00977412  -0.00145937 0.0216927 0.141476  -0.00315221 -0.0106805 0.294376  -0.00454831 -0.100772 0.428409  -0.00654247 -0.235995 0.519455  -0.00900602 -0.395593 0.552546  -0.0116077 -0.554914 0.522035  -0.0141114 -0.689211 0.432407  -0.016353 -0.777437 0.29744  -0.0181831 -0.805595 0.138161  -0.0193858 -0.768852 -0.0205146  -0.0195919 -0.672525 -0.153354  -0.0183554 -0.531659 -0.239079  -0.0153626 -0.368761 -0.264213  -0.0106536 -0.209971 -0.225702  -0.00493908 -0.080817 -0.132031  0 0 0  0 -0.00344217 -0.0130463  -0.00321829 0.0165281 0.186846  -0.00674219 -0.0388497 0.378478  -0.0084973 -0.16723 0.542744  -0.0110095 -0.350973 0.646891  -0.0142849 -0.56042 0.672932  -0.0176427 -0.762973 0.616915  -0.0206971 -0.927501 0.487347  -0.0232905 -1.02842 0.303838  -0.0253285 -1.04949 0.0946544  -0.0266179 -0.986671 -0.107272  -0.026778 -0.849377 -0.269461  -0.0252234 -0.659705 -0.365803  -0.021459 -0.448616 -0.381676  -0.0153801 -0.249803 -0.316725  -0.00758445 -0.0930959 -0.183412  0 0 0  0 0.000169963 0.0130888  -0.00371736 0.0310514 -0.183513  -7.35074e-05 0.141942 -0.345117  0.0071708 0.307301 -0.448155  0.0149 0.500276 -0.478015  0.0212854 0.690417 -0.430064  0.0260922 0.847683 -0.311962  0.0298466 0.947456 -0.142392  0.0328884 0.974338 0.0517579  0.0353234 0.924872 0.239939  0.0365697 0.808033 0.393342  0.0354335 0.642582 0.489516  0.030463 0.453378 0.515346  0.0254301 0.267352 0.466745  0.0174192 0.114145 0.352303  0.00624108 0.0175201 0.189978  0 0 0  0 0.000127465 0.00981659  0.000817984 0.0255705 -0.131055  0.00355753 0.10757 -0.249312  0.00893423 0.229903 -0.323683  0.0145659 0.371375 -0.343764  0.0188549 0.509761 -0.307323  0.0217409 0.623747 -0.220325  0.0237456 0.695867 -0.0963871  0.025146 0.715261 0.0451435  0.0261865 0.679274 0.182353  0.0267217 0.593949 0.294159  0.0260935 0.472786 0.363658  0.0234729 0.334374 0.380502  0.0197173 0.199401 0.343776  0.0139928 0.0878771 0.258878  0.00604856 0.0165565 0.138333  0 0 0  0 8.49962e-05 0.00654441  -0.000283241 0.0169231 -0.083306  0.000640243 0.0700185 -0.159333  0.00441366 0.14967 -0.205977  0.00815731 0.241588 -0.217732  0.0108592 0.331446 -0.192867  0.0125251 0.405311 -0.135236  0.0135487 0.451847 -0.0538486  0.014186 0.464105 0.0386897  0.0145952 0.440501 0.128104  0.0148795 0.384867 0.200667  0.0147828 0.305973 0.245145  0.0138458 0.216159 0.254586  0.0118122 0.128992 0.229081  0.00846505 0.0571759 0.172067  0.00378799 0.0114031 0.0914019  0 0 0  0 4.24981e-05 0.00327218  -0.00100187 0.00883141 -0.0385265  -0.000956327 0.0350715 -0.0727408  0.000338614 0.0730737 -0.0925247  0.00292349 0.116153 -0.0942244  0.00473315 0.157644 -0.0790631  0.00575602 0.190928 -0.0489855  0.00626242 0.210816 -0.00864515  0.00645328 0.214445 0.0357353  0.00651765 0.201519 0.0774018  0.00659859 0.174233 0.110141  0.006791 0.136821 0.128815  0.00698757 0.095273 0.130258  0.00648439 0.0557106 0.115265  0.00500762 0.0237 0.0857494  0.00248575 0.00396207 0.0453843  0 0 0  0 0 0  -0.00146057 0.000974476 0.0043053  -0.00206774 0.00153702 0.011288  -0.00170982 -0.000331968 0.0198935  -0.000804454 -0.00501263 0.0285975  9.26852e-05 -0.0121859 0.0356688  0.000432491 -0.0204306 0.0395647  0.000386477 -0.028547 0.0397361  0.000121474 -0.0350809 0.0362234  -0.000146031 -0.0387733 0.0297371  -0.000199199 -0.0388154 0.0215814  0.000116944 -0.0351581 0.0132296  0.000972867 -0.0282886 0.0058248  0.00182343 -0.0197243 0.000876009  0.00213099 -0.011226 -0.00121841  0.00148571 -0.00429165 -0.00085026  0 0 0  0 -4.24981e-05 -0.00327221  -0.00155885 -0.00638068 0.0462499  -0.00281364 -0.0306543 0.0936727  -0.00336757 -0.0715352 0.131063  -0.00362214 -0.123552 0.151557  -0.00396842 -0.178975 0.151348  -0.00456983 -0.229206 0.130001  -0.00534075 -0.266206 0.0907612  -0.00614017 -0.284049 0.0397687  -0.00674307 -0.279744 -0.0149389  -0.00688303 -0.253592 -0.0646369  -0.00635374 -0.209404 -0.101165  -0.00503278 -0.154143 -0.11842  -0.00315034 -0.0970327 -0.113714  -0.00119984 -0.0475452 -0.0885507  0.000148416 -0.0133211 -0.0476118  0 0 0  0 -8.49962e-05 -0.00654441  -0.00110316 -0.0128493 0.0890899  -0.00281368 -0.0615566 0.176734  -0.00432357 -0.141445 0.242878  -0.00573844 -0.241103 0.275391  -0.00727439 -0.345148 0.26807  -0.00886035 -0.437513 0.221556  -0.0104045 -0.503639 0.142879  -0.0117278 -0.533098 0.0443524  -0.0126492 -0.521092 -0.0586744  -0.012881 -0.46901 -0.150039  -0.0121682 -0.384508 -0.214969  -0.0103017 -0.280708 -0.242649  -0.00749624 -0.174612 -0.228476  -0.00461566 -0.0845267 -0.175867  -0.00153434 -0.0231677 -0.0948561  0 0 0  0 -0.000127435 -0.00981662  -0.000210389 -0.0183104 0.135041  -0.00202471 -0.0914302 0.263464  -0.00420269 -0.211248 0.358357  -0.00659955 -0.359845 0.402326  -0.00919163 -0.513601 0.38684  -0.0116996 -0.648567 0.31385  -0.0139236 -0.74377 0.194497  -0.0157207 -0.784351 0.0472633  -0.0169213 -0.763772 -0.104935  -0.0172817 -0.684652 -0.238275  -0.0164762 -0.558841 -0.331313  -0.0142189 -0.406041 -0.368689  -0.0106066 -0.251064 -0.344349  -0.00639307 -0.119512 -0.263644  -0.00323975 -0.0333492 -0.143057  0 0 0  0 -0.000169992 -0.0130888  -0.00013186 -0.0229612 0.184659  -0.00159006 -0.11996 0.354775  -0.00293678 -0.281207 0.479936  -0.00543478 -0.481308 0.535132  -0.00890017 -0.686612 0.509687  -0.0123976 -0.86497 0.407937  -0.0153599 -0.989272 0.245645  -0.0175883 -1.04038 0.0475236  -0.0190142 -1.00985 -0.155847  -0.0194508 -0.901625 -0.332463  -0.018608 -0.732202 -0.453714  -0.0161155 -0.528799 -0.499696  -0.0118831 -0.324838 -0.463671  -0.00652719 -0.153275 -0.354056  -0.00162733 -0.0397373 -0.19137  0 0 0  0 0.00344217 0.0130463  -0.0125504 -0.0177371 -0.181731  -0.0166304 0.0447688 -0.36891  -0.0149733 0.17534 -0.516357  -0.0106082 0.353511 -0.601922  -0.00568563 0.552317 -0.611865  -0.00134653 0.740783 -0.543793  0.00230473 0.889325 -0.408031  0.00564492 0.974578 -0.225709  0.00885749 0.983488 -0.0254152  0.0115991 0.915462 0.161787  0.0129082 0.781851 0.307653  0.0110019 0.603271 0.390925  0.00374234 0.405946 0.400138  0.00176823 0.216984 0.329427  -0.000148892 0.0712902 0.18964  0 0 0  0 0.00339967 0.00977409  -0.000661306 -0.0204754 -0.13843  -0.00515214 0.0157193 -0.283626  -0.00441337 0.107623 -0.400686  -0.000992805 0.238171 -0.472017  0.00297862 0.386747 -0.487109  0.00628781 0.530407 -0.443663  0.0088113 0.647049 -0.348395  0.0109007 0.718648 -0.215999  0.0128106 0.734371 -0.0670176  0.014578 0.692186 0.0755798  0.0155815 0.599143 0.190157  0.0146947 0.469512 0.259626  0.0107025 0.322562 0.273604  0.00734305 0.179701 0.23012  0.00315249 0.0642623 0.134197  0 0 0  0 0.00335717 0.00650191  -0.00125249 -0.0284202 -0.0915143  -0.00239635 -0.0173956 -0.194418  -0.00230086 0.0327898 -0.283024  -0.000290841 0.114096 -0.343993  0.00223625 0.213278 -0.368381  0.00427872 0.315036 -0.35259  0.00573766 0.403759 -0.299007  0.00689185 0.465746 -0.215789  0.00792444 0.49163 -0.11575  0.00905585 0.47758 -0.0142971  0.0101304 0.42607 0.0729614  0.0104101 0.345188 0.132704  0.0089823 0.247106 0.155782  0.00657547 0.146156 0.13965  0.00312495 0.058158 0.085088  0 0 0  0 0.0033147 0.00322974  -0.00208715 -0.0356051 -0.0461932  -0.00384085 -0.0509223 -0.106727  -0.00445417 -0.0413213 -0.167021  -0.00355506 -0.00940481 -0.217405  -0.00222868 0.0405308 -0.251077  -0.00114232 0.10066 -0.262672  -0.000406563 0.161601 -0.250296  0.000151515 0.213896 -0.215778  0.000702858 0.249639 -0.164358  0.00141644 0.26346 -0.103792  0.00247514 0.253315 -0.0434327  0.00372934 0.220884 0.00723046  0.00458157 0.171347 0.0402879  0.00389862 0.111308 0.0514085  0.00210857 0.0504053 0.0376193  0 0 0  0 0.00327218 -4.24981e-05  -0.00247283 -0.0422148 -0.00281024  -0.00495541 -0.0830706 -0.021462  -0.00637639 -0.113403 -0.0526932  -0.00682405 -0.129332 -0.0918744  -0.00657868 -0.128858 -0.133453  -0.00636959 -0.111081 -0.171296  -0.00627482 -0.0789815 -0.199364  -0.00620884 -0.037612 -0.213273  -0.00601327 0.00681311 -0.21076  -0.0055114 0.0475976 -0.191908  -0.00451255 0.0784416 -0.159391  -0.00273895 0.0946001 -0.118384  -0.000205159 0.0939715 -0.0753713  0.00103366 0.0751237 -0.0369106  0.00102544 0.0415642 -0.00984281  0 0 0  0 0.00322974 -0.00331467  -0.00199091 -0.048376 0.0391123  -0.0047217 -0.113985 0.0616174  -0.00690258 -0.183672 0.0597206  -0.00833797 -0.247322 0.032761  -0.00926107 -0.29545 -0.0158395  -0.00997287 -0.320365 -0.0790356  -0.0105843 -0.317758 -0.146865  -0.0110109 -0.288155 -0.208803  -0.0111233 -0.235951 -0.255179  -0.0107359 -0.168947 -0.278497  -0.00962853 -0.0974002 -0.274705  -0.00761414 -0.0325391 -0.244011  -0.00441599 0.0157579 -0.191118  -0.00168145 0.0382403 -0.125137  -8.28505e-05 0.0320608 -0.0574543  0 0 0  0 0.00318718 -0.00658691  -0.000419371 -0.0542326 0.0813321  -0.00249399 -0.144365 0.144772  -0.00510976 -0.253548 0.172012  -0.00749019 -0.365281 0.15719  -0.00948852 -0.462348 0.10142  -0.0111576 -0.52952 0.0128421  -0.0125232 -0.556179 -0.0948283  -0.0134701 -0.538134 -0.204764  -0.0139004 -0.477979 -0.299907  -0.0136245 -0.384623 -0.365229  -0.0123767 -0.272198 -0.390052  -0.0100381 -0.158291 -0.369681  -0.00676751 -0.0614133 -0.306725  -0.00358653 0.00180334 -0.212778  -0.0011158 0.0222558 -0.104993  0 0 0  0 0.00314474 -0.00985909  0.00220436 -0.0600662 0.127105  0.00180185 -0.175203 0.232168  -0.000674397 -0.325174 0.288126  -0.00388342 -0.486302 0.284188  -0.00705016 -0.633045 0.219558  -0.00978559 -0.742414 0.103877  -0.0119213 -0.797515 -0.0449682  -0.0134073 -0.789806 -0.203891  -0.0141538 -0.720253 -0.348198  -0.0140275 -0.599113 -0.455234  -0.0127624 -0.444822 -0.507681  -0.0101979 -0.281595 -0.496426  -0.00652361 -0.13581 -0.422693  -0.00290179 -0.031893 -0.299987  -0.00165009 0.012901 -0.15269  0 0 0  0 0.0031023 -0.0131313  0.00408153 -0.0661986 0.178487  0.00702083 -0.207141 0.327458  0.00625607 -0.400439 0.412443  0.00261396 -0.613237 0.417417  -0.00203544 -0.810679 0.341022  -0.00623697 -0.962218 0.195345  -0.00935221 -1.04498 0.00273418  -0.0113412 -1.04618 -0.207396  -0.0123141 -0.9651 -0.40252  -0.0122429 -0.813639 -0.551874  -0.0109692 -0.615147 -0.631241  -0.00826204 -0.401311 -0.627359  -0.00420189 -0.206933 -0.540974  0.000197887 -0.0635864 -0.38844  0.00276101 0.00813282 -0.197982  0 0 0  0 0.00671437 0.0130038  -0.0165585 -0.0595286 -0.179619  -0.0252059 -0.0419243 -0.388415  -0.0270968 0.0543873 -0.575157  -0.0251024 0.215143 -0.711319  -0.0216356 0.417034 -0.775806  -0.0181453 0.629764 -0.757712  -0.015152 0.82051 -0.658911  -0.012368 0.959404 -0.494242  -0.00942779 1.02484 -0.289214  -0.00616014 1.0069 -0.0755766  -0.00322211 0.909055 0.11389  -0.0017935 0.746417 0.250757  -0.0039432 0.542903 0.314378  -0.0119512 0.327898 0.294239  -0.00642848 0.131113 0.183667  0 0 0  0 0.00667188 0.00973165  2.93106e-05 -0.0650734 -0.144793  -0.00935473 -0.0714283 -0.314104  -0.0128085 -0.0100688 -0.471286  -0.0121582 0.107585 -0.59211  -0.00951302 0.263313 -0.658274  -0.00639963 0.433468 -0.659432  -0.00358844 0.591971 -0.595089  -0.00108081 0.714303 -0.474977  0.00143754 0.781674 -0.3176  0.004058 0.783884 -0.147199  0.00631261 0.721066 0.010171  0.00718725 0.602941 0.130781  0.00503969 0.447015 0.196377  -0.00150967 0.276405 0.196248  -0.00153852 0.116276 0.127493  0 0 0  0 0.00662941 0.00645941  -0.00127363 -0.0735677 -0.098601  -0.0034899 -0.104418 -0.228235  -0.00733629 -0.0828382 -0.357852  -0.00766018 -0.0123796 -0.467425  -0.0059756 0.0953202 -0.540905  -0.00371045 0.22382 -0.567282  -0.00164294 0.353618 -0.542345  0.00014627 0.464706 -0.469681  0.00194025 0.540022 -0.360411  0.00399506 0.568059 -0.231323  0.00625241 0.544799 -0.102265  0.00786841 0.474052 0.00711024  0.00746703 0.366335 0.0801597  0.00354838 0.237353 0.104961  0.00128984 0.107032 0.0774034  0 0 0  0 0.00658691 0.00318718  -0.00311714 -0.0800316 -0.0527677  -0.00654918 -0.136818 -0.139365  -0.00890836 -0.155502 -0.239888  -0.0102595 -0.134796 -0.338579  -0.00990063 -0.0769776 -0.420965  -0.00878996 0.009022 -0.474591  -0.00764549 0.110173 -0.49107  -0.00659132 0.210835 -0.467597  -0.00544047 0.295505 -0.407659  -0.00399649 0.351187 -0.320332  -0.00196886 0.369414 -0.219046  0.000518441 0.347491 -0.1194  0.00244772 0.288589 -0.036722  0.00246692 0.201308 0.0156342  0.00126898 0.098761 0.02923  0 0 0  0 0.00654441 -8.49962e-05  -0.00378124 -0.0851797 -0.00911438  -0.00843456 -0.167004 -0.0527751  -0.0117545 -0.225824 -0.123127  -0.013723 -0.253478 -0.209663  -0.0146132 -0.246179 -0.299728  -0.0146521 -0.20366 -0.379696  -0.014361 -0.132425 -0.437078  -0.0139329 -0.043586 -0.462836  -0.0132976 0.049192 -0.452837  -0.0122657 0.131655 -0.408344  -0.0106083 0.191023 -0.335968  -0.00794828 0.218074 -0.246861  -0.00427413 0.208596 -0.154798  -0.000550508 0.163988 -0.0740627  0.000305772 0.0893589 -0.0191222  0 0 0  0 0.00650191 -0.00335717  -0.00289164 -0.0899766 0.0322752  -0.00766671 -0.196175 0.0307258  -0.0119077 -0.294557 -0.00932413  -0.0149148 -0.370384 -0.0829154  -0.0168363 -0.412151 -0.17953  -0.0179834 -0.413094 -0.284756  -0.0185483 -0.372197 -0.382061  -0.0187164 -0.29594 -0.456279  -0.0184876 -0.196034 -0.49584  -0.0177402 -0.0877847 -0.494304  -0.0162663 0.0119948 -0.451454  -0.0137689 0.0875819 -0.373596  -0.00959766 0.127389 -0.272619  -0.00357187 0.125578 -0.163514  -0.000703931 0.078999 -0.067403  0 0 0  0 0.00645941 -0.00662941  -0.000351518 -0.0953664 0.0729849  -0.00361229 -0.226079 0.112841  -0.00815308 -0.363898 0.102376  -0.0123104 -0.487539 0.0413226  -0.0154912 -0.577968 -0.0619338  -0.017719 -0.621039 -0.191905  -0.0191872 -0.609741 -0.328539  -0.0199836 -0.545639 -0.450415  -0.0201546 -0.438536 -0.538679  -0.0196055 -0.304721 -0.579361  -0.0181628 -0.164865 -0.565593  -0.0156071 -0.0409062 -0.498907  -0.0116882 0.0475474 -0.389054  -0.00562596 0.0872313 -0.252079  -0.00156927 0.0682691 -0.115215  0 0 0  0 0.00641692 -0.00990158  0.0038317 -0.102404 0.116529  0.00397316 -0.258865 0.197758  4.58658e-05 -0.437019 0.215446  -0.00523522 -0.608531 0.165071  -0.0100047 -0.746974 0.0535649  -0.0135754 -0.831051 -0.102312  -0.0159574 -0.847673 -0.278642  -0.0173618 -0.794134 -0.448099  -0.0178643 -0.678439 -0.584435  -0.017499 -0.518052 -0.666221  -0.0160645 -0.337588 -0.68016  -0.0133598 -0.165211 -0.623287  -0.0094142 -0.028356 -0.503605  -0.00476408 0.0502457 -0.339614  -0.00167787 0.0578297 -0.162524  0 0 0  0 0.00637436 -0.0131738  0.00792822 -0.111581 0.167207  0.0145457 -0.2969 0.292111  0.0125867 -0.517912 0.336124  0.00598317 -0.737943 0.292928  -0.00108761 -0.923788 0.169778  -0.00652707 -1.04765 -0.0148961  -0.00997365 -1.09042 -0.233302  -0.0118359 -1.04504 -0.451919  -0.012522 -0.917975 -0.636817  -0.0121773 -0.728394 -0.758928  -0.0107543 -0.505615 -0.798562  -0.00799203 -0.284654 -0.748901  -0.00393534 -0.100738 -0.617336  0.000619411 0.0164411 -0.425065  0.00332487 0.0500602 -0.206763  0 0 0  0 0.00998658 0.0129613  -0.0169136 -0.100968 -0.185376  -0.0265151 -0.124162 -0.419505  -0.0286147 -0.0559938 -0.645011  -0.0262984 0.0928849 -0.827174  -0.0223958 0.300611 -0.938799  -0.0186531 0.536397 -0.9625  -0.0157111 0.764477 -0.893899  -0.0132807 0.949615 -0.743003  -0.010708 1.06322 -0.532992  -0.00746715 1.08796 -0.296243  -0.00356233 1.02065 -0.0690087  0.00017035 0.871684 0.114614  0.00194669 0.662588 0.226942  -0.000819564 0.422996 0.248496  -0.00870645 0.19004 0.172014  0 0 0  0 0.00994408 0.00968915  0.00387625 -0.111651 -0.155843  -0.00619406 -0.156815 -0.351472  -0.0105617 -0.121688 -0.548559  -0.0104481 -0.0132928 -0.715946  -0.00805986 0.151277 -0.828675  -0.00505692 0.347285 -0.869705  -0.00229251 0.54505 -0.832408  0.000110269 0.714095 -0.722162  0.00257504 0.828413 -0.555838  0.00537026 0.870449 -0.359093  0.00841737 0.834198 -0.162187  0.0107405 0.725635 0.00498146  0.010783 0.561105 0.117385  0.00630796 0.365095 0.15736  -0.00384867 0.1685 0.117201  0 0 0  0 0.00990158 0.00641692  0.00155769 -0.120641 -0.106594  0.00156721 -0.193482 -0.264992  -0.00492024 -0.197885 -0.435618  -0.00700012 -0.136079 -0.59324  -0.00606817 -0.0183237 -0.714386  -0.00376689 0.13751 -0.781052  -0.0011369 0.307985 -0.782939  0.00137043 0.466969 -0.719388  0.00388515 0.590004 -0.600017  0.00671506 0.658129 -0.443183  0.00981987 0.661068 -0.2731  0.0124106 0.598804 -0.115916  0.0129837 0.481021 0.00457573  0.00946295 0.325537 0.0697721  7.86781e-06 0.156215 0.0676878  0 0 0  0 0.00985909 0.00314474  -0.0031542 -0.126036 -0.0576375  -0.00733045 -0.224908 -0.170632  -0.0106488 -0.272013 -0.312375  -0.014571 -0.261639 -0.459722  -0.0153803 -0.195307 -0.591116  -0.0143165 -0.0830142 -0.686985  -0.0125353 0.0585902 -0.732603  -0.0106009 0.207944 -0.720479  -0.00852406 0.342018 -0.652121  -0.00600874 0.440037 -0.537917  -0.00271678 0.486914 -0.395426  0.00123048 0.475508 -0.246648  0.00458241 0.407478 -0.114492  0.00524819 0.292847 -0.0197676  0.000686407 0.148697 0.020043  0 0 0  0 0.00981659 -0.000127435  -0.00604135 -0.128985 -0.0130976  -0.0139633 -0.25137 -0.0813065  -0.0196656 -0.339071 -0.190672  -0.0233659 -0.379138 -0.324748  -0.0259151 -0.365662 -0.46361  -0.0264876 -0.29915 -0.586475  -0.0259266 -0.189415 -0.674522  -0.0248845 -0.0530869 -0.713806  -0.0234729 0.0888636 -0.697862  -0.0214847 0.214444 -0.62882  -0.0185949 0.304141 -0.517069  -0.0143256 0.343969 -0.379744  -0.0087409 0.327416 -0.237944  -0.00344002 0.256182 -0.113903  -0.000784039 0.140114 -0.0290247  0 0 0  0 0.00977409 -0.00339967  -0.00611451 -0.131575 0.0268965  -0.0154577 -0.276455 0.00179732  -0.023376 -0.402892 -0.0750809  -0.0288926 -0.491624 -0.193939  -0.0324442 -0.528659 -0.337723  -0.0345887 -0.507803 -0.484857  -0.0352923 -0.430974 -0.612716  -0.0351181 -0.309751 -0.701417  -0.0343252 -0.16267 -0.736932  -0.03283 -0.0124106 -0.713354  -0.030375 0.117614 -0.633825  -0.0264933 0.206931 -0.510266  -0.0203658 0.241371 -0.361393  -0.0118053 0.21474 -0.209657  -0.00268877 0.129303 -0.0787659  0 0 0  0 0.00973165 -0.00667191  -0.00352696 -0.135648 0.0645304  -0.0116798 -0.303536 0.0806788  -0.020797 -0.467542 0.0346303  -0.0284252 -0.602775 -0.0693914  -0.0338236 -0.688387 -0.217091  -0.0372509 -0.710789 -0.386495  -0.0391781 -0.665879 -0.551858  -0.0398596 -0.559861 -0.687545  -0.0396436 -0.408734 -0.772397  -0.038553 -0.235633 -0.792822  -0.0363638 -0.0674132 -0.745037  -0.0327424 0.0694053 -0.635832  -0.0270753 0.153124 -0.481482  -0.0177792 0.170616 -0.304108  -0.00453961 0.116797 -0.128292  0 0 0  0 0.00968915 -0.00994408  0.00175275 -0.143382 0.103835  -0.00222988 -0.336739 0.159464  -0.011053 -0.538321 0.140998  -0.020553 -0.717905 0.0490901  -0.0281346 -0.849078 -0.103773  -0.0331883 -0.911762 -0.295329  -0.0361117 -0.895749 -0.496773  -0.0374936 -0.802801 -0.67718  -0.0377059 -0.646621 -0.808472  -0.0369197 -0.450931 -0.869949  -0.0349426 -0.245883 -0.851443  -0.0314457 -0.0634969 -0.755075  -0.0260918 0.0674604 -0.594934  -0.0182439 0.12624 -0.394059  -0.00562191 0.103218 -0.177254  0 0 0  0 0.00964665 -0.0132163  0.00896019 -0.157053 0.151428  0.0134233 -0.381682 0.245971  0.00637081 -0.62245 0.250096  -0.00516215 -0.844525 0.165019  -0.0154775 -1.01796 0.00298876  -0.0224497 -1.11715 -0.213447  -0.0263168 -1.12579 -0.452329  -0.0280557 -1.0414 -0.676974  -0.0284344 -0.876259 -0.852402  -0.0277122 -0.655409 -0.951189  -0.0258508 -0.412828 -0.957504  -0.0224836 -0.186087 -0.869735  -0.0173304 -0.0103837 -0.700629  -0.0105655 0.0865991 -0.475005  -0.00339389 0.0883758 -0.22619  0 0 0  0 0.0132588 0.0129188  -0.0114613 -0.147899 -0.205574  -0.0188847 -0.208599 -0.474516  -0.0192883 -0.159741 -0.741524  -0.0150671 -0.0129017 -0.966156  -0.00971669 0.208395 -1.11695  -0.0051527 0.471341 -1.17179  -0.00202727 0.736426 -1.12182  0.00016737 0.963043 -0.974074  0.00235093 1.11619 -0.751139  0.00551474 1.1725 -0.487375  0.0100878 1.12409 -0.223287  0.0153713 0.978883 0.00151336  0.0195678 0.758092 0.153752  0.0189774 0.49264 0.209175  0.0114697 0.222401 0.155377  0 0 0  0 0.0132163 0.00964665  0.00870861 -0.16375 -0.175985  0.00090462 -0.246195 -0.407069  -0.00173876 -0.230587 -0.647309  0.000118256 -0.123379 -0.859279  0.00392389 0.0566509 -1.01282  0.00785977 0.282275 -1.08569  0.0110722 0.519595 -1.06664  0.0136019 0.732307 -0.958153  0.0160209 0.88761 -0.77676  0.0190037 0.961667 -0.550449  0.022766 0.943692 -0.314214  0.0266318 0.837286 -0.103916  0.0288707 0.658991 0.0492874  0.0266726 0.435429 0.122973  0.016964 0.200948 0.105744  0 0 0  0 0.0131738 0.00637436  0.00644656 -0.173944 -0.12003  0.0120084 -0.289554 -0.31403  0.00410622 -0.315101 -0.52857  0.0020501 -0.256451 -0.733758  0.00354475 -0.123529 -0.899828  0.00653726 0.0635636 -1.00233  0.00974309 0.276763 -1.02538  0.0126578 0.483342 -0.964911  0.0153893 0.651289 -0.830069  0.0184412 0.75464 -0.641857  0.0219511 0.77786 -0.429696  0.0254474 0.718428 -0.22639  0.027352 0.586396 -0.0624653  0.0253901 0.402262 0.0383893  0.0166352 0.194092 0.0612482  0 0 0  0 0.0131313 0.0031023  0.000159889 -0.178413 -0.0632756  -0.00172928 -0.321945 -0.205421  -0.00366119 -0.397445 -0.392583  -0.0108598 -0.393088 -0.590199  -0.0127074 -0.314164 -0.770882  -0.0113433 -0.171584 -0.908101  -0.00855225 0.0139919 -0.980686  -0.00532866 0.214496 -0.976616  -0.00200307 0.398828 -0.895818  0.00162864 0.53808 -0.750714  0.00596738 0.610653 -0.564041  0.0108703 0.605607 -0.365185  0.0151713 0.524535 -0.18511  0.0167574 0.380544 -0.0509996  0.01262 0.195108 0.0161877  0 0 0  0 0.0130888 -0.000169992  -0.00623276 -0.177396 -0.0127531  -0.0174097 -0.342205 -0.105202  -0.025403 -0.460517 -0.255498  -0.0303817 -0.51376 -0.440331  -0.035274 -0.49258 -0.630235  -0.0363412 -0.400481 -0.798073  -0.0350392 -0.249925 -0.918701  -0.0325978 -0.0629247 -0.972697  -0.0295315 0.131849 -0.950532  -0.025803 0.303702 -0.854939  -0.0210069 0.425502 -0.700701  -0.0146556 0.478074 -0.511953  -0.00695753 0.45305 -0.318468  0.000204444 0.354271 -0.150736  0.00377786 0.195626 -0.035859  0 0 0  0 0.0130463 -0.00344217  -0.0102153 -0.174521 0.0280602  -0.0270685 -0.357428 -0.0189356  -0.0408552 -0.512666 -0.131824  -0.0497359 -0.616857 -0.295948  -0.0550059 -0.652356 -0.48851  -0.0583909 -0.61216 -0.680082  -0.059069 -0.50093 -0.842403  -0.0579892 -0.334359 -0.95032  -0.055789 -0.137397 -0.986034  -0.0525317 0.0593091 -0.942935  -0.0479051 0.224637 -0.827039  -0.0413362 0.332221 -0.655984  -0.0319769 0.364501 -0.456221  -0.0199711 0.315122 -0.259148  -0.00812018 0.189408 -0.0966907  0 0 0  0 0.0130038 -0.00671434  -0.0108018 -0.173438 0.0614818  -0.0289695 -0.374563 0.0554898  -0.0459684 -0.563533 -0.022818  -0.0586129 -0.713059 -0.165901  -0.0667056 -0.799524 -0.356057  -0.0713789 -0.807824 -0.5659  -0.07372 -0.73513 -0.763723  -0.0739803 -0.591007 -0.919373  -0.0727899 -0.396517 -1.0082  -0.0703088 -0.181348 -1.0153  -0.0662783 0.0207798 -0.938529  -0.0601714 0.177699 -0.788935  -0.051078 0.264039 -0.588985  -0.037306 0.264637 -0.368513  -0.0189292 0.175585 -0.161161  0 0 0  0 0.0129614 -0.00998658  -0.00746547 -0.177796 0.092665  -0.0225727 -0.400291 0.123405  -0.0399441 -0.62193 0.0747526  -0.0551523 -0.812038 -0.0509652  -0.0659853 -0.943093 -0.239375  -0.0725316 -0.993915 -0.464741  -0.0758619 -0.95486 -0.693703  -0.0770304 -0.830329 -0.891148  -0.0765752 -0.638192 -1.0263  -0.0748194 -0.407469 -1.0774  -0.071538 -0.173877 -1.03549  -0.0661839 0.0259323 -0.906056  -0.0580246 0.16005 -0.708033  -0.0457016 0.206413 -0.470128  -0.0257194 0.155108 -0.223414  0 0 0  0 0.0129188 -0.0132588  0.000174001 -0.192198 0.130682  -0.0062338 -0.44414 0.193707  -0.0214746 -0.699495 0.167125  -0.0386311 -0.926015 0.0516737  -0.0522049 -1.09504 -0.139884  -0.0606291 -1.18081 -0.383029  -0.0648484 -1.16762 -0.642356  -0.066372 -1.05548 -0.877938  -0.0662374 -0.86048 -1.05298  -0.0648209 -0.61206 -1.13989  -0.0620476 -0.348443 -1.12458  -0.0574038 -0.11042 -1.00857  -0.0503072 0.0648965 -0.808667  -0.0400852 0.149791 -0.553708  -0.0251279 0.13012 -0.277172  0 0 0  
SCALARS smooth_stress float 1
LOOKUP_TABLE default
7495.7 7585.69 6769.71 6491.35 6363.7 6286.98 6219.63 6144.62 6071.33 5991.76 5883.48 5749.79 5663.36 5769.46 6096.14 6230.61 7115.53 5727.1 6420.15 6083.18 5897.51 5800.08 5739.89 5685.78 5624.56 5561.83 5501.34 5434.11 5376.09 5372.99 5506.56 5770.22 5823.14 6593.96 4719.92 5192.34 5370.76 5387.95 5363.26 5330.53 5286.3 5230.08 5172.51 5127.23 5101.11 5114.2 5179.52 5284.77 5356.76 5289.99 5945.25 4304.67 4719.05 4976.51 5110.33 5146.81 5130.49 5085.73 5025.81 4969.21 4936.52 4938.81 4984.02 5050.75 5064.02 4941.04 4841.04 5470.4 4342.11 4736.8 4961.59 5100.05 5143.04 5119.54 5063.21 4997.01 4941.76 4916.47 4925.75 4962.02 4994.65 4949.59 4743.38 4645.49 5231.42 4816.96 5148.18 5255.83 5323.17 5325.83 5282.11 5218.25 5153.85 5105.4 5084.58 5088.66 5103.77 5109.18 5080.78 4917.09 4772.59 5215.73 5680.03 5856.82 5755.6 5721.52 5686.78 5640.93 5590.91 5545.28 5512.67 5499.06 5498.86 5499.21 5493.58 5505.65 5513.88 5287.27 5430.79 6691.07 6708.1 6388.14 6308.01 6292.05 6283.4 6270.68 6254.76 6243.28 6238.42 6236.23 6226.54 6208.27 6220.25 6373.05 6476.73 6002.38 7252.69 7496.31 7060.94 6987.16 7010.97 7038.78 7051.53 7052.09 7050.31 7050.5 7048.16 7034.68 7001.23 6974.72 7048.98 7487.25 7245.24 6282.12 6923.76 6252.2 5920.42 5775.95 5691.02 5617.55 5536.89 5451.32 5372.02 5288.54 5181.45 5072.85 5043.9 5141.9 5243.41 6119.77 4589.3 5857.71 5543.54 5205.23 5073.09 5003.12 4946.75 4885.68 4819.53 4760.23 4701.93 4644.12 4603.24 4629.98 4753.84 4832.57 5539.32 3605.68 4360.29 4461 4400.73 4349.78 4309.07 4265.45 4214.01 4159.94 4117.6 4090.36 4084.96 4110.85 4169.84 4237.27 4217.65 4778.36 3112.53 3719.46 3857.1 3983.68 4004.87 3982.17 3939.37 3886.34 3835.4 3802.43 3795.13 3815.18 3856.16 3882.28 3843.56 3740.04 4253.59 3057.25 3601.47 3754.56 3900.87 3938.43 3912.92 3860.35 3801.54 3751.78 3725.59 3727.33 3750.63 3779.96 3775.96 3683.6 3551.6 4032.07 3434.8 3914.21 4042.84 4122.69 4122.78 4078.05 4016.89 3958.35 3915.43 3897.43 3903.79 3924.59 3945.94 3950.94 3887.8 3743.69 4111.98 4207.74 4598.18 4641.67 4613.34 4569.88 4517.62 4465.38 4422.21 4394.74 4388.17 4400.03 4421.25 4445.99 4481.02 4511.44 4366 4488.89 5262.61 5564.08 5499.82 5389.22 5344.43 5318.24 5296.38 5279.54 5272.51 5278.46 5295 5315.26 5337.58 5380.41 5490.99 5557.02 5256.83 6008.93 6484.33 6383.33 6231.26 6217.46 6230.69 6238.13 6240.2 6243.26 6253.77 6268.1 6280.23 6284.59 6297.21 6377.35 6699.32 6684.31 5260.61 5937.36 5702.48 5520.59 5407.03 5338.82 5273.26 5193.18 5099.67 5002.9 4923.02 4841.32 4717.45 4594.81 4537.7 4593.26 5384.21 3620.66 4747.6 4693.46 4438.09 4304.93 4239.9 4188.8 4131.57 4066.55 4001.65 3945.77 3895.34 3844.79 3816.62 3840.43 3866.1 4519 2528.24 3235.06 3362.57 3276.58 3197.66 3160.68 3126.73 3084.9 3037.39 2995.46 2967.47 2953.94 2960.7 2990.63 3032.77 3019.46 3513.81 1927.1 2503.31 2570.67 2630.63 2626.94 2605.89 2572.21 2529.76 2487.41 2457.19 2447.48 2456.3 2480.69 2504.69 2498.03 2434.67 2849 1859.44 2301.71 2377.49 2461.79 2485.51 2458.9 2413.02 2364.75 2326.13 2306.76 2310.11 2329.71 2353.71 2364.68 2329.51 2243.83 2557.4 2318.62 2593.46 2688.38 2736.43 2730.57 2686.43 2632.27 2585.59 2557.25 2552.56 2570.3 2601.22 2632.18 2649.28 2630.58 2532.84 2680.57 3220.54 3310.44 3420.58 3412.01 3374.08 3325.73 3280.1 3247.61 3235.69 3247.46 3280.04 3324.32 3370.58 3407.41 3415.22 3305.85 3216.94 4493.76 4371.69 4518.55 4487.52 4450.54 4423.15 4400.26 4388.43 4394.7 4421.22 4464.36 4515.04 4564.4 4606.49 4634.74 4592.21 4203.05 5436.7 5293.77 5522.37 5514.64 5500.38 5502.16 5499.26 5499.49 5512.69 5544.18 5589.09 5637.92 5680.18 5712.6 5746.88 5849.24 5674.22 4612.7 5196.17 5254.25 5295.02 5288.47 5271.73 5243.73 5187.88 5104.43 4998.05 4890.39 4819.27 4741.11 4571.08 4384.55 4349.11 5045.45 3076.06 3961.87 4051.44 4006.08 3948.02 3907.24 3873.32 3828.49 3769.72 3701.13 3633.14 3579.91 3532.52 3466.68 3409.57 3385.23 4002.29 1874.57 2459.79 2582.95 2586.41 2542.39 2516.26 2494.71 2464.94 2425.33 2382.45 2344.97 2317.55 2303.66 2303.46 2318.03 2320.65 2783.35 1090.49 1571.03 1629.11 1668.54 1660.75 1644.83 1625.37 1598.18 1567.42 1540.11 1523.67 1519.18 1525.17 1540.11 1552.96 1540.83 1928.76 1025.61 1303.28 1357.66 1387.53 1395.75 1377.11 1347.95 1317.18 1293.11 1282.06 1286.49 1302.62 1321.06 1334.53 1330.01 1289.64 1493.31 1642.34 1686.78 1756.52 1770.59 1762.4 1732.2 1695.59 1667.98 1657.95 1668.34 1695.89 1731.72 1761.14 1768.29 1753.45 1684.34 1640.63 2683.36 2536.32 2634.66 2652.4 2634.01 2601.79 2569.97 2552.47 2557.03 2585.8 2632.37 2685.39 2727.75 2732.78 2684.08 2589.79 2315.95 4116.3 3748.53 3893.51 3955.79 3948.44 3925.76 3903.67 3897.65 3915.21 3957.47 4015.88 4075.9 4118.06 4116.93 4036.9 3909.29 3431.03 5221.23 4778.39 4924.27 5088.05 5113.47 5105.4 5088.74 5084.72 5105.44 5152.89 5216.48 5279.35 5320.09 5315.66 5248.3 5141.7 4811.92 4365.33 4799.91 4985.55 5142.98 5249.15 5306.03 5331.79 5323.14 5274.95 5189.33 5075.32 4959.66 4920.45 4878.36 4658.68 4495.81 5008.96 2992.71 3605.24 3730.16 3822.23 3868.62 3881.54 3879.23 3860.26 3819.81 3760.64 3686.51 3613.51 3570.74 3534.97 3439.44 3338.57 3838.71 1781.46 2188.04 2268.52 2331.92 2359.38 2367.22 2365.64 2353.52 2328.05 2291.95 2248.84 2206.64 2175.29 2162.11 2147.26 2124.64 2475.08 972.526 1227.18 1263.64 1298.5 1324.63 1336.78 1341.08 1336.63 1322.99 1301.72 1276.95 1252.94 1231.84 1225 1227.8 1226.04 1457.69 772.963 783.595 805.62 814.537 819.224 815.122 806.292 798.798 795.514 798.581 806.026 814.345 818.413 813.657 804.637 782.931 772.506 1494.45 1291.09 1331.78 1335.77 1321.36 1302.52 1286.3 1281.94 1293.05 1317.3 1347.87 1376.07 1394.14 1385.71 1355.43 1301.68 1024.58 2559.63 2246.47 2332.4 2366.84 2354.63 2329.55 2309.72 2306.95 2326.15 2364.78 2413 2457.51 2482.64 2458.65 2373.73 2298.78 1857.53 4036 3555.73 3688.15 3779.53 3781.39 3751.21 3727.06 3726.13 3752 3800.65 3859.71 3910.77 3933.89 3895.8 3749.36 3597.15 3054.2 5236.89 4650.84 4749.54 4955.24 4997.47 4962.91 4926.03 4916.93 4942.5 4995.91 5061.75 5116.95 5137.66 5093.09 4954.88 4731.02 4337.96 4477.39 4723.42 4942.23 5102.52 5234.36 5331.87 5395.26 5427.77 5424.86 5383.6 5304.42 5199.21 5090.24 5143.8 5238.15 5055.85 5338.65 3357.06 3668.87 3754.52 3881.17 3978.85 4042.32 4076.34 4087.91 4075.58 4039.12 3979.49 3903.62 3829.66 3825.65 3847.67 3727.34 4046.76 2254.41 2455.65 2477.2 2530.57 2593.75 2637.45 2662.02 2670.9 2663.88 2641.53 2605.28 2556.28 2505.95 2482.27 2485.13 2444.07 2610.99 1583.36 1589.12 1611.02 1627.12 1664.26 1702.62 1732.14 1750.28 1756.01 1749.08 1730.65 1700.8 1661.51 1625.25 1610.08 1588.58 1582.53 1458.51 1226.36 1228.12 1225.71 1233.15 1254.09 1277.89 1302.78 1323.35 1336.29 1340.4 1335.39 1322.6 1297.04 1262.73 1226.68 972.216 1930.08 1541.81 1553.91 1540.8 1525.57 1519.38 1524.23 1540.58 1567.58 1598.03 1624.87 1643.25 1658.35 1666.38 1627.17 1569.74 1089.86 2851.21 2436.73 2500.11 2506.2 2481.34 2456.34 2447.58 2457.99 2487.81 2529.49 2571.58 2604.09 2623.61 2627.25 2567.02 2500.6 1925.6 4257.21 3743.33 3847.14 3884.95 3857.44 3815.95 3795.45 3803.53 3836.45 3885.84 3938.23 3979.74 4000.13 3978.56 3851.99 3714.83 3109.81 5475.65 4845.73 4946.23 5068.22 5052.97 4985.07 4939.79 4937.45 4970.77 5025.14 5083.94 5127.89 5141.36 5103.4 4970.45 4713.12 4300.49 5007.47 4977.03 5170.85 5278.22 5365.23 5440.56 5499.65 5538.62 5555.79 5547.38 5510.21 5449.98 5384.52 5335.14 5619.65 5959.91 6077.37 4185.14 4129.31 4111.02 4210.57 4296.36 4365.5 4414.68 4442.3 4450.48 4437.76 4403.07 4346.88 4281.39 4220.16 4323.24 4489.46 4669.5 3200.23 3205.97 3157.05 3153.78 3214.19 3272.1 3315.93 3341.37 3349 3339.77 3314.04 3269.01 3209.09 3149.14 3154.18 3203.37 3197.47 2612.82 2445.34 2486.32 2484.87 2509.93 2559.23 2607.19 2643.45 2664.42 2669.63 2660.09 2635.17 2590.01 2526.87 2474.68 2454.02 2252.98 2476.99 2125.7 2147.78 2163.37 2177.88 2208.87 2250.63 2293.51 2328.9 2353 2364.44 2365.25 2356.48 2328.95 2266.27 2186.46 1780.67 2785.55 2322.2 2318.88 2304.33 2305.1 2319.06 2346.87 2383.89 2426.1 2464.68 2493.74 2514.22 2539.09 2582.88 2579.95 2457.84 1873.67 3516.74 3021.93 3034.74 2992.25 2961.88 2954.86 2968.67 2997.29 3038.18 3084.3 3125.69 3158.3 3193.53 3272.09 3357.83 3231.72 2526.55 4782.17 4220.81 4240.44 4172.77 4112.9 4086.47 4091.91 4119.52 4161.89 4213.58 4263.66 4306.33 4344.92 4394.35 4454.66 4354.8 3602.75 5950.37 5294.09 5360.94 5288.69 5182.44 5115.98 5103.25 5128.94 5174.74 5230.3 5284.05 5327.09 5358.17 5380.43 5363.39 5185.02 4714.68 6262.24 5802.85 5892.74 5919.97 5952.14 5991.44 6028.34 6053.88 6064.14 6057.37 6033.75 5998.95 5973.64 5977.79 6025.63 6489.87 7182.32 5685.29 5152.99 4928.17 4980.95 5031.67 5080.13 5120.6 5145.3 5153.18 5144.87 5119.3 5075.77 5023.96 4972.77 4921.05 5146.65 5679.72 4673.98 4493.68 4327.47 4226.48 4288.4 4352.29 4405.78 4439.4 4449.76 4440.68 4412.75 4362.77 4290.65 4204.48 4106.16 4124.81 4181.14 4049.94 3729.97 3849.95 3829.3 3835.04 3908.03 3982.52 4041.4 4076.13 4085.63 4073.38 4039.37 3974.45 3875.94 3750.39 3665.5 3354.56 3841.89 3340.48 3440.36 3536.54 3574.38 3616.9 3689.4 3762.62 3821.15 3859.28 3876.6 3878.52 3864.62 3817.54 3725.86 3601.56 2990.85 4005.75 3387.84 3411.04 3467.94 3535.04 3582.96 3636.43 3703.77 3770.93 3828.17 3871.05 3904.11 3944.14 4001.48 4046.96 3958.09 3074.28 4522.88 3869.45 3843.19 3819 3847.06 3897.2 3948.27 4004.82 4068.16 4131.11 4186.94 4236.8 4299.85 4432.2 4687.35 4742.51 3618.46 5543.9 4836.48 4757.86 4633.7 4607.06 4646.51 4704.36 4762.62 4822.46 4884.8 4943.63 4999.98 5067.69 5196.59 5535.5 5850.21 4585.67 6599.35 5827.48 5774.84 5511.09 5377.8 5379.37 5437.5 5503.86 5565.24 5625.41 5682.56 5735.65 5795.59 5888.74 6073.38 6410.76 5720.84 7653.63 7045.22 7024.7 6930.64 6896.78 6906.39 6930.55 6951.47 6958.85 6950.77 6928.67 6899.76 6887.23 6918.47 7012.13 7034.88 7644.46 7188.77 6497.78 6034.75 5988.65 5982.76 6006.09 6036.02 6057.61 6063.08 6052.95 6027.2 5987.96 5943.91 5910.76 5882.66 5794.06 6254.24 6083.4 5965.72 5625.59 5343.31 5393.49 5457.43 5513.79 5548.69 5554.38 5536.18 5497.7 5438.76 5359.54 5270.65 5164 4970.24 5000.98 5343.28 5060.36 5242.19 5148.99 5097.84 5206.09 5309.61 5387.12 5425.84 5424.77 5391.16 5328.66 5229.79 5096.18 4936.81 4718.48 4472.41 5013.24 4498.87 4660.81 4880.98 4925.61 4965.05 5079.63 5193.07 5277.56 5322.73 5327.44 5301.39 5243.74 5136.73 4979.53 4794.72 4361.13 5049.98 4352.65 4386.53 4572.38 4744.12 4823.88 4894.77 5002.28 5106.64 5188.96 5241.05 5267.59 5283.86 5289.52 5248.6 5190.6 4608.21 5388.8 4597.14 4541.23 4597.46 4720.12 4843.95 4926.37 5007.49 5102.52 5194.08 5271.55 5334.8 5401.45 5514.43 5696.14 5931.01 5255.9 6125.48 5247.65 5146.52 5048.03 5077.73 5184.33 5290.59 5374.79 5454.74 5537.06 5614.3 5687.4 5770.25 5911.06 6243.56 6915.21 6276.19 7121.65 6235.42 6101.35 5774.52 5669.27 5754.84 5886.77 5994.4 6074.47 6146.6 6215.55 6281.82 6359.08 6481.99 6757.66 7574.81 7486.98 
CELL_DATA 6144
SCALARS stress float 1
LOOKUP_TABLE default
656.931 615.924 416.226 416.225 790.99 763.714 607.083 566.22 452.047 467.989 654.327 636.234 569.621 515.816 401.542 413.876 613.1 602.845 549.597 495.865 385.789 394.034 595.363 589.549 539.562 485.829 378.747 384.658 586.347 582.977 533.485 478.88 374.011 378.656 580.329 578.403 528.196 472.056 369.31 373.205 574.293 573.445 522.072 464.747 364.058 367.417 567.119 567.25 516.681 457.686 358.837 361.78 561.275 562.062 509.328 451.564 354.347 357.014 551.662 553.637 500.352 444.09 349.751 352.087 537.05 541.76 491.287 433.623 345.861 347.453 518.64 527.677 491.878 423.939 344.946 345.375 510.069 524.562 516.306 423.052 351.784 350.412 529.594 550.381 563.238 433.622 364.459 359.773 570.899 596.875 570.541 446.28 361.41 352.252 579.063 579.063 516.035 407.52 331.494 331.494 548.276 520.603 530.07 441.459 328.115 347.281 533.029 541.067 530.598 401.208 337.296 340.499 514.032 528.392 526.573 390.675 333.029 334.746 503.868 520.116 523.448 386.254 328.425 330.343 498.583 515.646 520.459 382.793 324.221 326.469 494.848 512.308 516.403 378.681 319.672 322.098 490.704 508.417 511.023 373.798 314.945 317.322 485.394 503.357 505.678 369.149 310.711 312.886 480.702 498.76 500.246 365.621 307.917 309.823 474.064 492.851 496.42 362.426 306.792 308.252 465.858 487.014 497.33 360.468 308.706 309.278 457.717 484.457 507.881 361.376 315.047 313.662 458.179 492.954 530.715 367.732 325.179 320.754 478.8 518.656 556.071 373.526 331.418 324.02 515.029 543.071 552.777 356.131 318.853 311.865 498.433 498.433 448.637 331.009 282.331 282.331 441.286 439.74 473.041 332.051 278.779 284.13 457.296 469.494 491.282 344.582 298.775 299.237 463.209 481.981 500.081 344.477 304.587 303.899 461.936 482.909 502.758 342.544 303.659 302.959 460.372 481.86 501.918 339.584 300.408 300.009 458.132 479.536 498.341 335.428 296.032 295.841 454.52 475.735 492.729 330.767 291.567 291.363 449.502 470.533 487.455 326.773 288.15 287.813 444.685 465.595 484.491 324.764 286.926 286.369 439.786 461.845 485.795 324.641 288.551 287.508 435.887 461.226 494.045 326.901 293.439 291.52 434.94 466.906 506.398 330.38 300.208 296.578 439.458 478.542 514.099 331.648 303.819 298.152 450.659 487.798 506.331 324.292 296.99 291.334 461.778 475.169 509.518 301.656 281.775 281.243 442.047 442.047 422.697 301.805 265.308 265.308 398.927 417.505 446.765 300.903 274.695 271.691 417.202 440.56 471.221 321.93 295.516 290.761 431.178 458.917 486.009 329.351 303.537 297.63 437.914 468.093 491.003 329.357 303.939 298.034 438.694 469.74 489.74 325.948 300.406 294.701 436.48 467.587 484.922 320.91 295.555 290.014 432.19 463.045 478.583 315.799 290.921 285.394 426.473 457.24 473.589 312.08 287.995 282.402 421.493 452.605 472.34 310.958 287.719 282.027 418.218 450.987 475.706 312.261 290.034 284.205 417.46 453.502 483.81 315.096 293.816 287.818 420.207 460.993 490.435 316.361 296.621 290.067 423.453 466.675 483.232 310.818 293.294 286.157 422.072 456.778 456.862 295.758 280.318 274.837 412.333 421.059 470.061 281.89 269.618 270.656 414.583 414.583 436.244 309.182 282.379 282.378 395.864 432.84 455.678 316.35 305.677 298.634 409.453 449.626 477.014 333.971 319.986 311.796 422.449 466.946 488.696 339.397 323.723 314.768 428.715 476.144 490.809 337.551 321.587 312.675 428.647 477.332 486.852 332.431 316.623 308.094 424.962 473.715 480.1 326.455 311.043 302.862 419.589 468.009 473.161 321.149 306.462 298.465 413.665 461.916 468.353 317.764 303.951 296.023 409.208 457.651 467.294 317.048 303.942 296.111 407.145 456.586 469.59 318.261 305.61 297.912 407.539 458.592 473.213 319.916 307.649 300.034 410.168 461.775 474.11 319.565 308.156 300.236 411.587 460.137 464.806 313.651 305.17 296.788 405.445 442.364 435.263 300.211 293.605 286.803 389.335 401.994 445.746 294.625 284.386 284.637 409.146 409.146 492.997 347.416 333.431 333.431 428.856 481.29 495.219 357.951 363.666 354.673 429.868 485.561 503.205 364.269 363.928 354.373 434.778 494.356 505.603 363.268 360.325 350.586 435.598 497.51 502.802 358.307 355.494 345.902 432.794 495.365 496.774 352.112 350.274 340.998 428.142 490.233 490.174 346.27 345.683 336.645 422.856 484.231 484.26 341.766 342.29 333.361 417.848 478.712 480.649 339.188 340.738 331.789 414.366 475.068 479.846 338.89 341.089 332.123 412.937 473.853 480.578 339.856 342.46 333.421 413.238 473.97 480.716 341.066 344.026 334.711 414.405 472.972 478.745 341.646 345.366 335.368 415.714 467.968 477.179 341.483 347.834 336.751 414.62 455.928 457.888 335.549 343.736 333.507 401.577 423.001 444.817 331.251 325.924 323.834 421.468 421.468 588.083 409.152 414.539 414.539 494.227 550.969 555.24 413.439 442.293 432.169 470.373 527.666 546.027 403.177 425.766 415.071 462.898 521.812 541.741 395.959 417.813 406.751 458.572 518.39 538.389 390.098 414.081 402.718 455.08 514.757 534.743 385.071 411.664 400.101 451.558 510.536 531.133 381.14 409.783 398.087 448.263 506.505 528.091 378.363 408.595 396.729 445.065 502.751 526.51 377.068 408.275 396.251 442.928 500.26 526.255 377.386 408.936 396.72 441.988 499.048 526.311 378.478 410.02 397.477 441.759 498.159 524.542 379.853 411.182 398.072 441.565 495.896 520.818 382.066 413.168 399.192 442.52 491.805 519.541 388.703 419.3 404.011 449.756 489.252 534.587 396.198 434.294 417.367 449.383 479.079 484.821 388.618 407.795 400.47 450.775 450.775 670.757 480.911 509.693 509.693 576.185 606.302 621.798 473.597 541.348 528.679 521.344 545.036 613.56 448.638 518.089 502.819 506.105 528.129 617.743 440.144 515.034 497.993 503.048 524.578 622.726 437.39 517.169 499.023 503.474 524.574 625.021 435.924 518.948 500.274 503.879 524.488 625.683 434.784 520.229 501.187 503.577 523.685 625.217 433.969 521.018 501.647 502.503 522.231 625.343 433.87 522.231 502.534 501.602 521.01 625.267 434.62 523.464 503.398 500.919 519.963 624.827 435.72 524.266 503.708 500.19 518.843 622.104 436.951 524.163 503.066 498.509 516.587 616.654 439.37 523.703 502.223 497.149 514.145 612.424 447.854 527.193 505.187 501.891 517.154 620.848 472.857 544.163 520.565 527.93 540.601 670.087 480.362 605.718 575.652 509.151 509.151 521.946 529.147 329.82 329.82 681.991 665.047 526.511 513.316 365.857 374.078 612.595 580.965 465.292 497.753 333.968 351.984 571.758 541.11 443.194 478.449 314.496 331.796 555.232 526.807 432.761 468.42 306.764 322.02 546.569 520.289 426.256 461.119 302.349 315.666 540.06 515.62 420.59 453.695 298.362 310.112 532.882 510.095 414.542 445.484 293.749 304.371 524.245 503.233 408.555 436.906 289.024 298.854 515.486 495.923 403.102 429.29 284.477 294.024 507.672 488.604 397.596 423.802 280.654 290.543 496.681 479.633 393.518 414.575 276.703 286.427 481.364 468.895 394.3 401.452 273.405 281.968 468.837 462.154 405.969 390.138 273.574 280.316 468.995 468.225 425.265 386.882 278.414 282.673 479.802 485.091 420.717 403.734 280.497 280.85 483.385 483.385 404.351 324.998 236.978 236.978 431.057 424.142 408.408 359.881 244.017 249.625 460.872 458.896 397.209 339.942 246.626 250.192 425.684 425.56 387.404 325.504 233.88 237.064 414.324 415.679 381.017 320.473 229.373 231.863 409.533 411.843 376.302 317.389 226.527 228.557 406.064 408.973 371.644 313.848 223.318 225.071 401.883 405.287 366.632 309.257 219.681 221.205 396.535 400.4 362.083 304.566 216.05 217.403 390.852 395.395 358.91 300.317 213.474 214.563 385.89 390.9 357.69 297.017 212.141 213.033 380.226 386.851 360.389 293.381 212.463 212.618 375.238 385.508 368.03 290.163 215.714 214.077 374.269 389.495 380.338 289.243 221.715 217.49 382.363 401.023 390.37 289.935 227.098 220.888 395.2 410.25 378.924 283.985 221.21 216.189 381.107 381.107 334.377 232.485 180.699 180.699 337.113 338.14 334.448 243.239 186.487 186.994 343.837 345.717 349.02 249.459 189.607 190.71 344.375 357.043 351.972 241.674 193.159 189.15 341.561 356.218 350.724 239.845 192.564 188.042 339.316 354.234 347.96 238.258 190.344 186.072 336.725 351.661 343.882 235.513 187.149 183.098 333.028 347.815 339.306 231.989 183.598 179.738 328.343 343.112 335.599 228.444 180.627 176.814 323.715 338.763 334.158 226.075 179.386 175.445 320.499 336.076 335.623 225.001 180.089 175.899 318.484 335.413 340.764 224.899 182.681 177.972 318.968 338.171 347.406 225.935 186.635 181.052 322.203 343.534 350.278 226.931 189.425 182.879 327.514 347.214 344.09 224.874 187.054 180.887 329.773 340.48 335.215 211.664 176.901 173.85 313.068 313.068 296.333 190.51 161.417 161.417 288.141 294.916 302.257 197.371 171.984 169.592 285.944 299.34 324.658 204.527 180.398 176.422 300.065 319.647 333.678 208.915 187.314 181.398 304.415 326.356 334.222 208.431 187.539 181.303 303.215 325.888 330.742 205.748 184.563 178.364 299.957 322.673 325.776 201.955 180.471 174.4 295.378 318.001 320.667 198.033 176.636 170.685 290.406 312.984 317.101 194.999 174.133 168.294 286.338 308.948 316.253 193.741 173.635 167.907 284.439 307.124 318.194 194.205 174.876 169.35 284.601 307.739 321.875 195.605 177.028 171.648 286.925 310.412 324.451 196.869 178.816 173.454 289.228 312.17 319.915 195.73 177.822 172.36 287.857 306.525 306.481 189.818 171.718 166.939 281.047 289.951 303.946 178.979 163.08 160.681 275.428 275.428 292.445 193.437 182.929 182.929 271.548 282.377 309.81 202.74 199.857 196.042 272.947 295.347 327.146 210.521 206.84 202.165 287.599 314.246 332.353 213.675 209.518 204.199 291.19 319.538 330.296 211.212 207.116 201.722 288.926 317.608 324.706 206.639 202.551 197.343 284.031 312.606 318.395 201.789 197.819 192.813 278.612 306.876 313.081 197.767 194.192 189.356 273.651 301.669 309.938 195.424 192.482 187.838 270.333 298.06 309.607 195.133 192.831 188.419 269.49 296.698 311.169 196.466 194.585 190.5 270.66 297.082 313.206 198.527 196.908 193.051 272.853 297.779 314.079 200.098 198.475 194.458 274.102 297.017 311.299 199.82 198.862 194.294 270.897 289.628 299.663 195.495 194.287 189.917 263.355 273.029 296.805 188.21 185.433 183.144 266.515 266.515 328.19 233.452 241.793 241.793 287.568 300.523 356.28 244.749 263.111 256.552 296.312 323.256 358.919 247.479 264.068 257.505 303.405 332.417 355.977 245.424 260.768 253.869 302.074 331.379 350.713 240.276 256.587 249.465 297.373 326.352 344.548 234.66 252.309 244.993 291.745 320.267 339.097 229.883 248.758 241.295 286.488 314.684 335.167 226.616 246.448 239 282.473 310.501 333.411 225.336 246.067 238.686 280.272 308.035 334.075 226.111 247.525 240.302 280.361 307.487 336.062 228.44 250.415 243.279 281.903 307.834 338.417 231.688 254.115 246.737 283.983 308.108 340.692 235.089 258.185 250.08 286.009 307.609 344.801 238.249 261.844 252.304 287.101 306.163 340.955 238.06 260.708 251.877 284.009 295.818 323.835 230.721 243.078 239.179 285.94 285.94 400.251 301.043 333.229 333.229 334.031 346.803 434.888 311.772 356.059 342.658 347.88 373.879 421.684 307.387 354.844 338.192 343.262 368.81 414.753 300.833 349.888 330.533 337.52 362.145 410.669 295.306 347.962 326.825 332.483 356.344 407.333 290.75 346.497 324.218 328.096 351.542 404.605 287.475 345.28 322.402 324.677 347.979 402.969 285.627 344.811 321.609 322.41 345.653 402.855 285.634 345.615 322.347 321.55 344.755 404.537 287.451 347.905 324.605 322.392 345.3 407.196 290.749 351.505 328.057 324.177 346.448 410.274 295.075 356.009 332.178 326.558 347.695 414.005 300.409 361.563 337.033 330.142 349.463 420.972 306.922 368.219 342.736 337.628 354.278 434.162 311.282 373.28 347.405 342.147 355.534 399.777 300.705 346.398 333.664 332.875 332.875 485.39 389.047 451.256 451.255 400.902 408.257 535.379 396.764 479.756 449.994 417.997 434.95 520.556 389.357 490.12 450.487 404.664 419.994 521.734 382.642 492.561 443.175 399.88 413.835 525.088 380.181 496.348 441.887 398.443 411.52 526.289 378.53 498.183 441.786 397.552 410.086 526.441 377.37 499.156 442.083 396.745 408.986 526.475 377.067 500.23 442.938 396.271 408.308 528.053 378.261 502.751 445.107 396.579 408.463 530.933 380.977 506.3 448.09 397.982 409.682 534.555 384.965 510.415 451.422 399.953 411.494 537.948 389.714 514.255 454.636 402.354 413.698 540.838 395.312 517.5 457.881 406.132 417.181 545.032 402.527 520.946 462.141 414.439 425.111 554.371 412.776 526.939 469.71 431.537 441.621 587.544 408.661 550.436 493.718 414.101 414.101 420.378 475.229 276.568 276.568 567.075 550.094 431.956 478.836 298.622 311.04 548.233 513.815 397.529 491.82 292.219 315.473 537.658 496.429 376.894 492.053 283.81 310.329 528.666 485.604 367.576 487.499 277.719 303.914 524.209 480.995 361.432 484.057 274.438 299.289 519.938 477.558 355.827 478.961 271.477 294.6 513.598 472.723 349.727 471.371 267.678 289.145 504.722 466.063 343.771 461.936 263.29 283.294 493.76 457.822 338.712 451.371 258.196 277.109 483.302 449.661 334.824 442.798 253.562 272.139 477.356 442.689 331.624 438.218 249.742 269.549 463.967 433.224 330.143 424.337 245.251 263.832 445.07 421.701 334.014 404.415 240.782 256.58 429.521 414.289 342.944 386.633 239.168 251.165 422.839 416.102 340.908 399.873 241.398 247.666 432.776 432.776 304.616 286.497 173.957 173.957 340.275 337.942 310.339 306.58 180.054 182.398 377.855 372.911 306.746 309.911 185.851 191.122 361.964 354.884 291.988 306.117 179.851 186.439 351.203 344.688 285.83 301.838 175.694 181.806 347.056 341.24 281.971 299.599 173.556 179.048 344.283 339.077 278.055 297.038 171.363 176.329 340.789 336.105 273.853 293.274 168.566 173.131 335.965 331.794 269.827 288.644 165.207 169.488 330.379 327.062 267.228 283.318 161.989 165.885 325.07 322.753 265.893 278.708 159.665 163.165 321.097 318.857 266.739 274.978 158.19 161.666 316.516 315.882 270.897 269.736 158.235 160.814 312.163 315.155 278.124 263.64 160.61 161.07 311.557 318.21 285.265 259.287 164.96 163.222 314.958 322.229 277.298 260.071 165.414 163.12 310.871 310.871 231.126 179.145 104.099 104.099 241.957 242.846 237.294 186.865 109.142 109.057 252.526 253.859 241.548 193.018 111.066 111.317 258.699 263.87 239.73 190.927 111.852 110.066 251.819 258.315 237.839 189.279 110.111 107.544 249.42 256.682 235.434 188.541 109.101 106.026 247.56 255.175 232.197 187.155 107.305 103.997 244.744 252.498 228.499 184.826 104.726 101.311 240.982 248.82 225.202 181.741 101.944 98.4524 236.869 244.961 223.679 178.565 99.9231 96.2458 233.786 242.308 223.847 176.11 99.4506 95.4656 232.042 240.601 226 174.515 100.237 96.0464 231.483 240.412 230.052 173.353 102.28 97.7879 232.74 242.522 233.109 172.967 105.145 100.195 235.518 245.2 231.619 173.3 106.948 102.217 237.598 244.054 222.429 169.484 104.521 101.771 228.014 228.014 189.064 118.442 76.8768 76.8767 184.746 187.38 199.339 122.629 83.5858 82.5627 189.868 196.152 206.18 126.422 87.8626 85.4808 195.482 204.322 211.943 128.239 90.2788 86.8039 197.024 209.427 211.651 127.754 90.3625 85.6586 196.205 209.255 208.745 126.915 88.2609 83.3563 193.948 206.996 204.689 125.208 85.2129 80.3485 190.566 203.444 200.562 122.942 82.1749 77.4593 186.682 199.313 197.466 120.636 80.0327 75.5472 183.218 195.601 196.456 118.914 79.4133 75.1736 181.336 193.546 197.404 118.18 80.4246 76.3908 181.176 193.129 199.386 118.486 82.4081 78.5812 182.487 193.912 201.635 119.298 84.2549 80.6331 184.729 195.414 200.884 120.118 85.0788 81.5482 185.578 194.544 194.554 120.082 83.436 80.1954 183.157 188.016 187.613 116.294 78.7576 76.7124 176.805 176.805 186.508 112.513 110.915 110.915 163.391 166.479 202.261 116.927 120.193 118.472 171.202 179.154 207.694 119.542 122.553 121.003 175.202 185.966 211.36 120.128 122.122 120.901 178.604 190.758 209.269 118.214 120.118 118.904 177.192 189.345 204.541 115.196 116.567 115.377 173.483 185.277 199.481 112.071 113.141 112.015 169.121 180.515 195.499 109.538 110.983 109.931 165.16 176.201 193.526 108.141 110.738 109.801 162.538 173.23 193.888 108.209 112.313 111.484 161.986 172.15 195.915 109.668 115.231 114.375 163.324 172.53 198.634 111.994 118.422 117.39 165.466 173.785 200.522 114.183 120.432 119.156 167.539 175.132 200.77 115.893 121.312 119.585 167.412 174.383 195.265 116.175 119.062 117.195 163.724 168.201 187.217 112.473 111.318 109.921 160.387 160.387 233.067 156.49 183.614 183.614 182.734 186.237 252.033 162.802 194.997 189.897 194.635 202.697 254.748 162.837 197.809 191.947 196.467 206.158 252.8 160.599 195.552 190.4 196.997 206.074 248.856 156.767 193.187 187.469 193.66 202.079 244.108 152.564 190.505 184.106 189.073 197.043 240.07 149.197 188.487 181.501 184.761 192.488 237.657 147.34 187.889 180.585 181.702 189.252 237.702 147.355 189.265 181.753 180.563 187.932 240.061 149.213 192.501 184.844 181.531 188.515 244.141 152.573 197.045 189.124 184.082 190.464 248.648 156.718 201.913 193.553 187.377 193.059 252.459 160.473 205.83 196.789 190.203 195.326 254.337 162.571 205.846 196.192 191.644 197.484 251.572 162.509 202.345 194.305 189.563 194.661 232.778 156.307 185.993 182.5 183.427 183.427 324.24 230.977 286.239 286.239 239.467 243.36 341.513 238.446 296.273 284.427 252.279 261.124 345.396 238.586 306.669 287.547 252.648 262.225 341.122 235.334 307.903 286.293 250.342 258.511 338.674 231.811 308.328 284.161 246.914 254.322 336.073 228.445 307.863 281.918 243.231 250.425 334.056 226.09 307.444 280.37 240.277 247.537 333.471 225.361 308.104 280.374 238.674 246.038 335.119 226.64 310.415 282.423 239.046 246.504 339.015 229.918 314.665 286.446 241.299 248.74 344.514 234.665 320.188 291.661 244.997 252.305 350.352 240.115 326.064 297.192 249.277 256.382 355.413 245.123 330.914 301.669 253.567 260.427 358.343 247.085 331.92 302.965 257.115 263.68 355.734 244.318 322.805 295.878 256.113 262.685 327.794 233.16 300.189 287.25 241.533 241.533 445.355 331.589 421.894 421.894 324.178 326.293 458.592 336.039 423.602 402.153 333.977 344.239 478.036 342.028 456.628 415.247 337.266 348.397 479.45 342.053 468.589 416.275 335.78 345.798 481.021 341.298 473.129 414.534 334.941 344.284 480.511 339.913 473.953 413.313 333.422 342.461 479.862 338.87 473.875 412.986 332.092 341.042 480.624 339.241 475.121 414.421 331.784 340.708 484.28 341.678 478.726 417.891 333.306 342.229 489.987 346.201 484.141 422.749 336.544 345.567 496.667 351.99 490.07 427.944 340.937 350.186 502.286 358.007 494.948 432.488 345.613 355.149 504.822 362.747 496.812 435.028 350.13 359.838 502.411 363.701 493.704 434.152 353.886 363.442 494.543 357.378 484.944 429.231 354.168 363.177 492.513 347 480.802 428.383 333.078 333.078 344.539 456.017 258.852 258.852 474.841 458.164 354.904 469.826 267.294 282.408 483.982 450.786 347.931 490.844 274.509 299.862 495.737 453.092 339.738 508.546 277.761 308.66 501.939 453.587 333.29 517.026 277.571 310.855 504.869 453.251 328.663 520.155 276.506 310.282 506.39 453.003 323.821 520.869 275.324 308.681 504.401 450.785 318.039 517.335 272.961 305.242 498.431 446.024 312.015 509.998 269.462 300.259 488.559 438.727 306.165 499.357 264.771 293.896 475.888 429.364 302.333 487.285 259.193 286.957 464.419 420.719 300.236 477.647 253.972 281.263 464.132 416.006 297.317 477.97 251.645 281.585 446.055 404.925 294.809 459.438 246.254 272.731 419.381 389.948 295.214 431.5 238.693 258.863 396.271 380.18 296.287 430.032 233.145 244.5 404.875 404.875 229.885 292.734 150.342 150.342 281.819 281.861 234.839 299.249 154.577 154.948 309.638 304.872 238.942 310.533 162.129 166.219 312.441 304.406 231.895 317.382 165.79 171.77 310.496 301.982 227.447 319.092 166.641 172.639 308.29 300.261 224.749 318.89 166.444 171.844 306.733 299.238 221.854 318.179 165.804 170.614 304.415 297.402 218.295 315.909 164.301 168.62 300.684 294.055 214.515 312.192 161.702 165.695 295.845 289.85 211.321 307.061 158.426 162.08 290.103 284.996 209.748 301.002 154.659 158.015 285.151 280.928 208.594 295.538 151.423 154.644 282.608 276.761 209.481 293.228 149.793 154.082 277.638 273.205 212.382 287.011 148.762 152.381 271.576 270.302 216.66 278.386 148.5 150.337 267.961 269.292 214.128 275.709 146.731 146.803 270.492 270.492 153.513 179.573 66.1108 66.1108 176.31 177.63 159.455 183.251 68.6303 68.009 185.738 187.369 162.106 185.976 70.7964 70.3434 194.415 196.47 161.555 190.869 74.6752 74.2735 193.13 195.685 159.042 193.17 76.7611 75.9455 191.63 194.923 157.233 194.093 77.5725 76.2286 190.465 194.188 154.929 194.255 77.4979 75.8605 188.622 192.541 151.994 193.325 76.3805 74.6061 185.82 189.791 148.93 191.168 74.3045 72.4768 182.329 186.312 146.869 188.026 71.7265 69.8753 178.941 183.14 146.462 184.144 68.9859 67.023 176.623 180.968 146.427 180.566 66.6917 64.6888 175.344 178.507 148.258 179.378 65.923 64.5433 174.88 177.716 151.183 177.781 66.5377 65.3454 175.238 178.507 152.854 176.579 68.2758 66.8631 176.497 179.347 149.038 173.932 69.565 68.3582 174.178 174.178 111.01 103.061 7.184 7.18399 106.182 107.166 117.746 104.009 9.05989 9.23293 111.854 114.09 120.68 105.264 9.68693 9.69159 116.149 119.18 122.39 106.504 10.2193 9.60766 118.621 123.011 121.213 109.474 9.82249 8.93997 117.773 122.72 119.162 111.383 7.588 6.49436 116.631 121.811 116.483 112.217 5.23771 4.50893 114.567 119.691 113.669 111.977 3.10477 4.15359 111.69 116.644 111.445 110.765 2.85735 5.63543 108.575 113.369 110.607 108.844 4.78056 7.66671 106.211 110.852 111.368 106.162 6.95436 9.52618 105.277 109.859 112.768 103.448 9.11202 11.2302 105.229 109.455 114.559 102.976 9.69909 11.4313 106.559 110.155 115.891 102.989 8.99021 10.3613 108.268 111.357 114.639 103.769 7.99822 9.28458 108.888 110.824 110.169 103.422 6.60289 7.4478 106.504 106.504 121.392 74.4345 77.9603 77.9603 77.1574 77.292 129.339 74.2111 82.6041 81.369 83.3893 84.285 132.296 73.576 83.3909 82.3267 86.2189 87.8331 132.158 73.0868 81.5928 80.9781 87.6277 89.444 130.688 72.412 79.5009 78.8506 86.6939 88.8305 127.552 72.5289 77.3864 77.0057 84.3645 86.1441 124.578 72.4648 76.2882 75.7025 81.2601 82.6773 122.804 72.3986 77.0044 76.1773 78.2368 79.3418 122.822 72.3827 79.383 78.2793 76.1866 77.0114 124.588 72.503 82.7274 81.2973 75.7481 76.295 127.547 72.5801 86.1272 84.3167 77.0079 77.3846 130.565 72.3785 88.6766 86.5511 78.9007 79.5475 132.035 73.0109 89.3036 87.5023 80.9096 81.5656 132.017 73.5268 87.6085 86.0614 82.172 83.2587 129.106 74.1786 84.1088 83.2461 81.2055 82.4562 121.264 74.4232 77.1818 77.0628 77.8935 77.8935 187.423 112.575 160.525 160.525 110.052 111.46 195.579 116.345 168.446 163.963 117.417 119.305 201.056 116.04 174.59 167.617 119.825 121.56 200.711 114.228 175.305 167.671 119.217 120.502 198.723 111.99 173.848 165.518 117.424 118.454 195.897 109.591 172.531 163.277 114.298 115.203 193.803 108.143 172.108 162.011 111.385 112.259 193.501 108.125 173.281 162.629 109.722 110.665 195.497 109.556 176.245 165.185 109.958 111.01 199.538 112.118 180.593 169.164 112.038 113.162 204.556 115.208 185.259 173.474 115.389 116.568 209.08 118.147 189.181 177.048 118.86 120.036 211.044 120.01 190.525 178.336 120.827 122.006 207.34 119.345 185.726 174.883 120.754 122.283 201.897 116.742 178.838 170.865 118.239 119.963 186.286 112.406 166.283 163.216 110.791 110.791 297.164 188.39 266.766 266.766 183.346 185.647 300.113 195.793 273.415 263.706 190.231 194.616 311.754 200.075 290.017 271.211 194.585 199.132 314.352 200.245 297.246 274.292 194.582 198.62 313.365 198.556 297.905 272.975 193.078 196.964 311.145 196.386 297.056 270.661 190.45 194.569 309.577 195.06 296.724 269.487 188.316 192.747 310.011 195.438 298.164 270.459 187.782 192.446 312.945 197.793 301.578 273.638 189.36 194.212 318.312 201.855 306.778 278.573 192.836 197.859 324.587 206.654 312.521 284.078 197.361 202.567 330.014 211.066 317.382 288.715 201.586 206.97 331.816 213.413 319.111 290.766 203.955 209.267 326.62 210.211 313.847 287.211 201.849 206.526 309.358 202.403 294.942 272.51 195.732 199.544 292.142 193.223 282.106 271.244 182.732 182.732 446.27 294.907 409.559 409.559 284.939 284.694 435.917 300.651 402.553 389.83 287.213 294.027 465.483 314.085 442.949 405.938 297.174 305.571 474.652 319.843 460.631 412.038 300.478 308.389 473.245 319.991 461.728 410.213 300.096 307.755 469.583 318.233 458.681 407.698 297.871 305.589 467.27 317.007 456.599 407.147 296.021 303.871 468.365 317.843 457.772 409.354 296.03 303.958 473.066 321.074 461.871 413.708 298.375 306.387 479.885 326.365 467.782 419.413 302.798 310.999 486.582 332.348 473.547 424.858 307.987 316.513 490.374 337.29 476.915 428.344 312.43 321.341 487.919 338.902 475.436 428.132 314.354 323.303 476.27 333.493 466.347 421.911 311.368 319.551 455.031 315.855 448.968 408.863 298.224 305.286 435.806 308.857 432.437 395.473 282.101 282.101 296.825 459.824 277.299 277.299 416.272 399.625 303.548 481.795 270.132 286.107 438.345 408.494 313.428 502.814 282.136 307.13 454.389 417.455 318 522.945 290.746 320.868 468.059 426.191 318.351 539.449 296.168 329.559 478.032 431.949 316.898 549.86 298.5 334.174 484.742 435.18 314.456 555.968 299.134 336.304 488.439 436.509 310.191 558.16 298.479 336.368 487.606 434.777 304.87 555.668 296.291 333.969 482.087 430.029 298.918 548.645 292.817 329.443 471.951 422.008 293.325 538.118 287.905 323.086 458.584 411.903 290.064 525.828 282.257 315.847 446.051 402.27 291.301 515.467 276.886 309.547 456.804 405.471 285.977 534.341 279.395 316.605 434.784 394.455 277.911 516.924 272.768 302.415 401.967 379.084 275.398 500.735 259.213 276.126 397.807 397.807 184.174 334.315 173.535 173.535 260.52 261.582 187.946 332.751 176.796 175.928 275.338 270.785 194.598 343.034 179.75 181.211 285.87 278.058 196.684 353.392 186.662 190.026 291.667 282.792 196.854 360.894 191.942 195.71 293.982 285.081 196.132 364.593 194.867 198.288 294.691 286.033 194.772 366.165 196.305 199.219 294.384 285.962 192.462 365.916 196.476 198.978 292.37 284.176 189.333 363.738 195.23 197.454 288.866 281.03 185.898 359.752 192.796 194.791 283.85 276.522 182.733 354.137 189.205 191.053 277.801 270.994 181.146 347.799 184.796 186.681 272.417 265.975 180.459 342.356 181.039 183.219 272.893 263.276 180.308 345.282 180.691 184.873 266.895 259.145 180.667 339.777 177.986 181.681 258.627 254.34 179.321 331.03 170.229 172.657 257.809 257.809 107.9 224.559 99.8747 99.8747 150.8 152.621 111.493 226.93 101.17 100.129 156.658 159.571 113.213 225.773 102.639 100.551 162.257 165.18 115.803 230.989 106.949 102.954 166.787 169.852 115.907 235.892 111.601 107.199 168.666 172.273 115.453 239.094 114.851 110.116 169.122 173.181 114.488 240.897 116.928 111.951 168.645 172.943 112.879 241.253 117.842 112.727 167.187 171.575 110.784 240.183 117.682 112.518 164.719 169.074 108.691 237.732 116.479 111.37 161.645 165.99 107.198 234.041 114.217 109.252 158.239 162.541 106.831 229.361 110.697 106.038 155.495 159.375 105.97 225.557 106.568 102.387 155.148 156.226 107.118 226.695 105.211 102.494 154.383 154.905 108.944 225.848 103.733 101.828 153.847 154.556 108.368 221.191 100.431 99.223 153.739 153.739 76.069 146.001 71.1397 71.1396 67.1469 67.9948 78.5677 147.654 70.6754 70.3978 70.7223 72.1165 78.2956 147.753 69.8673 69.4724 73.4017 75.0917 77.9485 147.75 70.0386 68.9887 76.6686 78.5245 77.514 151.847 72.3501 70.0416 79.2313 81.3962 76.1744 155.595 74.4814 72.1024 80.3233 82.7051 75.3698 158.276 77.0257 74.7239 80.2559 82.6944 74.9919 159.527 79.5037 77.2027 79.1223 81.5478 74.9796 159.452 81.489 79.153 77.0784 79.4493 75.321 158.133 82.6199 80.2526 74.6076 76.9533 76.136 155.511 82.6304 80.3056 72.0399 74.4432 77.4696 151.631 81.2282 79.1156 69.975 72.2683 77.8981 147.499 78.338 76.4941 68.9558 69.9952 78.2486 147.673 75.0463 73.3625 69.4573 69.8378 78.5337 147.585 72.0791 70.6812 70.4195 70.7072 76.0227 145.936 67.97 67.1401 71.1212 71.1212 110.248 103.448 106.555 106.555 7.45549 6.61329 114.789 103.758 110.906 108.96 9.34276 8.07334 116.016 103.035 111.428 108.334 10.4382 9.08919 114.589 103.056 110.161 106.592 11.4736 9.77938 112.693 103.569 109.426 105.262 11.2452 9.17007 111.344 106.219 109.875 105.348 9.57538 7.0265 110.566 108.881 110.849 106.242 7.67178 4.82538 111.436 110.833 113.376 108.662 5.61821 2.90569 113.646 111.955 116.621 111.711 4.14129 3.10457 116.47 112.174 119.652 114.572 4.53013 5.25119 119.091 111.389 121.72 116.613 6.48536 7.5598 121.023 109.319 122.523 117.599 8.94538 9.77858 122.248 106.356 122.836 118.433 9.57457 10.1525 120.536 105.234 119.058 116.023 9.59389 9.57218 117.61 103.97 113.983 111.749 9.1485 8.96822 110.918 103.033 107.118 106.13 7.14485 7.14485 187.784 116.365 176.924 176.924 76.7697 78.8309 194.795 120.164 188.218 183.328 80.3298 83.5675 201.093 120.197 194.717 185.742 81.6535 85.1866 201.756 119.315 195.505 184.798 80.6257 84.2538 199.412 118.477 194.003 182.55 78.4743 82.3132 197.317 118.18 193.127 181.125 76.3297 80.3806 196.484 118.884 193.626 181.376 75.0796 79.346 197.548 120.622 195.755 183.295 75.5005 80.0044 200.53 122.946 199.333 186.67 77.4838 82.2042 204.661 125.206 203.406 190.523 80.3746 85.2312 208.679 126.849 206.955 193.934 83.323 88.2314 211.439 127.617 209.047 196.001 85.561 90.2421 211.606 128.095 209.106 196.773 86.7194 90.172 205.874 126.315 204.031 195.245 85.3359 87.7174 199.02 122.504 195.869 189.594 82.4202 83.4567 188.918 118.369 187.248 184.578 76.7933 76.7933 304.256 179.114 275.654 275.654 160.821 163.23 306.89 190.057 290.298 281.382 167.169 171.952 320.257 195.904 306.799 288.092 172.544 178.004 324.649 196.938 312.35 289.411 173.528 178.911 321.948 195.615 310.537 286.976 171.604 176.984 318.143 194.141 307.747 284.659 169.236 174.781 316.265 193.73 307.169 284.498 167.835 173.557 317.2 195.054 309.095 286.57 168.295 174.128 320.568 198.064 312.973 290.495 170.691 176.638 325.663 201.957 317.935 295.347 174.405 180.49 330.685 205.708 322.632 299.875 178.313 184.497 333.853 208.235 325.547 302.974 181.148 187.38 333.124 208.641 325.889 304.011 181.191 187.094 324.259 204.246 319.315 299.771 176.183 180.167 301.836 197.083 298.905 285.491 169.318 171.721 296.055 190.354 294.638 287.871 161.279 161.279 470.618 282.128 414.981 414.981 270.908 269.887 457.445 296.146 421.571 412.765 275.177 280.678 483.761 311.128 457.264 422.499 286.428 293.588 490.85 316.559 467.033 423.758 290.213 296.757 483.794 315.143 460.969 420.251 287.809 293.811 475.861 312.253 453.713 417.648 284.137 289.946 472.334 310.948 451.031 418.278 281.98 287.675 473.779 312.212 452.862 421.675 282.483 288.061 478.588 315.81 457.336 426.543 285.385 290.882 484.775 320.858 462.894 431.952 289.979 295.51 489.651 325.875 467.527 436.291 294.666 300.346 490.561 329.04 469.371 438.308 297.815 303.707 485.22 328.851 467.496 437.281 297.25 303.153 470.635 321.524 458.406 430.594 290.428 295.166 446.21 300.398 439.972 416.686 271.312 274.339 422.348 301.505 417.099 398.438 265.073 265.073 280.551 481.86 328.087 328.087 388.735 370.528 276.673 512.357 300.075 318.727 414.693 386.933 292.418 530.517 311.98 337.877 427.146 394.752 302.119 545.53 321.144 351.029 437.523 402.67 307.86 558.852 327.971 359.94 446.828 410.021 310.442 569.656 332.628 366.149 454.244 415.422 311.058 577.133 335.083 370.11 459.877 419.004 309.902 581.631 335.724 372.231 462.866 420.391 306.869 583.037 335.092 372.679 462.403 418.978 302.575 581.066 333.112 371.35 457.702 414.391 297.167 575.265 329.76 367.934 449.101 406.975 291.782 567.866 325.527 363.035 437.239 397.451 288.368 560.999 320.777 356.743 424.879 387.588 298.808 555.937 314.86 348.573 454.86 414.52 290.333 617.322 333.056 369.003 436.205 411.612 281.916 604.25 323.663 344.654 419.65 419.65 178.967 406.134 235.641 235.641 275.581 275.325 181.18 393.632 237.749 238.156 277.75 271.661 182.12 400.09 228.227 231.911 285.367 277.894 187.636 409.197 233.944 238.421 292.125 284.105 191.422 417.572 240.214 244.884 297.15 288.901 193.309 424.037 245.065 249.601 300.299 291.899 193.984 427.843 248.122 252.428 302.076 293.494 193.553 429.38 249.453 253.617 302.302 293.544 191.891 429.178 249.442 253.524 300.742 291.923 189.332 426.876 248.03 252.038 297.472 288.631 186.023 422.445 245.369 249.361 292.273 283.413 182.514 416.998 241.352 245.491 286.1 277.221 180.376 411.789 236.931 241.491 281.074 271.911 183.231 408.39 233.807 239.331 289.485 278.231 182.387 428.199 238.335 245.025 285.219 277.005 179.006 420.071 231.246 236.962 277.212 277.212 117.141 301.258 175.002 175.002 172.74 174.318 118.673 305.355 176.793 176.497 176.068 179.721 118.952 299.444 177.617 176.214 175.846 180.819 120.908 302.987 178.963 174.038 180.239 185.937 123.107 308.12 183.58 177.618 183.867 190.328 125.07 312.622 188.263 181.538 186.23 193.27 126.541 315.706 191.9 184.709 187.513 194.891 127.268 317.094 194.102 186.687 187.636 195.14 127.228 317.003 195.076 187.571 186.598 194.013 126.424 315.478 194.682 187.323 184.567 191.733 124.978 312.474 193.102 186.1 181.447 188.146 122.904 307.672 190.042 183.644 177.286 183.21 120.754 302.437 185.551 179.905 173.74 178.644 118.871 299.1 180.548 175.637 176.112 177.5 118.608 305.101 179.528 175.919 176.444 176.754 117.068 300.949 174.212 172.638 174.897 174.897 108.454 221.354 153.844 153.844 99.2505 100.469 108.983 225.951 154.574 153.843 101.853 103.775 107.12 226.817 154.961 154.409 102.562 105.315 106.003 225.945 156.398 155.266 102.613 106.82 106.885 229.756 159.571 155.684 106.247 110.954 107.249 234.19 162.688 158.369 109.346 114.332 108.801 238.013 166.178 161.795 111.554 116.675 110.86 240.39 169.24 164.86 112.646 117.814 112.921 241.282 171.622 167.22 112.721 117.854 114.49 240.745 172.948 168.625 111.865 116.85 115.395 238.946 173.089 169.002 110.07 114.794 115.784 235.632 172.083 168.481 107.033 111.404 115.642 230.643 169.559 166.562 102.776 106.753 113.152 225.519 165.023 162.133 100.515 102.579 111.401 226.75 159.372 156.488 100.131 101.172 107.841 224.422 152.542 150.719 99.8634 99.8634 149.14 174.051 174.291 174.291 68.3793 69.5914 152.977 176.583 179.414 176.556 66.8265 68.2445 151.25 177.845 178.554 175.275 65.3348 66.5693 148.288 179.584 177.831 174.93 64.5823 65.9811 146.467 180.826 178.652 175.455 64.7705 66.8047 146.535 184.222 181.111 176.716 67.0808 69.0381 146.926 188.13 183.269 179.072 69.9404 71.8082 149.03 191.272 186.418 182.404 72.5604 74.3794 151.997 193.306 189.781 185.829 74.5879 76.3552 154.905 194.19 192.509 188.603 75.8248 77.4428 157.155 193.994 194.088 190.395 76.2015 77.5134 158.774 192.943 194.674 191.442 75.8013 76.5847 161.325 190.607 195.412 192.904 74.1111 74.5025 161.944 185.784 196.263 194.218 70.3265 70.7812 159.298 183.072 187.182 185.548 67.9913 68.6324 153.437 179.492 177.529 176.185 66.1183 66.1183 222.618 169.617 228.181 228.181 101.833 104.581 231.829 173.371 244.211 237.752 102.278 107.011 233.268 172.995 245.351 235.649 100.206 105.184 230.131 173.449 242.628 232.798 97.7277 102.25 226.085 174.603 240.547 231.561 95.9838 100.177 223.764 176.207 240.637 232.065 95.4837 99.456 223.751 178.67 242.473 233.972 96.2643 99.9187 225.308 181.781 245.075 237.021 98.4876 101.959 228.458 184.83 248.806 240.999 101.332 104.71 232.127 187.138 252.458 244.77 104.001 107.291 235.367 188.432 255.05 247.479 105.996 109.023 237.539 189.081 256.424 249.239 107.37 109.922 239.369 190.655 258 251.532 109.864 111.646 241.238 192.788 263.535 258.375 111.182 110.921 236.941 186.657 253.502 252.188 108.946 109.017 230.917 179.056 242.636 241.767 104.057 104.057 335.506 211.838 313.328 313.328 173.964 177.01 344.441 225.067 340.728 330.036 181.054 187.192 350.471 227.051 347.417 327.772 182.994 189.538 347.618 226.02 343.743 322.408 181.054 186.643 340.825 224.985 338.271 319.045 177.974 182.696 335.671 224.981 335.577 318.636 175.812 180.034 334.229 226.201 336.235 320.601 175.433 179.384 335.798 228.527 339.01 323.972 176.862 180.695 339.345 231.954 343.226 328.445 179.706 183.612 343.811 235.508 347.781 332.923 183.066 187.104 347.802 238.134 351.5 336.621 186.013 190.315 350.364 239.579 353.993 339.056 187.82 192.374 351.452 241.351 355.755 341.062 188.889 192.893 348.659 249.087 356.637 344.013 190.461 189.332 333.919 242.893 345.174 343.363 186.741 186.238 334.069 232.319 337.827 336.806 180.58 180.58 510.046 301.881 442.429 442.429 281.42 281.974 506.8 324.548 475.498 462.063 291.602 297.256 514.496 331.898 488.208 451.066 298.336 303.976 506.684 330.593 478.82 439.776 296.692 300.317 494.096 326.955 467.051 435.119 291.523 293.48 486.029 324.731 461.489 436.082 287.493 288.517 484.568 324.86 462.03 440.029 286.384 286.941 487.67 326.989 465.766 444.837 287.958 288.272 492.748 330.838 470.625 449.689 291.421 291.586 498.058 335.359 475.583 454.442 295.807 296.009 501.66 339.463 479.276 457.847 299.931 300.333 502.262 342.29 481.415 460.021 302.698 303.38 499.33 343.933 482.307 461.435 303.504 304.193 490.65 344.062 481.364 462.534 298.929 298.488 472.525 331.441 468.885 456.623 283.706 278.374 448.148 330.697 439.159 440.646 282.112 282.112 311.594 538.211 420.251 420.251 390.098 369.719 284.673 569.045 357.68 382.896 415.017 389.577 297.045 576.492 364.974 393.825 423.243 394.04 305.484 580.211 369.644 401.917 428.759 396.992 311.667 584.649 373.315 407.617 434.131 400.504 316.054 589.236 376.391 411.969 439.198 404.08 318.633 593.22 378.602 415.252 443.489 407.139 319.53 595.736 379.289 416.993 446.472 409.292 318.949 596.657 379.182 417.753 447.306 409.752 316.871 595.83 377.995 417.146 445.993 408.609 312.938 593.499 376.212 415.41 441.533 404.899 307.996 591.362 373.462 412.017 435.415 400.292 302.902 592.349 371.366 408.052 428.965 396.134 299.812 601.023 369.085 402.21 428.149 394.334 335.678 611.283 362.683 393.011 495.794 469.879 328.603 713.912 415.359 439.837 477.206 477.206 222.627 523.831 331.855 331.855 327.511 319.576 224.323 480.728 329.925 338.034 313.161 297.988 211.789 481.877 296.867 312.123 315.422 301.143 215.722 484.455 300.738 314.997 319.859 305.279 219.892 488.365 305.658 320.261 323.881 308.969 223.072 492.647 310.123 325.112 327.241 312.104 225.16 496.073 313.53 328.769 329.586 314.254 226.08 497.491 315.018 330.412 330.626 315.174 226.032 497.613 315.126 330.574 330.368 314.971 224.972 495.904 314.074 329.402 328.576 313.318 222.975 492.441 311.94 327.097 324.878 309.842 219.513 487.617 308.49 323.44 319.783 305.167 215.342 483.669 304.758 319.35 314.453 300.217 211.533 481.007 300.65 314.906 311.85 296.578 224.157 480.079 297.654 312.842 337.789 329.67 222.446 523.215 319.215 327.152 331.59 331.59 179.126 420.586 277.408 277.409 237.205 231.47 182.458 428.666 277.179 285.414 245.208 238.559 183.347 408.881 278.44 289.66 239.603 234.107 180.621 412.54 272.357 281.483 241.925 237.402 182.807 417.592 277.732 286.579 245.864 241.768 186.158 422.792 283.726 292.537 249.456 245.509 189.464 427.133 288.846 297.641 252.233 248.247 191.958 429.213 292.045 300.849 253.564 249.486 193.481 429.347 293.46 302.212 253.559 249.373 193.805 427.709 293.232 301.849 252.296 247.958 193.159 423.93 291.704 300.166 249.576 245.007 191.186 417.134 288.647 296.973 244.605 239.873 187.326 408.613 283.709 291.821 238.059 233.565 181.907 399.514 277.477 284.995 231.736 228.038 180.991 393.246 271.367 277.486 238.024 237.626 178.839 405.666 275.118 275.37 235.469 235.469 179.467 331.267 258.008 258.008 172.75 170.347 180.751 339.978 254.445 258.69 181.693 178.025 180.367 345.409 259.212 266.917 184.91 180.78 180.622 342.768 263.508 273.027 183.42 181.317 181.324 348.277 266.328 272.671 186.926 185.106 182.927 354.411 271.261 277.973 191.12 189.321 186.061 360.042 276.77 284.027 194.936 192.977 189.449 363.964 281.187 288.962 197.567 195.367 192.494 365.926 284.266 292.435 198.941 196.451 194.75 365.896 285.828 294.209 199.09 196.204 196.003 364.348 285.852 294.466 198.165 194.765 196.64 360.516 284.812 293.697 195.475 191.694 196.455 352.948 282.457 291.336 189.731 186.35 194.415 342.516 277.655 285.474 181.041 179.552 187.687 332.44 270.392 274.978 175.815 176.671 184.03 334.067 261.369 260.325 173.461 173.461 214.33 275.938 270.693 270.693 146.923 146.856 216.832 278.515 269.451 268.109 150.34 148.513 212.512 287.089 270.376 271.626 152.393 148.792 209.58 293.528 273.336 277.733 154.209 149.939 208.802 295.944 277.072 282.89 154.845 151.628 209.889 301.203 281.096 285.338 158.126 154.775 211.538 307.187 285.315 290.414 162.165 158.519 214.651 312.261 289.937 295.917 165.737 161.78 218.376 315.916 294.12 300.696 168.575 164.248 221.822 317.932 297.225 304.248 170.524 165.737 224.613 318.717 299.039 306.503 171.74 166.342 227.164 318.807 300.001 308.045 172.464 166.415 231.606 317.053 301.62 310.211 171.583 165.519 238.617 310.137 303.953 312.108 166.128 161.998 234.556 298.914 304.529 309.347 154.828 154.446 229.699 292.559 281.636 281.608 150.293 150.293 277.545 260.294 311.115 311.115 163.244 165.549 285.508 259.454 322.489 315.207 163.297 165.044 278.307 263.716 318.337 311.675 161.108 160.617 270.982 269.91 315.291 312.345 160.845 158.28 266.867 275.314 316.062 316.683 161.792 158.263 265.927 278.935 319.005 321.345 163.289 159.781 267.464 283.629 323.068 325.41 166.08 162.12 269.989 288.739 327.253 330.68 169.577 165.258 273.865 293.375 331.879 336.113 173.165 168.539 278.022 296.955 335.985 340.768 176.359 171.333 281.79 299.352 338.932 344.24 178.932 173.435 285.545 301.571 340.953 346.786 181.595 175.434 291.555 305.77 344.243 350.845 186.212 179.536 306.261 309.494 354.361 361.57 190.924 185.621 309.825 306.229 372.371 377.366 182.214 179.855 304.374 286.34 337.685 340.039 173.886 173.886 379.261 284.282 381.419 381.419 216.378 221.368 390.67 290.269 410.594 395.596 221.086 227.266 380.612 289.382 401.229 382.624 217.616 221.828 368.337 290.344 389.824 374.596 214.148 215.787 360.541 293.569 385.764 375.474 212.684 212.575 357.882 297.092 387.106 380.411 213.026 212.143 359.075 300.609 391.059 386.041 214.717 213.615 362.345 304.706 395.73 391.243 217.494 216.131 366.755 309.308 400.528 396.692 221.189 219.63 371.506 313.689 405.093 401.735 225.023 223.289 376.127 317.24 408.807 405.871 228.423 226.367 380.655 320.109 411.528 409.259 231.604 229.088 386.78 325.043 415.082 413.746 236.753 233.568 396.752 339.413 425.02 425.126 249.854 246.287 407.787 359.373 458.2 460.164 249.294 243.696 403.965 324.783 423.743 430.636 236.842 236.842 553.293 356.382 498.818 498.819 312.066 319.066 556.448 373.884 543.459 515.381 324.264 331.656 531.16 367.967 518.992 479.165 320.952 325.363 508.25 361.68 493.388 458.636 313.841 315.238 497.597 360.689 484.84 458.093 309.344 308.785 496.639 362.637 487.263 466.099 308.358 306.861 500.542 365.744 493.201 474.502 309.947 308.03 505.854 369.463 498.887 480.858 313.088 310.901 511.214 373.865 503.68 485.783 317.397 315.005 516.279 378.467 508.285 490.584 322.011 319.591 520.066 382.604 511.892 494.438 326.295 324.05 522.972 386.009 515.207 498.193 330.101 328.163 525.942 389.986 519.703 503.544 334.234 332.536 529.803 400.526 527.444 513.05 340.062 336.855 529.324 440.686 540.168 532.201 346.793 327.607 515.326 407.155 519.879 547.564 331.255 331.255 426.977 671.787 573.921 573.921 449.355 422.558 359.974 675.246 466.749 496.978 472.714 443.021 365.959 652.388 455.866 486.339 479.114 444.85 372.368 639.579 450.706 484.986 482.698 445.057 378.382 635.709 449.864 487.058 486.278 446.358 383.477 636.085 450.769 490.101 489.687 448.277 387.205 637.483 451.914 492.784 492.493 450.299 388.814 638.75 452.24 494.123 494.074 451.763 389.003 638.51 451.566 493.917 494.202 452.362 387.136 637.455 450.232 492.454 492.713 451.91 383.483 635.675 448.154 489.583 489.693 450.395 377.781 634.884 445.89 485.762 486.339 449.19 371.724 638.783 444.296 481.931 484.239 449.954 365.254 650.808 444.081 478.276 485.477 455.05 359.423 674.294 442.295 472.015 496.305 466.078 426.458 670.778 421.819 448.622 573.438 573.438 328.941 714.618 477.634 477.633 440.285 415.844 335.97 612.176 470.262 496.159 393.491 363.192 300.119 602.159 394.782 428.6 402.864 369.73 303.444 593.326 396.849 429.737 408.665 371.999 308.518 592.221 400.859 436.01 412.608 374.058 313.286 594.023 405.286 441.95 415.478 376.217 317.097 595.941 408.592 446.016 417.336 378.106 319.003 596.498 409.761 447.323 417.648 378.996 319.433 595.447 408.977 446.137 417.081 379.382 318.422 593.043 407.009 443.27 415.145 378.454 315.851 589.039 403.957 439.072 411.963 376.38 311.268 584.045 400.301 433.936 407.05 372.775 304.985 579.337 396.32 428.098 401.375 369.107 296.589 575.572 393.423 422.658 393.225 364.384 284.319 568.194 389.06 414.537 382.404 357.191 311.25 537.328 369.087 389.479 419.886 419.886 282.146 605.01 419.997 419.998 345.008 323.996 290.532 617.979 411.923 436.529 369.295 333.354 299.035 556.731 414.782 455.099 348.979 315.189 288.744 562.075 388.092 425.452 357.401 321.316 292.217 568.779 398.036 437.937 363.658 326.005 297.451 575.93 407.378 449.646 368.303 330.012 302.76 581.26 414.793 458.218 371.555 333.317 307.012 583.069 419.166 462.588 372.695 335.097 309.818 581.307 420.3 462.784 372.058 335.635 310.818 576.923 418.625 459.401 369.949 334.924 310.261 569.558 415.217 454.05 366.08 332.551 307.661 558.566 409.748 446.583 359.689 327.628 301.78 544.738 402.192 437.138 350.628 320.751 292.036 529.834 394.228 426.616 337.524 311.629 276.388 511.768 386.618 414.389 318.388 299.779 280.349 481.097 370.054 388.226 327.831 327.831 275.598 501.22 398.136 398.135 276.336 259.359 278.015 517.439 379.202 402.159 302.634 272.88 285.964 534.744 394.562 435.016 316.838 279.519 291.428 516.173 405.757 457.198 309.936 277.206 290.262 526.564 402.749 446.633 316.249 282.62 293.494 538.589 412.26 459.015 323.288 288.114 299.106 549.189 422.422 472.368 329.625 292.975 304.977 556.024 430.258 482.359 334.091 296.44 310.314 558.088 434.962 487.765 336.237 298.396 314.297 555.36 436.191 488.019 335.989 298.876 316.732 549.348 434.74 484.198 333.939 298.27 318.05 538.903 431.425 477.535 329.306 295.862 317.596 522.205 425.658 467.598 320.529 290.361 312.938 502.104 416.826 453.826 306.802 281.786 303.124 481.387 408.053 437.94 285.872 269.851 296.553 459.19 399.13 415.832 277.15 277.15 296.547 430.425 405.218 405.218 244.697 233.355 295.426 431.687 380.405 396.47 258.917 238.787 294.886 459.633 390.066 419.425 272.736 246.308 297.367 478.458 405.102 446.162 281.747 251.883 300.5 478.337 416.493 464.54 281.523 254.312 302.488 487.746 421.091 464.728 287.139 259.4 306.488 499.788 429.85 476.357 294.066 264.9 312.097 510.354 438.906 488.842 300.374 269.525 318.072 517.649 446.102 498.616 305.366 272.973 323.629 520.581 450.634 504.413 308.534 275.111 328.399 519.773 452.549 506.015 310.157 276.341 332.987 516.458 452.861 504.567 310.621 277.346 339.367 507.959 453.119 501.464 308.381 277.495 347.491 490.172 452.602 495.226 299.527 274.235 354.569 469.339 450.406 483.509 282.079 266.958 344.277 455.528 457.529 474.207 258.743 258.743 341.243 400.31 433.126 433.127 247.897 241.605 343.262 386.908 416.419 423.187 251.325 239.34 334.174 404.541 414.563 429.764 256.569 240.842 330.334 424.519 422.008 445.271 263.822 245.347 331.808 438.735 433.523 464.105 269.739 250.008 334.999 443.235 442.989 477.591 272.298 253.727 339.001 451.949 450.087 483.766 277.425 258.506 344.019 462.16 458.263 494.304 283.371 263.372 349.822 471.669 466.229 504.937 289.229 267.764 355.676 478.963 472.782 513.662 294.501 271.354 361.312 483.604 477.288 519.679 299.061 274.213 367.223 487.101 480.496 523.699 303.714 277.48 376.425 491.531 485.115 528.254 310.057 283.505 397.006 491.228 495.877 537.119 315.111 291.839 431.392 478.442 513.229 547.637 310.752 298.289 420.069 474.665 549.473 566.485 276.446 276.446 421.051 404.062 483.851 483.851 281.021 280.734 425.664 387.273 485.493 480.121 282.913 278.696 406.26 390.446 468.664 469.391 280.446 273.704 394.724 401.776 462.622 469.305 282.139 273.568 393.813 414.811 469.344 481.838 286.501 276.828 397.805 423.931 479.724 496.68 290.619 280.736 403.255 429.668 488.901 508.004 294.22 284.724 408.891 437.181 496.236 515.759 298.987 289.14 414.624 445.503 503.508 524.606 304.365 293.757 420.358 453.672 509.965 532.707 309.935 298.165 426.02 460.824 515.219 539.658 315.535 302.215 432.418 467.782 519.983 546.269 321.674 306.436 442.466 477.838 526.116 554.475 331.391 314.043 464.585 497.192 540.218 570.885 351.592 333.494 525.64 512.833 580.236 611.969 373.632 365.353 521.448 528.573 664.249 681.262 329.652 329.652 571.028 446.707 579.561 579.561 352.506 361.659 563.683 434.005 597.242 571.254 360.113 364.809 516.785 423.404 550.965 530.159 350.583 351.973 492.468 424.379 525.075 510.512 345.707 345.25 491.799 434.058 528.278 519.262 347.703 346.092 500.614 444.141 542.073 537.379 352.214 349.935 509.805 451.804 554.142 552.037 357.114 354.463 516.845 457.932 562.039 561.203 362.052 359.129 522.476 464.907 567.841 567.69 367.453 364.092 527.972 471.874 573.215 574.021 372.977 369.068 533.017 478.501 577.772 579.684 378.431 373.792 539.072 485.517 582.596 585.935 384.389 378.504 549.146 495.082 589.145 594.868 393.397 385.151 568.445 514.901 601.544 611.712 413.265 400.96 606.162 565.549 635.354 653.338 467.287 451.368 656.134 615.286 762.624 789.835 415.937 415.937 
SCALARS volume float 1
LOOKUP_TABLE default
0.000298758 0.000341132 0.000340232 0.000340232 0.000338923 0.000350527 0.000304192 0.00032489 0.000320337 0.000314642 0.000334989 0.000343326 0.000311639 0.000323023 0.000321311 0.0003202 0.000333008 0.000338655 0.00031563 0.000322106 0.0003222 0.000322836 0.000332049 0.000336283 0.000317448 0.000321837 0.000322818 0.000324141 0.000331536 0.000335113 0.000318268 0.00032186 0.000323254 0.000324775 0.000331271 0.000334528 0.000318627 0.000321957 0.000323553 0.000325105 0.000331213 0.000334194 0.000318883 0.000321906 0.000323683 0.000325315 0.000331343 0.000333951 0.000319171 0.000321579 0.000323684 0.000325528 0.000331552 0.000333734 0.00031945 0.0003209 0.000323565 0.000325844 0.000332068 0.000333476 0.000319735 0.000319802 0.000323278 0.000326167 0.000332877 0.000332781 0.000320132 0.000318097 0.000323047 0.000326752 0.000333682 0.000331216 0.000320574 0.000315862 0.000323011 0.000327879 0.000333975 0.000328231 0.000320962 0.000312793 0.000323277 0.000330138 0.000333759 0.000323542 0.000320936 0.000307472 0.000323441 0.000334279 0.000333881 0.000319205 0.000317672 0.000299062 0.000324095 0.000339039 0.000326007 0.000326007 0.000302382 0.000314644 0.000329958 0.000329958 0.000328422 0.000341411 0.000304456 0.000321388 0.000329052 0.000322519 0.000340256 0.000340954 0.000305552 0.000318281 0.000322907 0.000317675 0.000342156 0.000339923 0.000306055 0.000316157 0.000321473 0.000317717 0.000342095 0.000338922 0.000306221 0.000315149 0.00032145 0.000318252 0.000341839 0.000338364 0.00030619 0.000314772 0.00032179 0.000318624 0.000341676 0.000338114 0.000306141 0.000314683 0.000322142 0.000318857 0.000341681 0.000338044 0.000306126 0.000314579 0.000322329 0.000319 0.000341811 0.000337998 0.000306167 0.0003142 0.000322379 0.000319188 0.000342009 0.00033785 0.00030616 0.000313519 0.000322299 0.00031962 0.000342377 0.000337494 0.000306009 0.000312524 0.000322147 0.000320137 0.000342917 0.000336584 0.000305759 0.00031143 0.000322142 0.000320874 0.000343561 0.000334605 0.000305346 0.000310463 0.000322411 0.00032174 0.000344096 0.000331652 0.000304415 0.00031004 0.000322979 0.000322909 0.000344387 0.000329229 0.000301853 0.000310897 0.000323587 0.000324875 0.00034486 0.000332678 0.000295316 0.000314029 0.000321839 0.000325448 0.000348899 0.000348899 0.000306941 0.000304026 0.000329873 0.000329873 0.000326745 0.000330389 0.000306973 0.000309304 0.000332864 0.000327277 0.000335684 0.000332014 0.000304869 0.000308369 0.000327386 0.000324715 0.000339414 0.000332436 0.000303339 0.000306808 0.000324908 0.000323078 0.000340819 0.000332565 0.000302181 0.000305938 0.000324417 0.00032287 0.0003411 0.000332542 0.00030146 0.00030565 0.000324644 0.000322973 0.000341037 0.000332552 0.000301106 0.000305655 0.000325009 0.000323092 0.000340963 0.000332583 0.00030099 0.000305682 0.00032525 0.000323183 0.000341006 0.000332618 0.000300936 0.000305604 0.00032531 0.000323301 0.000341075 0.000332527 0.000300673 0.000305347 0.000325267 0.00032354 0.000341306 0.000332089 0.00030013 0.000305032 0.000325261 0.000323777 0.000341679 0.000331051 0.000299346 0.000304924 0.000325473 0.000324012 0.000342304 0.00032922 0.000298501 0.000305404 0.000325795 0.000323988 0.000343071 0.000327576 0.00029732 0.000306956 0.000325901 0.000323593 0.000343274 0.000328748 0.000294094 0.000310448 0.000325652 0.000323156 0.000342173 0.00033691 0.000287347 0.000316768 0.000323805 0.000322225 0.000346174 0.000346174 0.000311579 0.000299338 0.000333997 0.000333997 0.000326471 0.000319131 0.000309317 0.000302843 0.000334639 0.000332956 0.00033196 0.000321163 0.000305309 0.000302561 0.000331212 0.000331562 0.00033531 0.000321863 0.00030235 0.000301937 0.000329631 0.000331053 0.000336471 0.000321916 0.000300676 0.000301447 0.000329379 0.000330664 0.000336597 0.000321793 0.000299967 0.000301387 0.00032983 0.000330743 0.000336376 0.000321719 0.000299876 0.000301562 0.000330371 0.000330899 0.000336175 0.000321703 0.000300029 0.000301768 0.000330692 0.000331017 0.000336104 0.000321693 0.000300148 0.000301974 0.000330824 0.000331029 0.000336108 0.000321554 0.000299899 0.000302111 0.000330857 0.00033098 0.000336322 0.000321108 0.000299299 0.000302299 0.0003309 0.000330826 0.000336771 0.000320331 0.000298416 0.00030264 0.000331006 0.000330513 0.000337623 0.000319369 0.000297743 0.000303381 0.000330951 0.000330127 0.000338653 0.000319635 0.000297247 0.000305025 0.000330263 0.0003292 0.000338615 0.000323708 0.000294779 0.000308429 0.000329248 0.000327435 0.000335602 0.00033332 0.000288816 0.000313958 0.000329125 0.000325501 0.000336132 0.000336132 0.000316479 0.000299432 0.000338419 0.000338419 0.000327943 0.000310397 0.000311515 0.000301672 0.000334581 0.000336831 0.000331097 0.000311643 0.000306677 0.000301936 0.000333259 0.000336092 0.00033327 0.000311719 0.000303635 0.000301767 0.000333137 0.000336416 0.000334064 0.000311336 0.000302358 0.000301765 0.000333501 0.000336618 0.000334073 0.000310962 0.000302331 0.000301793 0.000334062 0.000336776 0.000333781 0.00031077 0.000302909 0.000301945 0.000334573 0.000336919 0.000333538 0.000310708 0.000303569 0.000302135 0.000334819 0.000336956 0.000333465 0.000310692 0.000303997 0.000302408 0.000334838 0.000336858 0.000333464 0.000310631 0.000303916 0.000302665 0.000334756 0.000336634 0.000333714 0.000310478 0.000303397 0.000302898 0.000334606 0.000336316 0.000334206 0.000310294 0.000302687 0.000303034 0.000334373 0.000335978 0.000334927 0.000310545 0.000302188 0.000303299 0.00033387 0.000335943 0.000335435 0.000312166 0.0003023 0.000304063 0.000333009 0.000335847 0.000334333 0.000316997 0.000301322 0.000306144 0.000332172 0.000334057 0.000329448 0.000325648 0.000296023 0.000309439 0.000333838 0.000331027 0.000325168 0.000325168 0.000321377 0.000302348 0.000340259 0.000340259 0.000331834 0.000307096 0.000313966 0.000304128 0.000332177 0.00033764 0.000333485 0.000306819 0.000309619 0.000304937 0.000332717 0.000338006 0.000334484 0.000305964 0.000307807 0.000304882 0.000333579 0.000339085 0.000334764 0.000305165 0.000307735 0.000304878 0.000334159 0.000339817 0.00033463 0.000304689 0.000308621 0.000304849 0.000334508 0.000340185 0.000334334 0.000304516 0.00030973 0.000304837 0.000334635 0.000340325 0.000334084 0.000304493 0.000310658 0.00030492 0.000334621 0.000340332 0.000334051 0.000304606 0.000311131 0.000305106 0.000334418 0.000340189 0.000334115 0.000304761 0.000311016 0.000305311 0.000334183 0.000339967 0.00033439 0.000304993 0.000310506 0.000305455 0.000333865 0.00033974 0.000334745 0.000305397 0.000309853 0.000305413 0.000333414 0.000339653 0.000334909 0.000306248 0.000309461 0.00030514 0.000332865 0.000339976 0.000334201 0.000307988 0.000309535 0.000304967 0.000332682 0.000341001 0.000331721 0.000311224 0.000310096 0.000305258 0.000332972 0.000340548 0.000325834 0.000317401 0.000305791 0.000306043 0.000335598 0.000336329 0.000317138 0.000317138 0.000324084 0.00030635 0.000336812 0.000336811 0.000338127 0.000312512 0.000316149 0.000308807 0.000327371 0.000334798 0.00033806 0.000310711 0.000313442 0.000310547 0.000329549 0.000337442 0.000337763 0.000309087 0.000313221 0.000310702 0.000330903 0.000339575 0.000337416 0.000308036 0.000314094 0.000310662 0.000331412 0.000340771 0.000337041 0.000307552 0.000315295 0.000310563 0.000331461 0.000341272 0.000336693 0.000307402 0.000316388 0.000310485 0.000331326 0.000341391 0.00033653 0.000307475 0.00031709 0.000310464 0.000331062 0.000341304 0.000336572 0.000307708 0.000317284 0.000310542 0.00033079 0.000341142 0.000336755 0.000308073 0.000316929 0.000310638 0.000330522 0.000340982 0.000337007 0.000308517 0.00031627 0.000310701 0.000330251 0.000340944 0.000337134 0.000309007 0.000315621 0.000310633 0.000329956 0.000341105 0.00033675 0.00030952 0.000315346 0.000310247 0.000329762 0.000341619 0.000335106 0.000310058 0.000315691 0.000309025 0.00033008 0.000342782 0.0003311 0.000310624 0.000316539 0.000307588 0.000332101 0.00034524 0.000325637 0.000312355 0.000315985 0.000305424 0.00033424 0.000340622 0.000314989 0.000314989 0.000322619 0.000310275 0.000323096 0.000323096 0.00034509 0.000330623 0.000318064 0.000314843 0.000319566 0.000327309 0.000341717 0.000328461 0.000316413 0.000318377 0.000324015 0.000333032 0.000339659 0.000326795 0.00031626 0.000319372 0.000326192 0.000336231 0.000338503 0.000325862 0.000316734 0.000319645 0.000326993 0.000337694 0.000337843 0.000325498 0.000317415 0.000319688 0.00032709 0.000338115 0.000337502 0.000325462 0.00031805 0.000319666 0.000326835 0.000338065 0.000337424 0.00032566 0.000318422 0.000319656 0.000326415 0.000337812 0.000337588 0.000326014 0.000318417 0.000319663 0.000325992 0.00033755 0.000337851 0.000326438 0.000318047 0.000319687 0.000325641 0.00033739 0.000338073 0.00032684 0.000317419 0.000319718 0.000325465 0.00033748 0.000338128 0.000327106 0.000316735 0.000319652 0.000325479 0.000337823 0.000337673 0.000326993 0.000316265 0.0003194 0.000325866 0.000338487 0.000336217 0.000326182 0.000316417 0.000318406 0.000326798 0.000339665 0.000333008 0.000323986 0.00031807 0.000314852 0.000328481 0.00034171 0.000327293 0.000319544 0.000322633 0.000310293 0.000330643 0.0003451 0.00032309 0.00032309 0.000300864 0.000324616 0.000337411 0.000337411 0.000335625 0.000338108 0.000303418 0.000315559 0.00031532 0.000324922 0.000328464 0.000337738 0.000312834 0.000312598 0.000321351 0.000326902 0.000323087 0.000332436 0.000317038 0.000313204 0.000324003 0.00033033 0.000320466 0.00032933 0.000319206 0.000313425 0.000325367 0.000332242 0.000319097 0.000327545 0.000320297 0.000313751 0.000326125 0.000333347 0.000318339 0.000326497 0.000320757 0.000314134 0.000326539 0.000333953 0.000318057 0.000325903 0.000320985 0.000314402 0.000326711 0.000334285 0.000318243 0.000325518 0.000321153 0.000314261 0.000326715 0.000334499 0.000318671 0.0003252 0.000321394 0.000313676 0.00032662 0.000334819 0.000318883 0.000324922 0.000321504 0.000312973 0.000326631 0.000335036 0.00031947 0.000324467 0.000321505 0.000311776 0.000326631 0.00033524 0.000320552 0.000323263 0.000321547 0.000309765 0.000326733 0.000335885 0.000321401 0.00032078 0.0003214 0.00030704 0.000327156 0.000337593 0.000321007 0.000316287 0.000320664 0.000303513 0.000328261 0.000340991 0.000318401 0.000309607 0.000319194 0.000298087 0.000331591 0.00034596 0.000306103 0.000306103 0.000302181 0.000309991 0.000329683 0.000329683 0.000326844 0.00033153 0.00030368 0.000312386 0.000327515 0.00032491 0.000336686 0.000335963 0.000303895 0.000310611 0.000316946 0.000321338 0.000334139 0.000332309 0.000306706 0.000309749 0.00031734 0.000323157 0.000333018 0.000330642 0.000308652 0.000309106 0.000318269 0.000324246 0.000332235 0.000329617 0.000309671 0.000308865 0.000319006 0.000324893 0.000331772 0.00032904 0.000310059 0.000308961 0.000319497 0.000325282 0.000331611 0.000328721 0.000310164 0.00030914 0.000319737 0.0003255 0.000331727 0.000328555 0.00031007 0.00030909 0.00031983 0.000325717 0.000331988 0.000328306 0.000309973 0.00030869 0.000319949 0.00032608 0.000332125 0.000328037 0.000309695 0.000308135 0.000320203 0.000326404 0.000332521 0.000327599 0.00030919 0.000307692 0.000320545 0.000326676 0.000333224 0.000326603 0.000308615 0.000307206 0.000320963 0.000327072 0.000333884 0.000324867 0.000307784 0.000306957 0.000321412 0.000327877 0.000333985 0.000322713 0.000306057 0.000307755 0.000322085 0.000329726 0.000332942 0.000321935 0.00030385 0.000310281 0.00032278 0.000331493 0.00033013 0.00033013 0.000304961 0.00030375 0.000328488 0.000328488 0.00032451 0.000325246 0.00030393 0.000302867 0.000328348 0.000326596 0.000328274 0.000326112 0.000302516 0.00030497 0.00032421 0.000325976 0.000334494 0.00032645 0.000302557 0.000303862 0.000321132 0.000324282 0.0003351 0.000325857 0.000302635 0.000302973 0.000320513 0.00032402 0.000334691 0.000325377 0.000302595 0.000302613 0.000320714 0.000324083 0.00033428 0.000325042 0.0003025 0.000302635 0.000321056 0.000324213 0.000334035 0.000324912 0.000302312 0.000302801 0.00032133 0.000324307 0.000334079 0.000324902 0.000302019 0.000302925 0.000321462 0.000324395 0.000334285 0.000324877 0.000301603 0.000302924 0.000321592 0.000324537 0.000334355 0.000324766 0.000301045 0.000302826 0.00032186 0.000324591 0.000334552 0.00032456 0.000300364 0.000302855 0.000322161 0.000324473 0.00033487 0.000324083 0.000299727 0.000303175 0.00032237 0.000324316 0.000335322 0.000323578 0.000299154 0.000303924 0.000322152 0.000324197 0.000335446 0.000323924 0.000298008 0.00030621 0.000321634 0.00032455 0.00033458 0.000326573 0.000295631 0.000312334 0.000321036 0.000324891 0.000335513 0.000335513 0.000307918 0.000300876 0.000329555 0.000329555 0.000324163 0.000319736 0.000304917 0.000300912 0.00032809 0.000329271 0.000325705 0.000317113 0.000302527 0.000301225 0.000327648 0.000329352 0.000330286 0.000317766 0.000300601 0.000300944 0.000325606 0.000328313 0.00033162 0.000317853 0.000299794 0.000300548 0.000324967 0.000327485 0.000331664 0.00031755 0.000299517 0.000300493 0.000325173 0.000327416 0.000331374 0.000317189 0.000299416 0.000300665 0.00032548 0.000327557 0.000331149 0.000316955 0.000299384 0.000300917 0.000325768 0.000327697 0.000331105 0.000316868 0.000299194 0.000301124 0.00032593 0.000327729 0.000331204 0.000316909 0.000298836 0.000301298 0.000326044 0.000327726 0.000331204 0.000317026 0.000298283 0.000301431 0.000326237 0.000327601 0.00033133 0.000317168 0.000297666 0.000301538 0.000326318 0.000327285 0.000331571 0.000317292 0.000297203 0.000301849 0.000326155 0.000327061 0.000332058 0.000317789 0.000296964 0.000302521 0.000325374 0.000326761 0.000332377 0.000319948 0.00029652 0.000304429 0.000324073 0.000326104 0.000331407 0.000324591 0.000294171 0.000309354 0.000323404 0.000325186 0.000331255 0.000331255 0.000310889 0.000300774 0.000330144 0.000330144 0.000325849 0.00031694 0.000306848 0.000301911 0.000326165 0.000330445 0.000327412 0.00031223 0.000304305 0.000301353 0.000327227 0.000331101 0.000329459 0.000311953 0.000302333 0.000301444 0.000326905 0.000330854 0.000330238 0.000311659 0.000301544 0.000301621 0.000326771 0.000330688 0.000330261 0.000311279 0.000301608 0.000301683 0.000326867 0.000330714 0.000329972 0.000310805 0.000301995 0.000301786 0.000327094 0.000330925 0.000329761 0.000310509 0.000302323 0.000301945 0.000327219 0.00033111 0.000329661 0.000310383 0.000302377 0.000302138 0.000327315 0.000331202 0.000329646 0.000310474 0.000302098 0.000302283 0.000327363 0.000331167 0.000329574 0.000310799 0.000301574 0.00030231 0.000327437 0.000331005 0.000329531 0.000311228 0.000300978 0.000302178 0.00032741 0.000330888 0.000329597 0.000311829 0.000300388 0.000302074 0.000327089 0.000331029 0.000329726 0.000312596 0.000300028 0.000302333 0.000326565 0.000331474 0.000329524 0.000315102 0.000300154 0.00030332 0.000325926 0.000330773 0.000327785 0.000320474 0.000298448 0.000305646 0.000326044 0.000328449 0.000324951 0.000324951 0.000313889 0.000302062 0.000328866 0.000328866 0.000329526 0.000317878 0.000309656 0.000303833 0.000322689 0.000330052 0.000332432 0.000312788 0.0003076 0.000303255 0.000323381 0.000331587 0.000332337 0.00031144 0.000306644 0.00030355 0.000323883 0.000332374 0.000332192 0.000310745 0.000306663 0.000303836 0.000323951 0.000332918 0.000332007 0.000310274 0.000307332 0.000303944 0.000323848 0.000333337 0.000331777 0.000309887 0.000308115 0.000303967 0.000323728 0.00033367 0.000331621 0.000309653 0.000308681 0.000304011 0.000323681 0.000333863 0.00033156 0.000309561 0.000308815 0.000304113 0.000323641 0.000333941 0.000331513 0.00030969 0.000308467 0.000304184 0.000323666 0.000333906 0.000331374 0.000310045 0.000307768 0.000304132 0.0003237 0.000333849 0.000331154 0.000310565 0.000306967 0.000303916 0.000323695 0.000333974 0.000330861 0.000311226 0.000306303 0.000303496 0.000323628 0.000334392 0.000330341 0.00031194 0.000305693 0.000303375 0.000323724 0.000335467 0.00032908 0.000313101 0.000306391 0.000303628 0.000324841 0.000335692 0.000326338 0.000317551 0.000306605 0.000303583 0.000326459 0.000331962 0.000321692 0.000321692 0.000316285 0.000303763 0.000324616 0.000324616 0.000334794 0.000323139 0.000312663 0.000305688 0.000318221 0.000328538 0.000339194 0.000319112 0.000311409 0.000305826 0.000317011 0.000331695 0.000337637 0.000317056 0.000311377 0.000306464 0.000317204 0.000333985 0.000336778 0.000316268 0.000312102 0.000306798 0.000316998 0.000335201 0.000336354 0.000316012 0.000313099 0.000306878 0.000316618 0.000335771 0.000336152 0.000315895 0.000313984 0.000306837 0.000316302 0.000336039 0.000336128 0.000315864 0.000314499 0.000306776 0.000316016 0.00033613 0.000336121 0.000315898 0.000314519 0.000306793 0.000315886 0.000336127 0.000336149 0.000316035 0.000313986 0.000306851 0.000315842 0.000336112 0.000336046 0.000316293 0.00031312 0.000306886 0.000315882 0.000336152 0.000335768 0.000316624 0.000312128 0.00030681 0.000316 0.000336334 0.000335194 0.000316993 0.000311443 0.00030651 0.000316281 0.000336756 0.000333966 0.000317196 0.000311427 0.000305844 0.000317073 0.000337632 0.00033168 0.000316993 0.000312696 0.000305703 0.00031915 0.00033918 0.000328528 0.00031821 0.000316302 0.000303766 0.000323153 0.000334791 0.000324592 0.000324592 0.000315964 0.000305411 0.000314997 0.000314997 0.000340628 0.000334233 0.000316521 0.000307585 0.000312362 0.000325664 0.000345242 0.000332101 0.000315666 0.000309004 0.00031063 0.000331145 0.000342782 0.000330069 0.000315323 0.000310202 0.000310066 0.000335144 0.000341611 0.000329768 0.000315611 0.000310635 0.000309512 0.000336786 0.000341114 0.00032998 0.000316285 0.000310703 0.00030899 0.000337109 0.000340972 0.000330277 0.000316933 0.000310653 0.000308504 0.000336982 0.000341017 0.000330531 0.00031727 0.000310546 0.000308054 0.000336713 0.000341167 0.000330803 0.000317077 0.000310487 0.000307706 0.000336534 0.00034134 0.000331079 0.000316378 0.000310513 0.000307464 0.000336498 0.000341401 0.000331326 0.000315285 0.000310583 0.000307397 0.000336687 0.000341282 0.000331481 0.000314088 0.00031066 0.000307541 0.000337003 0.00034076 0.000331404 0.000313233 0.00031073 0.000308075 0.000337389 0.000339546 0.00033087 0.000313467 0.00031057 0.000309113 0.000337778 0.000337406 0.000329524 0.00031617 0.000308846 0.000310729 0.000338071 0.000334762 0.00032736 0.000324089 0.000306377 0.000312522 0.000338132 0.000336789 0.000336789 0.000299065 0.000307921 0.000332612 0.000332612 0.000333194 0.00033319 0.000306256 0.000306156 0.00031712 0.000330254 0.000324976 0.000331712 0.000313103 0.000302366 0.000322739 0.000331262 0.000319443 0.000328281 0.000316515 0.000302018 0.000325818 0.000334335 0.000315487 0.000324793 0.00031827 0.00030267 0.000327315 0.000336892 0.000313118 0.00032251 0.000319392 0.000303051 0.000328091 0.00033853 0.000311652 0.000321022 0.000320031 0.000303503 0.000328538 0.000339579 0.000310866 0.000320104 0.000320401 0.000304064 0.000328823 0.000340183 0.00031071 0.000319478 0.000320591 0.000304356 0.000328928 0.000340475 0.000311177 0.000319065 0.000320657 0.000304221 0.000328979 0.00034068 0.000311866 0.000318691 0.000320793 0.000303352 0.000329038 0.000340935 0.000311515 0.000318748 0.000320488 0.000303393 0.000329435 0.000340776 0.000312078 0.000318096 0.000319975 0.000302879 0.000329908 0.000340653 0.000313318 0.000316395 0.000319142 0.000301879 0.000330606 0.000341222 0.000313536 0.000313025 0.000317705 0.000300817 0.000332495 0.000343146 0.000310349 0.000306861 0.000316283 0.000297034 0.000338237 0.000347854 0.000297407 0.000297407 0.000300073 0.000305567 0.000327432 0.000327432 0.000326535 0.000327905 0.000303016 0.00030571 0.000324969 0.000325255 0.000333682 0.000330656 0.00030292 0.000304191 0.000315019 0.000325246 0.000329768 0.00032748 0.000306527 0.000303912 0.000316617 0.00032732 0.00032758 0.000324851 0.000308502 0.000304118 0.000317952 0.000328994 0.000326665 0.000323462 0.000309579 0.00030416 0.000318709 0.00032998 0.000326111 0.000322623 0.000310107 0.000304354 0.000319221 0.000330566 0.00032582 0.000322158 0.000310216 0.000304603 0.000319525 0.00033086 0.000325719 0.000321867 0.00031012 0.00030479 0.000319785 0.000331086 0.000325946 0.000321593 0.000309895 0.000304738 0.000319981 0.000331369 0.000326255 0.000321216 0.000309811 0.000304274 0.000320259 0.000331741 0.000326149 0.00032128 0.000309377 0.000304134 0.000320763 0.000331471 0.000326438 0.000321028 0.000308727 0.000304468 0.000321254 0.000331318 0.000327099 0.00032003 0.000308028 0.000304865 0.000321706 0.000331522 0.000327188 0.000318293 0.000306702 0.000305435 0.000322629 0.000332571 0.000324975 0.000316034 0.000304926 0.000304632 0.000325571 0.000334864 0.000316321 0.000316321 0.000302143 0.000302169 0.000325784 0.000325784 0.000323769 0.000323524 0.000301604 0.000300877 0.000325075 0.000324992 0.000326377 0.000323607 0.000301507 0.000302001 0.000322464 0.000325608 0.00033146 0.000323696 0.000300837 0.000301787 0.000317935 0.000325285 0.000330601 0.000321923 0.000301714 0.000301512 0.000318302 0.00032597 0.000330019 0.00032114 0.00030242 0.000301253 0.000319033 0.000326328 0.000329564 0.000320691 0.000302738 0.000301235 0.000319618 0.000326564 0.000329237 0.000320416 0.000302773 0.000301391 0.000320042 0.000326727 0.000329136 0.000320319 0.00030257 0.000301592 0.00032032 0.000326836 0.000329249 0.000320245 0.00030215 0.000301718 0.000320552 0.000327022 0.000329443 0.000320112 0.000301815 0.00030157 0.000320787 0.000327266 0.000329267 0.000320332 0.000301498 0.000301493 0.00032112 0.00032692 0.00032918 0.000320545 0.000301174 0.000301831 0.000321381 0.000326489 0.000329426 0.000320452 0.000301093 0.000302365 0.00032126 0.000326261 0.000329585 0.000320271 0.000300846 0.000303456 0.000320939 0.000326524 0.000328467 0.000320675 0.000299774 0.000306638 0.000321581 0.000327382 0.000324591 0.000324591 0.000304351 0.000300364 0.000325186 0.000325186 0.00032333 0.0003203 0.000301474 0.000300435 0.000323875 0.000325405 0.000324628 0.000318652 0.000300399 0.000299812 0.000323665 0.000325985 0.000326743 0.000317888 0.000299259 0.000300715 0.000322293 0.000326171 0.000328831 0.000317697 0.000299191 0.000300494 0.000321697 0.000325574 0.000328536 0.000317184 0.00029935 0.000300305 0.000321978 0.000325538 0.000327935 0.000316656 0.000299502 0.000300317 0.000322346 0.0003257 0.000327481 0.000316273 0.000299537 0.000300412 0.000322651 0.000325907 0.000327237 0.000316111 0.000299383 0.000300547 0.000322888 0.000326095 0.000327163 0.000316115 0.000299014 0.0003007 0.000323084 0.000326281 0.000327181 0.00031621 0.000298541 0.000300714 0.000323285 0.000326471 0.000327014 0.000316545 0.000298251 0.000300577 0.000323463 0.000326272 0.000326862 0.000317036 0.000298061 0.000300625 0.000323462 0.000325964 0.000326994 0.000317439 0.000298212 0.000300885 0.000323018 0.000325838 0.000327361 0.000318258 0.000298671 0.00030151 0.000322067 0.00032573 0.000326889 0.000320347 0.000298404 0.000304133 0.000321612 0.000325479 0.000324409 0.000324409 0.000305868 0.000300248 0.00032446 0.000324461 0.000324997 0.000319537 0.000302535 0.000301346 0.000321478 0.000325548 0.000326445 0.000317285 0.000301251 0.000300763 0.000321477 0.000326228 0.000326678 0.000315761 0.000300409 0.000300887 0.000321921 0.000326354 0.000327618 0.000315609 0.000300136 0.000301123 0.000321583 0.000326118 0.00032754 0.000315263 0.000300398 0.000301169 0.000321488 0.000326133 0.000327101 0.000314762 0.000300803 0.000301221 0.000321587 0.000326381 0.000326734 0.000314348 0.000301056 0.000301284 0.000321685 0.000326689 0.00032647 0.000314133 0.000301043 0.000301392 0.000321814 0.000326926 0.000326283 0.000314136 0.000300665 0.000301415 0.000322024 0.000327111 0.000326085 0.000314297 0.000300194 0.000301369 0.000322278 0.000327344 0.000325813 0.000314772 0.000299782 0.000301186 0.000322485 0.000327467 0.000325663 0.000315295 0.000299513 0.000300945 0.00032247 0.000327434 0.00032562 0.000315534 0.000299501 0.000301077 0.000322444 0.000327829 0.000325727 0.000316215 0.000300174 0.000301329 0.00032232 0.000327851 0.000325124 0.000318733 0.000300944 0.000301926 0.000322336 0.000326464 0.000322618 0.000322618 0.000306557 0.00030143 0.000323458 0.000323458 0.00032803 0.00032147 0.000304241 0.000302446 0.000318988 0.000325805 0.00033053 0.000319563 0.00030322 0.00030213 0.000317407 0.000327061 0.000330065 0.000318012 0.000303183 0.00030206 0.000317826 0.000327522 0.000329719 0.000317841 0.000303375 0.000302429 0.000317556 0.00032768 0.000329441 0.000317573 0.000303947 0.000302654 0.000317199 0.00032798 0.000329196 0.000317202 0.000304554 0.000302738 0.000316904 0.000328342 0.000328997 0.000316909 0.000304968 0.000302746 0.000316768 0.000328607 0.000328833 0.000316766 0.000304963 0.000302759 0.000316749 0.000328795 0.000328643 0.000316775 0.000304563 0.000302757 0.00031691 0.000328957 0.000328335 0.00031692 0.000303925 0.000302683 0.000317236 0.00032917 0.000327983 0.000317241 0.000303416 0.000302437 0.000317604 0.000329405 0.000327702 0.000317618 0.000303226 0.00030208 0.000317834 0.000329665 0.000327535 0.000317871 0.000303269 0.000302111 0.000317996 0.000330012 0.000327047 0.000317406 0.000304282 0.000302464 0.00031957 0.00033052 0.000325787 0.000318963 0.000306581 0.000301446 0.000321499 0.000328059 0.000323412 0.000323412 0.000306573 0.00030357 0.000321722 0.000321722 0.000331953 0.00032646 0.000306361 0.00030361 0.000317558 0.000326356 0.000335701 0.000324847 0.000305674 0.000303386 0.000313087 0.000329085 0.000335491 0.000323726 0.000306274 0.000303462 0.00031194 0.000330341 0.000334448 0.000323623 0.00030697 0.000303901 0.000311195 0.000330872 0.000333992 0.000323681 0.000307785 0.000304123 0.000310551 0.000331162 0.000333883 0.00032368 0.000308459 0.000304152 0.000310045 0.000331369 0.000333919 0.000323643 0.000308802 0.000304066 0.00030969 0.000331505 0.000333935 0.00032365 0.00030869 0.000304008 0.000309574 0.000331548 0.000333877 0.00032368 0.000308112 0.000303975 0.000309634 0.000331622 0.000333679 0.000323754 0.000307326 0.000303978 0.000309887 0.000331777 0.00033334 0.000323866 0.000306697 0.000303864 0.000310287 0.00033196 0.000332934 0.000323979 0.000306687 0.000303587 0.000310746 0.000332166 0.000332365 0.000323906 0.000307637 0.000303273 0.000311432 0.000332298 0.000331591 0.000323377 0.000309663 0.000303857 0.000312769 0.000332417 0.000330032 0.000322649 0.000313909 0.000302081 0.000317889 0.000329545 0.000328816 0.000328816 0.00030575 0.00030604 0.000317142 0.000317142 0.000336328 0.00033558 0.00031007 0.000305248 0.000317415 0.000325857 0.000340566 0.000332974 0.000309509 0.000304942 0.000311232 0.000331747 0.00034103 0.000332677 0.000309454 0.000305098 0.00030798 0.000334219 0.000339996 0.000332858 0.000309854 0.000305392 0.000306245 0.000334933 0.000339683 0.000333396 0.000310509 0.000305414 0.000305394 0.00033474 0.000339762 0.000333873 0.000311013 0.000305294 0.000304984 0.000334389 0.000339978 0.000334193 0.000311119 0.000305095 0.00030474 0.000334107 0.000340207 0.000334457 0.000310647 0.000304937 0.000304585 0.000334007 0.000340345 0.000334635 0.000309725 0.000304869 0.000304473 0.000334077 0.000340346 0.000334667 0.000308594 0.000304873 0.000304478 0.000334315 0.000340183 0.000334524 0.00030775 0.000304904 0.000304693 0.000334592 0.000339796 0.000334182 0.000307854 0.000304928 0.000305188 0.000334733 0.000339064 0.000333581 0.00030967 0.000304962 0.000305945 0.000334467 0.000337983 0.000332702 0.00031398 0.00030417 0.000306805 0.000333489 0.000337615 0.000332141 0.000321364 0.000302377 0.000307108 0.000331854 0.000340223 0.000340223 0.000298618 0.000295016 0.000327653 0.000327653 0.000331325 0.00033076 0.00030739 0.000299774 0.000321734 0.000331688 0.000324108 0.000329266 0.00031145 0.000297381 0.000325765 0.000331545 0.000319688 0.000327096 0.000313423 0.000295476 0.00032834 0.000333729 0.000315773 0.00032416 0.000314541 0.000295301 0.0003299 0.000336366 0.000312673 0.000321632 0.000315362 0.000295623 0.000330803 0.000338366 0.000310493 0.000319867 0.000316046 0.000295895 0.000331335 0.000339723 0.000309073 0.000318663 0.000316632 0.000296409 0.000331685 0.000340572 0.000308313 0.000317837 0.00031704 0.000296968 0.000331918 0.000341052 0.00030832 0.000317338 0.000317197 0.000297372 0.00033206 0.000341265 0.000308989 0.000317099 0.000317091 0.000297223 0.000332073 0.000341261 0.000309997 0.000316955 0.000316956 0.000296214 0.000332176 0.000341362 0.000308342 0.00031744 0.000316189 0.000297902 0.000333044 0.000340986 0.000308922 0.00031668 0.000315118 0.000298878 0.000334214 0.000340735 0.000309766 0.000314681 0.000313531 0.00029996 0.000336531 0.000341343 0.000307821 0.00031008 0.000311889 0.000297903 0.000342757 0.000345135 0.000298899 0.000298899 0.00029853 0.000302272 0.000324785 0.000324785 0.000327867 0.000326675 0.000301838 0.000300736 0.000323269 0.000325553 0.000330773 0.000326721 0.000302255 0.000300933 0.000316324 0.000327564 0.000327705 0.000324326 0.000304959 0.000300908 0.000317627 0.000329371 0.000325539 0.000321861 0.000306213 0.000301308 0.000318774 0.000331061 0.000324341 0.000320019 0.000306857 0.000301787 0.000319407 0.000332331 0.000323796 0.000318937 0.000307222 0.000302117 0.000319756 0.000333152 0.000323465 0.000318304 0.000307412 0.000302382 0.000320006 0.000333592 0.000323237 0.000317956 0.00030743 0.000302593 0.000320282 0.000333819 0.000323249 0.000317686 0.000307296 0.000302706 0.000320571 0.000334027 0.000323465 0.000317424 0.000307108 0.000302549 0.000320883 0.000334187 0.000323827 0.000317152 0.000307274 0.000302075 0.000321133 0.000334363 0.00032315 0.000318042 0.000306765 0.000302622 0.000321786 0.000333358 0.000323149 0.000317977 0.000306065 0.000303472 0.000322565 0.000333027 0.000322853 0.000316955 0.000305025 0.000303826 0.000324028 0.000333344 0.000320091 0.000314655 0.000303713 0.000300472 0.000328452 0.000335528 0.000309579 0.000309579 0.000300209 0.000300897 0.000322913 0.000322914 0.000324644 0.00032335 0.000300038 0.000300004 0.000322618 0.000323787 0.000326251 0.000322635 0.000300577 0.000300937 0.000320998 0.000325169 0.000330448 0.000322233 0.000299683 0.000301192 0.000316166 0.000326311 0.000328998 0.000320008 0.000300755 0.000301493 0.000316952 0.000327614 0.000328164 0.000318628 0.000301504 0.000301661 0.000317848 0.000328405 0.000327844 0.000317968 0.000301902 0.000301733 0.000318407 0.000328837 0.000327606 0.000317587 0.000302027 0.000301838 0.000318787 0.000329081 0.00032745 0.000317419 0.000301922 0.00030196 0.0003191 0.000329224 0.000327409 0.000317312 0.00030157 0.000302071 0.000319337 0.000329394 0.000327407 0.000317057 0.0003012 0.000302001 0.000319639 0.000329662 0.000327342 0.000316773 0.000301422 0.000301662 0.000320053 0.000330035 0.000326718 0.00031788 0.000301352 0.000301546 0.0003204 0.0003288 0.000326255 0.000318429 0.000301234 0.000301923 0.000320784 0.000328108 0.000325904 0.000318306 0.000301171 0.000302184 0.000321244 0.000328053 0.000324295 0.000317968 0.000300699 0.000302415 0.000323058 0.000328829 0.000317963 0.000317963 0.000301976 0.00029971 0.000321719 0.000321719 0.000324019 0.000321432 0.000299877 0.000299801 0.000320996 0.000323133 0.000324891 0.000320425 0.000299546 0.00029961 0.000320755 0.000323972 0.00032619 0.000319417 0.000299116 0.000300589 0.000319626 0.000324818 0.000328287 0.000318935 0.000298734 0.000300756 0.000318148 0.000325076 0.000327534 0.000317946 0.000299242 0.00030073 0.000318786 0.000325475 0.000326941 0.000317347 0.000299674 0.000300649 0.000319344 0.000325776 0.00032649 0.000316977 0.000299886 0.000300633 0.000319723 0.000326045 0.000326174 0.000316751 0.000299828 0.000300698 0.000319998 0.000326301 0.000325949 0.000316586 0.000299472 0.00030079 0.00032027 0.000326601 0.000325814 0.000316458 0.000299023 0.00030087 0.000320543 0.000326983 0.000325657 0.000316253 0.000299002 0.000300671 0.000320968 0.00032752 0.000325202 0.000317015 0.000299087 0.000300189 0.00032121 0.00032669 0.000324709 0.000317729 0.000299233 0.000300237 0.000321419 0.000326092 0.000324522 0.00031804 0.000299782 0.000300256 0.000321431 0.000325962 0.00032382 0.000318722 0.000300644 0.000300918 0.000321825 0.000325806 0.000320308 0.000320308 0.000302298 0.00029986 0.000321463 0.000321463 0.000324908 0.000321072 0.000300098 0.000300235 0.000319227 0.000323459 0.000325771 0.000320465 0.000299312 0.000300109 0.000318516 0.000323884 0.000325859 0.000319821 0.00029908 0.000300113 0.000318468 0.000324064 0.000326313 0.000319499 0.000298943 0.000300621 0.000318004 0.000324299 0.000326668 0.00031919 0.000299323 0.000300686 0.000317749 0.000324449 0.00032613 0.000318752 0.000299763 0.000300651 0.000317817 0.000324663 0.000325639 0.000318356 0.000300068 0.000300619 0.000317935 0.000324953 0.000325271 0.000318083 0.000300067 0.000300629 0.000318072 0.000325257 0.000324954 0.000317931 0.000299785 0.000300657 0.000318348 0.000325641 0.000324669 0.000317858 0.000299337 0.000300684 0.000318744 0.000326113 0.000324469 0.000317793 0.000299019 0.000300643 0.000319184 0.00032663 0.000324314 0.000318034 0.000299115 0.000300124 0.000319478 0.000326264 0.000324036 0.000318441 0.000299403 0.000300128 0.000319862 0.000325843 0.00032388 0.000318495 0.000300157 0.000300238 0.000320499 0.000325785 0.000323461 0.000319205 0.00030232 0.00029984 0.000321106 0.000324946 0.000321409 0.000321409 0.000300914 0.000301911 0.00032265 0.00032265 0.00032645 0.000322305 0.00030015 0.00030132 0.000318738 0.00032514 0.00032787 0.000322312 0.000299459 0.000301068 0.000316215 0.000325742 0.000327839 0.000322434 0.000299468 0.000300933 0.000315507 0.000325625 0.000327467 0.000322481 0.000299744 0.000301156 0.000315252 0.000325634 0.000327518 0.000322505 0.000300192 0.000301366 0.000314694 0.000325779 0.000327382 0.000322239 0.000300682 0.00030142 0.000314286 0.000326075 0.000327167 0.000321999 0.000301038 0.000301373 0.000314102 0.000326268 0.000326952 0.000321824 0.000301076 0.000301295 0.000314104 0.000326453 0.000326691 0.000321686 0.000300803 0.000301231 0.000314341 0.000326735 0.000326408 0.000321623 0.000300395 0.00030117 0.000314757 0.000327075 0.000326144 0.00032152 0.000300176 0.000301103 0.000315265 0.000327514 0.000326109 0.000321619 0.000300492 0.000300914 0.0003156 0.000327606 0.000326346 0.000321959 0.000301313 0.000300766 0.000315727 0.000326666 0.000326189 0.000321463 0.00030259 0.000301361 0.000317302 0.000326463 0.000325514 0.000321438 0.000305897 0.00030024 0.000319573 0.000325027 0.0003244 0.0003244 0.000298407 0.000305626 0.000324975 0.000324975 0.000328435 0.000326019 0.000300136 0.00030329 0.00032047 0.000327806 0.000330786 0.000325928 0.000299999 0.000302306 0.000315089 0.000329552 0.000331466 0.000326588 0.00030037 0.000302068 0.000312597 0.000329727 0.00033107 0.000327097 0.000300958 0.000302168 0.000311806 0.00032959 0.000330936 0.000327402 0.000301575 0.000302305 0.000311199 0.000329522 0.000331039 0.000327412 0.000302078 0.00030227 0.000310755 0.000329582 0.000331176 0.000327336 0.00030238 0.00030213 0.000310473 0.000329657 0.000331228 0.000327298 0.000302366 0.000301955 0.000310382 0.00032965 0.000331133 0.000327209 0.000302005 0.000301795 0.000310512 0.000329758 0.000330959 0.000327078 0.000301621 0.000301675 0.000310818 0.000329947 0.000330732 0.000326888 0.000301568 0.00030165 0.000311261 0.000330231 0.000330703 0.000326797 0.000302404 0.000301496 0.000311644 0.000330224 0.00033086 0.000326921 0.000304366 0.000301378 0.000311945 0.000329451 0.000331094 0.000327232 0.000306873 0.000301922 0.000312223 0.000327422 0.000330404 0.000326129 0.000310903 0.000300776 0.000316941 0.00032587 0.000330086 0.000330086 0.000295982 0.000309435 0.000325179 0.000325179 0.000331024 0.000333839 0.000301306 0.000306112 0.000325653 0.000329473 0.000334066 0.000332178 0.000302275 0.00030402 0.00031698 0.000334347 0.000335869 0.00033301 0.000302186 0.000303272 0.000312152 0.000335439 0.000335965 0.000333873 0.000302698 0.000303028 0.00031056 0.000334917 0.000336032 0.000334351 0.000303422 0.000302865 0.000310285 0.000334204 0.00033634 0.000334602 0.000303923 0.000302651 0.00031046 0.000333712 0.000336657 0.00033474 0.000304015 0.000302395 0.000310622 0.000333468 0.000336889 0.000334865 0.000303593 0.000302145 0.00031068 0.000333403 0.000336976 0.000334814 0.000302919 0.000301957 0.000310701 0.000333525 0.000336927 0.000334542 0.000302333 0.000301811 0.000310768 0.000333775 0.00033678 0.000334069 0.000302384 0.000301795 0.000310985 0.000334043 0.000336631 0.000333508 0.000303684 0.000301821 0.000311345 0.000334029 0.000336407 0.00033312 0.000306727 0.000301969 0.00031171 0.000333261 0.000336059 0.000333231 0.000311526 0.000301704 0.000311654 0.000331093 0.000336801 0.000334538 0.000316486 0.000299435 0.000310398 0.000327957 0.000338383 0.000338383 0.000300735 0.000287651 0.0003238 0.0003238 0.000329922 0.000330904 0.000309166 0.000297039 0.000327965 0.000330261 0.000325579 0.000331103 0.000309964 0.000296629 0.000329929 0.000328523 0.000323164 0.000330495 0.000310391 0.000294838 0.000331688 0.000329043 0.000320876 0.000328743 0.000310761 0.000293582 0.00033296 0.000330661 0.00031839 0.000326754 0.000311093 0.000293327 0.000334016 0.000332349 0.000316088 0.000325105 0.000311454 0.000293486 0.000334905 0.000333645 0.000314262 0.000323887 0.000311959 0.000293788 0.000335535 0.000334494 0.000312978 0.000323064 0.000312426 0.00029432 0.000335977 0.000335056 0.000312377 0.000322587 0.000312677 0.000294937 0.0003362 0.000335372 0.000312543 0.000322515 0.000312672 0.000295443 0.000336166 0.00033535 0.000313509 0.000322698 0.000312118 0.000295487 0.000335991 0.000335162 0.000314749 0.00032296 0.000311209 0.000294653 0.000336237 0.000335181 0.000311623 0.000322808 0.000310251 0.000298131 0.000337972 0.000335603 0.000311524 0.000321739 0.000309161 0.0003003 0.000340293 0.000335937 0.000311267 0.000318881 0.000307315 0.00029978 0.000344803 0.000338983 0.000309268 0.000309268 0.000298464 0.000299688 0.000322261 0.000322261 0.000329319 0.000326887 0.000301061 0.000296608 0.000322568 0.000325378 0.00032703 0.000324446 0.000302334 0.000298454 0.000320145 0.000327896 0.000325771 0.000323621 0.000303597 0.000298974 0.00032047 0.000328698 0.00032457 0.000322066 0.000303964 0.000299185 0.000320754 0.000329829 0.000323404 0.000320338 0.000304075 0.000299605 0.000321087 0.00033103 0.000322588 0.000319039 0.000304124 0.000300031 0.000321355 0.000331943 0.0003221 0.000318224 0.000304248 0.000300359 0.000321519 0.000332504 0.000321746 0.000317772 0.000304362 0.00030056 0.000321774 0.000332779 0.000321579 0.000317513 0.000304476 0.000300741 0.000322101 0.000332993 0.000321613 0.000317445 0.000304512 0.000300718 0.000322463 0.00033307 0.000321919 0.000317583 0.000304344 0.000300545 0.000322679 0.00033295 0.000322182 0.000317716 0.000304336 0.000300209 0.000322793 0.000332605 0.000320671 0.00031906 0.000303749 0.000301841 0.000324223 0.000331907 0.000319955 0.000318987 0.000303027 0.000302263 0.000326288 0.000331807 0.000317439 0.000317279 0.000302106 0.000298717 0.000330968 0.000333209 0.000309769 0.000309769 0.000299059 0.000300066 0.000320087 0.000320087 0.000326602 0.000324212 0.000299453 0.000300122 0.000320947 0.000323183 0.000327166 0.000322337 0.000300096 0.000300429 0.000320129 0.000325144 0.000329787 0.000321098 0.00029932 0.000301345 0.000315963 0.000327128 0.000328971 0.000319336 0.00030003 0.000301998 0.000316231 0.000328415 0.000328313 0.000317886 0.000300392 0.000302437 0.000316737 0.000329356 0.000327949 0.000316943 0.000300602 0.000302724 0.000317124 0.000329955 0.000327803 0.000316457 0.000300699 0.000302873 0.000317372 0.000330295 0.000327695 0.000316198 0.000300646 0.000302932 0.00031757 0.00033046 0.000327548 0.000316045 0.000300546 0.000302934 0.000317856 0.000330576 0.000327366 0.000315858 0.000300314 0.000302752 0.000318262 0.000330708 0.00032707 0.000315586 0.000300076 0.000302378 0.000318914 0.000330944 0.000326684 0.00031548 0.00030072 0.00030183 0.000319612 0.000331162 0.000325311 0.000317934 0.000300571 0.000301822 0.000320503 0.000329139 0.000324109 0.000318577 0.000300269 0.000301583 0.000321987 0.000328578 0.000322002 0.000318161 0.000299948 0.000300176 0.000324729 0.000329009 0.000315656 0.000315656 0.000300482 0.000299847 0.000319083 0.000319083 0.000325902 0.000322671 0.000299603 0.0003 0.000319251 0.000322575 0.000326227 0.000321362 0.000299567 0.000300221 0.000319061 0.000323913 0.000327129 0.000320283 0.000299514 0.000301029 0.000318029 0.000325077 0.000329426 0.00031973 0.00029885 0.000301516 0.000315665 0.000326063 0.000328675 0.00031862 0.00029937 0.000301724 0.000316215 0.000326718 0.000328122 0.000317938 0.000299825 0.000301751 0.000316774 0.000327098 0.000327828 0.000317574 0.000300084 0.000301731 0.000317091 0.000327345 0.000327607 0.000317308 0.000300081 0.000301739 0.000317328 0.000327579 0.000327407 0.000317096 0.000299845 0.000301744 0.000317567 0.000327803 0.000327143 0.000316798 0.000299389 0.000301729 0.00031793 0.000328077 0.000326761 0.000316261 0.000298891 0.000301508 0.000318619 0.000328632 0.000326065 0.000315689 0.000299558 0.000301054 0.000319744 0.000329431 0.000325069 0.000318044 0.000299623 0.000300241 0.000320281 0.000327107 0.000323902 0.000319069 0.00029965 0.000300028 0.000321374 0.000326236 0.000322545 0.000319236 0.000300503 0.000299854 0.000322709 0.00032591 0.000319048 0.000319048 0.00030062 0.000300905 0.000320338 0.000320338 0.000325784 0.000321805 0.000299727 0.000300243 0.000318736 0.000323838 0.000325941 0.000321437 0.000299178 0.000300226 0.000318048 0.00032451 0.000326107 0.000321401 0.000299035 0.000300175 0.000317714 0.000324701 0.000326722 0.000321182 0.000298975 0.000300653 0.000316982 0.000325173 0.000327557 0.000320943 0.000299021 0.000300833 0.000316225 0.00032564 0.000327014 0.000320541 0.000299473 0.0003008 0.000316434 0.000325795 0.000326622 0.000320252 0.000299821 0.000300677 0.000316602 0.000325937 0.000326303 0.000319972 0.000299895 0.000300639 0.000316748 0.000326161 0.000326052 0.000319712 0.000299668 0.000300638 0.000316968 0.000326466 0.000325786 0.000319347 0.000299243 0.000300693 0.000317363 0.000326904 0.000325479 0.000318801 0.000298796 0.000300776 0.000317956 0.000327518 0.000325082 0.000318196 0.000299173 0.000300616 0.000318922 0.000328254 0.000324819 0.000319666 0.000299596 0.000299625 0.000319404 0.000326151 0.000323986 0.000320773 0.000299921 0.000299816 0.000320422 0.000324886 0.000323118 0.000320962 0.000302019 0.000299719 0.000321446 0.000324053 0.000321652 0.000321652 0.000298368 0.000304117 0.00032443 0.00032443 0.000325477 0.000321583 0.00029863 0.000301489 0.000320341 0.000326925 0.000325729 0.000322071 0.000298171 0.000300857 0.00031825 0.000327355 0.00032584 0.000323024 0.00029802 0.000300598 0.000317417 0.000326984 0.000325989 0.000323462 0.000298223 0.000300546 0.000316993 0.000326857 0.000326298 0.000323482 0.000298556 0.000300685 0.0003165 0.000327007 0.000326499 0.000323285 0.000298994 0.00030068 0.00031616 0.000327178 0.000326295 0.000323085 0.000299384 0.000300556 0.000316056 0.000327164 0.000326082 0.00032287 0.000299574 0.000300413 0.000316082 0.000327232 0.000325913 0.000322666 0.00029952 0.000300308 0.000316254 0.000327455 0.00032571 0.000322346 0.000299356 0.000300335 0.000316657 0.000327923 0.00032553 0.000321975 0.000299228 0.000300514 0.000317186 0.000328528 0.000325575 0.000321698 0.000299335 0.000300728 0.000317722 0.000328814 0.000326183 0.000322327 0.00030045 0.000299808 0.000317909 0.000326716 0.000325981 0.000323668 0.000301531 0.000300453 0.000318664 0.000324629 0.000325381 0.000323862 0.000304372 0.000300365 0.000320302 0.000323344 0.000325134 0.000325134 0.000294135 0.000309336 0.000331263 0.000331263 0.000325174 0.000323375 0.000296491 0.000304384 0.000324611 0.000331443 0.00032611 0.000324082 0.000296936 0.000302505 0.000319935 0.00033238 0.000326769 0.000325359 0.000297181 0.000301841 0.000317786 0.000332069 0.000327098 0.000326184 0.000297655 0.000301546 0.000317245 0.000331563 0.00032732 0.000326326 0.000298283 0.000301421 0.000317153 0.000331302 0.000327625 0.000326217 0.000298825 0.000301283 0.000316998 0.000331195 0.000327757 0.000326041 0.000299209 0.000301124 0.000316898 0.000331164 0.000327765 0.000325919 0.000299414 0.000300897 0.000316855 0.000331066 0.00032771 0.00032577 0.000299448 0.000300631 0.000316941 0.000331122 0.000327576 0.000325514 0.000299522 0.000300511 0.000317164 0.000331353 0.000327421 0.000325167 0.000299837 0.000300594 0.000317559 0.000331626 0.000327509 0.000324963 0.000300654 0.000300988 0.000317851 0.000331608 0.0003283 0.000325603 0.000302564 0.000301255 0.000317777 0.000330275 0.000329326 0.000327654 0.000304931 0.000300932 0.000317106 0.000325681 0.00032925 0.000328055 0.000307941 0.000300877 0.000319754 0.000324184 0.000329517 0.000329517 0.00028877 0.00031395 0.000336152 0.000336152 0.000325501 0.000329122 0.000294769 0.000308417 0.000333319 0.000335639 0.000327465 0.000329253 0.000297238 0.00030499 0.000323684 0.000338622 0.000329239 0.000330279 0.000297732 0.000303359 0.000319623 0.000338666 0.000330152 0.00033095 0.000298403 0.000302622 0.000319384 0.000337626 0.000330544 0.000331018 0.000299294 0.000302264 0.000320317 0.000336781 0.000330828 0.000330904 0.000299908 0.000302087 0.000321099 0.000336312 0.000330995 0.000330868 0.00030015 0.000301956 0.000321534 0.000336128 0.000331036 0.000330854 0.000300032 0.000301772 0.000321686 0.000336095 0.000331009 0.000330735 0.000299868 0.00030156 0.000321685 0.000336176 0.000330892 0.000330391 0.000299966 0.000301401 0.000321679 0.000336387 0.000330741 0.000329865 0.000300706 0.000301483 0.000321787 0.000336586 0.000330642 0.000329395 0.000302419 0.000301996 0.000321896 0.000336453 0.000331018 0.000329633 0.000305333 0.000302617 0.000321836 0.0003353 0.000331526 0.000331195 0.000309315 0.00030288 0.000321189 0.000331948 0.000332924 0.00033463 0.000311572 0.000299345 0.000319123 0.000326482 0.000333958 0.000333958 0.000306329 0.000288864 0.000325599 0.000325599 0.000326752 0.000332864 0.000312661 0.000298566 0.000335517 0.000329068 0.000326126 0.000336153 0.000309842 0.000299715 0.000335166 0.000325515 0.00032626 0.000338247 0.000308875 0.000298673 0.000335386 0.000323816 0.00032614 0.000338672 0.000308575 0.000297423 0.000335686 0.000323578 0.000325516 0.000338233 0.000308494 0.000296597 0.000336249 0.000324009 0.000324423 0.000337464 0.000308474 0.000296368 0.000337036 0.000324615 0.000323185 0.000336726 0.000308548 0.00029646 0.000337879 0.000325162 0.000322129 0.000336106 0.00030871 0.000296688 0.000338563 0.00032564 0.000321434 0.000335687 0.000308796 0.000297226 0.000338973 0.000325962 0.000321315 0.000335566 0.000308822 0.000297842 0.000338967 0.000325999 0.000321853 0.000335766 0.00030872 0.000298416 0.000338569 0.000325766 0.000322904 0.000336271 0.000308181 0.000298562 0.000338083 0.000325422 0.000323552 0.000337094 0.000305838 0.000298923 0.000339188 0.000325805 0.00031988 0.000333619 0.000305445 0.000302049 0.000341536 0.000328204 0.000320556 0.000331712 0.000303891 0.000301879 0.000342257 0.000330937 0.000325909 0.000325909 0.000300796 0.000298382 0.000322206 0.000322206 0.000328935 0.000328929 0.000301533 0.000293983 0.000324813 0.000324533 0.000322467 0.000325466 0.000304135 0.000296846 0.000327687 0.000326111 0.000324185 0.000327 0.000303845 0.000297531 0.000326651 0.000325528 0.000324566 0.000327016 0.000303516 0.000297502 0.000325957 0.000325424 0.00032426 0.000326317 0.000303303 0.000297452 0.000325643 0.000325766 0.000323523 0.000325353 0.000303131 0.000297628 0.000325716 0.000326338 0.000322796 0.000324575 0.000303093 0.000297851 0.000325941 0.000326837 0.000322222 0.000324066 0.000303199 0.000298004 0.000326242 0.000327236 0.000321785 0.00032375 0.000303394 0.000298179 0.000326666 0.000327636 0.000321589 0.000323759 0.000303591 0.000298372 0.000327079 0.000327885 0.00032176 0.000324197 0.00030375 0.000298453 0.000327258 0.000327726 0.000322245 0.000325034 0.000303789 0.000298279 0.000327197 0.000327018 0.000322411 0.000325898 0.000302371 0.000297493 0.000326655 0.000325236 0.000320431 0.000325045 0.000301987 0.00030077 0.000329341 0.000327532 0.000319058 0.000323912 0.00030185 0.000299393 0.000332616 0.000328928 0.000317311 0.000317311 0.000299087 0.000299372 0.000317405 0.000317405 0.0003284 0.000326423 0.000299659 0.000300678 0.000320707 0.000321833 0.000327974 0.000323322 0.000300179 0.000299505 0.000320748 0.000323943 0.000328244 0.000321107 0.000300077 0.000300456 0.000318467 0.000326105 0.000328698 0.000320536 0.000300253 0.00030116 0.000317942 0.000326672 0.000328815 0.000319698 0.000300142 0.000301568 0.000317584 0.000327155 0.000328607 0.000318812 0.000300001 0.000301872 0.000317538 0.000327623 0.000328386 0.000318192 0.000299951 0.000301996 0.000317662 0.000327978 0.000328215 0.000317833 0.000299927 0.000302017 0.000317831 0.000328216 0.000327966 0.000317646 0.000300024 0.000301878 0.000318212 0.000328393 0.000327611 0.000317556 0.000300141 0.000301608 0.000318824 0.000328577 0.000327139 0.000317608 0.000300294 0.000301175 0.000319726 0.000328778 0.000326673 0.000317987 0.000300101 0.000300508 0.000320566 0.000328682 0.000326092 0.000318484 0.000300212 0.000299532 0.000321138 0.00032821 0.000323941 0.000320777 0.000299703 0.000300705 0.000323346 0.000327948 0.000321843 0.000320706 0.000299114 0.000299397 0.000326436 0.000328416 0.000317383 0.000317383 0.000299907 0.000300148 0.000315676 0.000315675 0.000329011 0.000324713 0.00030024 0.000301558 0.000318149 0.000322017 0.00032859 0.000321977 0.000300542 0.000301816 0.00031855 0.000324115 0.000329172 0.000320467 0.000300671 0.000301808 0.000317888 0.000325338 0.000331169 0.000319589 0.000300023 0.000302382 0.000315472 0.000326681 0.000331017 0.000318899 0.000300314 0.000302751 0.000315546 0.000327079 0.000330774 0.000318292 0.000300525 0.000302898 0.000315793 0.000327343 0.000330589 0.000317868 0.00030068 0.000302907 0.000316017 0.000327532 0.000330483 0.000317598 0.000300687 0.000302867 0.000316163 0.00032767 0.000330309 0.000317342 0.000300615 0.000302712 0.000316433 0.000327824 0.000329946 0.0003171 0.000300429 0.000302476 0.000316927 0.000327957 0.000329355 0.000316763 0.000300074 0.000302024 0.000317855 0.000328267 0.000328414 0.000316247 0.00029937 0.000301349 0.000319365 0.000328944 0.000327123 0.000315962 0.000300133 0.000300454 0.000321091 0.000329754 0.000325109 0.000320145 0.000299503 0.00030014 0.000322376 0.000327153 0.000323155 0.000320921 0.000299078 0.00030008 0.000324226 0.00032662 0.00032003 0.00032003 0.000300692 0.000302415 0.000317992 0.000317992 0.000328833 0.000323054 0.00030113 0.000302167 0.000317972 0.000324317 0.000328067 0.000321246 0.00030118 0.000301909 0.000318287 0.000325898 0.00032813 0.000320778 0.000301287 0.000301519 0.00031837 0.000326256 0.000328822 0.000320372 0.000301358 0.000301661 0.000317832 0.00032672 0.000330054 0.000320039 0.000301166 0.000302015 0.000316737 0.000327364 0.000329682 0.000319607 0.000301552 0.000302067 0.000317037 0.000327413 0.000329405 0.000319351 0.000301908 0.000301959 0.00031727 0.000327379 0.00032924 0.000319089 0.000302033 0.000301844 0.00031741 0.000327447 0.000329091 0.000318804 0.000301928 0.000301747 0.000317587 0.0003276 0.000328854 0.000318431 0.000301545 0.000301665 0.000317954 0.000327818 0.000328431 0.000317869 0.000300833 0.000301503 0.000318631 0.000328146 0.000327655 0.000316982 0.000299703 0.000301195 0.000319991 0.000328969 0.000326309 0.000316188 0.000300609 0.000300987 0.000322231 0.000330429 0.000325171 0.000321004 0.000300088 0.000300031 0.000322632 0.000326251 0.000323739 0.000322582 0.000300232 0.000300905 0.000323367 0.00032467 0.00032285 0.00032285 0.000299744 0.000306618 0.000324607 0.000324607 0.00032739 0.000321581 0.000300816 0.000303417 0.000320682 0.00032848 0.000326523 0.000320919 0.00030106 0.000302351 0.000320246 0.000329582 0.000326266 0.000321249 0.000301122 0.000301784 0.000320424 0.000329434 0.000326502 0.000321371 0.000301468 0.00030151 0.000320525 0.000329208 0.000326961 0.000321134 0.000301834 0.000301589 0.00032029 0.000329248 0.000327301 0.000320768 0.000302134 0.000301722 0.000320085 0.000329444 0.000327036 0.00032053 0.000302552 0.000301597 0.000320222 0.000329234 0.00032687 0.00032032 0.000302777 0.000301384 0.000320282 0.000329107 0.000326743 0.000320046 0.000302757 0.000301229 0.000320418 0.000329214 0.000326585 0.000319645 0.00030243 0.000301273 0.000320679 0.000329528 0.000326355 0.000319047 0.000301765 0.000301502 0.000321147 0.000329995 0.000325991 0.000318326 0.000300895 0.000301788 0.000321912 0.000330577 0.00032528 0.000317954 0.000301544 0.000302042 0.000323688 0.000331434 0.000325594 0.000322449 0.00030166 0.000300908 0.00032362 0.000326383 0.000324959 0.00032504 0.000302186 0.000302172 0.000323552 0.000323787 0.000325737 0.000325737 0.000295607 0.000312319 0.000335501 0.000335501 0.000324912 0.000321047 0.000297979 0.000306166 0.000326569 0.000334572 0.000324557 0.000321594 0.000299143 0.00030393 0.000323927 0.000335454 0.00032422 0.000322131 0.000299684 0.00030315 0.000323578 0.000335353 0.00032434 0.00032238 0.000300346 0.000302876 0.000324066 0.000334872 0.000324524 0.000322191 0.000301042 0.000302831 0.000324521 0.000334528 0.00032461 0.000321873 0.00030161 0.000302914 0.000324748 0.000334365 0.000324574 0.000321617 0.000302025 0.000302928 0.00032485 0.000334257 0.000324427 0.000321482 0.000302332 0.000302793 0.000324872 0.00033406 0.000324327 0.000321345 0.000302507 0.000302618 0.000324873 0.000334035 0.000324216 0.000321062 0.000302634 0.000302614 0.00032505 0.000334262 0.000324112 0.000320744 0.000302679 0.00030301 0.00032535 0.000334674 0.000324043 0.000320554 0.000302601 0.000303903 0.000325817 0.000335069 0.000324295 0.000321145 0.000302524 0.00030502 0.000326439 0.000334466 0.000325963 0.000324196 0.00030395 0.000302889 0.000326131 0.000328263 0.000326558 0.000328318 0.000304991 0.000303741 0.000325265 0.000324519 0.000328427 0.000328427 0.000287312 0.000316767 0.000346169 0.000346169 0.000322266 0.000323804 0.000294059 0.000310428 0.000336874 0.00034218 0.000323176 0.000325629 0.000297307 0.000306932 0.000328742 0.000343291 0.000323596 0.000325894 0.000298499 0.000305381 0.00032759 0.000343075 0.000324012 0.000325789 0.000299352 0.000304923 0.00032923 0.000342317 0.000324027 0.000325479 0.000300125 0.000305015 0.000331026 0.00034168 0.000323786 0.000325261 0.000300689 0.00030533 0.000332101 0.000341301 0.000323544 0.000325278 0.000300944 0.000305585 0.00033252 0.000341073 0.000323321 0.000325307 0.000301015 0.000305694 0.000332619 0.000340983 0.000323195 0.000325255 0.000301138 0.000305651 0.000332579 0.000340941 0.000323083 0.000325006 0.000301481 0.000305655 0.000332522 0.000341014 0.000322982 0.000324638 0.000302193 0.00030595 0.000332551 0.000341078 0.000322881 0.000324406 0.000303373 0.000306831 0.000332564 0.000340798 0.000323057 0.000324919 0.000304883 0.00030843 0.000332422 0.000339411 0.000324674 0.000327391 0.000306947 0.000309362 0.000332023 0.000335685 0.000327214 0.000332838 0.000306935 0.00030403 0.000330401 0.000326749 0.000329818 0.000329818 0.000306068 0.000301382 0.000335617 0.000335617 0.000322328 0.00033428 0.00031106 0.00030705 0.000345201 0.000330057 0.000324756 0.000339546 0.000306296 0.00030874 0.00034344 0.000326074 0.000326439 0.000343847 0.000304437 0.000308919 0.000342199 0.000322651 0.000327484 0.000346665 0.000303304 0.000308515 0.000341505 0.000320731 0.000327953 0.000348269 0.00030256 0.000308052 0.000341296 0.000319841 0.000327952 0.000349007 0.000302111 0.000307719 0.000341486 0.000319529 0.000327632 0.00034916 0.000301909 0.000307635 0.000341945 0.000319522 0.000327208 0.000348931 0.000301921 0.000307652 0.000342446 0.000319695 0.00032695 0.000348624 0.000302114 0.000307814 0.00034271 0.000319837 0.000326955 0.000348323 0.000302547 0.000308094 0.000342533 0.000319878 0.000327318 0.000348258 0.00030315 0.000308405 0.000341832 0.000319702 0.000328114 0.000348484 0.000303871 0.000308365 0.000340451 0.000319351 0.000329454 0.000349176 0.000304313 0.000307332 0.000338694 0.000319185 0.000329514 0.000351373 0.000299941 0.000309227 0.000339712 0.00031989 0.000329714 0.000343456 0.00030226 0.00030757 0.000336516 0.000322957 0.000342262 0.000342262 0.00030464 0.00030225 0.000329579 0.000329579 0.000326557 0.000332904 0.000303006 0.000296982 0.000332974 0.000326641 0.000318461 0.00033178 0.000306361 0.000299962 0.000339581 0.000325836 0.000321772 0.000334302 0.000304609 0.000300686 0.000337912 0.000325245 0.000323176 0.000335866 0.000303988 0.000300597 0.000336621 0.000323898 0.000323887 0.000336751 0.000303756 0.000300272 0.000335904 0.000323055 0.00032399 0.000336937 0.000303679 0.000300026 0.000335732 0.000322804 0.00032367 0.000336696 0.000303612 0.000299942 0.000335935 0.000322919 0.000323237 0.000336314 0.000303595 0.000299968 0.000336332 0.000323255 0.000322913 0.000335933 0.000303672 0.000300032 0.000336712 0.000323683 0.000322782 0.000335733 0.000303734 0.000300355 0.00033694 0.000323971 0.00032304 0.00033594 0.00030399 0.000300626 0.000336762 0.000323847 0.000323901 0.000336657 0.000304612 0.000300716 0.000335847 0.000323127 0.000325234 0.0003379 0.000306408 0.000300003 0.00033429 0.000321761 0.000325814 0.000339584 0.000303019 0.000297005 0.000331754 0.00031841 0.000326619 0.000332961 0.000304646 0.000302276 0.000332897 0.000326541 0.000329527 0.000329527 0.000301831 0.000299345 0.000317309 0.000317308 0.000328927 0.00033262 0.000301946 0.000300717 0.000323909 0.000319049 0.000327571 0.000329323 0.000302348 0.000297455 0.000325012 0.000320446 0.000325279 0.000326652 0.000303791 0.00029824 0.000325862 0.000322424 0.000327057 0.000327178 0.000303755 0.000298431 0.000324991 0.000322257 0.000327788 0.00032726 0.000303591 0.000298336 0.000324166 0.000321792 0.00032792 0.000327056 0.000303393 0.00029817 0.000323739 0.000321621 0.000327641 0.00032665 0.000303219 0.000297999 0.000323764 0.000321814 0.000327235 0.000326252 0.000303099 0.000297857 0.000324066 0.000322214 0.000326832 0.00032596 0.000303159 0.00029764 0.00032457 0.000322761 0.000326333 0.000325714 0.000303301 0.000297479 0.000325338 0.000323485 0.000325779 0.000325653 0.000303551 0.000297515 0.000326286 0.000324208 0.000325412 0.000325967 0.000303871 0.000297551 0.000327037 0.000324547 0.000325532 0.000326647 0.000304186 0.000296886 0.000327009 0.000324185 0.000326101 0.000327679 0.000301575 0.000293992 0.000325464 0.000322453 0.000324528 0.000324792 0.000300852 0.000298393 0.000328955 0.000328974 0.000322162 0.000322162 0.000302077 0.00029868 0.00030979 0.00030979 0.000333201 0.000330945 0.000302966 0.000302233 0.000317295 0.000317481 0.0003318 0.000326285 0.000303699 0.000301844 0.000318997 0.000319975 0.000331924 0.000324212 0.000304271 0.000300198 0.000319041 0.000320703 0.000332644 0.000322802 0.000304314 0.000300531 0.00031769 0.000322194 0.000332996 0.000322719 0.000304472 0.000300718 0.000317525 0.000321901 0.000333122 0.000322477 0.000304459 0.000300702 0.000317393 0.000321602 0.000333009 0.000322125 0.000304377 0.000300544 0.000317474 0.00032156 0.000332811 0.0003218 0.000304254 0.00030032 0.000317742 0.000321727 0.000332513 0.000321556 0.000304156 0.000300022 0.000318197 0.000322077 0.000331921 0.000321312 0.000304088 0.000299631 0.000319033 0.000322605 0.000331024 0.000321093 0.000303989 0.000299206 0.000320339 0.000323398 0.000329826 0.000320802 0.000303629 0.000298982 0.000322085 0.000324554 0.000328653 0.000320474 0.000302391 0.000298497 0.000323634 0.00032576 0.000327863 0.000320164 0.000301117 0.000296609 0.000324468 0.000327007 0.000325341 0.000322548 0.000298507 0.000299697 0.000326928 0.000329344 0.000322216 0.000322216 0.000303656 0.000300463 0.000309599 0.000309599 0.000335505 0.000328421 0.000304971 0.000303808 0.000314682 0.000320121 0.000333324 0.00032401 0.000305994 0.000303485 0.000316946 0.000322852 0.000333031 0.000322573 0.000306723 0.000302612 0.000317949 0.000323138 0.000333404 0.000321796 0.000307183 0.000302062 0.000317997 0.000323143 0.000334385 0.000321141 0.000307079 0.000302559 0.000317142 0.000323808 0.000334239 0.000320869 0.000307259 0.000302719 0.000317398 0.000323468 0.000334037 0.000320578 0.000307392 0.00030259 0.000317665 0.000323234 0.000333857 0.000320319 0.000307388 0.000302372 0.000317921 0.000323228 0.000333605 0.000320049 0.000307242 0.000302116 0.000318306 0.000323446 0.000333171 0.000319791 0.000306887 0.000301792 0.000318905 0.000323761 0.00033235 0.000319426 0.000306284 0.000301332 0.00032001 0.000324322 0.000331068 0.000318799 0.000305001 0.000300929 0.000321864 0.000325502 0.00032937 0.000317642 0.000302323 0.000300964 0.000324347 0.000327669 0.000327571 0.000316322 0.000301871 0.000300728 0.000326702 0.000330743 0.000325496 0.000323207 0.000298562 0.000302272 0.000326711 0.0003279 0.000324725 0.000324725 0.000304898 0.000304627 0.000316338 0.000316338 0.000334854 0.000325559 0.000306679 0.000305425 0.000316058 0.000325008 0.00033257 0.000322617 0.000307995 0.000304868 0.000318274 0.000327188 0.000331553 0.000321727 0.000308733 0.000304422 0.000320033 0.00032709 0.00033136 0.00032127 0.000309338 0.000304131 0.000320991 0.000326424 0.000331516 0.000320776 0.000309785 0.000304257 0.00032126 0.000326101 0.000331772 0.000320278 0.000309871 0.000304765 0.000321201 0.000326242 0.000331404 0.00031998 0.000310111 0.000304811 0.000321575 0.000325904 0.00033114 0.000319795 0.000310226 0.000304576 0.000321829 0.000325688 0.000330919 0.000319583 0.000310118 0.000304316 0.000322113 0.000325747 0.000330573 0.000319221 0.000309622 0.000304162 0.000322626 0.000326088 0.000330002 0.000318746 0.000308556 0.000304115 0.000323442 0.000326642 0.000329019 0.000317988 0.000306593 0.000303915 0.000324845 0.00032754 0.000327327 0.00031663 0.000302976 0.000304193 0.000327506 0.000329744 0.000325222 0.000315017 0.000303092 0.000305715 0.000330674 0.000333672 0.000325216 0.000324918 0.000300083 0.000305553 0.000327927 0.000326558 0.000327354 0.000327354 0.0003038 0.00031025 0.000330087 0.000330087 0.000331498 0.000322782 0.000306048 0.000307729 0.000321938 0.000332921 0.000329747 0.000322079 0.000307768 0.000306963 0.000322708 0.000333976 0.00032793 0.000321405 0.000308578 0.00030718 0.000324849 0.0003339 0.000327099 0.000320952 0.000309155 0.000307647 0.000326568 0.000333211 0.00032669 0.000320581 0.000309676 0.000308162 0.000327579 0.000332509 0.000326401 0.000320233 0.000309967 0.000308686 0.000328042 0.000332109 0.000326106 0.000319971 0.000310073 0.000309091 0.000328303 0.000331967 0.000325745 0.00031987 0.000310151 0.000309111 0.000328533 0.000331688 0.000325528 0.000319762 0.000310079 0.000308923 0.000328711 0.000331584 0.000325291 0.000319501 0.000309678 0.000308864 0.000329012 0.000331761 0.000324901 0.00031901 0.000308701 0.000309112 0.000329628 0.000332233 0.000324265 0.000318328 0.000306741 0.000309754 0.000330624 0.000332963 0.000323138 0.000317371 0.000303898 0.000310644 0.000332298 0.000334103 0.00032129 0.00031694 0.00030372 0.00031238 0.000335962 0.000336664 0.000324852 0.000327474 0.000302209 0.000309991 0.000331549 0.000326856 0.000329607 0.000329607 0.000295261 0.000314018 0.000348857 0.000348857 0.000325469 0.00032183 0.000301824 0.000310886 0.000332656 0.000344863 0.000324887 0.000323573 0.000304412 0.000310012 0.000329226 0.00034438 0.000322946 0.000322979 0.000305341 0.000310449 0.000331636 0.000344091 0.000321777 0.000322417 0.000305745 0.000311412 0.000334585 0.000343553 0.000320893 0.000322152 0.000306012 0.000312522 0.000336561 0.0003429 0.000320158 0.000322166 0.00030616 0.000313514 0.000337506 0.000342356 0.000319602 0.000322302 0.00030616 0.000314214 0.000337858 0.000341996 0.000319224 0.000322383 0.000306131 0.000314582 0.000337988 0.000341797 0.000319017 0.000322376 0.000306148 0.000314677 0.000338018 0.00034164 0.000318841 0.000322155 0.000306204 0.000314766 0.000338115 0.000341663 0.000318649 0.000321827 0.000306238 0.000315138 0.000338354 0.000341807 0.000318257 0.000321455 0.000306092 0.000316181 0.000338917 0.00034206 0.00031768 0.000321475 0.000305559 0.000318348 0.000339915 0.00034214 0.000317654 0.000322885 0.000304438 0.000321418 0.000340977 0.000340252 0.00032247 0.000329007 0.000302385 0.000314642 0.000341436 0.000328433 0.00032989 0.00032989 0.000294757 0.000321553 0.000348201 0.000348201 0.000318152 0.000335395 0.000298865 0.000321782 0.000355177 0.000336765 0.000321781 0.000340258 0.000297537 0.000324091 0.000351263 0.000332232 0.000323531 0.000344876 0.000296056 0.000325576 0.000349667 0.000328212 0.000324377 0.00034789 0.000294519 0.000326319 0.000349182 0.000326027 0.000324736 0.000349653 0.000293266 0.000326697 0.000349305 0.000324963 0.000324785 0.00035054 0.000292419 0.000326885 0.000349717 0.000324522 0.000324668 0.00035079 0.000291998 0.00032697 0.000350233 0.000324435 0.000324535 0.000350634 0.000291985 0.000326964 0.000350641 0.000324508 0.000324449 0.000350213 0.000292389 0.000326884 0.000350799 0.000324655 0.000324541 0.000349696 0.000293271 0.000326692 0.000350555 0.000324783 0.000324974 0.000349313 0.000294527 0.000326329 0.000349646 0.000324735 0.000326031 0.000349192 0.000296074 0.000325593 0.000347897 0.000324356 0.000328193 0.00034968 0.000297584 0.000324127 0.000344849 0.000323513 0.000332209 0.000351243 0.000298892 0.000321823 0.000340252 0.000321737 0.000336725 0.000355155 0.000294776 0.000321612 0.000335397 0.000318124 0.000348194 0.000348194 0.000302228 0.000307505 0.00034231 0.000342311 0.000322958 0.000336502 0.000299901 0.000309185 0.000343478 0.000329738 0.000319906 0.000339699 0.000304294 0.000307288 0.000351407 0.000329553 0.000319217 0.000338713 0.000303875 0.000308323 0.000349191 0.000329456 0.000319381 0.000340446 0.000303135 0.000308382 0.000348501 0.000328134 0.000319732 0.000341836 0.000302511 0.000308083 0.000348268 0.000327325 0.000319885 0.000342555 0.000302095 0.000307803 0.000348358 0.000326982 0.000319819 0.000342707 0.000301896 0.000307676 0.000348635 0.000326977 0.000319662 0.000342444 0.000301903 0.000307635 0.00034895 0.000327244 0.000319533 0.000341948 0.000302131 0.00030776 0.000349109 0.000327632 0.000319517 0.000341496 0.000302594 0.000308078 0.000348975 0.000327925 0.000319846 0.000341302 0.000303324 0.000308551 0.00034821 0.000327891 0.000320743 0.000341519 0.000304464 0.000308947 0.000346651 0.000327445 0.000322637 0.000342188 0.000306336 0.000308753 0.000343856 0.000326419 0.000326069 0.000343437 0.000311076 0.000307065 0.000339555 0.000324737 0.000330047 0.000345205 0.000306061 0.000301409 0.000334291 0.000322313 0.000335543 0.000335543 0.000303852 0.000301824 0.000325939 0.000325939 0.000330938 0.000342264 0.000305421 0.000302002 0.000331747 0.00032059 0.000328217 0.000341533 0.000305815 0.000298894 0.000333622 0.000319908 0.000325823 0.000339203 0.000308171 0.000298532 0.000337099 0.000323563 0.000325449 0.000338102 0.000308733 0.000298384 0.000336244 0.000322883 0.000325781 0.000338573 0.000308833 0.00029781 0.00033575 0.000321838 0.000326034 0.000338958 0.000308809 0.000297162 0.000335546 0.000321324 0.000325974 0.000338961 0.000308705 0.000296679 0.000335676 0.000321448 0.000325635 0.000338558 0.00030854 0.000296436 0.000336105 0.00032213 0.000325195 0.000337913 0.000308471 0.000296385 0.000336698 0.000323172 0.00032464 0.000337088 0.000308506 0.00029661 0.000337446 0.000324384 0.00032403 0.000336285 0.000308589 0.000297464 0.000338213 0.000325476 0.000323569 0.000335708 0.000308924 0.000298698 0.000338671 0.000326102 0.000323805 0.000335355 0.000309902 0.000299735 0.000338223 0.000326246 0.0003255 0.000335135 0.00031269 0.000298582 0.000336134 0.000326109 0.000329075 0.000335503 0.000306363 0.000288878 0.000332847 0.000326751 0.0003255 0.0003255 0.00030733 0.00029976 0.000309291 0.000309292 0.000338963 0.000344806 0.000309146 0.000300273 0.000318903 0.000311266 0.000335937 0.000340288 0.000310255 0.000298104 0.000321756 0.000311525 0.000335605 0.000337957 0.000311187 0.000294626 0.00032281 0.000311625 0.000335215 0.000336235 0.000312119 0.000295419 0.000322959 0.000314755 0.000335191 0.00033601 0.000312642 0.000295411 0.000322683 0.000313495 0.000335408 0.000336189 0.00031267 0.000294892 0.000322486 0.000312544 0.000335402 0.000336225 0.000312405 0.000294255 0.00032258 0.000312368 0.000335081 0.000335983 0.000311935 0.000293759 0.000323043 0.000312979 0.000334501 0.000335547 0.000311456 0.000293492 0.00032388 0.000314279 0.000333619 0.000334906 0.000311076 0.000293405 0.000325094 0.000316081 0.000332338 0.000334033 0.00031077 0.000293637 0.000326752 0.00031835 0.000330645 0.000332957 0.000310431 0.000294896 0.000328739 0.000320846 0.000329027 0.000331684 0.000310011 0.00029665 0.000330493 0.000323138 0.000328501 0.000329893 0.000309185 0.000297054 0.000331096 0.000325568 0.00033024 0.000327949 0.000300779 0.000287655 0.000330935 0.000329938 0.000323733 0.000323733 0.00031186 0.00029788 0.00029892 0.00029892 0.000345122 0.000342738 0.000313513 0.000299927 0.000310087 0.000307835 0.000341346 0.000336531 0.000315078 0.000298858 0.000314661 0.000309768 0.000340751 0.000334235 0.000316183 0.000297857 0.000316682 0.000308925 0.000341014 0.000333061 0.000316936 0.000296164 0.000317432 0.000308347 0.000341387 0.000332185 0.000317091 0.000297216 0.000316917 0.000309973 0.00034129 0.000332082 0.000317193 0.00029737 0.000317059 0.000308975 0.000341293 0.000332081 0.000317022 0.000296954 0.00031731 0.000308264 0.000341086 0.000331923 0.000316614 0.000296381 0.000317812 0.000308289 0.000340605 0.000331675 0.000316059 0.000295886 0.000318639 0.000309047 0.000339753 0.000331335 0.000315355 0.000295621 0.000319834 0.000310472 0.000338396 0.000330815 0.000314566 0.000295327 0.000321635 0.000312658 0.000336375 0.000329902 0.000313456 0.000295505 0.000324143 0.000315765 0.000333727 0.00032834 0.000311489 0.000297388 0.000327084 0.000319684 0.000331508 0.000325726 0.000307407 0.000299773 0.000329264 0.000324142 0.000331637 0.00032173 0.000298634 0.000295015 0.000330788 0.000331335 0.000327563 0.000327563 0.000316224 0.000297012 0.000297393 0.000297393 0.00034785 0.000338216 0.000317676 0.000300788 0.000306876 0.00031036 0.000343157 0.000332471 0.000319112 0.000301846 0.000313011 0.00031354 0.000341242 0.000330629 0.000319973 0.000302851 0.000316389 0.000313329 0.000340661 0.000329926 0.000320473 0.000303383 0.000318078 0.000312095 0.000340821 0.000329482 0.000320799 0.000303324 0.000318681 0.000311468 0.000340986 0.00032907 0.000320675 0.000304189 0.000318667 0.000311831 0.000340741 0.000329006 0.000320586 0.000304371 0.000318998 0.000311087 0.00034055 0.00032897 0.000320403 0.000303998 0.000319425 0.000310657 0.000340229 0.000328816 0.000320061 0.000303445 0.000320055 0.000310859 0.000339599 0.000328551 0.000319416 0.000303036 0.000321006 0.000311652 0.000338537 0.000328088 0.000318289 0.000302699 0.000322497 0.000313112 0.000336891 0.000327295 0.000316545 0.000302025 0.0003248 0.000315481 0.000334313 0.000325793 0.000313157 0.000302383 0.00032831 0.000319473 0.000331235 0.00032271 0.000306291 0.000306156 0.000331735 0.000325003 0.000330244 0.000317112 0.000299087 0.000307896 0.000333172 0.000333169 0.000332523 0.000332523 0.000319181 0.000298063 0.000306081 0.000306081 0.000345994 0.000331643 0.000320654 0.000303488 0.000309586 0.0003184 0.000341024 0.000328281 0.000321375 0.000307029 0.00031625 0.000320998 0.000337615 0.000327172 0.00032152 0.000309742 0.000320785 0.000321411 0.000335884 0.000326738 0.000321497 0.000311761 0.000323277 0.000320552 0.000335264 0.00032667 0.000321483 0.00031297 0.000324449 0.000319485 0.000335067 0.000326656 0.000321391 0.000313634 0.000324924 0.000318861 0.000334849 0.000326663 0.000321163 0.000314269 0.000325158 0.000318641 0.000334549 0.000326726 0.000321003 0.000314388 0.000325489 0.000318194 0.000334303 0.000326719 0.000320778 0.000314102 0.000325881 0.000318059 0.00033397 0.000326532 0.0003203 0.000313723 0.000326488 0.000318347 0.000333352 0.000326107 0.000319234 0.000313442 0.000327521 0.000319085 0.000332208 0.000325341 0.000317067 0.000313244 0.000329335 0.000320493 0.000330285 0.000324003 0.000312855 0.000312635 0.000332453 0.000323087 0.00032689 0.000321324 0.000303459 0.000315536 0.000337767 0.000328474 0.00032492 0.00031531 0.000300882 0.000324571 0.000338132 0.000335643 0.000337343 0.000337343 0.000317618 0.000299061 0.000325976 0.000325976 0.000339067 0.000324112 0.000320905 0.000307452 0.000319192 0.000333869 0.000334291 0.000323441 0.000320924 0.000312775 0.000323546 0.000333765 0.000330163 0.00032331 0.000320539 0.000315863 0.000328223 0.000333977 0.000327886 0.000323035 0.000320104 0.000318118 0.000331219 0.000333657 0.000326764 0.000323074 0.000319738 0.000319778 0.000332783 0.000332861 0.00032618 0.000323321 0.00031944 0.000320904 0.000333457 0.000332079 0.000325844 0.000323581 0.000319156 0.00032155 0.000333736 0.000331569 0.000325556 0.000323711 0.000318885 0.000321908 0.000333943 0.000331342 0.000325325 0.00032372 0.000318635 0.000321945 0.000334182 0.000331205 0.000325104 0.000323558 0.000318263 0.000321833 0.000334534 0.00033128 0.000324779 0.000323264 0.000317468 0.000321813 0.000335124 0.000331556 0.000324121 0.000322813 0.000315654 0.000322143 0.000336289 0.000332078 0.000322795 0.000322182 0.000311663 0.000323042 0.000338666 0.000333031 0.000320166 0.000321285 0.000304192 0.000324886 0.000343327 0.000335011 0.000314613 0.0003203 0.000298761 0.0003411 0.000350536 0.000338942 0.000340161 0.000340161 
SCALARS volume_diff float 1
LOOKUP_TABLE default
-2.67626e-05 1.56113e-05 1.47116e-05 1.47116e-05 1.3402e-05 2.50063e-05 -2.13284e-05 -6.30777e-07 -5.18432e-06 -1.08788e-05 9.46779e-06 1.7805e-05 -1.38819e-05 -2.49742e-06 -4.21008e-06 -5.32063e-06 7.48714e-06 1.31345e-05 -9.8907e-06 -3.41434e-06 -3.32108e-06 -2.68462e-06 6.52818e-06 1.07618e-05 -8.07235e-06 -3.68398e-06 -2.70309e-06 -1.3801e-06 6.01471e-06 9.59192e-06 -7.25242e-06 -3.66091e-06 -2.2667e-06 -7.45485e-07 5.74968e-06 9.00705e-06 -6.89346e-06 -3.56355e-06 -1.96757e-06 -4.16224e-07 5.69205e-06 8.67337e-06 -6.63771e-06 -3.61458e-06 -1.8376e-06 -2.05434e-07 5.82181e-06 8.43025e-06 -6.34935e-06 -3.94209e-06 -1.83637e-06 6.98492e-09 6.0307e-06 8.21314e-06 -6.07127e-06 -4.62113e-06 -1.95572e-06 3.23285e-07 6.54724e-06 7.95501e-06 -5.78571e-06 -5.71857e-06 -2.24239e-06 6.46183e-07 7.35617e-06 7.25997e-06 -5.38896e-06 -7.42425e-06 -2.4734e-06 1.23129e-06 8.1611e-06 5.69469e-06 -4.94719e-06 -9.65863e-06 -2.50988e-06 2.3585e-06 8.45451e-06 2.71011e-06 -4.55877e-06 -1.27278e-05 -2.24435e-06 4.61707e-06 8.23786e-06 -1.97883e-06 -4.5851e-06 -1.80492e-05 -2.0798e-06 8.75827e-06 8.36056e-06 -6.31606e-06 -7.8493e-06 -2.64593e-05 -1.42613e-06 1.35181e-05 4.8615e-07 4.8615e-07 -2.3139e-05 -1.0877e-05 4.43682e-06 4.43682e-06 2.90154e-06 1.589e-05 -2.10646e-05 -4.13269e-06 3.53161e-06 -3.00223e-06 1.47352e-05 1.54336e-05 -1.99689e-05 -7.23979e-06 -2.61337e-06 -7.84562e-06 1.66356e-05 1.44023e-05 -1.94663e-05 -9.36381e-06 -4.0477e-06 -7.80346e-06 1.6574e-05 1.3401e-05 -1.93001e-05 -1.03718e-05 -4.07095e-06 -7.26849e-06 1.63185e-05 1.28427e-05 -1.93312e-05 -1.07488e-05 -3.7307e-06 -6.89644e-06 1.61551e-05 1.25928e-05 -1.93803e-05 -1.08381e-05 -3.37886e-06 -6.66418e-06 1.61603e-05 1.25227e-05 -1.93951e-05 -1.09423e-05 -3.19228e-06 -6.52116e-06 1.629e-05 1.24774e-05 -1.93539e-05 -1.13207e-05 -3.14213e-06 -6.33239e-06 1.64883e-05 1.23293e-05 -1.93611e-05 -1.20022e-05 -3.22218e-06 -5.90082e-06 1.68563e-05 1.19736e-05 -1.95121e-05 -1.29967e-05 -3.37387e-06 -5.38407e-06 1.73961e-05 1.10627e-05 -1.97614e-05 -1.40913e-05 -3.37864e-06 -4.6468e-06 1.80398e-05 9.08447e-06 -2.01747e-05 -1.50576e-05 -3.10974e-06 -3.78078e-06 1.8575e-05 6.13156e-06 -2.11056e-05 -1.54806e-05 -2.5415e-06 -2.61139e-06 1.88658e-05 3.70818e-06 -2.36674e-05 -1.46237e-05 -1.93397e-06 -6.45465e-07 1.93394e-05 7.15741e-06 -3.0205e-05 -1.14916e-05 -3.68216e-06 -7.25656e-08 2.33778e-05 2.33778e-05 -1.858e-05 -2.14948e-05 4.35207e-06 4.35207e-06 1.22422e-06 4.86864e-06 -1.85483e-05 -1.62168e-05 7.34286e-06 1.75659e-06 1.01628e-05 6.49326e-06 -2.06521e-05 -1.71515e-05 1.86482e-06 -8.05788e-07 1.38927e-05 6.91472e-06 -2.21816e-05 -1.87124e-05 -6.12577e-07 -2.44305e-06 1.52983e-05 7.04433e-06 -2.33395e-05 -1.95826e-05 -1.10391e-06 -2.65101e-06 1.55787e-05 7.02136e-06 -2.40606e-05 -1.98704e-05 -8.76394e-07 -2.54744e-06 1.5516e-05 7.03094e-06 -2.44153e-05 -1.98654e-05 -5.11956e-07 -2.42868e-06 1.5442e-05 7.06237e-06 -2.45306e-05 -1.98388e-05 -2.70685e-07 -2.33795e-06 1.54848e-05 7.09718e-06 -2.45847e-05 -1.99164e-05 -2.10382e-07 -2.21942e-06 1.55546e-05 7.00591e-06 -2.48483e-05 -2.01743e-05 -2.53941e-07 -1.98069e-06 1.57854e-05 6.56773e-06 -2.53908e-05 -2.04893e-05 -2.60169e-07 -1.74394e-06 1.61579e-05 5.53008e-06 -2.6175e-05 -2.05963e-05 -4.78273e-08 -1.50865e-06 1.67836e-05 3.6991e-06 -2.70196e-05 -2.0117e-05 2.74236e-07 -1.5327e-06 1.75506e-05 2.05539e-06 -2.82012e-05 -1.85651e-05 3.80523e-07 -1.92774e-06 1.7753e-05 3.22707e-06 -3.14269e-05 -1.5073e-05 1.31355e-07 -2.36523e-06 1.66521e-05 1.13894e-05 -3.81741e-05 -8.75292e-06 -1.71633e-06 -3.29597e-06 2.0653e-05 2.0653e-05 -1.3942e-05 -2.61825e-05 8.47659e-06 8.47659e-06 9.50415e-07 -6.3898e-06 -1.62034e-05 -2.26777e-05 9.11773e-06 7.43549e-06 6.43963e-06 -4.35816e-06 -2.0212e-05 -2.29599e-05 5.69155e-06 6.04114e-06 9.78956e-06 -3.65789e-06 -2.31703e-05 -2.35838e-05 4.10966e-06 5.53217e-06 1.09501e-05 -3.60435e-06 -2.48452e-05 -2.40741e-05 3.85824e-06 5.14323e-06 1.10766e-05 -3.72787e-06 -2.5554e-05 -2.41337e-05 4.30954e-06 5.22259e-06 1.08553e-05 -3.80201e-06 -2.56446e-05 -2.39586e-05 4.85041e-06 5.37804e-06 1.06543e-05 -3.81736e-06 -2.54916e-05 -2.37531e-05 5.17129e-06 5.49616e-06 1.05829e-05 -3.82779e-06 -2.53733e-05 -2.35464e-05 5.30268e-06 5.50769e-06 1.05877e-05 -3.96635e-06 -2.56221e-05 -2.34103e-05 5.3359e-06 5.45895e-06 1.0801e-05 -4.41278e-06 -2.62221e-05 -2.32221e-05 5.37916e-06 5.30547e-06 1.125e-05 -5.1903e-06 -2.71046e-05 -2.28804e-05 5.48549e-06 4.9922e-06 1.21019e-05 -6.15162e-06 -2.77777e-05 -2.21402e-05 5.43004e-06 4.60632e-06 1.31321e-05 -5.88611e-06 -2.8274e-05 -2.04953e-05 4.74183e-06 3.67958e-06 1.30938e-05 -1.8133e-06 -3.07416e-05 -1.70921e-05 3.7275e-06 1.91433e-06 1.00813e-05 7.79882e-06 -3.67049e-05 -1.15629e-05 3.60414e-06 -1.99846e-08 1.06112e-05 1.06112e-05 -9.04175e-06 -2.60888e-05 1.28984e-05 1.28984e-05 2.4219e-06 -1.51238e-05 -1.40062e-05 -2.38486e-05 9.06037e-06 1.13099e-05 5.57664e-06 -1.38781e-05 -1.88435e-05 -2.35853e-05 7.7384e-06 1.05716e-05 7.7495e-06 -1.38023e-05 -2.18864e-05 -2.37535e-05 7.61643e-06 1.08954e-05 8.54337e-06 -1.41844e-05 -2.31629e-05 -2.37562e-05 7.98004e-06 1.10968e-05 8.55241e-06 -1.45588e-05 -2.31895e-05 -2.37283e-05 8.54166e-06 1.1255e-05 8.26017e-06 -1.47513e-05 -2.2612e-05 -2.35757e-05 9.05199e-06 1.13986e-05 8.01745e-06 -1.48129e-05 -2.19523e-05 -2.33861e-05 9.29778e-06 1.14347e-05 7.94453e-06 -1.48285e-05 -2.1524e-05 -2.31127e-05 9.31695e-06 1.13376e-05 7.94348e-06 -1.489e-05 -2.1605e-05 -2.28557e-05 9.23468e-06 1.11133e-05 8.19358e-06 -1.50425e-05 -2.21243e-05 -2.26228e-05 9.08532e-06 1.07952e-05 8.68555e-06 -1.52264e-05 -2.28335e-05 -2.24873e-05 8.85261e-06 1.04568e-05 9.40616e-06 -1.49759e-05 -2.33327e-05 -2.22215e-05 8.34939e-06 1.04218e-05 9.91432e-06 -1.33552e-05 -2.32206e-05 -2.14575e-05 7.48826e-06 1.03266e-05 8.81206e-06 -8.52354e-06 -2.4199e-05 -1.93769e-05 6.65073e-06 8.53588e-06 3.92739e-06 1.27242e-07 -2.94977e-05 -1.60818e-05 8.3171e-06 5.50641e-06 -3.52971e-07 -3.52971e-07 -4.14402e-06 -2.31733e-05 1.47379e-05 1.47381e-05 6.31324e-06 -1.8425e-05 -1.15551e-05 -2.13928e-05 6.65632e-06 1.21188e-05 7.96428e-06 -1.87015e-05 -1.59021e-05 -2.05838e-05 7.19641e-06 1.2485e-05 8.9634e-06 -1.95568e-05 -1.77137e-05 -2.06393e-05 8.05796e-06 1.35641e-05 9.24299e-06 -2.03557e-05 -1.77862e-05 -2.06428e-05 8.63856e-06 1.42965e-05 9.10896e-06 -2.08322e-05 -1.68999e-05 -2.06719e-05 8.98753e-06 1.46639e-05 8.81326e-06 -2.10052e-05 -1.57911e-05 -2.06843e-05 9.11385e-06 1.48046e-05 8.56293e-06 -2.10281e-05 -1.48626e-05 -2.0601e-05 9.09972e-06 1.48108e-05 8.52995e-06 -2.09148e-05 -1.43895e-05 -2.0415e-05 8.897e-06 1.46684e-05 8.59393e-06 -2.07595e-05 -1.45048e-05 -2.02102e-05 8.66208e-06 1.44462e-05 8.86926e-06 -2.05282e-05 -1.50149e-05 -2.00655e-05 8.34387e-06 1.42195e-05 9.22378e-06 -2.01242e-05 -1.56682e-05 -2.01075e-05 7.8935e-06 1.41319e-05 9.38855e-06 -1.92728e-05 -1.60599e-05 -2.03805e-05 7.34449e-06 1.44548e-05 8.67969e-06 -1.75328e-05 -1.59863e-05 -2.05542e-05 7.16117e-06 1.54803e-05 6.20063e-06 -1.42964e-05 -1.54244e-05 -2.02633e-05 7.45074e-06 1.50272e-05 3.13351e-07 -8.11944e-06 -1.97299e-05 -1.94774e-05 1.0077e-05 1.08083e-05 -8.38283e-06 -8.38283e-06 -1.43724e-06 -1.91713e-05 1.12907e-05 1.12905e-05 1.2606e-05 -1.30089e-05 -9.37192e-06 -1.67135e-05 1.85015e-06 9.27675e-06 1.2539e-05 -1.481e-05 -1.20793e-05 -1.49735e-05 4.02824e-06 1.19212e-05 1.2242e-05 -1.64339e-05 -1.22998e-05 -1.48191e-05 5.38215e-06 1.40542e-05 1.1895e-05 -1.74845e-05 -1.1427e-05 -1.48585e-05 5.89077e-06 1.525e-05 1.15202e-05 -1.79684e-05 -1.02261e-05 -1.49581e-05 5.93982e-06 1.57515e-05 1.11719e-05 -1.81193e-05 -9.13236e-06 -1.50362e-05 5.80486e-06 1.58702e-05 1.10087e-05 -1.80456e-05 -8.43113e-06 -1.5057e-05 5.54149e-06 1.5783e-05 1.10517e-05 -1.78127e-05 -8.23722e-06 -1.49789e-05 5.26954e-06 1.5621e-05 1.12343e-05 -1.74474e-05 -8.59172e-06 -1.48828e-05 5.00081e-06 1.54611e-05 1.1486e-05 -1.70043e-05 -9.25131e-06 -1.48195e-05 4.73046e-06 1.54234e-05 1.16127e-05 -1.65137e-05 -9.89946e-06 -1.48879e-05 4.43469e-06 1.5584e-05 1.12287e-05 -1.60007e-05 -1.01753e-05 -1.5274e-05 4.2407e-06 1.60983e-05 9.58537e-06 -1.54625e-05 -9.82953e-06 -1.64962e-05 4.55929e-06 1.72607e-05 5.57901e-06 -1.48973e-05 -8.98212e-06 -1.79326e-05 6.58007e-06 1.97189e-05 1.16377e-07 -1.31656e-05 -9.53562e-06 -2.00969e-05 8.71912e-06 1.5101e-05 -1.05314e-05 -1.05314e-05 -2.90157e-06 -1.5246e-05 -2.42464e-06 -2.42449e-06 1.9569e-05 5.10179e-06 -7.45712e-06 -1.06776e-05 -5.95466e-06 1.78783e-06 1.61957e-05 2.9405e-06 -9.1083e-06 -7.14367e-06 -1.50624e-06 7.51096e-06 1.41379e-05 1.27397e-06 -9.26132e-06 -6.14929e-06 6.71367e-07 1.07097e-05 1.29817e-05 3.41524e-07 -8.78682e-06 -5.87606e-06 1.47223e-06 1.21731e-05 1.23225e-05 -2.31666e-08 -8.10547e-06 -5.83256e-06 1.56916e-06 1.25939e-05 1.19809e-05 -5.86151e-08 -7.47076e-06 -5.85466e-06 1.31452e-06 1.25439e-05 1.19034e-05 1.39155e-07 -7.09928e-06 -5.86465e-06 8.9438e-07 1.22916e-05 1.20673e-05 4.93097e-07 -7.10425e-06 -5.8574e-06 4.70745e-07 1.20295e-05 1.23306e-05 9.16809e-07 -7.4734e-06 -5.83429e-06 1.20335e-07 1.18687e-05 1.25519e-05 1.31937e-06 -8.10198e-06 -5.80257e-06 -5.63062e-08 1.19596e-05 1.26072e-05 1.58503e-06 -8.78575e-06 -5.86914e-06 -4.16573e-08 1.2302e-05 1.21517e-05 1.47227e-06 -9.25614e-06 -6.12098e-06 3.449e-07 1.29666e-05 1.06965e-05 6.61355e-07 -9.1043e-06 -7.11515e-06 1.277e-06 1.41437e-05 7.4869e-06 -1.53441e-06 -7.45045e-06 -1.06692e-05 2.96044e-06 1.61887e-05 1.77204e-06 -5.97674e-06 -2.88823e-06 -1.52275e-05 5.12216e-06 1.95794e-05 -2.43106e-06 -2.43106e-06 -2.46567e-05 -9.04605e-07 1.18899e-05 1.18898e-05 1.01042e-05 1.2587e-05 -2.21028e-05 -9.96154e-06 -1.02011e-05 -5.98705e-07 2.94337e-06 1.22169e-05 -1.26871e-05 -1.29231e-05 -4.16941e-06 1.38154e-06 -2.43391e-06 6.91526e-06 -8.48318e-06 -1.23172e-05 -1.51819e-06 4.80881e-06 -5.05479e-06 3.80957e-06 -6.31526e-06 -1.20954e-05 -1.53571e-07 6.72085e-06 -6.42382e-06 2.02404e-06 -5.22408e-06 -1.17702e-05 6.03924e-07 7.82645e-06 -7.18151e-06 9.7622e-07 -4.76346e-06 -1.13866e-05 1.01848e-06 8.43208e-06 -7.46414e-06 3.81881e-07 -4.53579e-06 -1.11185e-05 1.18984e-06 8.76425e-06 -7.27784e-06 -3.12381e-09 -4.36835e-06 -1.12595e-05 1.19392e-06 8.97787e-06 -6.84972e-06 -3.20724e-07 -4.1272e-06 -1.18446e-05 1.09923e-06 9.29848e-06 -6.63769e-06 -5.98608e-07 -4.0172e-06 -1.25483e-05 1.1106e-06 9.51548e-06 -6.05061e-06 -1.05354e-06 -4.01575e-06 -1.37447e-05 1.11018e-06 9.7187e-06 -4.96857e-06 -2.25828e-06 -3.97397e-06 -1.57563e-05 1.21262e-06 1.0364e-05 -4.11967e-06 -4.74082e-06 -4.12101e-06 -1.8481e-05 1.63525e-06 1.20722e-05 -4.51358e-06 -9.23389e-06 -4.85724e-06 -2.2008e-05 2.73968e-06 1.547e-05 -7.11946e-06 -1.5914e-05 -6.32647e-06 -2.74334e-05 6.07044e-06 2.04388e-05 -1.94178e-05 -1.94178e-05 -2.33397e-05 -1.55297e-05 4.16196e-06 4.16189e-06 1.32267e-06 6.00866e-06 -2.18408e-05 -1.31351e-05 1.99462e-06 -6.10928e-07 1.11649e-05 1.04425e-05 -2.16259e-05 -1.491e-05 -8.57513e-06 -4.18247e-06 8.61815e-06 6.7886e-06 -1.88152e-05 -1.57718e-05 -8.18052e-06 -2.36377e-06 7.49695e-06 5.12107e-06 -1.68692e-05 -1.64146e-05 -7.25184e-06 -1.27496e-06 6.71414e-06 4.09631e-06 -1.58496e-05 -1.66562e-05 -6.5145e-06 -6.27498e-07 6.25069e-06 3.51951e-06 -1.54619e-05 -1.65599e-05 -6.02411e-06 -2.38651e-07 6.09031e-06 3.20033e-06 -1.5357e-05 -1.63813e-05 -5.78347e-06 -2.03727e-08 6.20571e-06 3.03367e-06 -1.54505e-05 -1.64306e-05 -5.69044e-06 1.9647e-07 6.46707e-06 2.78493e-06 -1.55483e-05 -1.68312e-05 -5.57204e-06 5.58677e-07 6.6044e-06 2.5162e-06 -1.58261e-05 -1.7386e-05 -5.31735e-06 8.83592e-07 7.00033e-06 2.07829e-06 -1.63304e-05 -1.78286e-05 -4.97561e-06 1.15565e-06 7.7034e-06 1.08239e-06 -1.69061e-05 -1.83147e-05 -4.55807e-06 1.55139e-06 8.36301e-06 -6.53614e-07 -1.77366e-05 -1.85636e-05 -4.1088e-06 2.3564e-06 8.46436e-06 -2.80817e-06 -1.94634e-05 -1.77659e-05 -3.43611e-06 4.20543e-06 7.42113e-06 -3.58596e-06 -2.16713e-05 -1.52398e-05 -2.74069e-06 5.97238e-06 4.60881e-06 4.60881e-06 -2.056e-05 -2.17707e-05 2.96673e-06 2.96684e-06 -1.01101e-06 -2.74895e-07 -2.1591e-05 -2.26537e-05 2.82765e-06 1.07544e-06 2.75283e-06 5.91118e-07 -2.30049e-05 -2.05507e-05 -1.31121e-06 4.5499e-07 8.97287e-06 9.29227e-07 -2.29637e-05 -2.16585e-05 -4.38878e-06 -1.23893e-06 9.57877e-06 3.35975e-07 -2.2886e-05 -2.25475e-05 -5.00759e-06 -1.50054e-06 9.17e-06 -1.43734e-07 -2.29258e-05 -2.29074e-05 -4.8071e-06 -1.43816e-06 8.75932e-06 -4.79146e-07 -2.30209e-05 -2.28857e-05 -4.46453e-06 -1.30791e-06 8.51415e-06 -6.0924e-07 -2.32084e-05 -2.27194e-05 -4.19087e-06 -1.21396e-06 8.55765e-06 -6.19e-07 -2.35021e-05 -2.25958e-05 -4.05876e-06 -1.12593e-06 8.76417e-06 -6.43796e-07 -2.3918e-05 -2.25972e-05 -3.92877e-06 -9.83962e-07 8.83445e-06 -7.54721e-07 -2.44758e-05 -2.26953e-05 -3.66107e-06 -9.29945e-07 9.03104e-06 -9.60562e-07 -2.51568e-05 -2.26661e-05 -3.36e-06 -1.04811e-06 9.34873e-06 -1.43746e-06 -2.57943e-05 -2.2346e-05 -3.15045e-06 -1.20521e-06 9.80132e-06 -1.94249e-06 -2.63665e-05 -2.15972e-05 -3.36867e-06 -1.32347e-06 9.92468e-06 -1.59685e-06 -2.75133e-05 -1.9311e-05 -3.88686e-06 -9.70593e-07 9.05909e-06 1.05185e-06 -2.98895e-05 -1.3187e-05 -4.48498e-06 -6.29749e-07 9.99216e-06 9.99216e-06 -1.7603e-05 -2.46453e-05 4.0341e-06 4.03402e-06 -1.35804e-06 -5.78493e-06 -2.06042e-05 -2.46086e-05 2.5689e-06 3.75063e-06 1.83742e-07 -8.40814e-06 -2.29938e-05 -2.42962e-05 2.12745e-06 3.83131e-06 4.76503e-06 -7.7553e-06 -2.492e-05 -2.45773e-05 8.4828e-08 2.7923e-06 6.09892e-06 -7.66756e-06 -2.57273e-05 -2.49726e-05 -5.53846e-07 1.96443e-06 6.14285e-06 -7.9704e-06 -2.60043e-05 -2.50278e-05 -3.48062e-07 1.89513e-06 5.85325e-06 -8.33155e-06 -2.61048e-05 -2.48558e-05 -4.09782e-08 2.03626e-06 5.62798e-06 -8.56619e-06 -2.61366e-05 -2.46039e-05 2.47577e-07 2.17572e-06 5.58382e-06 -8.65307e-06 -2.63268e-05 -2.43972e-05 4.09045e-07 2.20855e-06 5.68281e-06 -8.61165e-06 -2.66848e-05 -2.42231e-05 5.23442e-07 2.20467e-06 5.68312e-06 -8.49463e-06 -2.72381e-05 -2.40894e-05 7.16148e-07 2.08054e-06 5.80874e-06 -8.35323e-06 -2.78552e-05 -2.39828e-05 7.97329e-07 1.76373e-06 6.04995e-06 -8.22928e-06 -2.83175e-05 -2.36715e-05 6.33804e-07 1.54025e-06 6.53738e-06 -7.73188e-06 -2.85571e-05 -2.29999e-05 -1.46392e-07 1.23967e-06 6.85593e-06 -5.57282e-06 -2.90005e-05 -2.10916e-05 -1.44813e-06 5.83241e-07 5.88576e-06 -9.30275e-07 -3.13495e-05 -1.61671e-05 -2.11713e-06 -3.34713e-07 5.73384e-06 5.73384e-06 -1.46323e-05 -2.47469e-05 4.62281e-06 4.62274e-06 3.27903e-07 -8.58049e-06 -1.86726e-05 -2.361e-05 6.43738e-07 4.92417e-06 1.89082e-06 -1.32907e-05 -2.12159e-05 -2.41682e-05 1.70618e-06 5.57994e-06 3.93786e-06 -1.35677e-05 -2.31878e-05 -2.40772e-05 1.38391e-06 5.33271e-06 4.71723e-06 -1.38623e-05 -2.39768e-05 -2.39001e-05 1.25046e-06 5.16725e-06 4.74043e-06 -1.4242e-05 -2.39131e-05 -2.38377e-05 1.34584e-06 5.19333e-06 4.45091e-06 -1.47157e-05 -2.35261e-05 -2.37349e-05 1.57285e-06 5.40443e-06 4.24058e-06 -1.50123e-05 -2.31981e-05 -2.35762e-05 1.69803e-06 5.5896e-06 4.14047e-06 -1.51379e-05 -2.31438e-05 -2.33831e-05 1.79431e-06 5.6813e-06 4.12471e-06 -1.50468e-05 -2.34232e-05 -2.32375e-05 1.84243e-06 5.6463e-06 4.05277e-06 -1.47219e-05 -2.39468e-05 -2.32113e-05 1.91608e-06 5.48452e-06 4.01051e-06 -1.42929e-05 -2.45433e-05 -2.3343e-05 1.8888e-06 5.36741e-06 4.07582e-06 -1.36918e-05 -2.51325e-05 -2.34472e-05 1.56839e-06 5.50846e-06 4.20523e-06 -1.29245e-05 -2.54925e-05 -2.31874e-05 1.04417e-06 5.95309e-06 4.00329e-06 -1.04186e-05 -2.53672e-05 -2.22004e-05 4.0466e-07 5.25169e-06 2.26443e-06 -5.04728e-06 -2.70731e-05 -1.98751e-05 5.23132e-07 2.92812e-06 -5.69659e-07 -5.69659e-07 -1.16323e-05 -2.34587e-05 3.34523e-06 3.34523e-06 4.00562e-06 -7.64241e-06 -1.58644e-05 -2.16882e-05 -2.83225e-06 4.531e-06 6.91084e-06 -1.27326e-05 -1.79208e-05 -2.22656e-05 -2.14014e-06 6.06574e-06 6.81662e-06 -1.40806e-05 -1.88766e-05 -2.19707e-05 -1.63758e-06 6.85314e-06 6.67087e-06 -1.47757e-05 -1.88577e-05 -2.16852e-05 -1.57005e-06 7.39703e-06 6.48627e-06 -1.52471e-05 -1.81893e-05 -2.15768e-05 -1.67246e-06 7.81574e-06 6.25659e-06 -1.56339e-05 -1.74063e-05 -2.15538e-05 -1.79249e-06 8.14915e-06 6.10024e-06 -1.58683e-05 -1.68396e-05 -2.151e-05 -1.83948e-06 8.3424e-06 6.03963e-06 -1.59598e-05 -1.67055e-05 -2.14078e-05 -1.88034e-06 8.42048e-06 5.99197e-06 -1.58306e-05 -1.70539e-05 -2.13369e-05 -1.85452e-06 8.38528e-06 5.85352e-06 -1.54761e-05 -1.77527e-05 -2.13884e-05 -1.8205e-06 8.32785e-06 5.63322e-06 -1.49561e-05 -1.85536e-05 -2.16047e-05 -1.8263e-06 8.4528e-06 5.34028e-06 -1.42945e-05 -1.92183e-05 -2.20252e-05 -1.89291e-06 8.87116e-06 4.81987e-06 -1.35804e-05 -1.98274e-05 -2.21457e-05 -1.79691e-06 9.94583e-06 3.55932e-06 -1.24195e-05 -1.91294e-05 -2.18924e-05 -6.79555e-07 1.01716e-05 8.1708e-07 -7.97014e-06 -1.89159e-05 -2.19374e-05 9.38036e-07 6.44083e-06 -3.82867e-06 -3.82867e-06 -9.23558e-06 -2.17583e-05 -9.05052e-07 -9.05052e-07 9.27364e-06 -2.3817e-06 -1.28578e-05 -1.98333e-05 -7.29955e-06 3.01686e-06 1.36733e-05 -6.40884e-06 -1.41116e-05 -1.96944e-05 -8.50973e-06 6.17382e-06 1.21158e-05 -8.46508e-06 -1.41442e-05 -1.90569e-05 -8.31704e-06 8.46382e-06 1.12576e-05 -9.25242e-06 -1.34189e-05 -1.87233e-05 -8.52313e-06 9.67974e-06 1.08334e-05 -9.50853e-06 -1.24223e-05 -1.86428e-05 -8.90257e-06 1.02504e-05 1.06316e-05 -9.62632e-06 -1.15364e-05 -1.86834e-05 -9.21926e-06 1.05179e-05 1.06074e-05 -9.65725e-06 -1.10217e-05 -1.87452e-05 -9.505e-06 1.06095e-05 1.06005e-05 -9.62318e-06 -1.10022e-05 -1.87274e-05 -9.63527e-06 1.06063e-05 1.06278e-05 -9.48558e-06 -1.15345e-05 -1.86694e-05 -9.67926e-06 1.05908e-05 1.05247e-05 -9.22832e-06 -1.24005e-05 -1.86348e-05 -9.63896e-06 1.06311e-05 1.02468e-05 -8.89673e-06 -1.33925e-05 -1.87109e-05 -9.5212e-06 1.08134e-05 9.67283e-06 -8.52814e-06 -1.40776e-05 -1.90111e-05 -9.2399e-06 1.12353e-05 8.44547e-06 -8.32486e-06 -1.40937e-05 -1.96771e-05 -8.44758e-06 1.21112e-05 6.15876e-06 -8.52746e-06 -1.28244e-05 -1.98178e-05 -6.37075e-06 1.3659e-05 3.00724e-06 -7.31061e-06 -9.2192e-06 -2.17545e-05 -2.36806e-06 9.27019e-06 -9.28529e-07 -9.28529e-07 -9.55653e-06 -2.01093e-05 -1.05243e-05 -1.05241e-05 1.51074e-05 8.71264e-06 -8.99937e-06 -1.79361e-05 -1.31592e-05 1.42842e-07 1.97208e-05 6.57979e-06 -9.85446e-06 -1.65173e-05 -1.4891e-05 5.6241e-06 1.72616e-05 4.54784e-06 -1.01983e-05 -1.53185e-05 -1.54552e-05 9.6232e-06 1.60902e-05 4.24734e-06 -9.91009e-06 -1.48861e-05 -1.60089e-05 1.12654e-05 1.55934e-05 4.45886e-06 -9.23602e-06 -1.48178e-05 -1.65306e-05 1.1588e-05 1.5451e-05 4.75584e-06 -8.58804e-06 -1.48677e-05 -1.7017e-05 1.14614e-05 1.54966e-05 5.01028e-06 -8.2507e-06 -1.49744e-05 -1.74665e-05 1.1192e-05 1.5646e-05 5.28238e-06 -8.44364e-06 -1.50338e-05 -1.78146e-05 1.10128e-05 1.58194e-05 5.55829e-06 -9.14262e-06 -1.5008e-05 -1.80566e-05 1.09772e-05 1.58802e-05 5.80505e-06 -1.02357e-05 -1.49375e-05 -1.81239e-05 1.11665e-05 1.57614e-05 5.96e-06 -1.14324e-05 -1.48605e-05 -1.79797e-05 1.14818e-05 1.52394e-05 5.88348e-06 -1.22881e-05 -1.47905e-05 -1.74462e-05 1.18686e-05 1.40248e-05 5.34963e-06 -1.20536e-05 -1.49509e-05 -1.64078e-05 1.22569e-05 1.18854e-05 4.00333e-06 -9.35087e-06 -1.66749e-05 -1.47915e-05 1.25499e-05 9.24109e-06 1.83905e-06 -1.4321e-06 -1.91436e-05 -1.29984e-05 1.26107e-05 1.12681e-05 1.12681e-05 -2.64558e-05 -1.76002e-05 7.09144e-06 7.09159e-06 7.67324e-06 7.66956e-06 -1.92646e-05 -1.93644e-05 -8.40127e-06 4.73325e-06 -5.45173e-07 6.19101e-06 -1.24176e-05 -2.31551e-05 -2.78155e-06 5.74141e-06 -6.07802e-06 2.7599e-06 -9.00593e-06 -2.35033e-05 2.9748e-07 8.81435e-06 -1.00341e-05 -7.27984e-07 -7.25097e-06 -2.28506e-05 1.79462e-06 1.13713e-05 -1.24027e-05 -3.01035e-06 -6.12921e-06 -2.24701e-05 2.56991e-06 1.30088e-05 -1.38687e-05 -4.49854e-06 -5.48968e-06 -2.20177e-05 3.0176e-06 1.40584e-05 -1.46553e-05 -5.41721e-06 -5.1202e-06 -2.14571e-05 3.30255e-06 1.46626e-05 -1.48104e-05 -6.04265e-06 -4.93021e-06 -2.11649e-05 3.40752e-06 1.49537e-05 -1.43437e-05 -6.45544e-06 -4.86348e-06 -2.13001e-05 3.45831e-06 1.51591e-05 -1.36545e-05 -6.82984e-06 -4.72735e-06 -2.21688e-05 3.51671e-06 1.54143e-05 -1.40059e-05 -6.77271e-06 -5.03324e-06 -2.2128e-05 3.91373e-06 1.52547e-05 -1.34426e-05 -7.4247e-06 -5.54632e-06 -2.26417e-05 4.38734e-06 1.51326e-05 -1.2203e-05 -9.12611e-06 -6.37886e-06 -2.36416e-05 5.08549e-06 1.57011e-05 -1.19852e-05 -1.24963e-05 -7.81593e-06 -2.4704e-05 6.97378e-06 1.76252e-05 -1.51723e-05 -1.86603e-05 -9.23835e-06 -2.84872e-05 1.2716e-05 2.23334e-05 -2.81138e-05 -2.81138e-05 -2.54478e-05 -1.99539e-05 1.91072e-06 1.91072e-06 1.01437e-06 2.3845e-06 -2.25047e-05 -1.98105e-05 -5.51867e-07 -2.65757e-07 8.16103e-06 5.13492e-06 -2.26007e-05 -2.13297e-05 -1.05021e-05 -2.74682e-07 4.2471e-06 1.95884e-06 -1.89934e-05 -2.16084e-05 -8.90426e-06 1.79932e-06 2.05884e-06 -6.70009e-07 -1.70185e-05 -2.14032e-05 -7.56859e-06 3.47286e-06 1.14413e-06 -2.05931e-06 -1.59415e-05 -2.13604e-05 -6.8116e-06 4.45925e-06 5.90497e-07 -2.89808e-06 -1.54136e-05 -2.11671e-05 -6.29962e-06 5.04478e-06 2.99071e-07 -3.36299e-06 -1.53053e-05 -2.09176e-05 -5.99599e-06 5.33939e-06 1.98372e-07 -3.6536e-06 -1.54005e-05 -2.07305e-05 -5.736e-06 5.56481e-06 4.25265e-07 -3.92748e-06 -1.56262e-05 -2.07827e-05 -5.53995e-06 5.8477e-06 7.34037e-07 -4.30508e-06 -1.57102e-05 -2.1247e-05 -5.26153e-06 6.21999e-06 6.27944e-07 -4.24087e-06 -1.6144e-05 -2.1387e-05 -4.75766e-06 5.94987e-06 9.17159e-07 -4.49287e-06 -1.67935e-05 -2.10531e-05 -4.26635e-06 5.7976e-06 1.57855e-06 -5.4905e-06 -1.74926e-05 -2.06556e-05 -3.81458e-06 6.00094e-06 1.66695e-06 -7.22792e-06 -1.88192e-05 -2.00856e-05 -2.89203e-06 7.05023e-06 -5.45813e-07 -9.48684e-06 -2.05946e-05 -2.08887e-05 4.97481e-08 9.34299e-06 -9.19992e-06 -9.19992e-06 -2.3378e-05 -2.33522e-05 2.63487e-07 2.63409e-07 -1.75205e-06 -1.99674e-06 -2.39167e-05 -2.46436e-05 -4.46162e-07 -5.29321e-07 8.56429e-07 -1.9136e-06 -2.40142e-05 -2.35199e-05 -3.05666e-06 8.75443e-08 5.93869e-06 -1.82495e-06 -2.46838e-05 -2.37335e-05 -7.58574e-06 -2.35411e-07 5.08029e-06 -3.59795e-06 -2.38071e-05 -2.4009e-05 -7.21837e-06 4.49014e-07 4.49848e-06 -4.38088e-06 -2.31005e-05 -2.42675e-05 -6.48759e-06 8.06719e-07 4.04345e-06 -4.82957e-06 -2.27832e-05 -2.42855e-05 -5.90272e-06 1.04362e-06 3.71605e-06 -5.10504e-06 -2.27482e-05 -2.41299e-05 -5.47845e-06 1.20579e-06 3.61512e-06 -5.20159e-06 -2.29508e-05 -2.3929e-05 -5.20035e-06 1.31507e-06 3.72863e-06 -5.27629e-06 -2.33711e-05 -2.38032e-05 -4.96857e-06 1.50133e-06 3.92184e-06 -5.40908e-06 -2.37061e-05 -2.39507e-05 -4.73393e-06 1.74495e-06 3.74578e-06 -5.18908e-06 -2.40228e-05 -2.40275e-05 -4.40056e-06 1.39896e-06 3.65963e-06 -4.97617e-06 -2.4347e-05 -2.36898e-05 -4.13977e-06 9.68071e-07 3.90523e-06 -5.06921e-06 -2.44275e-05 -2.31562e-05 -4.2608e-06 7.40013e-07 4.06425e-06 -5.24961e-06 -2.46746e-05 -2.20653e-05 -4.58182e-06 1.0028e-06 2.94605e-06 -4.84633e-06 -2.57466e-05 -1.8883e-05 -3.94031e-06 1.86102e-06 -9.2977e-07 -9.2977e-07 -2.117e-05 -2.51571e-05 -3.35218e-07 -3.3514e-07 -2.19109e-06 -5.22066e-06 -2.40473e-05 -2.50855e-05 -1.64607e-06 -1.15988e-07 -8.93177e-07 -6.8693e-06 -2.51217e-05 -2.57089e-05 -1.85601e-06 4.64031e-07 1.22259e-06 -7.63271e-06 -2.62621e-05 -2.48062e-05 -3.22804e-06 6.50141e-07 3.3105e-06 -7.82352e-06 -2.633e-05 -2.50265e-05 -3.8237e-06 5.27361e-08 3.01554e-06 -8.33699e-06 -2.61704e-05 -2.52158e-05 -3.54281e-06 1.73847e-08 2.41379e-06 -8.8646e-06 -2.60187e-05 -2.52043e-05 -3.17467e-06 1.79086e-07 1.9602e-06 -9.24743e-06 -2.59836e-05 -2.51085e-05 -2.86975e-06 3.85956e-07 1.71654e-06 -9.41026e-06 -2.61378e-05 -2.49738e-05 -2.633e-06 5.74199e-07 1.64165e-06 -9.4058e-06 -2.6507e-05 -2.48213e-05 -2.43698e-06 7.60308e-07 1.65989e-06 -9.3107e-06 -2.69794e-05 -2.48072e-05 -2.2355e-06 9.50609e-07 1.49303e-06 -8.97547e-06 -2.72694e-05 -2.49437e-05 -2.05797e-06 7.51228e-07 1.34095e-06 -8.48481e-06 -2.74595e-05 -2.48956e-05 -2.05836e-06 4.43116e-07 1.47351e-06 -8.08188e-06 -2.73093e-05 -2.46359e-05 -2.50239e-06 3.16921e-07 1.84037e-06 -7.26236e-06 -2.685e-05 -2.4011e-05 -3.4535e-06 2.09431e-07 1.36854e-06 -5.17435e-06 -2.71166e-05 -2.13881e-05 -3.90915e-06 -4.21229e-08 -1.112e-06 -1.112e-06 -1.96527e-05 -2.52733e-05 -1.06043e-06 -1.06035e-06 -5.24218e-07 -5.98355e-06 -2.29855e-05 -2.4175e-05 -4.04316e-06 2.74352e-08 9.24454e-07 -8.23615e-06 -2.42696e-05 -2.47573e-05 -4.0434e-06 7.06835e-07 1.1567e-06 -9.76003e-06 -2.51117e-05 -2.46337e-05 -3.60026e-06 8.3299e-07 2.09676e-06 -9.91214e-06 -2.53848e-05 -2.43979e-05 -3.93827e-06 5.97637e-07 2.01911e-06 -1.02575e-05 -2.51229e-05 -2.43517e-05 -4.03257e-06 6.12034e-07 1.57972e-06 -1.07589e-05 -2.47177e-05 -2.42994e-05 -3.93398e-06 8.59805e-07 1.2132e-06 -1.11728e-05 -2.44644e-05 -2.42368e-05 -3.83622e-06 1.16838e-06 9.48979e-07 -1.13883e-05 -2.44775e-05 -2.41292e-05 -3.70713e-06 1.40537e-06 7.62365e-07 -1.13846e-05 -2.48556e-05 -2.4106e-05 -3.497e-06 1.59019e-06 5.64032e-07 -1.12237e-05 -2.53273e-05 -2.4152e-05 -3.24238e-06 1.8233e-06 2.92629e-07 -1.07489e-05 -2.57393e-05 -2.43349e-05 -3.03553e-06 1.94604e-06 1.42221e-07 -1.02259e-05 -2.60075e-05 -2.45762e-05 -3.05119e-06 1.91317e-06 9.88366e-08 -9.98694e-06 -2.602e-05 -2.4444e-05 -3.07705e-06 2.30855e-06 2.06521e-07 -9.30609e-06 -2.53471e-05 -2.41923e-05 -3.20035e-06 2.3304e-06 -3.96491e-07 -6.78761e-06 -2.45768e-05 -2.35944e-05 -3.18464e-06 9.43624e-07 -2.90293e-06 -2.90293e-06 -1.89638e-05 -2.40906e-05 -2.06303e-06 -2.063e-06 2.50914e-06 -4.05123e-06 -2.12803e-05 -2.30752e-05 -6.53303e-06 2.83704e-07 5.00939e-06 -5.9575e-06 -2.23008e-05 -2.3391e-05 -8.11378e-06 1.53994e-06 4.54388e-06 -7.50914e-06 -2.23379e-05 -2.34607e-05 -7.69531e-06 2.00102e-06 4.19786e-06 -7.67978e-06 -2.21461e-05 -2.30914e-05 -7.9649e-06 2.15954e-06 3.92044e-06 -7.94771e-06 -2.15737e-05 -2.2867e-05 -8.32162e-06 2.45873e-06 3.675e-06 -8.31863e-06 -2.09665e-05 -2.2783e-05 -8.61714e-06 2.82086e-06 3.4757e-06 -8.61229e-06 -2.05527e-05 -2.27749e-05 -8.75329e-06 3.08648e-06 3.31213e-06 -8.755e-06 -2.05583e-05 -2.27621e-05 -8.77205e-06 3.27387e-06 3.12222e-06 -8.74632e-06 -2.09579e-05 -2.27637e-05 -8.61111e-06 3.43608e-06 2.8143e-06 -8.60059e-06 -2.15954e-05 -2.28375e-05 -8.28534e-06 3.64869e-06 2.46218e-06 -8.2802e-06 -2.21047e-05 -2.30836e-05 -7.91729e-06 3.88408e-06 2.18155e-06 -7.90328e-06 -2.22953e-05 -2.34406e-05 -7.68679e-06 4.14415e-06 2.01461e-06 -7.64952e-06 -2.22517e-05 -2.341e-05 -7.52468e-06 4.49088e-06 1.52624e-06 -8.11465e-06 -2.12389e-05 -2.30572e-05 -5.95125e-06 4.99946e-06 2.65699e-07 -6.55738e-06 -1.89402e-05 -2.40749e-05 -4.02137e-06 2.53801e-06 -2.10882e-06 -2.10882e-06 -1.89483e-05 -2.19507e-05 -3.79871e-06 -3.79867e-06 6.43222e-06 9.38812e-07 -1.91597e-05 -2.19105e-05 -7.96236e-06 8.34698e-07 1.01799e-05 -6.73987e-07 -1.98472e-05 -2.21352e-05 -1.24334e-05 3.56378e-06 9.97066e-06 -1.79476e-06 -1.92472e-05 -2.20587e-05 -1.35813e-05 4.82037e-06 8.92673e-06 -1.89747e-06 -1.85511e-05 -2.16202e-05 -1.4326e-05 5.35084e-06 8.47139e-06 -1.84027e-06 -1.77355e-05 -2.13976e-05 -1.49694e-05 5.64067e-06 8.36242e-06 -1.84122e-06 -1.70621e-05 -2.13685e-05 -1.54759e-05 5.84847e-06 8.39859e-06 -1.87774e-06 -1.67184e-05 -2.1455e-05 -1.58308e-05 5.9841e-06 8.41376e-06 -1.87091e-06 -1.68306e-05 -2.1513e-05 -1.59469e-05 6.02736e-06 8.35602e-06 -1.84117e-06 -1.74085e-05 -2.15461e-05 -1.5887e-05 6.10133e-06 8.15823e-06 -1.76664e-06 -1.81948e-05 -2.1543e-05 -1.56336e-05 6.25569e-06 7.81896e-06 -1.65465e-06 -1.88243e-05 -2.16568e-05 -1.52342e-05 6.43878e-06 7.41294e-06 -1.54169e-06 -1.88337e-05 -2.19338e-05 -1.47743e-05 6.6453e-06 6.84375e-06 -1.61493e-06 -1.78843e-05 -2.22483e-05 -1.40885e-05 6.77762e-06 6.07017e-06 -2.14427e-06 -1.58579e-05 -2.16641e-05 -1.27516e-05 6.8966e-06 4.51148e-06 -2.87148e-06 -1.16113e-05 -2.34401e-05 -7.63155e-06 4.02463e-06 3.29471e-06 3.29471e-06 -1.9771e-05 -1.94804e-05 -8.37911e-06 -8.37921e-06 1.08075e-05 1.00592e-05 -1.54513e-05 -2.02729e-05 -8.10542e-06 3.36596e-07 1.50447e-05 7.45306e-06 -1.60114e-05 -2.05791e-05 -1.42893e-05 6.22651e-06 1.55089e-05 7.15644e-06 -1.60671e-05 -2.04224e-05 -1.75405e-05 8.69801e-06 1.44752e-05 7.33723e-06 -1.5667e-05 -2.01291e-05 -1.92759e-05 9.41257e-06 1.41627e-05 7.87565e-06 -1.50119e-05 -2.01064e-05 -2.01273e-05 9.2192e-06 1.42416e-05 8.3521e-06 -1.45077e-05 -2.02269e-05 -2.05367e-05 8.86782e-06 1.44571e-05 8.67182e-06 -1.44014e-05 -2.04261e-05 -2.07813e-05 8.58582e-06 1.46859e-05 8.93569e-06 -1.48743e-05 -2.05841e-05 -2.09362e-05 8.4866e-06 1.48246e-05 9.11369e-06 -1.57957e-05 -2.06518e-05 -2.10479e-05 8.55594e-06 1.4825e-05 9.14633e-06 -1.69269e-05 -2.0648e-05 -2.10433e-05 8.79425e-06 1.46626e-05 9.0031e-06 -1.77709e-05 -2.06172e-05 -2.08275e-05 9.07077e-06 1.4275e-05 8.66107e-06 -1.76673e-05 -2.05924e-05 -2.03332e-05 9.21175e-06 1.35427e-05 8.06021e-06 -1.58511e-05 -2.05593e-05 -1.95757e-05 8.94628e-06 1.24619e-05 7.18116e-06 -1.15408e-05 -2.13511e-05 -1.87163e-05 7.96778e-06 1.20942e-05 6.62066e-06 -4.15657e-06 -2.31436e-05 -1.84128e-05 6.33327e-06 1.47019e-05 1.47019e-05 -2.69025e-05 -3.0505e-05 2.13191e-06 2.13195e-06 5.80392e-06 5.2395e-06 -1.81311e-05 -2.57469e-05 -3.78678e-06 6.16687e-06 -1.41317e-06 3.74485e-06 -1.40704e-05 -2.81394e-05 2.44589e-07 6.02372e-06 -5.83285e-06 1.57556e-06 -1.20977e-05 -3.00451e-05 2.819e-06 8.20833e-06 -9.74782e-06 -1.3609e-06 -1.09803e-05 -3.02197e-05 4.37947e-06 1.08454e-05 -1.28474e-05 -3.88905e-06 -1.01587e-05 -2.98976e-05 5.28211e-06 1.28455e-05 -1.50274e-05 -5.65406e-06 -9.47479e-06 -2.96255e-05 5.81409e-06 1.42022e-05 -1.64475e-05 -6.85766e-06 -8.88866e-06 -2.9112e-05 6.16388e-06 1.50516e-05 -1.72075e-05 -7.68394e-06 -8.48076e-06 -2.85527e-05 6.39737e-06 1.55311e-05 -1.72013e-05 -8.18239e-06 -8.32362e-06 -2.81491e-05 6.53913e-06 1.57444e-05 -1.65314e-05 -8.42187e-06 -8.42938e-06 -2.82978e-05 6.55251e-06 1.57397e-05 -1.55243e-05 -8.56633e-06 -8.56497e-06 -2.93064e-05 6.65473e-06 1.58411e-05 -1.71786e-05 -8.08035e-06 -9.33166e-06 -2.76184e-05 7.52322e-06 1.54651e-05 -1.65987e-05 -8.8404e-06 -1.04029e-05 -2.6643e-05 8.69316e-06 1.52145e-05 -1.57548e-05 -1.08394e-05 -1.199e-05 -2.55603e-05 1.10099e-05 1.5822e-05 -1.77e-05 -1.54405e-05 -1.36322e-05 -2.76174e-05 1.72357e-05 1.96142e-05 -2.66222e-05 -2.66222e-05 -2.69909e-05 -2.32486e-05 -7.35784e-07 -7.35784e-07 2.346e-06 1.15391e-06 -2.36831e-05 -2.47849e-05 -2.25213e-06 3.23635e-08 5.25247e-06 1.1997e-06 -2.3266e-05 -2.45874e-05 -9.1965e-06 2.04336e-06 2.18399e-06 -1.19469e-06 -2.05616e-05 -2.46133e-05 -7.89372e-06 3.85063e-06 1.78115e-08 -3.65988e-06 -1.93082e-05 -2.42126e-05 -6.74714e-06 5.54001e-06 -1.17954e-06 -5.50223e-06 -1.86636e-05 -2.37339e-05 -6.1134e-06 6.81053e-06 -1.7251e-06 -6.58398e-06 -1.82993e-05 -2.34036e-05 -5.76438e-06 7.63075e-06 -2.05545e-06 -7.21653e-06 -1.81089e-05 -2.31385e-05 -5.51492e-06 8.07092e-06 -2.28382e-06 -7.56445e-06 -1.80907e-05 -2.29275e-05 -5.23898e-06 8.29808e-06 -2.27202e-06 -7.83533e-06 -1.82252e-05 -2.28152e-05 -4.95029e-06 8.50627e-06 -2.05547e-06 -8.09645e-06 -1.8413e-05 -2.29714e-05 -4.63822e-06 8.66634e-06 -1.6938e-06 -8.36914e-06 -1.82471e-05 -2.34459e-05 -4.38742e-06 8.84221e-06 -2.37047e-06 -7.47903e-06 -1.87559e-05 -2.28988e-05 -3.73511e-06 7.83708e-06 -2.37152e-06 -7.54391e-06 -1.94561e-05 -2.2049e-05 -2.95588e-06 7.50646e-06 -2.6683e-06 -8.56537e-06 -2.04961e-05 -2.16949e-05 -1.4933e-06 7.82272e-06 -5.4299e-06 -1.08657e-05 -2.18078e-05 -2.50491e-05 2.93095e-06 1.00072e-05 -1.59418e-05 -1.59418e-05 -2.53115e-05 -2.46237e-05 -2.60739e-06 -2.60728e-06 -8.77015e-07 -2.1708e-06 -2.54827e-05 -2.55169e-05 -2.90278e-06 -1.73399e-06 7.2973e-07 -2.88609e-06 -2.49434e-05 -2.45843e-05 -4.52235e-06 -3.52331e-07 4.9267e-06 -3.28776e-06 -2.58382e-05 -2.4329e-05 -9.35442e-06 7.90538e-07 3.4769e-06 -5.51242e-06 -2.47659e-05 -2.4028e-05 -8.56914e-06 2.09365e-06 2.6429e-06 -6.89295e-06 -2.40169e-05 -2.38602e-05 -7.67276e-06 2.884e-06 2.32334e-06 -7.55244e-06 -2.36191e-05 -2.37874e-05 -7.11402e-06 3.31609e-06 2.08508e-06 -7.93386e-06 -2.34937e-05 -2.36831e-05 -6.73434e-06 3.55971e-06 1.92912e-06 -8.10187e-06 -2.35991e-05 -2.35607e-05 -6.42067e-06 3.70329e-06 1.88849e-06 -8.20918e-06 -2.39512e-05 -2.34502e-05 -6.18389e-06 3.87306e-06 1.88601e-06 -8.46343e-06 -2.43213e-05 -2.35203e-05 -5.88153e-06 4.1412e-06 1.82093e-06 -8.7478e-06 -2.40993e-05 -2.38589e-05 -5.46793e-06 4.51439e-06 1.19687e-06 -7.64088e-06 -2.41693e-05 -2.39744e-05 -5.12134e-06 3.27915e-06 7.33688e-07 -7.09167e-06 -2.42868e-05 -2.35981e-05 -4.73708e-06 2.58733e-06 3.83356e-07 -7.21461e-06 -2.43494e-05 -2.33366e-05 -4.27689e-06 2.53172e-06 -1.22578e-06 -7.5527e-06 -2.48222e-05 -2.31057e-05 -2.46273e-06 3.3086e-06 -7.55737e-06 -7.55737e-06 -2.35449e-05 -2.58108e-05 -3.80183e-06 -3.80191e-06 -1.50152e-06 -4.08874e-06 -2.56441e-05 -2.57202e-05 -4.52516e-06 -2.38799e-06 -6.29361e-07 -5.09624e-06 -2.59752e-05 -2.59109e-05 -4.76558e-06 -1.5491e-06 6.69505e-07 -6.10393e-06 -2.64052e-05 -2.49317e-05 -5.89483e-06 -7.02741e-07 2.7658e-06 -6.58546e-06 -2.67867e-05 -2.47645e-05 -7.3726e-06 -4.4492e-07 2.01333e-06 -7.57452e-06 -2.6279e-05 -2.47907e-05 -6.73482e-06 -4.62169e-08 1.4198e-06 -8.17348e-06 -2.58469e-05 -2.48716e-05 -6.17669e-06 2.54756e-07 9.69158e-07 -8.54388e-06 -2.56351e-05 -2.48874e-05 -5.79756e-06 5.23791e-07 6.52818e-07 -8.76939e-06 -2.56926e-05 -2.48229e-05 -5.52323e-06 7.79827e-07 4.2802e-07 -8.93486e-06 -2.60486e-05 -2.47306e-05 -5.25093e-06 1.07987e-06 2.93599e-07 -9.06239e-06 -2.6498e-05 -2.46512e-05 -4.97759e-06 1.46198e-06 1.35779e-07 -9.268e-06 -2.65186e-05 -2.48503e-05 -4.55331e-06 1.99897e-06 -3.18997e-07 -8.50633e-06 -2.64343e-05 -2.53321e-05 -4.3108e-06 1.16935e-06 -8.12133e-07 -7.79177e-06 -2.62876e-05 -2.52839e-05 -4.10145e-06 5.71017e-07 -9.98475e-07 -7.48108e-06 -2.5739e-05 -2.52647e-05 -4.08996e-06 4.40748e-07 -1.70108e-06 -6.79836e-06 -2.4877e-05 -2.46033e-05 -3.69591e-06 2.85606e-07 -5.21323e-06 -5.21323e-06 -2.32231e-05 -2.5661e-05 -4.0577e-06 -4.05777e-06 -6.13121e-07 -4.4491e-06 -2.54231e-05 -2.52861e-05 -6.29411e-06 -2.0617e-06 2.4975e-07 -5.05621e-06 -2.6209e-05 -2.54119e-05 -7.00506e-06 -1.63697e-06 3.37876e-07 -5.70033e-06 -2.6441e-05 -2.54081e-05 -7.0524e-06 -1.45715e-06 7.92594e-07 -6.0216e-06 -2.65775e-05 -2.48997e-05 -7.51665e-06 -1.22172e-06 1.14727e-06 -6.33103e-06 -2.61975e-05 -2.48349e-05 -7.77165e-06 -1.07143e-06 6.08775e-07 -6.76899e-06 -2.57579e-05 -2.48701e-05 -7.70423e-06 -8.57418e-07 1.17774e-07 -7.16476e-06 -2.54528e-05 -2.49015e-05 -7.58615e-06 -5.6832e-07 -2.49478e-07 -7.43739e-06 -2.54535e-05 -2.48915e-05 -7.44874e-06 -2.64108e-07 -5.66904e-07 -7.58974e-06 -2.57354e-05 -2.4864e-05 -7.17266e-06 1.19791e-07 -8.52238e-07 -7.66333e-06 -2.61836e-05 -2.48371e-05 -6.77723e-06 5.92438e-07 -1.05142e-06 -7.72744e-06 -2.65018e-05 -2.48779e-05 -6.33703e-06 1.10874e-06 -1.20701e-06 -7.48669e-06 -2.64054e-05 -2.53967e-05 -6.04296e-06 7.43467e-07 -1.48523e-06 -7.07968e-06 -2.61177e-05 -2.53926e-05 -5.65914e-06 3.21966e-07 -1.64118e-06 -7.02543e-06 -2.53633e-05 -2.5283e-05 -5.0221e-06 2.63836e-07 -2.05999e-06 -6.31567e-06 -2.32005e-05 -2.56804e-05 -4.41523e-06 -5.75305e-07 -4.11148e-06 -4.11148e-06 -2.46073e-05 -2.361e-05 -2.87107e-06 -2.87107e-06 9.288e-07 -3.21626e-06 -2.53712e-05 -2.42006e-05 -6.78331e-06 -3.81086e-07 2.34903e-06 -3.20874e-06 -2.60617e-05 -2.4453e-05 -9.30632e-06 2.21306e-07 2.31829e-06 -3.08648e-06 -2.60533e-05 -2.45879e-05 -1.00136e-05 1.04075e-07 1.94631e-06 -3.0403e-06 -2.57768e-05 -2.43645e-05 -1.02692e-05 1.1269e-07 1.99707e-06 -3.01558e-06 -2.53285e-05 -2.41546e-05 -1.0827e-05 2.58442e-07 1.86086e-06 -3.28231e-06 -2.48385e-05 -2.41008e-05 -1.12348e-05 5.53749e-07 1.64654e-06 -3.52182e-06 -2.44824e-05 -2.41477e-05 -1.14191e-05 7.46766e-07 1.4314e-06 -3.69659e-06 -2.44448e-05 -2.42263e-05 -1.14172e-05 9.31749e-07 1.17001e-06 -3.83482e-06 -2.47182e-05 -2.42897e-05 -1.11794e-05 1.21371e-06 8.86891e-07 -3.89739e-06 -2.51257e-05 -2.43506e-05 -1.07634e-05 1.55418e-06 6.23404e-07 -4.00085e-06 -2.53452e-05 -2.44182e-05 -1.02562e-05 1.99295e-06 5.88557e-07 -3.90148e-06 -2.50293e-05 -2.4607e-05 -9.92078e-06 2.0848e-06 8.25152e-07 -3.56169e-06 -2.42078e-05 -2.47545e-05 -9.79433e-06 1.14541e-06 6.68302e-07 -4.05822e-06 -2.29309e-05 -2.41601e-05 -8.219e-06 9.42576e-07 -6.42225e-09 -4.08265e-06 -1.96237e-05 -2.52808e-05 -5.94799e-06 -4.93795e-07 -1.12069e-06 -1.12069e-06 -2.71142e-05 -1.98948e-05 -5.46143e-07 -5.45988e-07 2.91434e-06 4.98335e-07 -2.5385e-05 -2.22303e-05 -5.05041e-06 2.28547e-06 5.26469e-06 4.06794e-07 -2.55219e-05 -2.32145e-05 -1.04319e-05 4.03073e-06 5.94537e-06 1.06726e-06 -2.51509e-05 -2.34527e-05 -1.29242e-05 4.20663e-06 5.54898e-06 1.5763e-06 -2.45633e-05 -2.33532e-05 -1.37153e-05 4.06953e-06 5.41537e-06 1.88147e-06 -2.39462e-05 -2.32161e-05 -1.43218e-05 4.00073e-06 5.51863e-06 1.89163e-06 -2.34432e-05 -2.32509e-05 -1.47663e-05 4.06161e-06 5.65522e-06 1.81488e-06 -2.31408e-05 -2.33905e-05 -1.50478e-05 4.13585e-06 5.7068e-06 1.77673e-06 -2.31545e-05 -2.35663e-05 -1.51388e-05 4.12921e-06 5.61242e-06 1.68818e-06 -2.35156e-05 -2.37255e-05 -1.50084e-05 4.23697e-06 5.43772e-06 1.55694e-06 -2.38994e-05 -2.38455e-05 -1.47027e-05 4.42568e-06 5.21145e-06 1.36761e-06 -2.39529e-05 -2.38711e-05 -1.42595e-05 4.70966e-06 5.18231e-06 1.27618e-06 -2.31169e-05 -2.40247e-05 -1.38767e-05 4.70353e-06 5.33904e-06 1.39974e-06 -2.11549e-05 -2.41429e-05 -1.35756e-05 3.92979e-06 5.57342e-06 1.71084e-06 -1.86476e-05 -2.35991e-05 -1.32977e-05 1.90106e-06 4.88351e-06 6.08076e-07 -1.46183e-05 -2.47449e-05 -8.57956e-06 3.48742e-07 4.56534e-06 4.56534e-06 -2.95387e-05 -1.60862e-05 -3.4164e-07 -3.41757e-07 5.50353e-06 8.31846e-06 -2.42151e-05 -1.94087e-05 1.32054e-07 3.95265e-06 8.54496e-06 6.65764e-06 -2.32457e-05 -2.15012e-05 -8.54058e-06 8.82611e-06 1.03477e-05 7.48942e-06 -2.33345e-05 -2.22484e-05 -1.33688e-05 9.91812e-06 1.04438e-05 8.3523e-06 -2.28225e-05 -2.24924e-05 -1.49606e-05 9.39623e-06 1.05107e-05 8.82999e-06 -2.20987e-05 -2.2656e-05 -1.52362e-05 8.68334e-06 1.08189e-05 9.08156e-06 -2.15982e-05 -2.28701e-05 -1.50608e-05 8.19156e-06 1.11361e-05 9.21893e-06 -2.15053e-05 -2.31254e-05 -1.48985e-05 7.94694e-06 1.13682e-05 9.34443e-06 -2.1928e-05 -2.3376e-05 -1.48409e-05 7.8824e-06 1.14554e-05 9.2934e-06 -2.26018e-05 -2.35643e-05 -1.48194e-05 8.00406e-06 1.14058e-05 9.02126e-06 -2.31879e-05 -2.371e-05 -1.47529e-05 8.25404e-06 1.12594e-05 8.54768e-06 -2.31372e-05 -2.37263e-05 -1.45358e-05 8.52172e-06 1.11098e-05 7.9871e-06 -2.18366e-05 -2.36999e-05 -1.41763e-05 8.50845e-06 1.08857e-05 7.59963e-06 -1.87939e-05 -2.35519e-05 -1.38105e-05 7.73976e-06 1.05382e-05 7.71061e-06 -1.39945e-05 -2.38164e-05 -1.38666e-05 5.5723e-06 1.12805e-05 9.01714e-06 -9.0347e-06 -2.60856e-05 -1.51228e-05 2.4358e-06 1.28622e-05 1.28622e-05 -2.47859e-05 -3.787e-05 -1.72041e-06 -1.72037e-06 4.40143e-06 5.38312e-06 -1.63549e-05 -2.84818e-05 2.44391e-06 4.74039e-06 5.85569e-08 5.58173e-06 -1.5557e-05 -2.88918e-05 4.40814e-06 3.00185e-06 -2.35708e-06 4.9745e-06 -1.51301e-05 -3.06828e-05 6.16714e-06 3.52203e-06 -4.64449e-06 3.22187e-06 -1.47597e-05 -3.19387e-05 7.43898e-06 5.13997e-06 -7.13118e-06 1.23358e-06 -1.44274e-05 -3.2194e-05 8.49552e-06 6.82803e-06 -9.43259e-06 -4.1603e-07 -1.40673e-05 -3.20352e-05 9.38439e-06 8.12428e-06 -1.1259e-05 -1.63366e-06 -1.35623e-05 -3.17324e-05 1.00138e-05 8.97329e-06 -1.25429e-05 -2.45702e-06 -1.30946e-05 -3.12005e-05 1.04558e-05 9.53546e-06 -1.31443e-05 -2.93421e-06 -1.28436e-05 -3.05837e-05 1.06792e-05 9.85141e-06 -1.29779e-05 -3.00538e-06 -1.28487e-05 -3.00779e-05 1.06456e-05 9.82883e-06 -1.20115e-05 -2.82309e-06 -1.34033e-05 -3.00343e-05 1.04705e-05 9.64101e-06 -1.07716e-05 -2.56056e-06 -1.43116e-05 -3.08683e-05 1.0716e-05 9.65972e-06 -1.38982e-05 -2.71283e-06 -1.52702e-05 -2.739e-05 1.24508e-05 1.00823e-05 -1.39964e-05 -3.78162e-06 -1.63599e-05 -2.52212e-05 1.47725e-05 1.04166e-05 -1.42539e-05 -6.63969e-06 -1.8206e-05 -2.57408e-05 1.92819e-05 1.34624e-05 -1.62528e-05 -1.62528e-05 -2.70572e-05 -2.5833e-05 -3.2599e-06 -3.25998e-06 3.79805e-06 1.36629e-06 -2.44598e-05 -2.89128e-05 -2.95311e-06 -1.42551e-07 1.50909e-06 -1.07496e-06 -2.31866e-05 -2.70671e-05 -5.37569e-06 2.37514e-06 2.50526e-07 -1.90011e-06 -2.19236e-05 -2.65471e-05 -5.0507e-06 3.17694e-06 -9.50376e-07 -3.45439e-06 -2.15565e-05 -2.63359e-05 -4.76732e-06 4.30776e-06 -2.11719e-06 -5.18258e-06 -2.14463e-05 -2.59155e-05 -4.43403e-06 5.50924e-06 -2.93268e-06 -6.48206e-06 -2.13965e-05 -2.54896e-05 -4.16561e-06 6.42252e-06 -3.42106e-06 -7.29658e-06 -2.12732e-05 -2.51615e-05 -4.00207e-06 6.98286e-06 -3.77442e-06 -7.74843e-06 -2.11589e-05 -2.49606e-05 -3.74638e-06 7.2583e-06 -3.94196e-06 -8.00736e-06 -2.10444e-05 -2.47795e-05 -3.41951e-06 7.47181e-06 -3.90806e-06 -8.07622e-06 -2.10088e-05 -2.48027e-05 -3.05786e-06 7.5493e-06 -3.60206e-06 -7.9383e-06 -2.11764e-05 -2.49761e-05 -2.84213e-06 7.42904e-06 -3.33912e-06 -7.80505e-06 -2.11848e-05 -2.5312e-05 -2.72765e-06 7.08387e-06 -4.84961e-06 -6.46093e-06 -2.17719e-05 -2.368e-05 -1.29772e-06 6.38631e-06 -5.56537e-06 -6.53336e-06 -2.24942e-05 -2.3258e-05 7.66983e-07 6.28619e-06 -8.08235e-06 -8.24197e-06 -2.3415e-05 -2.68041e-05 5.44731e-06 7.68822e-06 -1.57515e-05 -1.57515e-05 -2.64619e-05 -2.54545e-05 -5.43343e-06 -5.43351e-06 1.08161e-06 -1.30928e-06 -2.60681e-05 -2.5399e-05 -4.57415e-06 -2.33832e-06 1.64538e-06 -3.18419e-06 -2.54251e-05 -2.50922e-05 -5.39232e-06 -3.76448e-07 4.26565e-06 -4.42291e-06 -2.62008e-05 -2.4176e-05 -9.55787e-06 1.60684e-06 3.45012e-06 -6.18468e-06 -2.54905e-05 -2.35225e-05 -9.28996e-06 2.89424e-06 2.79211e-06 -7.63512e-06 -2.51288e-05 -2.30835e-05 -8.78392e-06 3.83557e-06 2.42862e-06 -8.57808e-06 -2.49185e-05 -2.27966e-05 -8.39729e-06 4.43418e-06 2.28174e-06 -9.06396e-06 -2.48221e-05 -2.26477e-05 -8.14857e-06 4.77443e-06 2.17452e-06 -9.32328e-06 -2.48743e-05 -2.2589e-05 -7.95105e-06 4.93962e-06 2.0271e-06 -9.47572e-06 -2.49746e-05 -2.25866e-05 -7.66492e-06 5.0551e-06 1.84472e-06 -9.66257e-06 -2.52072e-05 -2.27689e-05 -7.25846e-06 5.18735e-06 1.54918e-06 -9.93512e-06 -2.5445e-05 -2.31432e-05 -6.60649e-06 5.42332e-06 1.16303e-06 -1.00404e-05 -2.48006e-05 -2.36904e-05 -5.90909e-06 5.64156e-06 -2.1011e-07 -7.58694e-06 -2.49501e-05 -2.36991e-05 -5.01771e-06 3.61792e-06 -1.41196e-06 -6.94344e-06 -2.52521e-05 -2.39379e-05 -3.53418e-06 3.05711e-06 -3.51844e-06 -7.35974e-06 -2.55732e-05 -2.53445e-05 -7.92109e-07 3.488e-06 -9.86457e-06 -9.86457e-06 -2.50388e-05 -2.56739e-05 -6.43794e-06 -6.43783e-06 3.81338e-07 -2.85018e-06 -2.59176e-05 -2.55209e-05 -6.26943e-06 -2.94562e-06 7.06602e-07 -4.15855e-06 -2.5954e-05 -2.52998e-05 -6.45938e-06 -1.60775e-06 1.60859e-06 -5.23793e-06 -2.60072e-05 -2.4492e-05 -7.49189e-06 -4.44241e-07 3.90531e-06 -5.79127e-06 -2.66707e-05 -2.40049e-05 -9.85547e-06 5.42107e-07 3.154e-06 -6.90133e-06 -2.61505e-05 -2.37966e-05 -9.30609e-06 1.19694e-06 2.6008e-06 -7.58285e-06 -2.56959e-05 -2.37702e-05 -8.7464e-06 1.57692e-06 2.30677e-06 -7.94678e-06 -2.54369e-05 -2.37902e-05 -8.42948e-06 1.82427e-06 2.08585e-06 -8.2133e-06 -2.54397e-05 -2.37819e-05 -8.19335e-06 2.05826e-06 1.88616e-06 -8.42438e-06 -2.56762e-05 -2.37772e-05 -7.95382e-06 2.28178e-06 1.62178e-06 -8.72288e-06 -2.61318e-05 -2.37921e-05 -7.59109e-06 2.55605e-06 1.24052e-06 -9.26006e-06 -2.66299e-05 -2.40126e-05 -6.9018e-06 3.11093e-06 5.44319e-07 -9.83191e-06 -2.59633e-05 -2.44666e-05 -5.77651e-06 3.90973e-06 -4.51575e-07 -7.47732e-06 -2.5898e-05 -2.52796e-05 -5.23949e-06 1.58565e-06 -1.61901e-06 -6.45224e-06 -2.58713e-05 -2.54929e-05 -4.14669e-06 7.15062e-07 -2.97548e-06 -6.28484e-06 -2.50182e-05 -2.56671e-05 -2.81178e-06 3.89293e-07 -6.47331e-06 -6.47331e-06 -2.49013e-05 -2.46157e-05 -5.18287e-06 -5.18281e-06 2.63642e-07 -3.71617e-06 -2.57935e-05 -2.52781e-05 -6.78527e-06 -1.68238e-06 4.20298e-07 -4.0843e-06 -2.63426e-05 -2.52945e-05 -7.47264e-06 -1.0113e-06 5.85996e-07 -4.11959e-06 -2.64861e-05 -2.53458e-05 -7.80695e-06 -8.19506e-07 1.20145e-06 -4.33923e-06 -2.65457e-05 -2.48677e-05 -8.53873e-06 -3.47558e-07 2.03661e-06 -4.57811e-06 -2.64994e-05 -2.46879e-05 -9.29621e-06 1.19481e-07 1.49361e-06 -4.97984e-06 -2.60477e-05 -2.47212e-05 -9.08719e-06 2.74546e-07 1.10125e-06 -5.26869e-06 -2.56996e-05 -2.48438e-05 -8.91877e-06 4.15719e-07 7.81884e-07 -5.54839e-06 -2.5626e-05 -2.4882e-05 -8.77248e-06 6.40517e-07 5.31281e-07 -5.80922e-06 -2.58525e-05 -2.48828e-05 -8.55325e-06 9.45603e-07 2.6469e-07 -6.17368e-06 -2.62777e-05 -2.48275e-05 -8.15751e-06 1.38348e-06 -4.21423e-08 -6.71988e-06 -2.67245e-05 -2.47452e-05 -7.56504e-06 1.99753e-06 -4.38672e-07 -7.32501e-06 -2.63475e-05 -2.49045e-05 -6.5984e-06 2.73297e-06 -7.0181e-07 -5.85526e-06 -2.59252e-05 -2.58963e-05 -6.11695e-06 6.29807e-07 -1.53507e-06 -4.748e-06 -2.55997e-05 -2.57049e-05 -5.09851e-06 -6.3458e-07 -2.40306e-06 -4.55931e-06 -2.35016e-05 -2.5802e-05 -4.07448e-06 -1.4679e-06 -3.86902e-06 -3.86902e-06 -2.71532e-05 -2.14039e-05 -1.09037e-06 -1.0904e-06 -4.3714e-08 -3.93806e-06 -2.68909e-05 -2.40317e-05 -5.17978e-06 1.40463e-06 2.07879e-07 -3.45012e-06 -2.73503e-05 -2.46643e-05 -7.27078e-06 1.83393e-06 3.19482e-07 -2.49732e-06 -2.75011e-05 -2.49231e-05 -8.10352e-06 1.46295e-06 4.68184e-07 -2.05906e-06 -2.72975e-05 -2.49753e-05 -8.5283e-06 1.33664e-06 7.77499e-07 -2.03896e-06 -2.69648e-05 -2.48362e-05 -9.0211e-06 1.48666e-06 9.78083e-07 -2.23589e-06 -2.6527e-05 -2.48404e-05 -9.36066e-06 1.65713e-06 7.73735e-07 -2.43599e-06 -2.61366e-05 -2.49646e-05 -9.46495e-06 1.64351e-06 5.61626e-07 -2.65113e-06 -2.59464e-05 -2.5108e-05 -9.43843e-06 1.71154e-06 3.92552e-07 -2.85497e-06 -2.60005e-05 -2.52132e-05 -9.2666e-06 1.93459e-06 1.88709e-07 -3.17496e-06 -2.61646e-05 -2.51857e-05 -8.86429e-06 2.4025e-06 9.27442e-09 -3.54578e-06 -2.62927e-05 -2.50068e-05 -8.33474e-06 3.00763e-06 5.38227e-08 -3.82314e-06 -2.61862e-05 -2.47929e-05 -7.79901e-06 3.29335e-06 6.6186e-07 -3.19368e-06 -2.50708e-05 -2.57133e-05 -7.61162e-06 1.19489e-06 4.59685e-07 -1.85333e-06 -2.39898e-05 -2.50678e-05 -6.85677e-06 -8.92013e-07 -1.403e-07 -1.65931e-06 -2.11492e-05 -2.5156e-05 -5.21874e-06 -2.17706e-06 -3.86499e-07 -3.86499e-07 -3.13854e-05 -1.61844e-05 5.74253e-06 5.74246e-06 -3.46704e-07 -2.14619e-06 -2.90293e-05 -2.11371e-05 -9.10271e-07 5.92178e-06 5.88829e-07 -1.43885e-06 -2.85848e-05 -2.30162e-05 -5.58576e-06 6.8588e-06 1.24786e-06 -1.61468e-07 -2.83395e-05 -2.36794e-05 -7.73479e-06 6.54794e-06 1.57758e-06 6.63645e-07 -2.78663e-05 -2.39753e-05 -8.2754e-06 6.04199e-06 1.79947e-06 8.05128e-07 -2.72379e-05 -2.40996e-05 -8.36822e-06 5.7813e-06 2.10436e-06 6.95737e-07 -2.66957e-05 -2.42375e-05 -8.52273e-06 5.67373e-06 2.23638e-06 5.19833e-07 -2.63115e-05 -2.43971e-05 -8.623e-06 5.64316e-06 2.24375e-06 3.98296e-07 -2.61065e-05 -2.46237e-05 -8.66539e-06 5.54509e-06 2.18904e-06 2.49362e-07 -2.60726e-05 -2.48901e-05 -8.58022e-06 5.60156e-06 2.05489e-06 -6.46105e-09 -2.59989e-05 -2.50101e-05 -8.35728e-06 5.83221e-06 1.90013e-06 -3.54252e-07 -2.56843e-05 -2.49273e-05 -7.96151e-06 6.1054e-06 1.98779e-06 -5.57765e-07 -2.48664e-05 -2.45326e-05 -7.66987e-06 6.08755e-06 2.77938e-06 8.21116e-08 -2.29565e-05 -2.42659e-05 -7.74373e-06 4.75456e-06 3.805e-06 2.13316e-06 -2.05894e-05 -2.45887e-05 -8.41481e-06 1.60459e-07 3.72874e-06 2.53436e-06 -1.75797e-05 -2.4644e-05 -5.76667e-06 -1.33732e-06 3.99568e-06 3.99568e-06 -3.67506e-05 -1.15712e-05 1.06307e-05 1.0631e-05 -2.01593e-08 3.60123e-06 -3.07522e-05 -1.71035e-05 7.7982e-06 1.01178e-05 1.94429e-06 3.73231e-06 -2.82828e-05 -2.05309e-05 -1.8369e-06 1.31014e-05 3.71854e-06 4.75836e-06 -2.77889e-05 -2.21619e-05 -5.89818e-06 1.31452e-05 4.63108e-06 5.42942e-06 -2.71183e-05 -2.2899e-05 -6.13709e-06 1.21053e-05 5.0234e-06 5.49721e-06 -2.62265e-05 -2.32572e-05 -5.20404e-06 1.12604e-05 5.30672e-06 5.38363e-06 -2.56128e-05 -2.34338e-05 -4.42151e-06 1.07911e-05 5.47451e-06 5.34715e-06 -2.53704e-05 -2.35645e-05 -3.98686e-06 1.06072e-05 5.51518e-06 5.3333e-06 -2.54884e-05 -2.37487e-05 -3.83503e-06 1.0574e-05 5.48782e-06 5.21455e-06 -2.56532e-05 -2.39606e-05 -3.83594e-06 1.06551e-05 5.37082e-06 4.87051e-06 -2.55547e-05 -2.41198e-05 -3.84211e-06 1.08664e-05 5.22057e-06 4.34384e-06 -2.48145e-05 -2.40381e-05 -3.73363e-06 1.10648e-05 5.12084e-06 3.87368e-06 -2.31019e-05 -2.35251e-05 -3.6248e-06 1.09319e-05 5.49674e-06 4.11229e-06 -2.01874e-05 -2.29039e-05 -3.68454e-06 9.77908e-06 6.00552e-06 5.67439e-06 -1.62061e-05 -2.26407e-05 -4.33185e-06 6.42729e-06 7.40324e-06 9.10962e-06 -1.39492e-05 -2.61759e-05 -6.3983e-06 9.61125e-07 8.43685e-06 8.43685e-06 -1.91916e-05 -3.66572e-05 7.82311e-08 7.80759e-08 1.23105e-06 7.34278e-06 -1.28595e-05 -2.69546e-05 9.99658e-06 3.5476e-06 6.05127e-07 1.06321e-05 -1.56785e-05 -2.58055e-05 9.64513e-06 -5.84017e-09 7.39315e-07 1.27257e-05 -1.6646e-05 -2.68482e-05 9.86523e-06 -1.70508e-06 6.19562e-07 1.31515e-05 -1.69462e-05 -2.80978e-05 1.01656e-05 -1.94239e-06 -5.18048e-09 1.27126e-05 -1.70271e-05 -2.89237e-05 1.07279e-05 -1.51173e-06 -1.09747e-06 1.19434e-05 -1.70465e-05 -2.9153e-05 1.1515e-05 -9.06274e-07 -2.33601e-06 1.1205e-05 -1.69733e-05 -2.90606e-05 1.23578e-05 -3.59083e-07 -3.39188e-06 1.05852e-05 -1.68106e-05 -2.88328e-05 1.30422e-05 1.19597e-07 -4.0873e-06 1.01661e-05 -1.67244e-05 -2.8295e-05 1.34519e-05 4.40671e-07 -4.20601e-06 1.00454e-05 -1.6699e-05 -2.76788e-05 1.34459e-05 4.77963e-07 -3.66734e-06 1.02454e-05 -1.68012e-05 -2.71053e-05 1.3048e-05 2.45481e-07 -2.61721e-06 1.07503e-05 -1.73396e-05 -2.6959e-05 1.2562e-05 -9.93411e-08 -1.9693e-06 1.15735e-05 -1.96826e-05 -2.65976e-05 1.36675e-05 2.83937e-07 -5.64104e-06 8.09789e-06 -2.00754e-05 -2.34715e-05 1.6015e-05 2.68291e-06 -4.96449e-06 6.19132e-06 -2.16302e-05 -2.36419e-05 1.6736e-05 5.41568e-06 3.87741e-07 3.87741e-07 -2.47253e-05 -2.71392e-05 -3.31502e-06 -3.31475e-06 3.41396e-06 3.40779e-06 -2.39875e-05 -3.15383e-05 -7.07786e-07 -9.87978e-07 -3.05431e-06 -5.51809e-08 -2.13862e-05 -2.86747e-05 2.16637e-06 5.89721e-07 -1.33602e-06 1.47882e-06 -2.16761e-05 -2.79899e-05 1.13035e-06 7.52819e-09 -9.54392e-07 1.49512e-06 -2.20045e-05 -2.80192e-05 4.36014e-07 -9.67993e-08 -1.26122e-06 7.95815e-07 -2.22183e-05 -2.80685e-05 1.22353e-07 2.45132e-07 -1.99821e-06 -1.6758e-07 -2.23894e-05 -2.7893e-05 1.94918e-07 8.17274e-07 -2.72493e-06 -9.46321e-07 -2.24276e-05 -2.76702e-05 4.20221e-07 1.31658e-06 -3.29853e-06 -1.45525e-06 -2.23219e-05 -2.75169e-05 7.21193e-07 1.7153e-06 -3.73619e-06 -1.77072e-06 -2.21268e-05 -2.7342e-05 1.14541e-06 2.11565e-06 -3.93146e-06 -1.76198e-06 -2.193e-05 -2.71487e-05 1.55783e-06 2.36447e-06 -3.76039e-06 -1.32395e-06 -2.17709e-05 -2.70679e-05 1.73723e-06 2.20557e-06 -3.27604e-06 -4.87101e-07 -2.17315e-05 -2.72422e-05 1.67661e-06 1.49749e-06 -3.10967e-06 3.77651e-07 -2.31503e-05 -2.80281e-05 1.13431e-06 -2.85179e-07 -5.08945e-06 -4.75886e-07 -2.35336e-05 -2.4751e-05 3.8197e-06 2.01111e-06 -6.46297e-06 -1.60876e-06 -2.36705e-05 -2.61281e-05 7.09505e-06 3.40736e-06 -8.20961e-06 -8.20961e-06 -2.64336e-05 -2.61484e-05 -8.11593e-06 -8.11582e-06 2.87949e-06 9.02219e-07 -2.58623e-05 -2.48429e-05 -4.81337e-06 -3.68823e-06 2.45349e-06 -2.19897e-06 -2.53415e-05 -2.60162e-05 -4.77313e-06 -1.57751e-06 2.72326e-06 -4.4135e-06 -2.54439e-05 -2.50653e-05 -7.05376e-06 5.84017e-07 3.1774e-06 -4.98529e-06 -2.52683e-05 -2.43613e-05 -7.57846e-06 1.15139e-06 3.29401e-06 -5.82263e-06 -2.53787e-05 -2.3953e-05 -7.93673e-06 1.63373e-06 3.08605e-06 -6.70845e-06 -2.55197e-05 -2.3649e-05 -7.98275e-06 2.10262e-06 2.86564e-06 -7.32844e-06 -2.55693e-05 -2.35246e-05 -7.85918e-06 2.45683e-06 2.69459e-06 -7.68764e-06 -2.55942e-05 -2.35041e-05 -7.68976e-06 2.69486e-06 2.44472e-06 -7.87515e-06 -2.54968e-05 -2.36427e-05 -7.30886e-06 2.87193e-06 2.08993e-06 -7.96465e-06 -2.538e-05 -2.39132e-05 -6.69706e-06 3.05586e-06 1.6179e-06 -7.91269e-06 -2.52269e-05 -2.43455e-05 -5.79483e-06 3.25684e-06 1.1522e-06 -7.53364e-06 -2.542e-05 -2.50129e-05 -4.95502e-06 3.16087e-06 5.71289e-07 -7.03674e-06 -2.5309e-05 -2.59889e-05 -4.38259e-06 2.68881e-06 -1.58009e-06 -4.744e-06 -2.5818e-05 -2.48158e-05 -2.17454e-06 2.42745e-06 -3.67735e-06 -4.81467e-06 -2.6407e-05 -2.61238e-05 9.14986e-07 2.89482e-06 -8.1379e-06 -8.1379e-06 -2.56139e-05 -2.53729e-05 -9.84532e-06 -9.84542e-06 3.49048e-06 -8.0736e-07 -2.52813e-05 -2.39625e-05 -7.37152e-06 -3.50346e-06 3.06937e-06 -3.54432e-06 -2.4979e-05 -2.3705e-05 -6.97112e-06 -1.40554e-06 3.65098e-06 -5.05409e-06 -2.48496e-05 -2.37132e-05 -7.63265e-06 -1.82675e-07 5.64812e-06 -5.93221e-06 -2.54977e-05 -2.3139e-05 -1.00493e-05 1.15988e-06 5.4962e-06 -6.62201e-06 -2.52073e-05 -2.27702e-05 -9.97528e-06 1.55768e-06 5.25363e-06 -7.2291e-06 -2.49958e-05 -2.26228e-05 -9.72741e-06 1.82221e-06 5.06849e-06 -7.65266e-06 -2.48409e-05 -2.2614e-05 -9.5037e-06 2.01119e-06 4.96193e-06 -7.92264e-06 -2.48339e-05 -2.26543e-05 -9.35781e-06 2.14926e-06 4.78766e-06 -8.17893e-06 -2.49059e-05 -2.28087e-05 -9.08808e-06 2.30281e-06 4.42526e-06 -8.42127e-06 -2.50914e-05 -2.30453e-05 -8.59434e-06 2.43607e-06 3.83375e-06 -8.75827e-06 -2.54468e-05 -2.34969e-05 -7.66541e-06 2.74581e-06 2.8928e-06 -9.27339e-06 -2.61507e-05 -2.41723e-05 -6.15556e-06 3.42308e-06 1.60187e-06 -9.5584e-06 -2.5388e-05 -2.50673e-05 -4.42947e-06 4.23333e-06 -4.12324e-07 -5.3754e-06 -2.6018e-05 -2.53808e-05 -3.14449e-06 1.63203e-06 -2.36542e-06 -4.59978e-06 -2.64433e-05 -2.54412e-05 -1.29522e-06 1.09927e-06 -5.49108e-06 -5.49108e-06 -2.4829e-05 -2.31054e-05 -7.52844e-06 -7.5286e-06 3.31209e-06 -2.46703e-06 -2.43909e-05 -2.3354e-05 -7.54845e-06 -1.20428e-06 2.54608e-06 -4.275e-06 -2.43407e-05 -2.36116e-05 -7.23411e-06 3.76836e-07 2.60922e-06 -4.74262e-06 -2.42339e-05 -2.40023e-05 -7.15035e-06 7.34736e-07 3.30131e-06 -5.14934e-06 -2.41624e-05 -2.38601e-05 -7.68838e-06 1.19962e-06 4.5331e-06 -5.48143e-06 -2.4355e-05 -2.35061e-05 -8.78385e-06 1.84293e-06 4.16107e-06 -5.91372e-06 -2.39691e-05 -2.34534e-05 -8.48396e-06 1.89237e-06 3.88431e-06 -6.16978e-06 -2.36124e-05 -2.35619e-05 -8.25127e-06 1.85826e-06 3.71869e-06 -6.43156e-06 -2.34881e-05 -2.36764e-05 -8.11114e-06 1.9264e-06 3.5703e-06 -6.7167e-06 -2.35924e-05 -2.37743e-05 -7.9339e-06 2.07933e-06 3.33278e-06 -7.09004e-06 -2.39756e-05 -2.38559e-05 -7.5667e-06 2.29738e-06 2.91058e-06 -7.65159e-06 -2.4688e-05 -2.40177e-05 -6.88979e-06 2.62501e-06 2.13416e-06 -8.53916e-06 -2.58182e-05 -2.4326e-05 -5.53033e-06 3.44811e-06 7.88093e-07 -9.33288e-06 -2.49117e-05 -2.45342e-05 -3.29005e-06 4.90854e-06 -3.5008e-07 -4.51723e-06 -2.54331e-05 -2.54896e-05 -2.8884e-06 7.30157e-07 -1.78137e-06 -2.9392e-06 -2.52893e-05 -2.46155e-05 -2.15386e-06 -8.50705e-07 -2.67041e-06 -2.67041e-06 -2.57767e-05 -1.89027e-05 -9.13783e-07 -9.13666e-07 1.86913e-06 -3.94025e-06 -2.47052e-05 -2.21038e-05 -4.8389e-06 2.95928e-06 1.00199e-06 -4.60145e-06 -2.44606e-05 -2.31699e-05 -5.27453e-06 4.06092e-06 7.44903e-07 -4.27145e-06 -2.43987e-05 -2.3737e-05 -5.09645e-06 3.91365e-06 9.80993e-07 -4.14953e-06 -2.40526e-05 -2.40104e-05 -4.99571e-06 3.68687e-06 1.43994e-06 -4.38727e-06 -2.36872e-05 -2.39317e-05 -5.23105e-06 3.72758e-06 1.78046e-06 -4.75293e-06 -2.33868e-05 -2.37988e-05 -5.43632e-06 3.92324e-06 1.51511e-06 -4.99086e-06 -2.29685e-05 -2.39237e-05 -5.29859e-06 3.71299e-06 1.34902e-06 -5.20118e-06 -2.27438e-05 -2.41366e-05 -5.23914e-06 3.5859e-06 1.22182e-06 -5.47478e-06 -2.27636e-05 -2.42923e-05 -5.10334e-06 3.693e-06 1.06392e-06 -5.87573e-06 -2.30913e-05 -2.42477e-05 -4.84206e-06 4.00744e-06 8.3431e-07 -6.47417e-06 -2.37554e-05 -2.40188e-05 -4.37339e-06 4.47403e-06 4.69813e-07 -7.19482e-06 -2.46258e-05 -2.37325e-05 -3.60909e-06 5.05584e-06 -2.41135e-07 -7.56649e-06 -2.39771e-05 -2.34787e-05 -1.83234e-06 5.91312e-06 7.33417e-08 -3.07166e-06 -2.3861e-05 -2.46133e-05 -1.90062e-06 8.62172e-07 -5.61762e-07 -4.80892e-07 -2.33351e-05 -2.33486e-05 -1.96885e-06 -1.73408e-06 2.15756e-07 2.15756e-07 -2.99138e-05 -1.32016e-05 9.98036e-06 9.98017e-06 -6.09143e-07 -4.47357e-06 -2.75421e-05 -1.93549e-05 1.04828e-06 9.05164e-06 -9.64035e-07 -3.92714e-06 -2.63777e-05 -2.15907e-05 -1.59406e-06 9.93337e-06 -1.301e-06 -3.39007e-06 -2.58367e-05 -2.23706e-05 -1.9433e-06 9.83186e-06 -1.18127e-06 -3.14112e-06 -2.51744e-05 -2.26448e-05 -1.45521e-06 9.35067e-06 -9.96476e-07 -3.33004e-06 -2.44786e-05 -2.26902e-05 -9.99988e-07 9.00713e-06 -9.11183e-07 -3.64818e-06 -2.3911e-05 -2.26071e-05 -7.7261e-07 8.84462e-06 -9.47039e-07 -3.90352e-06 -2.34957e-05 -2.25932e-05 -6.71154e-07 8.73608e-06 -1.09409e-06 -4.03878e-06 -2.31893e-05 -2.27274e-05 -6.49287e-07 8.53922e-06 -1.19399e-06 -4.1756e-06 -2.30134e-05 -2.29033e-05 -6.47618e-07 8.51392e-06 -1.30471e-06 -4.45884e-06 -2.28868e-05 -2.29067e-05 -4.71269e-07 8.74077e-06 -1.40845e-06 -4.77666e-06 -2.28421e-05 -2.25113e-05 -1.71208e-07 9.15315e-06 -1.47801e-06 -4.96645e-06 -2.29195e-05 -2.16183e-05 2.96393e-07 9.54796e-06 -1.22566e-06 -4.37557e-06 -2.29964e-05 -2.0501e-05 9.18517e-07 8.94497e-06 4.4168e-07 -1.32531e-06 -2.15707e-05 -2.26318e-05 6.10133e-07 2.74166e-06 1.03765e-06 2.79676e-06 -2.05294e-05 -2.17797e-05 -2.56114e-07 -1.00172e-06 2.90573e-06 2.90573e-06 -3.8209e-05 -8.7535e-06 2.06484e-05 2.06481e-05 -3.25515e-06 -1.71651e-06 -3.14616e-05 -1.50929e-05 1.13534e-05 1.66592e-05 -2.3449e-06 1.08266e-07 -2.82142e-05 -1.85886e-05 3.22079e-06 1.77706e-05 -1.92512e-06 3.73538e-07 -2.70215e-05 -2.01398e-05 2.0694e-06 1.75538e-05 -1.50884e-06 2.6826e-07 -2.61686e-05 -2.05977e-05 3.70926e-06 1.6796e-05 -1.49429e-06 -4.21423e-08 -2.53956e-05 -2.05055e-05 5.50509e-06 1.61591e-05 -1.73519e-06 -2.60208e-07 -2.4832e-05 -2.01908e-05 6.58053e-06 1.57797e-05 -1.97691e-06 -2.42474e-07 -2.45764e-05 -1.99358e-05 6.99951e-06 1.55518e-05 -2.19976e-06 -2.14243e-07 -2.45056e-05 -1.98263e-05 7.09796e-06 1.54625e-05 -2.32633e-06 -2.66203e-07 -2.43827e-05 -1.987e-05 7.05865e-06 1.54198e-05 -2.43772e-06 -5.15021e-07 -2.40397e-05 -1.98654e-05 7.00083e-06 1.54933e-05 -2.53919e-06 -8.82777e-07 -2.33277e-05 -1.95709e-05 7.02989e-06 1.55574e-05 -2.63941e-06 -1.11441e-06 -2.21479e-05 -1.86897e-05 7.04332e-06 1.52768e-05 -2.46339e-06 -6.02294e-07 -2.06381e-05 -1.70913e-05 6.90153e-06 1.38906e-05 -8.46495e-07 1.87037e-06 -1.85737e-05 -1.61587e-05 6.5018e-06 1.01641e-05 1.69311e-06 7.31709e-06 -1.85856e-05 -2.14911e-05 4.87978e-06 1.22783e-06 4.29712e-06 4.29712e-06 -1.94527e-05 -2.41388e-05 1.00962e-05 1.00962e-05 -3.19271e-06 8.75928e-06 -1.44604e-05 -1.84704e-05 1.96805e-05 4.53655e-06 -7.64596e-07 1.40254e-05 -1.92247e-05 -1.67811e-05 1.79192e-05 5.53089e-07 9.184e-07 1.83265e-05 -2.10841e-05 -1.66021e-05 1.66785e-05 -2.86962e-06 1.9628e-06 2.11445e-05 -2.22165e-05 -1.70057e-05 1.59843e-05 -4.79032e-06 2.43223e-06 2.27481e-05 -2.29604e-05 -1.74688e-05 1.57756e-05 -5.67988e-06 2.43067e-06 2.34858e-05 -2.34098e-05 -1.78019e-05 1.5965e-05 -5.99143e-06 2.1108e-06 2.36395e-05 -2.36116e-05 -1.78858e-05 1.64245e-05 -5.99911e-06 1.68694e-06 2.34105e-05 -2.35998e-05 -1.78692e-05 1.69255e-05 -5.82587e-06 1.42942e-06 2.31032e-05 -2.34064e-05 -1.77071e-05 1.71888e-05 -5.68365e-06 1.43408e-06 2.28018e-05 -2.29742e-05 -1.74273e-05 1.70125e-05 -5.64236e-06 1.79761e-06 2.27375e-05 -2.23705e-05 -1.71156e-05 1.63111e-05 -5.81885e-06 2.5935e-06 2.2963e-05 -2.165e-05 -1.71563e-05 1.49306e-05 -6.16993e-06 3.93286e-06 2.36547e-05 -2.12078e-05 -1.81893e-05 1.31735e-05 -6.33544e-06 3.9927e-06 2.58518e-05 -2.55801e-05 -1.6294e-05 1.4191e-05 -5.63078e-06 4.19281e-06 1.79356e-05 -2.32613e-05 -1.79507e-05 1.09956e-05 -2.56393e-06 1.67408e-05 1.67408e-05 -2.08808e-05 -2.32709e-05 4.05835e-06 4.05832e-06 1.03629e-06 7.38364e-06 -2.25148e-05 -2.85393e-05 7.4531e-06 1.12061e-06 -7.06003e-06 6.25888e-06 -1.91596e-05 -2.55587e-05 1.40597e-05 3.15641e-07 -3.74931e-06 8.78097e-06 -2.09114e-05 -2.48351e-05 1.23909e-05 -2.7606e-07 -2.34519e-06 1.03451e-05 -2.15327e-05 -2.49238e-05 1.11004e-05 -1.62277e-06 -1.63391e-06 1.12302e-05 -2.17651e-05 -2.52489e-05 1.03829e-05 -2.46618e-06 -1.53076e-06 1.14156e-05 -2.18421e-05 -2.54951e-05 1.02107e-05 -2.71682e-06 -1.85062e-06 1.11751e-05 -2.19084e-05 -2.55793e-05 1.04139e-05 -2.6021e-06 -2.2836e-06 1.0793e-05 -2.19258e-05 -2.5553e-05 1.08108e-05 -2.26546e-06 -2.60737e-06 1.0412e-05 -2.18487e-05 -2.54885e-05 1.11914e-05 -1.83814e-06 -2.73867e-06 1.02119e-05 -2.17866e-05 -2.51659e-05 1.14191e-05 -1.55003e-06 -2.4813e-06 1.04194e-05 -2.15305e-05 -2.4895e-05 1.12407e-05 -1.67407e-06 -1.61953e-06 1.11357e-05 -2.09086e-05 -2.48048e-05 1.03265e-05 -2.39381e-06 -2.8708e-07 1.23791e-05 -1.91132e-05 -2.55182e-05 8.76914e-06 -3.76033e-06 2.93017e-07 1.40633e-05 -2.25016e-05 -2.85163e-05 6.23338e-06 -7.111e-06 1.09768e-06 7.4401e-06 -2.08749e-05 -2.32452e-05 7.37576e-06 1.02023e-06 4.00655e-06 4.00655e-06 -2.36896e-05 -2.61762e-05 -8.21219e-06 -8.21234e-06 3.40635e-06 7.09939e-06 -2.35749e-05 -2.48036e-05 -1.61136e-06 -6.47153e-06 2.04969e-06 3.80232e-06 -2.31729e-05 -2.80656e-05 -5.08599e-07 -5.0747e-06 -2.41872e-07 1.13101e-06 -2.17301e-05 -2.72811e-05 3.4133e-07 -3.09731e-06 1.53618e-06 1.65694e-06 -2.17658e-05 -2.70898e-05 -5.30175e-07 -3.26343e-06 2.26707e-06 1.73963e-06 -2.19302e-05 -2.71849e-05 -1.35463e-06 -3.72855e-06 2.3987e-06 1.53548e-06 -2.21279e-05 -2.73504e-05 -1.78189e-06 -3.89978e-06 2.11981e-06 1.12927e-06 -2.23022e-05 -2.75221e-05 -1.75682e-06 -3.70663e-06 1.7146e-06 7.31049e-07 -2.24219e-05 -2.76637e-05 -1.45465e-06 -3.30682e-06 1.31072e-06 4.39196e-07 -2.23619e-05 -2.78805e-05 -9.50492e-07 -2.7597e-06 8.11764e-07 1.93172e-07 -2.22203e-05 -2.80416e-05 -1.82384e-07 -2.0355e-06 2.58093e-07 1.31821e-07 -2.19698e-05 -2.80059e-05 7.65159e-07 -1.31309e-06 -1.08984e-07 4.45948e-07 -2.16493e-05 -2.79695e-05 1.516e-06 -9.73387e-07 1.11759e-08 1.12589e-06 -2.13344e-05 -2.86348e-05 1.48864e-06 -1.33544e-06 5.80486e-07 2.15768e-06 -2.39457e-05 -3.15285e-05 -5.65196e-08 -3.06824e-06 -9.92576e-07 -7.29264e-07 -2.46689e-05 -2.71276e-05 3.43375e-06 3.45315e-06 -3.35897e-06 -3.35897e-06 -2.34441e-05 -2.68404e-05 -1.57309e-05 -1.57309e-05 7.68023e-06 5.42426e-06 -2.25551e-05 -2.32881e-05 -8.2256e-06 -8.04017e-06 6.27917e-06 7.64577e-07 -2.18223e-05 -2.36772e-05 -6.52362e-06 -5.54593e-06 6.40323e-06 -1.30928e-06 -2.12503e-05 -2.53227e-05 -6.47946e-06 -4.81787e-06 7.12287e-06 -2.71886e-06 -2.12069e-05 -2.49899e-05 -7.8313e-06 -3.32643e-06 7.47511e-06 -2.80146e-06 -2.10486e-05 -2.48028e-05 -7.99608e-06 -3.6199e-06 7.6008e-06 -3.04362e-06 -2.10621e-05 -2.48185e-05 -8.12804e-06 -3.91842e-06 7.48772e-06 -3.39539e-06 -2.11441e-05 -2.49765e-05 -8.0468e-06 -3.96132e-06 7.29016e-06 -3.72098e-06 -2.12664e-05 -2.52004e-05 -7.77909e-06 -3.79386e-06 6.99194e-06 -3.96468e-06 -2.13652e-05 -2.54984e-05 -7.32433e-06 -3.44393e-06 6.40051e-06 -4.20855e-06 -2.14328e-05 -2.58895e-05 -6.48763e-06 -2.91591e-06 5.50311e-06 -4.42751e-06 -2.15321e-05 -2.63147e-05 -5.18167e-06 -2.12326e-06 4.30473e-06 -4.71923e-06 -2.18915e-05 -2.65388e-05 -3.43629e-06 -9.66441e-07 3.13223e-06 -5.04709e-06 -2.31295e-05 -2.70235e-05 -1.88723e-06 2.39583e-07 2.34255e-06 -5.35701e-06 -2.44041e-05 -2.89116e-05 -1.05243e-06 1.48631e-06 -1.79842e-07 -2.97274e-06 -2.70142e-05 -2.5824e-05 1.40719e-06 3.82362e-06 -3.30464e-06 -3.30464e-06 -2.18647e-05 -2.50583e-05 -1.59215e-05 -1.59214e-05 9.98378e-06 2.90006e-06 -2.05496e-05 -2.17133e-05 -1.0839e-05 -5.39975e-06 7.8027e-06 -1.51092e-06 -1.95264e-05 -2.20362e-05 -8.57469e-06 -2.66927e-06 7.51053e-06 -2.94826e-06 -1.87975e-05 -2.29084e-05 -7.57225e-06 -2.38296e-06 7.88291e-06 -3.72492e-06 -1.83377e-05 -2.34587e-05 -7.52381e-06 -2.37823e-06 8.86406e-06 -4.37968e-06 -1.8442e-05 -2.29616e-05 -8.37843e-06 -1.71325e-06 8.71788e-06 -4.65145e-06 -1.82615e-05 -2.28014e-05 -8.1227e-06 -2.05236e-06 8.51605e-06 -4.94241e-06 -1.81289e-05 -2.2931e-05 -7.85571e-06 -2.28665e-06 8.33596e-06 -5.20177e-06 -1.81327e-05 -2.31491e-05 -7.59967e-06 -2.29282e-06 8.0845e-06 -5.47183e-06 -1.82784e-05 -2.34047e-05 -7.21439e-06 -2.07497e-06 7.65008e-06 -5.72971e-06 -1.86335e-05 -2.37284e-05 -6.61612e-06 -1.75973e-06 6.82888e-06 -6.09442e-06 -1.92369e-05 -2.4189e-05 -5.51106e-06 -1.19875e-06 5.54704e-06 -6.72136e-06 -2.05203e-05 -2.45923e-05 -3.65676e-06 -1.86847e-08 3.84912e-06 -7.87934e-06 -2.31976e-05 -2.45572e-05 -1.17393e-06 2.14817e-06 2.05054e-06 -9.1992e-06 -2.36498e-05 -2.47932e-05 1.18154e-06 5.22212e-06 -2.47965e-08 -2.31341e-06 -2.69593e-05 -2.32488e-05 1.19019e-06 2.37899e-06 -7.96281e-07 -7.96281e-07 -2.06231e-05 -2.0894e-05 -9.18307e-06 -9.18296e-06 9.33306e-06 3.84171e-08 -1.88418e-05 -2.0096e-05 -9.46239e-06 -5.12693e-07 7.04875e-06 -2.9034e-06 -1.7526e-05 -2.06533e-05 -7.24682e-06 1.66761e-06 6.03194e-06 -3.79343e-06 -1.67878e-05 -2.10987e-05 -5.48797e-06 1.56947e-06 5.83928e-06 -4.25081e-06 -1.61829e-05 -2.13898e-05 -4.53001e-06 9.02878e-07 5.99504e-06 -4.74503e-06 -1.5736e-05 -2.12643e-05 -4.26059e-06 5.7971e-07 6.25119e-06 -5.24265e-06 -1.56503e-05 -2.07561e-05 -4.31984e-06 7.20766e-07 5.88328e-06 -5.54042e-06 -1.54101e-05 -2.071e-05 -3.94541e-06 3.83433e-07 5.61917e-06 -5.72589e-06 -1.5295e-05 -2.09445e-05 -3.69192e-06 1.67289e-07 5.39864e-06 -5.93809e-06 -1.54027e-05 -2.12051e-05 -3.40829e-06 2.2604e-07 5.05184e-06 -6.29989e-06 -1.58988e-05 -2.1359e-05 -2.89494e-06 5.67059e-07 4.48114e-06 -6.77524e-06 -1.69647e-05 -2.14055e-05 -2.07916e-06 1.12147e-06 3.49828e-06 -7.53322e-06 -1.89275e-05 -2.16062e-05 -6.75578e-07 2.01868e-06 1.80638e-06 -8.89118e-06 -2.25446e-05 -2.13277e-05 1.98546e-06 4.22328e-06 -2.98955e-07 -1.05037e-05 -2.24288e-05 -1.98056e-05 5.15297e-06 8.15121e-06 -3.0528e-07 -6.0307e-07 -2.54374e-05 -1.99683e-05 2.40646e-06 1.03687e-06 1.83315e-06 1.83315e-06 -2.17208e-05 -1.52704e-05 4.56624e-06 4.56624e-06 5.9768e-06 -2.73867e-06 -1.94727e-05 -1.77919e-05 -3.58315e-06 7.40029e-06 4.22657e-06 -3.44184e-06 -1.77526e-05 -1.85582e-05 -2.81256e-06 8.45493e-06 2.40902e-06 -4.11563e-06 -1.69433e-05 -1.83411e-05 -6.71581e-07 8.37872e-06 1.57797e-06 -4.56884e-06 -1.6366e-05 -1.78734e-05 1.04712e-06 7.69036e-06 1.16943e-06 -4.93989e-06 -1.58453e-05 -1.73584e-05 2.05772e-06 6.98841e-06 8.80216e-07 -5.28749e-06 -1.55541e-05 -1.68344e-05 2.52113e-06 6.58798e-06 5.8553e-07 -5.55006e-06 -1.54477e-05 -1.64299e-05 2.78174e-06 6.44596e-06 2.23905e-07 -5.65072e-06 -1.53694e-05 -1.64097e-05 3.01178e-06 6.16683e-06 6.94611e-09 -5.7586e-06 -1.54416e-05 -1.65979e-05 3.18974e-06 6.06322e-06 -2.29823e-07 -6.01947e-06 -1.58424e-05 -1.66567e-05 3.4913e-06 6.23978e-06 -6.19621e-07 -6.51099e-06 -1.68202e-05 -1.64086e-05 4.10733e-06 6.71243e-06 -1.2563e-06 -7.19291e-06 -1.87803e-05 -1.57664e-05 5.10307e-06 7.44251e-06 -2.38296e-06 -8.14998e-06 -2.16224e-05 -1.48771e-05 6.77751e-06 8.5819e-06 -4.23063e-06 -8.58101e-06 -2.18009e-05 -1.31405e-05 1.04413e-05 1.11435e-05 -6.68787e-07 1.95291e-06 -2.33122e-05 -1.55297e-05 6.02865e-06 1.33532e-06 4.08664e-06 4.08664e-06 -3.02595e-05 -1.15026e-05 2.33357e-05 2.33357e-05 -5.21541e-08 -3.69073e-06 -2.36968e-05 -1.46352e-05 7.13486e-06 1.93417e-05 -6.33862e-07 -1.94811e-06 -2.11092e-05 -1.55093e-05 3.70546e-06 1.88596e-05 -2.57509e-06 -2.54144e-06 -2.01796e-05 -1.50723e-05 6.11541e-06 1.85698e-05 -3.74427e-06 -3.10429e-06 -1.97759e-05 -1.41084e-05 9.0639e-06 1.80319e-05 -4.62809e-06 -3.36912e-06 -1.95092e-05 -1.29989e-05 1.10406e-05 1.7379e-05 -5.36287e-06 -3.35488e-06 -1.9361e-05 -1.20066e-05 1.19848e-05 1.68355e-05 -5.91921e-06 -3.21875e-06 -1.9361e-05 -1.13073e-05 1.2337e-05 1.64749e-05 -6.29735e-06 -3.13761e-06 -1.939e-05 -1.0939e-05 1.24672e-05 1.62759e-05 -6.50374e-06 -3.14535e-06 -1.93731e-05 -1.08434e-05 1.24971e-05 1.61188e-05 -6.68001e-06 -3.36601e-06 -1.93166e-05 -1.07549e-05 1.25939e-05 1.61417e-05 -6.87231e-06 -3.69413e-06 -1.92829e-05 -1.03827e-05 1.28334e-05 1.62858e-05 -7.26344e-06 -4.06561e-06 -1.94286e-05 -9.33936e-06 1.33963e-05 1.65394e-05 -7.84123e-06 -4.04615e-06 -1.9962e-05 -7.17241e-06 1.43943e-05 1.66189e-05 -7.86671e-06 -2.63568e-06 -2.10829e-05 -4.103e-06 1.54566e-05 1.47311e-05 -3.05062e-06 3.48594e-06 -2.31362e-05 -1.08791e-05 1.59149e-05 2.91166e-06 4.36946e-06 4.36946e-06 -3.07641e-05 -3.96819e-06 2.26805e-05 2.26805e-05 -7.36857e-06 9.87419e-06 -2.66555e-05 -3.73862e-06 2.96558e-05 1.12438e-05 -3.73978e-06 1.47371e-05 -2.79839e-05 -1.43014e-06 2.57417e-05 6.7113e-06 -1.98962e-06 1.93552e-05 -2.94652e-05 5.46764e-08 2.41463e-05 2.69067e-06 -1.14376e-06 2.23691e-05 -3.1002e-05 7.9826e-07 2.36615e-05 5.06135e-07 -7.84542e-07 2.41321e-05 -3.22545e-05 1.17572e-06 2.37844e-05 -5.57726e-07 -7.35493e-07 2.50193e-05 -3.31022e-05 1.36431e-06 2.41958e-05 -9.9927e-07 -8.5313e-07 2.5269e-05 -3.35229e-05 1.44914e-06 2.47118e-05 -1.08608e-06 -9.85669e-07 2.51133e-05 -3.35354e-05 1.44336e-06 2.51206e-05 -1.01243e-06 -1.07211e-06 2.46921e-05 -3.31322e-05 1.36322e-06 2.52782e-05 -8.658e-07 -9.79519e-07 2.41755e-05 -3.22498e-05 1.17071e-06 2.50346e-05 -7.37646e-07 -5.46473e-07 2.37919e-05 -3.09937e-05 8.07651e-07 2.41247e-05 -7.86056e-07 5.10054e-07 2.36707e-05 -2.94465e-05 7.25656e-08 2.23763e-05 -1.16485e-06 2.67231e-06 2.41593e-05 -2.79365e-05 -1.39431e-06 1.93278e-05 -2.00809e-06 6.6881e-06 2.57223e-05 -2.66284e-05 -3.6976e-06 1.47316e-05 -3.78363e-06 1.12046e-05 2.96344e-05 -3.07449e-05 -3.90851e-06 9.87648e-06 -7.39687e-06 2.2673e-05 2.2673e-05 -2.32925e-05 -1.80158e-05 1.67896e-05 1.67898e-05 -2.56308e-06 1.09811e-05 -2.56201e-05 -1.63354e-05 1.79575e-05 4.21726e-06 -5.61483e-06 1.4178e-05 -2.12271e-05 -1.82328e-05 2.58866e-05 4.03189e-06 -6.30346e-06 1.3192e-05 -2.16457e-05 -1.71976e-05 2.36702e-05 3.9348e-06 -6.1399e-06 1.49254e-05 -2.2386e-05 -1.71393e-05 2.29799e-05 2.6131e-06 -5.78918e-06 1.63148e-05 -2.30097e-05 -1.74379e-05 2.2747e-05 1.80378e-06 -5.63547e-06 1.70346e-05 -2.3426e-05 -1.77175e-05 2.28369e-05 1.46066e-06 -5.70183e-06 1.7186e-05 -2.36249e-05 -1.78445e-05 2.3114e-05 1.45628e-06 -5.85926e-06 1.69233e-05 -2.3618e-05 -1.78857e-05 2.34292e-05 1.72283e-06 -5.98753e-06 1.64274e-05 -2.33897e-05 -1.77604e-05 2.35879e-05 2.11104e-06 -6.00383e-06 1.5975e-05 -2.29266e-05 -1.74424e-05 2.34537e-05 2.40421e-06 -5.67534e-06 1.57809e-05 -2.21972e-05 -1.69695e-05 2.26892e-05 2.37057e-06 -4.7777e-06 1.59979e-05 -2.10564e-05 -1.65737e-05 2.11297e-05 1.92396e-06 -2.88427e-06 1.66669e-05 -1.91851e-05 -1.67674e-05 1.83351e-05 8.98299e-07 5.48045e-07 1.79163e-05 -1.44453e-05 -1.8456e-05 1.4034e-05 -7.83844e-07 4.52642e-06 1.96843e-05 -1.94594e-05 -2.41121e-05 8.76968e-06 -3.20771e-06 1.00226e-05 1.00226e-05 -2.16688e-05 -2.36967e-05 4.1828e-07 4.18047e-07 5.41669e-06 1.67434e-05 -2.01002e-05 -2.35188e-05 6.22643e-06 -4.93128e-06 2.69626e-06 1.60118e-05 -1.97059e-05 -2.66266e-05 8.10126e-06 -5.61279e-06 3.01749e-07 1.36824e-05 -1.73495e-05 -2.69887e-05 1.15786e-05 -1.95774e-06 -7.14984e-08 1.25811e-05 -1.67875e-05 -2.71373e-05 1.07232e-05 -2.63756e-06 2.60576e-07 1.30526e-05 -1.66876e-05 -2.77113e-05 1.02289e-05 -3.68293e-06 5.1312e-07 1.34374e-05 -1.67119e-05 -2.83586e-05 1.00249e-05 -4.19712e-06 4.53127e-07 1.34402e-05 -1.68163e-05 -2.88415e-05 1.01556e-05 -4.07246e-06 1.14087e-07 1.30374e-05 -1.69808e-05 -2.90844e-05 1.05844e-05 -3.39102e-06 -3.26215e-07 1.23918e-05 -1.70498e-05 -2.9136e-05 1.11773e-05 -2.34841e-06 -8.80721e-07 1.15671e-05 -1.70151e-05 -2.89112e-05 1.19254e-05 -1.13713e-06 -1.49109e-06 1.07641e-05 -1.69316e-05 -2.80571e-05 1.26919e-05 -4.50721e-08 -1.9517e-06 1.01867e-05 -1.65965e-05 -2.68223e-05 1.31498e-05 5.81145e-07 -1.71583e-06 9.83407e-06 -1.56191e-05 -2.57858e-05 1.27023e-05 7.24996e-07 -2.05861e-08 9.61366e-06 -1.28308e-05 -2.69389e-05 1.06133e-05 5.87859e-07 3.55412e-06 9.98168e-06 -1.91575e-05 -3.66424e-05 7.32625e-06 1.22977e-06 -2.04891e-08 -2.04891e-08 -1.81913e-05 -2.57608e-05 -1.62296e-05 -1.62293e-05 1.34423e-05 1.92849e-05 -1.63752e-05 -2.52475e-05 -6.61778e-06 -1.42553e-05 1.04166e-05 1.47674e-05 -1.52661e-05 -2.74168e-05 -3.76452e-06 -1.39954e-05 1.00841e-05 1.24366e-05 -1.43343e-05 -3.08949e-05 -2.71061e-06 -1.38955e-05 9.69367e-06 1.07145e-05 -1.34016e-05 -3.0102e-05 -2.56207e-06 -1.0766e-05 9.6705e-06 1.04896e-05 -1.28786e-05 -3.01101e-05 -2.83832e-06 -1.20261e-05 9.8868e-06 1.06686e-05 -1.28509e-05 -3.0629e-05 -3.03437e-06 -1.29765e-05 9.88149e-06 1.07047e-05 -1.31161e-05 -3.12663e-05 -2.94119e-06 -1.31529e-05 9.55995e-06 1.0462e-05 -1.35861e-05 -3.17621e-05 -2.47745e-06 -1.25422e-05 8.98039e-06 1.00265e-05 -1.40652e-05 -3.20292e-05 -1.64128e-06 -1.12416e-05 8.09785e-06 9.38486e-06 -1.44453e-05 -3.21155e-05 -4.26507e-07 -9.43977e-06 6.81728e-06 8.51213e-06 -1.47503e-05 -3.18841e-05 1.23148e-06 -7.17064e-06 5.12402e-06 7.43572e-06 -1.50899e-05 -3.06248e-05 3.2178e-06 -4.67528e-06 3.50581e-06 6.16334e-06 -1.55103e-05 -2.88706e-05 4.97264e-06 -2.38283e-06 2.98012e-06 4.37217e-06 -1.63355e-05 -2.84665e-05 5.57474e-06 4.7187e-08 4.71913e-06 2.428e-06 -2.47421e-05 -3.78662e-05 5.41444e-06 4.41695e-06 -1.78752e-06 -1.78752e-06 -1.36605e-05 -2.76411e-05 -2.66007e-05 -2.66009e-05 1.96011e-05 1.7217e-05 -1.20083e-05 -2.55941e-05 -1.54342e-05 -1.76862e-05 1.58248e-05 1.10104e-05 -1.04428e-05 -2.66633e-05 -1.08599e-05 -1.57529e-05 1.52297e-05 8.7145e-06 -9.338e-06 -2.76642e-05 -8.83916e-06 -1.65955e-05 1.54927e-05 7.54053e-06 -8.58468e-06 -2.93564e-05 -8.08863e-06 -1.71741e-05 1.58657e-05 6.66416e-06 -8.4296e-06 -2.83051e-05 -8.60395e-06 -1.55475e-05 1.57686e-05 6.56101e-06 -8.32794e-06 -2.81507e-05 -8.46157e-06 -1.65462e-05 1.57719e-05 6.55996e-06 -8.49875e-06 -2.85673e-05 -8.21106e-06 -1.72571e-05 1.55649e-05 6.40261e-06 -8.90635e-06 -2.91396e-05 -7.70893e-06 -1.72323e-05 1.50842e-05 6.1543e-06 -9.46191e-06 -2.96353e-05 -6.88209e-06 -1.64743e-05 1.4232e-05 5.81425e-06 -1.01662e-05 -2.99e-05 -5.68677e-06 -1.5049e-05 1.28753e-05 5.29395e-06 -1.09547e-05 -3.01939e-05 -3.88633e-06 -1.28629e-05 1.08544e-05 4.38152e-06 -1.20652e-05 -3.00161e-05 -1.37756e-06 -9.75576e-06 8.20662e-06 2.81907e-06 -1.40316e-05 -2.81327e-05 1.56357e-06 -5.8366e-06 5.98701e-06 2.04969e-07 -1.81136e-05 -2.57474e-05 3.74302e-06 -1.37923e-06 6.11611e-06 -3.79134e-06 -2.68867e-05 -3.05061e-05 5.26675e-06 5.8137e-06 2.04177e-06 2.04177e-06 -9.2971e-06 -2.85087e-05 -2.81278e-05 -2.81281e-05 2.23294e-05 1.26949e-05 -7.8447e-06 -2.47333e-05 -1.86451e-05 -1.51604e-05 1.76365e-05 6.95027e-06 -6.40868e-06 -2.36748e-05 -1.25103e-05 -1.19812e-05 1.57216e-05 5.10772e-06 -5.54822e-06 -2.26702e-05 -9.13148e-06 -1.2192e-05 1.51406e-05 4.40566e-06 -5.048e-06 -2.21382e-05 -7.44249e-06 -1.34263e-05 1.52999e-05 3.96165e-06 -4.7215e-06 -2.21972e-05 -6.83952e-06 -1.40533e-05 1.54654e-05 3.54958e-06 -4.84596e-06 -2.13321e-05 -6.8538e-06 -1.36895e-05 1.52203e-05 3.48516e-06 -4.93492e-06 -2.11499e-05 -6.52275e-06 -1.44333e-05 1.50289e-05 3.44877e-06 -5.1177e-06 -2.15231e-05 -6.09586e-06 -1.48642e-05 1.47081e-05 3.29545e-06 -5.4599e-06 -2.20762e-05 -5.46535e-06 -1.46623e-05 1.40781e-05 3.03037e-06 -6.10472e-06 -2.24847e-05 -4.51472e-06 -1.3869e-05 1.30159e-05 2.56696e-06 -7.23147e-06 -2.28218e-05 -3.02389e-06 -1.24091e-05 1.13697e-05 1.77409e-06 -8.97587e-06 -2.34957e-05 -7.20766e-07 -1.00397e-05 8.79172e-06 2.72334e-07 -1.2364e-05 -2.31375e-05 2.78877e-06 -6.04816e-06 5.71429e-06 -2.81108e-06 -1.92297e-05 -1.93651e-05 6.21417e-06 -5.17505e-07 4.72359e-06 -8.40862e-06 -2.64338e-05 -1.76243e-05 7.65109e-06 7.64814e-06 7.00199e-06 7.00199e-06 -6.34031e-06 -2.74581e-05 -1.94397e-05 -1.94394e-05 2.04728e-05 6.12186e-06 -4.86715e-06 -2.20324e-05 -1.59352e-05 -7.12076e-06 1.55033e-05 2.76056e-06 -4.14561e-06 -1.8492e-05 -9.2707e-06 -4.52248e-06 1.20938e-05 1.65077e-06 -4.00114e-06 -1.57789e-05 -4.73574e-06 -4.10964e-06 1.0363e-05 1.21677e-06 -4.02353e-06 -1.37595e-05 -2.24344e-06 -4.96837e-06 9.74354e-06 1.14879e-06 -4.03759e-06 -1.25513e-05 -1.07187e-06 -6.0354e-06 9.54625e-06 1.13513e-06 -4.12952e-06 -1.18865e-05 -5.96997e-07 -6.66014e-06 9.32801e-06 1.1425e-06 -4.3581e-06 -1.12517e-05 -3.62653e-07 -6.87958e-06 9.02859e-06 1.20536e-06 -4.5181e-06 -1.11331e-05 -3.17038e-08 -7.32708e-06 8.78218e-06 1.19861e-06 -4.7429e-06 -1.14185e-05 3.60538e-07 -7.46135e-06 8.44919e-06 1.01083e-06 -5.2208e-06 -1.17974e-05 9.67023e-07 -7.1738e-06 7.83165e-06 5.86384e-07 -6.28711e-06 -1.20792e-05 1.9999e-06 -6.43629e-06 6.68748e-06 -1.79551e-07 -8.45377e-06 -1.22766e-05 3.81443e-06 -5.02763e-06 4.76441e-06 -1.51757e-06 -1.26658e-05 -1.28861e-05 6.93242e-06 -2.43395e-06 1.36916e-06 -4.19728e-06 -2.2062e-05 -9.98438e-06 1.22458e-05 2.95322e-06 -6.01246e-07 -1.02113e-05 -2.46386e-05 -9.49755e-07 1.26113e-05 1.01224e-05 1.18219e-05 1.18219e-05 -7.90268e-06 -2.64594e-05 4.54718e-07 4.54757e-07 1.35458e-05 -1.4088e-06 -4.61563e-06 -1.8069e-05 -6.32865e-06 8.3481e-06 8.76988e-06 -2.07974e-06 -4.59691e-06 -1.2746e-05 -1.97518e-06 8.24461e-06 4.64257e-06 -2.21125e-06 -4.98221e-06 -9.65782e-06 2.70254e-06 8.45645e-06 2.36467e-06 -2.48553e-06 -5.41731e-06 -7.40306e-06 5.69783e-06 8.1365e-06 1.24289e-06 -2.4466e-06 -5.78281e-06 -5.74296e-06 7.26183e-06 7.34034e-06 6.59454e-07 -2.19942e-06 -6.08094e-06 -4.61693e-06 7.93654e-06 6.55853e-06 3.22664e-07 -1.94008e-06 -6.36491e-06 -3.97034e-06 8.21481e-06 6.04828e-06 3.47306e-08 -1.80948e-06 -6.63558e-06 -3.61334e-06 8.42214e-06 5.82162e-06 -1.95888e-07 -1.80073e-06 -6.88587e-06 -3.57568e-06 8.6608e-06 5.68464e-06 -4.16418e-07 -1.96294e-06 -7.25772e-06 -3.68761e-06 9.01315e-06 5.75922e-06 -7.41992e-07 -2.25727e-06 -8.05301e-06 -3.70827e-06 9.60314e-06 6.03563e-06 -1.40022e-06 -2.70776e-06 -9.86696e-06 -3.37765e-06 1.07684e-05 6.55705e-06 -2.72616e-06 -3.33895e-06 -1.38576e-05 -2.47866e-06 1.31454e-05 7.50972e-06 -5.35528e-06 -4.23593e-06 -2.13292e-05 -6.35162e-07 1.78058e-05 9.48975e-06 -1.09078e-05 -5.22103e-06 -2.67603e-05 1.55793e-05 2.50151e-05 1.34207e-05 1.46404e-05 1.46404e-05 
