# vtk DataFile Version 5.1
vtk output
ASCII

DATASET UNSTRUCTURED_GRID
POINTS 1377 float
0 0 0
0.125 0 0
0.25 0 0
0.375 0 0
0.5 0 0
0.625 0 0
0.75 0 0
0.875 0 0
1 0 0
1.125 0 0
1.25 0 0
1.375 0 0
1.5 0 0
1.625 0 0
1.75 0 0
1.875 0 0
2 0 0
0 0.125 0
0.125 0.125 0
0.25 0.125 0
0.375 0.125 0
0.5 0.125 0
0.625 0.125 0
0.75 0.125 0
0.875 0.125 0
1 0.125 0
1.125 0.125 0
1.25 0.125 0
1.375 0.125 0
1.5 0.125 0
1.625 0.125 0
1.75 0.125 0
1.875 0.125 0
2 0.125 0
0 0.25 0
0.125 0.25 0
0.25 0.25 0
0.375 0.25 0
0.5 0.25 0
0.625 0.25 0
0.75 0.25 0
0.875 0.25 0
1 0.25 0
1.125 0.25 0
1.25 0.25 0
1.375 0.25 0
1.5 0.25 0
1.625 0.25 0
1.75 0.25 0
1.875 0.25 0
2 0.25 0
0 0.375 0
0.125 0.375 0
0.25 0.375 0
0.375 0.375 0
0.5 0.375 0
0.625 0.375 0
0.75 0.375 0
0.875 0.375 0
1 0.375 0
1.125 0.375 0
1.25 0.375 0
1.375 0.375 0
1.5 0.375 0
1.625 0.375 0
1.75 0.375 0
1.875 0.375 0
2 0.375 0
0 0.5 0
0.125 0.5 0
0.25 0.5 0
0.375 0.5 0
0.5 0.5 0
0.625 0.5 0
0.75 0.5 0
0.875 0.5 0
1 0.5 0
1.125 0.5 0
1.25 0.5 0
1.375 0.5 0
1.5 0.5 0
1.625 0.5 0
1.75 0.5 0
1.875 0.5 0
2 0.5 0
0 0.625 0
0.125 0.625 0
0.25 0.625 0
0.375 0.625 0
0.5 0.625 0
0.625 0.625 0
0.75 0.625 0
0.875 0.625 0
1 0.625 0
1.125 0.625 0
1.25 0.625 0
1.375 0.625 0
1.5 0.625 0
1.625 0.625 0
1.75 0.625 0
1.875 0.625 0
2 0.625 0
0 0.75 0
0.125 0.75 0
0.25 0.75 0
0.375 0.75 0
0.5 0.75 0
0.625 0.75 0
0.75 0.75 0
0.875 0.75 0
1 0.75 0
1.125 0.75 0
1.25 0.75 0
1.375 0.75 0
1.5 0.75 0
1.625 0.75 0
1.75 0.75 0
1.875 0.75 0
2 0.75 0
0 0.875 0
0.125 0.875 0
0.25 0.875 0
0.375 0.875 0
0.5 0.875 0
0.625 0.875 0
0.75 0.875 0
0.875 0.875 0
1 0.875 0
1.125 0.875 0
1.25 0.875 0
1.375 0.875 0
1.5 0.875 0
1.625 0.875 0
1.75 0.875 0
1.875 0.875 0
2 0.875 0
0 1 0
0.125 1 0
0.25 1 0
0.375 1 0
0.5 1 0
0.625 1 0
0.75 1 0
0.875 1 0
1 1 0
1.125 1 0
1.25 1 0
1.375 1 0
1.5 1 0
1.625 1 0
1.75 1 0
1.875 1 0
2 1 0
0 0 0.125
0.125 0 0.125
0.25 0 0.125
0.375 0 0.125
0.5 0 0.125
0.625 0 0.125
0.75 0 0.125
0.875 0 0.125
1 0 0.125
1.125 0 0.125
1.25 0 0.125
1.375 0 0.125
1.5 0 0.125
1.625 0 0.125
1.75 0 0.125
1.875 0 0.125
2 0 0.125
0 0.125 0.125
0.125 0.125 0.125
0.25 0.125 0.125
0.375 0.125 0.125
0.5 0.125 0.125
0.625 0.125 0.125
0.75 0.125 0.125
0.875 0.125 0.125
1 0.125 0.125
1.125 0.125 0.125
1.25 0.125 0.125
1.375 0.125 0.125
1.5 0.125 0.125
1.625 0.125 0.125
1.75 0.125 0.125
1.875 0.125 0.125
2 0.125 0.125
0 0.25 0.125
0.125 0.25 0.125
0.25 0.25 0.125
0.375 0.25 0.125
0.5 0.25 0.125
0.625 0.25 0.125
0.75 0.25 0.125
0.875 0.25 0.125
1 0.25 0.125
1.125 0.25 0.125
1.25 0.25 0.125
1.375 0.25 0.125
1.5 0.25 0.125
1.625 0.25 0.125
1.75 0.25 0.125
1.875 0.25 0.125
2 0.25 0.125
0 0.375 0.125
0.125 0.375 0.125
0.25 0.375 0.125
0.375 0.375 0.125
0.5 0.375 0.125
0.625 0.375 0.125
0.75 0.375 0.125
0.875 0.375 0.125
1 0.375 0.125
1.125 0.375 0.125
1.25 0.375 0.125
1.375 0.375 0.125
1.5 0.375 0.125
1.625 0.375 0.125
1.75 0.375 0.125
1.875 0.375 0.125
2 0.375 0.125
0 0.5 0.125
0.125 0.5 0.125
0.25 0.5 0.125
0.375 0.5 0.125
0.5 0.5 0.125
0.625 0.5 0.125
0.75 0.5 0.125
0.875 0.5 0.125
1 0.5 0.125
1.125 0.5 0.125
1.25 0.5 0.125
1.375 0.5 0.125
1.5 0.5 0.125
1.625 0.5 0.125
1.75 0.5 0.125
1.875 0.5 0.125
2 0.5 0.125
0 0.625 0.125
0.125 0.625 0.125
0.25 0.625 0.125
0.375 0.625 0.125
0.5 0.625 0.125
0.625 0.625 0.125
0.75 0.625 0.125
0.875 0.625 0.125
1 0.625 0.125
1.125 0.625 0.125
1.25 0.625 0.125
1.375 0.625 0.125
1.5 0.625 0.125
1.625 0.625 0.125
1.75 0.625 0.125
1.875 0.625 0.125
2 0.625 0.125
0 0.75 0.125
0.125 0.75 0.125
0.25 0.75 0.125
0.375 0.75 0.125
0.5 0.75 0.125
0.625 0.75 0.125
0.75 0.75 0.125
0.875 0.75 0.125
1 0.75 0.125
1.125 0.75 0.125
1.25 0.75 0.125
1.375 0.75 0.125
1.5 0.75 0.125
1.625 0.75 0.125
1.75 0.75 0.125
1.875 0.75 0.125
2 0.75 0.125
0 0.875 0.125
0.125 0.875 0.125
0.25 0.875 0.125
0.375 0.875 0.125
0.5 0.875 0.125
0.625 0.875 0.125
0.75 0.875 0.125
0.875 0.875 0.125
1 0.875 0.125
1.125 0.875 0.125
1.25 0.875 0.125
1.375 0.875 0.125
1.5 0.875 0.125
1.625 0.875 0.125
1.75 0.875 0.125
1.875 0.875 0.125
2 0.875 0.125
0 1 0.125
0.125 1 0.125
0.25 1 0.125
0.375 1 0.125
0.5 1 0.125
0.625 1 0.125
0.75 1 0.125
0.875 1 0.125
1 1 0.125
1.125 1 0.125
1.25 1 0.125
1.375 1 0.125
1.5 1 0.125
1.625 1 0.125
1.75 1 0.125
1.875 1 0.125
2 1 0.125
0 0 0.25
0.125 0 0.25
0.25 0 0.25
0.375 0 0.25
0.5 0 0.25
0.625 0 0.25
0.75 0 0.25
0.875 0 0.25
1 0 0.25
1.125 0 0.25
1.25 0 0.25
1.375 0 0.25
1.5 0 0.25
1.625 0 0.25
1.75 0 0.25
1.875 0 0.25
2 0 0.25
0 0.125 0.25
0.125 0.125 0.25
0.25 0.125 0.25
0.375 0.125 0.25
0.5 0.125 0.25
0.625 0.125 0.25
0.75 0.125 0.25
0.875 0.125 0.25
1 0.125 0.25
1.125 0.125 0.25
1.25 0.125 0.25
1.375 0.125 0.25
1.5 0.125 0.25
1.625 0.125 0.25
1.75 0.125 0.25
1.875 0.125 0.25
2 0.125 0.25
0 0.25 0.25
0.125 0.25 0.25
0.25 0.25 0.25
0.375 0.25 0.25
0.5 0.25 0.25
0.625 0.25 0.25
0.75 0.25 0.25
0.875 0.25 0.25
1 0.25 0.25
1.125 0.25 0.25
1.25 0.25 0.25
1.375 0.25 0.25
1.5 0.25 0.25
1.625 0.25 0.25
1.75 0.25 0.25
1.875 0.25 0.25
2 0.25 0.25
0 0.375 0.25
0.125 0.375 0.25
0.25 0.375 0.25
0.375 0.375 0.25
0.5 0.375 0.25
0.625 0.375 0.25
0.75 0.375 0.25
0.875 0.375 0.25
1 0.375 0.25
1.125 0.375 0.25
1.25 0.375 0.25
1.375 0.375 0.25
1.5 0.375 0.25
1.625 0.375 0.25
1.75 0.375 0.25
1.875 0.375 0.25
2 0.375 0.25
0 0.5 0.25
0.125 0.5 0.25
0.25 0.5 0.25
0.375 0.5 0.25
0.5 0.5 0.25
0.625 0.5 0.25
0.75 0.5 0.25
0.875 0.5 0.25
1 0.5 0.25
1.125 0.5 0.25
1.25 0.5 0.25
1.375 0.5 0.25
1.5 0.5 0.25
1.625 0.5 0.25
1.75 0.5 0.25
1.875 0.5 0.25
2 0.5 0.25
0 0.625 0.25
0.125 0.625 0.25
0.25 0.625 0.25
0.375 0.625 0.25
0.5 0.625 0.25
0.625 0.625 0.25
0.75 0.625 0.25
0.875 0.625 0.25
1 0.625 0.25
1.125 0.625 0.25
1.25 0.625 0.25
1.375 0.625 0.25
1.5 0.625 0.25
1.625 0.625 0.25
1.75 0.625 0.25
1.875 0.625 0.25
2 0.625 0.25
0 0.75 0.25
0.125 0.75 0.25
0.25 0.75 0.25
0.375 0.75 0.25
0.5 0.75 0.25
0.625 0.75 0.25
0.75 0.75 0.25
0.875 0.75 0.25
1 0.75 0.25
1.125 0.75 0.25
1.25 0.75 0.25
1.375 0.75 0.25
1.5 0.75 0.25
1.625 0.75 0.25
1.75 0.75 0.25
1.875 0.75 0.25
2 0.75 0.25
0 0.875 0.25
0.125 0.875 0.25
0.25 0.875 0.25
0.375 0.875 0.25
0.5 0.875 0.25
0.625 0.875 0.25
0.75 0.875 0.25
0.875 0.875 0.25
1 0.875 0.25
1.125 0.875 0.25
1.25 0.875 0.25
1.375 0.875 0.25
1.5 0.875 0.25
1.625 0.875 0.25
1.75 0.875 0.25
1.875 0.875 0.25
2 0.875 0.25
0 1 0.25
0.125 1 0.25
0.25 1 0.25
0.375 1 0.25
0.5 1 0.25
0.625 1 0.25
0.75 1 0.25
0.875 1 0.25
1 1 0.25
1.125 1 0.25
1.25 1 0.25
1.375 1 0.25
1.5 1 0.25
1.625 1 0.25
1.75 1 0.25
1.875 1 0.25
2 1 0.25
0 0 0.375
0.125 0 0.375
0.25 0 0.375
0.375 0 0.375
0.5 0 0.375
0.625 0 0.375
0.75 0 0.375
0.875 0 0.375
1 0 0.375
1.125 0 0.375
1.25 0 0.375
1.375 0 0.375
1.5 0 0.375
1.625 0 0.375
1.75 0 0.375
1.875 0 0.375
2 0 0.375
0 0.125 0.375
0.125 0.125 0.375
0.25 0.125 0.375
0.375 0.125 0.375
0.5 0.125 0.375
0.625 0.125 0.375
0.75 0.125 0.375
0.875 0.125 0.375
1 0.125 0.375
1.125 0.125 0.375
1.25 0.125 0.375
1.375 0.125 0.375
1.5 0.125 0.375
1.625 0.125 0.375
1.75 0.125 0.375
1.875 0.125 0.375
2 0.125 0.375
0 0.25 0.375
0.125 0.25 0.375
0.25 0.25 0.375
0.375 0.25 0.375
0.5 0.25 0.375
0.625 0.25 0.375
0.75 0.25 0.375
0.875 0.25 0.375
1 0.25 0.375
1.125 0.25 0.375
1.25 0.25 0.375
1.375 0.25 0.375
1.5 0.25 0.375
1.625 0.25 0.375
1.75 0.25 0.375
1.875 0.25 0.375
2 0.25 0.375
0 0.375 0.375
0.125 0.375 0.375
0.25 0.375 0.375
0.375 0.375 0.375
0.5 0.375 0.375
0.625 0.375 0.375
0.75 0.375 0.375
0.875 0.375 0.375
1 0.375 0.375
1.125 0.375 0.375
1.25 0.375 0.375
1.375 0.375 0.375
1.5 0.375 0.375
1.625 0.375 0.375
1.75 0.375 0.375
1.875 0.375 0.375
2 0.375 0.375
0 0.5 0.375
0.125 0.5 0.375
0.25 0.5 0.375
0.375 0.5 0.375
0.5 0.5 0.375
0.625 0.5 0.375
0.75 0.5 0.375
0.875 0.5 0.375
1 0.5 0.375
1.125 0.5 0.375
1.25 0.5 0.375
1.375 0.5 0.375
1.5 0.5 0.375
1.625 0.5 0.375
1.75 0.5 0.375
1.875 0.5 0.375
2 0.5 0.375
0 0.625 0.375
0.125 0.625 0.375
0.25 0.625 0.375
0.375 0.625 0.375
0.5 0.625 0.375
0.625 0.625 0.375
0.75 0.625 0.375
0.875 0.625 0.375
1 0.625 0.375
1.125 0.625 0.375
1.25 0.625 0.375
1.375 0.625 0.375
1.5 0.625 0.375
1.625 0.625 0.375
1.75 0.625 0.375
1.875 0.625 0.375
2 0.625 0.375
0 0.75 0.375
0.125 0.75 0.375
0.25 0.75 0.375
0.375 0.75 0.375
0.5 0.75 0.375
0.625 0.75 0.375
0.75 0.75 0.375
0.875 0.75 0.375
1 0.75 0.375
1.125 0.75 0.375
1.25 0.75 0.375
1.375 0.75 0.375
1.5 0.75 0.375
1.625 0.75 0.375
1.75 0.75 0.375
1.875 0.75 0.375
2 0.75 0.375
0 0.875 0.375
0.125 0.875 0.375
0.25 0.875 0.375
0.375 0.875 0.375
0.5 0.875 0.375
0.625 0.875 0.375
0.75 0.875 0.375
0.875 0.875 0.375
1 0.875 0.375
1.125 0.875 0.375
1.25 0.875 0.375
1.375 0.875 0.375
1.5 0.875 0.375
1.625 0.875 0.375
1.75 0.875 0.375
1.875 0.875 0.375
2 0.875 0.375
0 1 0.375
0.125 1 0.375
0.25 1 0.375
0.375 1 0.375
0.5 1 0.375
0.625 1 0.375
0.75 1 0.375
0.875 1 0.375
1 1 0.375
1.125 1 0.375
1.25 1 0.375
1.375 1 0.375
1.5 1 0.375
1.625 1 0.375
1.75 1 0.375
1.875 1 0.375
2 1 0.375
0 0 0.5
0.125 0 0.5
0.25 0 0.5
0.375 0 0.5
0.5 0 0.5
0.625 0 0.5
0.75 0 0.5
0.875 0 0.5
1 0 0.5
1.125 0 0.5
1.25 0 0.5
1.375 0 0.5
1.5 0 0.5
1.625 0 0.5
1.75 0 0.5
1.875 0 0.5
2 0 0.5
0 0.125 0.5
0.125 0.125 0.5
0.25 0.125 0.5
0.375 0.125 0.5
0.5 0.125 0.5
0.625 0.125 0.5
0.75 0.125 0.5
0.875 0.125 0.5
1 0.125 0.5
1.125 0.125 0.5
1.25 0.125 0.5
1.375 0.125 0.5
1.5 0.125 0.5
1.625 0.125 0.5
1.75 0.125 0.5
1.875 0.125 0.5
2 0.125 0.5
0 0.25 0.5
0.125 0.25 0.5
0.25 0.25 0.5
0.375 0.25 0.5
0.5 0.25 0.5
0.625 0.25 0.5
0.75 0.25 0.5
0.875 0.25 0.5
1 0.25 0.5
1.125 0.25 0.5
1.25 0.25 0.5
1.375 0.25 0.5
1.5 0.25 0.5
1.625 0.25 0.5
1.75 0.25 0.5
1.875 0.25 0.5
2 0.25 0.5
0 0.375 0.5
0.125 0.375 0.5
0.25 0.375 0.5
0.375 0.375 0.5
0.5 0.375 0.5
0.625 0.375 0.5
0.75 0.375 0.5
0.875 0.375 0.5
1 0.375 0.5
1.125 0.375 0.5
1.25 0.375 0.5
1.375 0.375 0.5
1.5 0.375 0.5
1.625 0.375 0.5
1.75 0.375 0.5
1.875 0.375 0.5
2 0.375 0.5
0 0.5 0.5
0.125 0.5 0.5
0.25 0.5 0.5
0.375 0.5 0.5
0.5 0.5 0.5
0.625 0.5 0.5
0.75 0.5 0.5
0.875 0.5 0.5
1 0.5 0.5
1.125 0.5 0.5
1.25 0.5 0.5
1.375 0.5 0.5
1.5 0.5 0.5
1.625 0.5 0.5
1.75 0.5 0.5
1.875 0.5 0.5
2 0.5 0.5
0 0.625 0.5
0.125 0.625 0.5
0.25 0.625 0.5
0.375 0.625 0.5
0.5 0.625 0.5
0.625 0.625 0.5
0.75 0.625 0.5
0.875 0.625 0.5
1 0.625 0.5
1.125 0.625 0.5
1.25 0.625 0.5
1.375 0.625 0.5
1.5 0.625 0.5
1.625 0.625 0.5
1.75 0.625 0.5
1.875 0.625 0.5
2 0.625 0.5
0 0.75 0.5
0.125 0.75 0.5
0.25 0.75 0.5
0.375 0.75 0.5
0.5 0.75 0.5
0.625 0.75 0.5
0.75 0.75 0.5
0.875 0.75 0.5
1 0.75 0.5
1.125 0.75 0.5
1.25 0.75 0.5
1.375 0.75 0.5
1.5 0.75 0.5
1.625 0.75 0.5
1.75 0.75 0.5
1.875 0.75 0.5
2 0.75 0.5
0 0.875 0.5
0.125 0.875 0.5
0.25 0.875 0.5
0.375 0.875 0.5
0.5 0.875 0.5
0.625 0.875 0.5
0.75 0.875 0.5
0.875 0.875 0.5
1 0.875 0.5
1.125 0.875 0.5
1.25 0.875 0.5
1.375 0.875 0.5
1.5 0.875 0.5
1.625 0.875 0.5
1.75 0.875 0.5
1.875 0.875 0.5
2 0.875 0.5
0 1 0.5
0.125 1 0.5
0.25 1 0.5
0.375 1 0.5
0.5 1 0.5
0.625 1 0.5
0.75 1 0.5
0.875 1 0.5
1 1 0.5
1.125 1 0.5
1.25 1 0.5
1.375 1 0.5
1.5 1 0.5
1.625 1 0.5
1.75 1 0.5
1.875 1 0.5
2 1 0.5
0 0 0.625
0.125 0 0.625
0.25 0 0.625
0.375 0 0.625
0.5 0 0.625
0.625 0 0.625
0.75 0 0.625
0.875 0 0.625
1 0 0.625
1.125 0 0.625
1.25 0 0.625
1.375 0 0.625
1.5 0 0.625
1.625 0 0.625
1.75 0 0.625
1.875 0 0.625
2 0 0.625
0 0.125 0.625
0.125 0.125 0.625
0.25 0.125 0.625
0.375 0.125 0.625
0.5 0.125 0.625
0.625 0.125 0.625
0.75 0.125 0.625
0.875 0.125 0.625
1 0.125 0.625
1.125 0.125 0.625
1.25 0.125 0.625
1.375 0.125 0.625
1.5 0.125 0.625
1.625 0.125 0.625
1.75 0.125 0.625
1.875 0.125 0.625
2 0.125 0.625
0 0.25 0.625
0.125 0.25 0.625
0.25 0.25 0.625
0.375 0.25 0.625
0.5 0.25 0.625
0.625 0.25 0.625
0.75 0.25 0.625
0.875 0.25 0.625
1 0.25 0.625
1.125 0.25 0.625
1.25 0.25 0.625
1.375 0.25 0.625
1.5 0.25 0.625
1.625 0.25 0.625
1.75 0.25 0.625
1.875 0.25 0.625
2 0.25 0.625
0 0.375 0.625
0.125 0.375 0.625
0.25 0.375 0.625
0.375 0.375 0.625
0.5 0.375 0.625
0.625 0.375 0.625
0.75 0.375 0.625
0.875 0.375 0.625
1 0.375 0.625
1.125 0.375 0.625
1.25 0.375 0.625
1.375 0.375 0.625
1.5 0.375 0.625
1.625 0.375 0.625
1.75 0.375 0.625
1.875 0.375 0.625
2 0.375 0.625
0 0.5 0.625
0.125 0.5 0.625
0.25 0.5 0.625
0.375 0.5 0.625
0.5 0.5 0.625
0.625 0.5 0.625
0.75 0.5 0.625
0.875 0.5 0.625
1 0.5 0.625
1.125 0.5 0.625
1.25 0.5 0.625
1.375 0.5 0.625
1.5 0.5 0.625
1.625 0.5 0.625
1.75 0.5 0.625
1.875 0.5 0.625
2 0.5 0.625
0 0.625 0.625
0.125 0.625 0.625
0.25 0.625 0.625
0.375 0.625 0.625
0.5 0.625 0.625
0.625 0.625 0.625
0.75 0.625 0.625
0.875 0.625 0.625
1 0.625 0.625
1.125 0.625 0.625
1.25 0.625 0.625
1.375 0.625 0.625
1.5 0.625 0.625
1.625 0.625 0.625
1.75 0.625 0.625
1.875 0.625 0.625
2 0.625 0.625
0 0.75 0.625
0.125 0.75 0.625
0.25 0.75 0.625
0.375 0.75 0.625
0.5 0.75 0.625
0.625 0.75 0.625
0.75 0.75 0.625
0.875 0.75 0.625
1 0.75 0.625
1.125 0.75 0.625
1.25 0.75 0.625
1.375 0.75 0.625
1.5 0.75 0.625
1.625 0.75 0.625
1.75 0.75 0.625
1.875 0.75 0.625
2 0.75 0.625
0 0.875 0.625
0.125 0.875 0.625
0.25 0.875 0.625
0.375 0.875 0.625
0.5 0.875 0.625
0.625 0.875 0.625
0.75 0.875 0.625
0.875 0.875 0.625
1 0.875 0.625
1.125 0.875 0.625
1.25 0.875 0.625
1.375 0.875 0.625
1.5 0.875 0.625
1.625 0.875 0.625
1.75 0.875 0.625
1.875 0.875 0.625
2 0.875 0.625
0 1 0.625
0.125 1 0.625
0.25 1 0.625
0.375 1 0.625
0.5 1 0.625
0.625 1 0.625
0.75 1 0.625
0.875 1 0.625
1 1 0.625
1.125 1 0.625
1.25 1 0.625
1.375 1 0.625
1.5 1 0.625
1.625 1 0.625
1.75 1 0.625
1.875 1 0.625
2 1 0.625
0 0 0.75
0.125 0 0.75
0.25 0 0.75
0.375 0 0.75
0.5 0 0.75
0.625 0 0.75
0.75 0 0.75
0.875 0 0.75
1 0 0.75
1.125 0 0.75
1.25 0 0.75
1.375 0 0.75
1.5 0 0.75
1.625 0 0.75
1.75 0 0.75
1.875 0 0.75
2 0 0.75
0 0.125 0.75
0.125 0.125 0.75
0.25 0.125 0.75
0.375 0.125 0.75
0.5 0.125 0.75
0.625 0.125 0.75
0.75 0.125 0.75
0.875 0.125 0.75
1 0.125 0.75
1.125 0.125 0.75
1.25 0.125 0.75
1.375 0.125 0.75
1.5 0.125 0.75
1.625 0.125 0.75
1.75 0.125 0.75
1.875 0.125 0.75
2 0.125 0.75
0 0.25 0.75
0.125 0.25 0.75
0.25 0.25 0.75
0.375 0.25 0.75
0.5 0.25 0.75
0.625 0.25 0.75
0.75 0.25 0.75
0.875 0.25 0.75
1 0.25 0.75
1.125 0.25 0.75
1.25 0.25 0.75
1.375 0.25 0.75
1.5 0.25 0.75
1.625 0.25 0.75
1.75 0.25 0.75
1.875 0.25 0.75
2 0.25 0.75
0 0.375 0.75
0.125 0.375 0.75
0.25 0.375 0.75
0.375 0.375 0.75
0.5 0.375 0.75
0.625 0.375 0.75
0.75 0.375 0.75
0.875 0.375 0.75
1 0.375 0.75
1.125 0.375 0.75
1.25 0.375 0.75
1.375 0.375 0.75
1.5 0.375 0.75
1.625 0.375 0.75
1.75 0.375 0.75
1.875 0.375 0.75
2 0.375 0.75
0 0.5 0.75
0.125 0.5 0.75
0.25 0.5 0.75
0.375 0.5 0.75
0.5 0.5 0.75
0.625 0.5 0.75
0.75 0.5 0.75
0.875 0.5 0.75
1 0.5 0.75
1.125 0.5 0.75
1.25 0.5 0.75
1.375 0.5 0.75
1.5 0.5 0.75
1.625 0.5 0.75
1.75 0.5 0.75
1.875 0.5 0.75
2 0.5 0.75
0 0.625 0.75
0.125 0.625 0.75
0.25 0.625 0.75
0.375 0.625 0.75
0.5 0.625 0.75
0.625 0.625 0.75
0.75 0.625 0.75
0.875 0.625 0.75
1 0.625 0.75
1.125 0.625 0.75
1.25 0.625 0.75
1.375 0.625 0.75
1.5 0.625 0.75
1.625 0.625 0.75
1.75 0.625 0.75
1.875 0.625 0.75
2 0.625 0.75
0 0.75 0.75
0.125 0.75 0.75
0.25 0.75 0.75
0.375 0.75 0.75
0.5 0.75 0.75
0.625 0.75 0.75
0.75 0.75 0.75
0.875 0.75 0.75
1 0.75 0.75
1.125 0.75 0.75
1.25 0.75 0.75
1.375 0.75 0.75
1.5 0.75 0.75
1.625 0.75 0.75
1.75 0.75 0.75
1.875 0.75 0.75
2 0.75 0.75
0 0.875 0.75
0.125 0.875 0.75
0.25 0.875 0.75
0.375 0.875 0.75
0.5 0.875 0.75
0.625 0.875 0.75
0.75 0.875 0.75
0.875 0.875 0.75
1 0.875 0.75
1.125 0.875 0.75
1.25 0.875 0.75
1.375 0.875 0.75
1.5 0.875 0.75
1.625 0.875 0.75
1.75 0.875 0.75
1.875 0.875 0.75
2 0.875 0.75
0 1 0.75
0.125 1 0.75
0.25 1 0.75
0.375 1 0.75
0.5 1 0.75
0.625 1 0.75
0.75 1 0.75
0.875 1 0.75
1 1 0.75
1.125 1 0.75
1.25 1 0.75
1.375 1 0.75
1.5 1 0.75
1.625 1 0.75
1.75 1 0.75
1.875 1 0.75
2 1 0.75
0 0 0.875
0.125 0 0.875
0.25 0 0.875
0.375 0 0.875
0.5 0 0.875
0.625 0 0.875
0.75 0 0.875
0.875 0 0.875
1 0 0.875
1.125 0 0.875
1.25 0 0.875
1.375 0 0.875
1.5 0 0.875
1.625 0 0.875
1.75 0 0.875
1.875 0 0.875
2 0 0.875
0 0.125 0.875
0.125 0.125 0.875
0.25 0.125 0.875
0.375 0.125 0.875
0.5 0.125 0.875
0.625 0.125 0.875
0.75 0.125 0.875
0.875 0.125 0.875
1 0.125 0.875
1.125 0.125 0.875
1.25 0.125 0.875
1.375 0.125 0.875
1.5 0.125 0.875
1.625 0.125 0.875
1.75 0.125 0.875
1.875 0.125 0.875
2 0.125 0.875
0 0.25 0.875
0.125 0.25 0.875
0.25 0.25 0.875
0.375 0.25 0.875
0.5 0.25 0.875
0.625 0.25 0.875
0.75 0.25 0.875
0.875 0.25 0.875
1 0.25 0.875
1.125 0.25 0.875
1.25 0.25 0.875
1.375 0.25 0.875
1.5 0.25 0.875
1.625 0.25 0.875
1.75 0.25 0.875
1.875 0.25 0.875
2 0.25 0.875
0 0.375 0.875
0.125 0.375 0.875
0.25 0.375 0.875
0.375 0.375 0.875
0.5 0.375 0.875
0.625 0.375 0.875
0.75 0.375 0.875
0.875 0.375 0.875
1 0.375 0.875
1.125 0.375 0.875
1.25 0.375 0.875
1.375 0.375 0.875
1.5 0.375 0.875
1.625 0.375 0.875
1.75 0.375 0.875
1.875 0.375 0.875
2 0.375 0.875
0 0.5 0.875
0.125 0.5 0.875
0.25 0.5 0.875
0.375 0.5 0.875
0.5 0.5 0.875
0.625 0.5 0.875
0.75 0.5 0.875
0.875 0.5 0.875
1 0.5 0.875
1.125 0.5 0.875
1.25 0.5 0.875
1.375 0.5 0.875
1.5 0.5 0.875
1.625 0.5 0.875
1.75 0.5 0.875
1.875 0.5 0.875
2 0.5 0.875
0 0.625 0.875
0.125 0.625 0.875
0.25 0.625 0.875
0.375 0.625 0.875
0.5 0.625 0.875
0.625 0.625 0.875
0.75 0.625 0.875
0.875 0.625 0.875
1 0.625 0.875
1.125 0.625 0.875
1.25 0.625 0.875
1.375 0.625 0.875
1.5 0.625 0.875
1.625 0.625 0.875
1.75 0.625 0.875
1.875 0.625 0.875
2 0.625 0.875
0 0.75 0.875
0.125 0.75 0.875
0.25 0.75 0.875
0.375 0.75 0.875
0.5 0.75 0.875
0.625 0.75 0.875
0.75 0.75 0.875
0.875 0.75 0.875
1 0.75 0.875
1.125 0.75 0.875
1.25 0.75 0.875
1.375 0.75 0.875
1.5 0.75 0.875
1.625 0.75 0.875
1.75 0.75 0.875
1.875 0.75 0.875
2 0.75 0.875
0 0.875 0.875
0.125 0.875 0.875
0.25 0.875 0.875
0.375 0.875 0.875
0.5 0.875 0.875
0.625 0.875 0.875
0.75 0.875 0.875
0.875 0.875 0.875
1 0.875 0.875
1.125 0.875 0.875
1.25 0.875 0.875
1.375 0.875 0.875
1.5 0.875 0.875
1.625 0.875 0.875
1.75 0.875 0.875
1.875 0.875 0.875
2 0.875 0.875
0 1 0.875
0.125 1 0.875
0.25 1 0.875
0.375 1 0.875
0.5 1 0.875
0.625 1 0.875
0.75 1 0.875
0.875 1 0.875
1 1 0.875
1.125 1 0.875
1.25 1 0.875
1.375 1 0.875
1.5 1 0.875
1.625 1 0.875
1.75 1 0.875
1.875 1 0.875
2 1 0.875
0 0 1
0.125 0 1
0.25 0 1
0.375 0 1
0.5 0 1
0.625 0 1
0.75 0 1
0.875 0 1
1 0 1
1.125 0 1
1.25 0 1
1.375 0 1
1.5 0 1
1.625 0 1
1.75 0 1
1.875 0 1
2 0 1
0 0.125 1
0.125 0.125 1
0.25 0.125 1
0.375 0.125 1
0.5 0.125 1
0.625 0.125 1
0.75 0.125 1
0.875 0.125 1
1 0.125 1
1.125 0.125 1
1.25 0.125 1
1.375 0.125 1
1.5 0.125 1
1.625 0.125 1
1.75 0.125 1
1.875 0.125 1
2 0.125 1
0 0.25 1
0.125 0.25 1
0.25 0.25 1
0.375 0.25 1
0.5 0.25 1
0.625 0.25 1
0.75 0.25 1
0.875 0.25 1
1 0.25 1
1.125 0.25 1
1.25 0.25 1
1.375 0.25 1
1.5 0.25 1
1.625 0.25 1
1.75 0.25 1
1.875 0.25 1
2 0.25 1
0 0.375 1
0.125 0.375 1
0.25 0.375 1
0.375 0.375 1
0.5 0.375 1
0.625 0.375 1
0.75 0.375 1
0.875 0.375 1
1 0.375 1
1.125 0.375 1
1.25 0.375 1
1.375 0.375 1
1.5 0.375 1
1.625 0.375 1
1.75 0.375 1
1.875 0.375 1
2 0.375 1
0 0.5 1
0.125 0.5 1
0.25 0.5 1
0.375 0.5 1
0.5 0.5 1
0.625 0.5 1
0.75 0.5 1
0.875 0.5 1
1 0.5 1
1.125 0.5 1
1.25 0.5 1
1.375 0.5 1
1.5 0.5 1
1.625 0.5 1
1.75 0.5 1
1.875 0.5 1
2 0.5 1
0 0.625 1
0.125 0.625 1
0.25 0.625 1
0.375 0.625 1
0.5 0.625 1
0.625 0.625 1
0.75 0.625 1
0.875 0.625 1
1 0.625 1
1.125 0.625 1
1.25 0.625 1
1.375 0.625 1
1.5 0.625 1
1.625 0.625 1
1.75 0.625 1
1.875 0.625 1
2 0.625 1
0 0.75 1
0.125 0.75 1
0.25 0.75 1
0.375 0.75 1
0.5 0.75 1
0.625 0.75 1
0.75 0.75 1
0.875 0.75 1
1 0.75 1
1.125 0.75 1
1.25 0.75 1
1.375 0.75 1
1.5 0.75 1
1.625 0.75 1
1.75 0.75 1
1.875 0.75 1
2 0.75 1
0 0.875 1
0.125 0.875 1
0.25 0.875 1
0.375 0.875 1
0.5 0.875 1
0.625 0.875 1
0.75 0.875 1
0.875 0.875 1
1 0.875 1
1.125 0.875 1
1.25 0.875 1
1.375 0.875 1
1.5 0.875 1
1.625 0.875 1
1.75 0.875 1
1.875 0.875 1
2 0.875 1
0 1 1
0.125 1 1
0.25 1 1
0.375 1 1
0.5 1 1
0.625 1 1
0.75 1 1
0.875 1 1
1 1 1
1.125 1 1
1.25 1 1
1.375 1 1
1.5 1 1
1.625 1 1
1.75 1 1
1.875 1 1
2 1 1

CELLS 1025 8192
OFFSETS vtktypeint64
0 8 16 24 32 40 48 56 64 72 80 88 96 104 112 120 128 136 144 152 160 168 176 184 192 200 208 216 224 232 240 248 256 264 272 280 288 296 304 312 320 328 336 344 352 360 368 376 384 392 400 408 416 424 432 440 448 456 464 472 480 488 496 504 512 520 528 536 544 552 560 568 576 584 592 600 608 616 624 632 640 648 656 664 672 680 688 696 704 712 720 728 736 744 752 760 768 776 784 792 800 808 816 824 832 840 848 856 864 872 880 888 896 904 912 920 928 936 944 952 960 968 976 984 992 1000 1008 1016 1024 1032 1040 1048 1056 1064 1072 1080 1088 1096 1104 1112 1120 1128 1136 1144 1152 1160 1168 1176 1184 1192 1200 1208 1216 1224 1232 1240 1248 1256 1264 1272 1280 1288 1296 1304 1312 1320 1328 1336 1344 1352 1360 1368 1376 1384 1392 1400 1408 1416 1424 1432 1440 1448 1456 1464 1472 1480 1488 1496 1504 1512 1520 1528 1536 1544 1552 1560 1568 1576 1584 1592 1600 1608 1616 1624 1632 1640 1648 1656 1664 1672 1680 1688 1696 1704 1712 1720 1728 1736 1744 1752 1760 1768 1776 1784 1792 1800 1808 1816 1824 1832 1840 1848 1856 1864 1872 1880 1888 1896 1904 1912 1920 1928 1936 1944 1952 1960 1968 1976 1984 1992 2000 2008 2016 2024 2032 2040 2048 2056 2064 2072 2080 2088 2096 2104 2112 2120 2128 2136 2144 2152 2160 2168 2176 2184 2192 2200 2208 2216 2224 2232 2240 2248 2256 2264 2272 2280 2288 2296 2304 2312 2320 2328 2336 2344 2352 2360 2368 2376 2384 2392 2400 2408 2416 2424 2432 2440 2448 2456 2464 2472 2480 2488 2496 2504 2512 2520 2528 2536 2544 2552 2560 2568 2576 2584 2592 2600 2608 2616 2624 2632 2640 2648 2656 2664 2672 2680 2688 2696 2704 2712 2720 2728 2736 2744 2752 2760 2768 2776 2784 2792 2800 2808 2816 2824 2832 2840 2848 2856 2864 2872 2880 2888 2896 2904 2912 2920 2928 2936 2944 2952 2960 2968 2976 2984 2992 3000 3008 3016 3024 3032 3040 3048 3056 3064 3072 3080 3088 3096 3104 3112 3120 3128 3136 3144 3152 3160 3168 3176 3184 3192 3200 3208 3216 3224 3232 3240 3248 3256 3264 3272 3280 3288 3296 3304 3312 3320 3328 3336 3344 3352 3360 3368 3376 3384 3392 3400 3408 3416 3424 3432 3440 3448 3456 3464 3472 3480 3488 3496 3504 3512 3520 3528 3536 3544 3552 3560 3568 3576 3584 3592 3600 3608 3616 3624 3632 3640 3648 3656 3664 3672 3680 3688 3696 3704 3712 3720 3728 3736 3744 3752 3760 3768 3776 3784 3792 3800 3808 3816 3824 3832 3840 3848 3856 3864 3872 3880 3888 3896 3904 3912 3920 3928 3936 3944 3952 3960 3968 3976 3984 3992 4000 4008 4016 4024 4032 4040 4048 4056 4064 4072 4080 4088 4096 4104 4112 4120 4128 4136 4144 4152 4160 4168 4176 4184 4192 4200 4208 4216 4224 4232 4240 4248 4256 4264 4272 4280 4288 4296 4304 4312 4320 4328 4336 4344 4352 4360 4368 4376 4384 4392 4400 4408 4416 4424 4432 4440 4448 4456 4464 4472 4480 4488 4496 4504 4512 4520 4528 4536 4544 4552 4560 4568 4576 4584 4592 4600 4608 4616 4624 4632 4640 4648 4656 4664 4672 4680 4688 4696 4704 4712 4720 4728 4736 4744 4752 4760 4768 4776 4784 4792 4800 4808 4816 4824 4832 4840 4848 4856 4864 4872 4880 4888 4896 4904 4912 4920 4928 4936 4944 4952 4960 4968 4976 4984 4992 5000 5008 5016 5024 5032 5040 5048 5056 5064 5072 5080 5088 5096 5104 5112 5120 5128 5136 5144 5152 5160 5168 5176 5184 5192 5200 5208 5216 5224 5232 5240 5248 5256 5264 5272 5280 5288 5296 5304 5312 5320 5328 5336 5344 5352 5360 5368 5376 5384 5392 5400 5408 5416 5424 5432 5440 5448 5456 5464 5472 5480 5488 5496 5504 5512 5520 5528 5536 5544 5552 5560 5568 5576 5584 5592 5600 5608 5616 5624 5632 5640 5648 5656 5664 5672 5680 5688 5696 5704 5712 5720 5728 5736 5744 5752 5760 5768 5776 5784 5792 5800 5808 5816 5824 5832 5840 5848 5856 5864 5872 5880 5888 5896 5904 5912 5920 5928 5936 5944 5952 5960 5968 5976 5984 5992 6000 6008 6016 6024 6032 6040 6048 6056 6064 6072 6080 6088 6096 6104 6112 6120 6128 6136 6144 6152 6160 6168 6176 6184 6192 6200 6208 6216 6224 6232 6240 6248 6256 6264 6272 6280 6288 6296 6304 6312 6320 6328 6336 6344 6352 6360 6368 6376 6384 6392 6400 6408 6416 6424 6432 6440 6448 6456 6464 6472 6480 6488 6496 6504 6512 6520 6528 6536 6544 6552 6560 6568 6576 6584 6592 6600 6608 6616 6624 6632 6640 6648 6656 6664 6672 6680 6688 6696 6704 6712 6720 6728 6736 6744 6752 6760 6768 6776 6784 6792 6800 6808 6816 6824 6832 6840 6848 6856 6864 6872 6880 6888 6896 6904 6912 6920 6928 6936 6944 6952 6960 6968 6976 6984 6992 7000 7008 7016 7024 7032 7040 7048 7056 7064 7072 7080 7088 7096 7104 7112 7120 7128 7136 7144 7152 7160 7168 7176 7184 7192 7200 7208 7216 7224 7232 7240 7248 7256 7264 7272 7280 7288 7296 7304 7312 7320 7328 7336 7344 7352 7360 7368 7376 7384 7392 7400 7408 7416 7424 7432 7440 7448 7456 7464 7472 7480 7488 7496 7504 7512 7520 7528 7536 7544 7552 7560 7568 7576 7584 7592 7600 7608 7616 7624 7632 7640 7648 7656 7664 7672 7680 7688 7696 7704 7712 7720 7728 7736 7744 7752 7760 7768 7776 7784 7792 7800 7808 7816 7824 7832 7840 7848 7856 7864 7872 7880 7888 7896 7904 7912 7920 7928 7936 7944 7952 7960 7968 7976 7984 7992 8000 8008 8016 8024 8032 8040 8048 8056 8064 8072 8080 8088 8096 8104 8112 8120 8128 8136 8144 8152 8160 8168 8176 8184 8192 
CONNECTIVITY vtktypeint64
0 1 154 153 17 18 171 170 
1 2 155 154 18 19 172 171 
2 3 156 155 19 20 173 172 
3 4 157 156 20 21 174 173 
4 5 158 157 21 22 175 174 
5 6 159 158 22 23 176 175 
6 7 160 159 23 24 177 176 
7 8 161 160 24 25 178 177 
8 9 162 161 25 26 179 178 
9 10 163 162 26 27 180 179 
10 11 164 163 27 28 181 180 
11 12 165 164 28 29 182 181 
12 13 166 165 29 30 183 182 
13 14 167 166 30 31 184 183 
14 15 168 167 31 32 185 184 
15 16 169 168 32 33 186 185 
17 18 171 170 34 35 188 187 
18 19 172 171 35 36 189 188 
19 20 173 172 36 37 190 189 
20 21 174 173 37 38 191 190 
21 22 175 174 38 39 192 191 
22 23 176 175 39 40 193 192 
23 24 177 176 40 41 194 193 
24 25 178 177 41 42 195 194 
25 26 179 178 42 43 196 195 
26 27 180 179 43 44 197 196 
27 28 181 180 44 45 198 197 
28 29 182 181 45 46 199 198 
29 30 183 182 46 47 200 199 
30 31 184 183 47 48 201 200 
31 32 185 184 48 49 202 201 
32 33 186 185 49 50 203 202 
34 35 188 187 51 52 205 204 
35 36 189 188 52 53 206 205 
36 37 190 189 53 54 207 206 
37 38 191 190 54 55 208 207 
38 39 192 191 55 56 209 208 
39 40 193 192 56 57 210 209 
40 41 194 193 57 58 211 210 
41 42 195 194 58 59 212 211 
42 43 196 195 59 60 213 212 
43 44 197 196 60 61 214 213 
44 45 198 197 61 62 215 214 
45 46 199 198 62 63 216 215 
46 47 200 199 63 64 217 216 
47 48 201 200 64 65 218 217 
48 49 202 201 65 66 219 218 
49 50 203 202 66 67 220 219 
51 52 205 204 68 69 222 221 
52 53 206 205 69 70 223 222 
53 54 207 206 70 71 224 223 
54 55 208 207 71 72 225 224 
55 56 209 208 72 73 226 225 
56 57 210 209 73 74 227 226 
57 58 211 210 74 75 228 227 
58 59 212 211 75 76 229 228 
59 60 213 212 76 77 230 229 
60 61 214 213 77 78 231 230 
61 62 215 214 78 79 232 231 
62 63 216 215 79 80 233 232 
63 64 217 216 80 81 234 233 
64 65 218 217 81 82 235 234 
65 66 219 218 82 83 236 235 
66 67 220 219 83 84 237 236 
68 69 222 221 85 86 239 238 
69 70 223 222 86 87 240 239 
70 71 224 223 87 88 241 240 
71 72 225 224 88 89 242 241 
72 73 226 225 89 90 243 242 
73 74 227 226 90 91 244 243 
74 75 228 227 91 92 245 244 
75 76 229 228 92 93 246 245 
76 77 230 229 93 94 247 246 
77 78 231 230 94 95 248 247 
78 79 232 231 95 96 249 248 
79 80 233 232 96 97 250 249 
80 81 234 233 97 98 251 250 
81 82 235 234 98 99 252 251 
82 83 236 235 99 100 253 252 
83 84 237 236 100 101 254 253 
85 86 239 238 102 103 256 255 
86 87 240 239 103 104 257 256 
87 88 241 240 104 105 258 257 
88 89 242 241 105 106 259 258 
89 90 243 242 106 107 260 259 
90 91 244 243 107 108 261 260 
91 92 245 244 108 109 262 261 
92 93 246 245 109 110 263 262 
93 94 247 246 110 111 264 263 
94 95 248 247 111 112 265 264 
95 96 249 248 112 113 266 265 
96 97 250 249 113 114 267 266 
97 98 251 250 114 115 268 267 
98 99 252 251 115 116 269 268 
99 100 253 252 116 117 270 269 
100 101 254 253 117 118 271 270 
102 103 256 255 119 120 273 272 
103 104 257 256 120 121 274 273 
104 105 258 257 121 122 275 274 
105 106 259 258 122 123 276 275 
106 107 260 259 123 124 277 276 
107 108 261 260 124 125 278 277 
108 109 262 261 125 126 279 278 
109 110 263 262 126 127 280 279 
110 111 264 263 127 128 281 280 
111 112 265 264 128 129 282 281 
112 113 266 265 129 130 283 282 
113 114 267 266 130 131 284 283 
114 115 268 267 131 132 285 284 
115 116 269 268 132 133 286 285 
116 117 270 269 133 134 287 286 
117 118 271 270 134 135 288 287 
119 120 273 272 136 137 290 289 
120 121 274 273 137 138 291 290 
121 122 275 274 138 139 292 291 
122 123 276 275 139 140 293 292 
123 124 277 276 140 141 294 293 
124 125 278 277 141 142 295 294 
125 126 279 278 142 143 296 295 
126 127 280 279 143 144 297 296 
127 128 281 280 144 145 298 297 
128 129 282 281 145 146 299 298 
129 130 283 282 146 147 300 299 
130 131 284 283 147 148 301 300 
131 132 285 284 148 149 302 301 
132 133 286 285 149 150 303 302 
133 134 287 286 150 151 304 303 
134 135 288 287 151 152 305 304 
153 154 307 306 170 171 324 323 
154 155 308 307 171 172 325 324 
155 156 309 308 172 173 326 325 
156 157 310 309 173 174 327 326 
157 158 311 310 174 175 328 327 
158 159 312 311 175 176 329 328 
159 160 313 312 176 177 330 329 
160 161 314 313 177 178 331 330 
161 162 315 314 178 179 332 331 
162 163 316 315 179 180 333 332 
163 164 317 316 180 181 334 333 
164 165 318 317 181 182 335 334 
165 166 319 318 182 183 336 335 
166 167 320 319 183 184 337 336 
167 168 321 320 184 185 338 337 
168 169 322 321 185 186 339 338 
170 171 324 323 187 188 341 340 
171 172 325 324 188 189 342 341 
172 173 326 325 189 190 343 342 
173 174 327 326 190 191 344 343 
174 175 328 327 191 192 345 344 
175 176 329 328 192 193 346 345 
176 177 330 329 193 194 347 346 
177 178 331 330 194 195 348 347 
178 179 332 331 195 196 349 348 
179 180 333 332 196 197 350 349 
180 181 334 333 197 198 351 350 
181 182 335 334 198 199 352 351 
182 183 336 335 199 200 353 352 
183 184 337 336 200 201 354 353 
184 185 338 337 201 202 355 354 
185 186 339 338 202 203 356 355 
187 188 341 340 204 205 358 357 
188 189 342 341 205 206 359 358 
189 190 343 342 206 207 360 359 
190 191 344 343 207 208 361 360 
191 192 345 344 208 209 362 361 
192 193 346 345 209 210 363 362 
193 194 347 346 210 211 364 363 
194 195 348 347 211 212 365 364 
195 196 349 348 212 213 366 365 
196 197 350 349 213 214 367 366 
197 198 351 350 214 215 368 367 
198 199 352 351 215 216 369 368 
199 200 353 352 216 217 370 369 
200 201 354 353 217 218 371 370 
201 202 355 354 218 219 372 371 
202 203 356 355 219 220 373 372 
204 205 358 357 221 222 375 374 
205 206 359 358 222 223 376 375 
206 207 360 359 223 224 377 376 
207 208 361 360 224 225 378 377 
208 209 362 361 225 226 379 378 
209 210 363 362 226 227 380 379 
210 211 364 363 227 228 381 380 
211 212 365 364 228 229 382 381 
212 213 366 365 229 230 383 382 
213 214 367 366 230 231 384 383 
214 215 368 367 231 232 385 384 
215 216 369 368 232 233 386 385 
216 217 370 369 233 234 387 386 
217 218 371 370 234 235 388 387 
218 219 372 371 235 236 389 388 
219 220 373 372 236 237 390 389 
221 222 375 374 238 239 392 391 
222 223 376 375 239 240 393 392 
223 224 377 376 240 241 394 393 
224 225 378 377 241 242 395 394 
225 226 379 378 242 243 396 395 
226 227 380 379 243 244 397 396 
227 228 381 380 244 245 398 397 
228 229 382 381 245 246 399 398 
229 230 383 382 246 247 400 399 
230 231 384 383 247 248 401 400 
231 232 385 384 248 249 402 401 
232 233 386 385 249 250 403 402 
233 234 387 386 250 251 404 403 
234 235 388 387 251 252 405 404 
235 236 389 388 252 253 406 405 
236 237 390 389 253 254 407 406 
238 239 392 391 255 256 409 408 
239 240 393 392 256 257 410 409 
240 241 394 393 257 258 411 410 
241 242 395 394 258 259 412 411 
242 243 396 395 259 260 413 412 
243 244 397 396 260 261 414 413 
244 245 398 397 261 262 415 414 
245 246 399 398 262 263 416 415 
246 247 400 399 263 264 417 416 
247 248 401 400 264 265 418 417 
248 249 402 401 265 266 419 418 
249 250 403 402 266 267 420 419 
250 251 404 403 267 268 421 420 
251 252 405 404 268 269 422 421 
252 253 406 405 269 270 423 422 
253 254 407 406 270 271 424 423 
255 256 409 408 272 273 426 425 
256 257 410 409 273 274 427 426 
257 258 411 410 274 275 428 427 
258 259 412 411 275 276 429 428 
259 260 413 412 276 277 430 429 
260 261 414 413 277 278 431 430 
261 262 415 414 278 279 432 431 
262 263 416 415 279 280 433 432 
263 264 417 416 280 281 434 433 
264 265 418 417 281 282 435 434 
265 266 419 418 282 283 436 435 
266 267 420 419 283 284 437 436 
267 268 421 420 284 285 438 437 
268 269 422 421 285 286 439 438 
269 270 423 422 286 287 440 439 
270 271 424 423 287 288 441 440 
272 273 426 425 289 290 443 442 
273 274 427 426 290 291 444 443 
274 275 428 427 291 292 445 444 
275 276 429 428 292 293 446 445 
276 277 430 429 293 294 447 446 
277 278 431 430 294 295 448 447 
278 279 432 431 295 296 449 448 
279 280 433 432 296 297 450 449 
280 281 434 433 297 298 451 450 
281 282 435 434 298 299 452 451 
282 283 436 435 299 300 453 452 
283 284 437 436 300 301 454 453 
284 285 438 437 301 302 455 454 
285 286 439 438 302 303 456 455 
286 287 440 439 303 304 457 456 
287 288 441 440 304 305 458 457 
306 307 460 459 323 324 477 476 
307 308 461 460 324 325 478 477 
308 309 462 461 325 326 479 478 
309 310 463 462 326 327 480 479 
310 311 464 463 327 328 481 480 
311 312 465 464 328 329 482 481 
312 313 466 465 329 330 483 482 
313 314 467 466 330 331 484 483 
314 315 468 467 331 332 485 484 
315 316 469 468 332 333 486 485 
316 317 470 469 333 334 487 486 
317 318 471 470 334 335 488 487 
318 319 472 471 335 336 489 488 
319 320 473 472 336 337 490 489 
320 321 474 473 337 338 491 490 
321 322 475 474 338 339 492 491 
323 324 477 476 340 341 494 493 
324 325 478 477 341 342 495 494 
325 326 479 478 342 343 496 495 
326 327 480 479 343 344 497 496 
327 328 481 480 344 345 498 497 
328 329 482 481 345 346 499 498 
329 330 483 482 346 347 500 499 
330 331 484 483 347 348 501 500 
331 332 485 484 348 349 502 501 
332 333 486 485 349 350 503 502 
333 334 487 486 350 351 504 503 
334 335 488 487 351 352 505 504 
335 336 489 488 352 353 506 505 
336 337 490 489 353 354 507 506 
337 338 491 490 354 355 508 507 
338 339 492 491 355 356 509 508 
340 341 494 493 357 358 511 510 
341 342 495 494 358 359 512 511 
342 343 496 495 359 360 513 512 
343 344 497 496 360 361 514 513 
344 345 498 497 361 362 515 514 
345 346 499 498 362 363 516 515 
346 347 500 499 363 364 517 516 
347 348 501 500 364 365 518 517 
348 349 502 501 365 366 519 518 
349 350 503 502 366 367 520 519 
350 351 504 503 367 368 521 520 
351 352 505 504 368 369 522 521 
352 353 506 505 369 370 523 522 
353 354 507 506 370 371 524 523 
354 355 508 507 371 372 525 524 
355 356 509 508 372 373 526 525 
357 358 511 510 374 375 528 527 
358 359 512 511 375 376 529 528 
359 360 513 512 376 377 530 529 
360 361 514 513 377 378 531 530 
361 362 515 514 378 379 532 531 
362 363 516 515 379 380 533 532 
363 364 517 516 380 381 534 533 
364 365 518 517 381 382 535 534 
365 366 519 518 382 383 536 535 
366 367 520 519 383 384 537 536 
367 368 521 520 384 385 538 537 
368 369 522 521 385 386 539 538 
369 370 523 522 386 387 540 539 
370 371 524 523 387 388 541 540 
371 372 525 524 388 389 542 541 
372 373 526 525 389 390 543 542 
374 375 528 527 391 392 545 544 
375 376 529 528 392 393 546 545 
376 377 530 529 393 394 547 546 
377 378 531 530 394 395 548 547 
378 379 532 531 395 396 549 548 
379 380 533 532 396 397 550 549 
380 381 534 533 397 398 551 550 
381 382 535 534 398 399 552 551 
382 383 536 535 399 400 553 552 
383 384 537 536 400 401 554 553 
384 385 538 537 401 402 555 554 
385 386 539 538 402 403 556 555 
386 387 540 539 403 404 557 556 
387 388 541 540 404 405 558 557 
388 389 542 541 405 406 559 558 
389 390 543 542 406 407 560 559 
391 392 545 544 408 409 562 561 
392 393 546 545 409 410 563 562 
393 394 547 546 410 411 564 563 
394 395 548 547 411 412 565 564 
395 396 549 548 412 413 566 565 
396 397 550 549 413 414 567 566 
397 398 551 550 414 415 568 567 
398 399 552 551 415 416 569 568 
399 400 553 552 416 417 570 569 
400 401 554 553 417 418 571 570 
401 402 555 554 418 419 572 571 
402 403 556 555 419 420 573 572 
403 404 557 556 420 421 574 573 
404 405 558 557 421 422 575 574 
405 406 559 558 422 423 576 575 
406 407 560 559 423 424 577 576 
408 409 562 561 425 426 579 578 
409 410 563 562 426 427 580 579 
410 411 564 563 427 428 581 580 
411 412 565 564 428 429 582 581 
412 413 566 565 429 430 583 582 
413 414 567 566 430 431 584 583 
414 415 568 567 431 432 585 584 
415 416 569 568 432 433 586 585 
416 417 570 569 433 434 587 586 
417 418 571 570 434 435 588 587 
418 419 572 571 435 436 589 588 
419 420 573 572 436 437 590 589 
420 421 574 573 437 438 591 590 
421 422 575 574 438 439 592 591 
422 423 576 575 439 440 593 592 
423 424 577 576 440 441 594 593 
425 426 579 578 442 443 596 595 
426 427 580 579 443 444 597 596 
427 428 581 580 444 445 598 597 
428 429 582 581 445 446 599 598 
429 430 583 582 446 447 600 599 
430 431 584 583 447 448 601 600 
431 432 585 584 448 449 602 601 
432 433 586 585 449 450 603 602 
433 434 587 586 450 451 604 603 
434 435 588 587 451 452 605 604 
435 436 589 588 452 453 606 605 
436 437 590 589 453 454 607 606 
437 438 591 590 454 455 608 607 
438 439 592 591 455 456 609 608 
439 440 593 592 456 457 610 609 
440 441 594 593 457 458 611 610 
459 460 613 612 476 477 630 629 
460 461 614 613 477 478 631 630 
461 462 615 614 478 479 632 631 
462 463 616 615 479 480 633 632 
463 464 617 616 480 481 634 633 
464 465 618 617 481 482 635 634 
465 466 619 618 482 483 636 635 
466 467 620 619 483 484 637 636 
467 468 621 620 484 485 638 637 
468 469 622 621 485 486 639 638 
469 470 623 622 486 487 640 639 
470 471 624 623 487 488 641 640 
471 472 625 624 488 489 642 641 
472 473 626 625 489 490 643 642 
473 474 627 626 490 491 644 643 
474 475 628 627 491 492 645 644 
476 477 630 629 493 494 647 646 
477 478 631 630 494 495 648 647 
478 479 632 631 495 496 649 648 
479 480 633 632 496 497 650 649 
480 481 634 633 497 498 651 650 
481 482 635 634 498 499 652 651 
482 483 636 635 499 500 653 652 
483 484 637 636 500 501 654 653 
484 485 638 637 501 502 655 654 
485 486 639 638 502 503 656 655 
486 487 640 639 503 504 657 656 
487 488 641 640 504 505 658 657 
488 489 642 641 505 506 659 658 
489 490 643 642 506 507 660 659 
490 491 644 643 507 508 661 660 
491 492 645 644 508 509 662 661 
493 494 647 646 510 511 664 663 
494 495 648 647 511 512 665 664 
495 496 649 648 512 513 666 665 
496 497 650 649 513 514 667 666 
497 498 651 650 514 515 668 667 
498 499 652 651 515 516 669 668 
499 500 653 652 516 517 670 669 
500 501 654 653 517 518 671 670 
501 502 655 654 518 519 672 671 
502 503 656 655 519 520 673 672 
503 504 657 656 520 521 674 673 
504 505 658 657 521 522 675 674 
505 506 659 658 522 523 676 675 
506 507 660 659 523 524 677 676 
507 508 661 660 524 525 678 677 
508 509 662 661 525 526 679 678 
510 511 664 663 527 528 681 680 
511 512 665 664 528 529 682 681 
512 513 666 665 529 530 683 682 
513 514 667 666 530 531 684 683 
514 515 668 667 531 532 685 684 
515 516 669 668 532 533 686 685 
516 517 670 669 533 534 687 686 
517 518 671 670 534 535 688 687 
518 519 672 671 535 536 689 688 
519 520 673 672 536 537 690 689 
520 521 674 673 537 538 691 690 
521 522 675 674 538 539 692 691 
522 523 676 675 539 540 693 692 
523 524 677 676 540 541 694 693 
524 525 678 677 541 542 695 694 
525 526 679 678 542 543 696 695 
527 528 681 680 544 545 698 697 
528 529 682 681 545 546 699 698 
529 530 683 682 546 547 700 699 
530 531 684 683 547 548 701 700 
531 532 685 684 548 549 702 701 
532 533 686 685 549 550 703 702 
533 534 687 686 550 551 704 703 
534 535 688 687 551 552 705 704 
535 536 689 688 552 553 706 705 
536 537 690 689 553 554 707 706 
537 538 691 690 554 555 708 707 
538 539 692 691 555 556 709 708 
539 540 693 692 556 557 710 709 
540 541 694 693 557 558 711 710 
541 542 695 694 558 559 712 711 
542 543 696 695 559 560 713 712 
544 545 698 697 561 562 715 714 
545 546 699 698 562 563 716 715 
546 547 700 699 563 564 717 716 
547 548 701 700 564 565 718 717 
548 549 702 701 565 566 719 718 
549 550 703 702 566 567 720 719 
550 551 704 703 567 568 721 720 
551 552 705 704 568 569 722 721 
552 553 706 705 569 570 723 722 
553 554 707 706 570 571 724 723 
554 555 708 707 571 572 725 724 
555 556 709 708 572 573 726 725 
556 557 710 709 573 574 727 726 
557 558 711 710 574 575 728 727 
558 559 712 711 575 576 729 728 
559 560 713 712 576 577 730 729 
561 562 715 714 578 579 732 731 
562 563 716 715 579 580 733 732 
563 564 717 716 580 581 734 733 
564 565 718 717 581 582 735 734 
565 566 719 718 582 583 736 735 
566 567 720 719 583 584 737 736 
567 568 721 720 584 585 738 737 
568 569 722 721 585 586 739 738 
569 570 723 722 586 587 740 739 
570 571 724 723 587 588 741 740 
571 572 725 724 588 589 742 741 
572 573 726 725 589 590 743 742 
573 574 727 726 590 591 744 743 
574 575 728 727 591 592 745 744 
575 576 729 728 592 593 746 745 
576 577 730 729 593 594 747 746 
578 579 732 731 595 596 749 748 
579 580 733 732 596 597 750 749 
580 581 734 733 597 598 751 750 
581 582 735 734 598 599 752 751 
582 583 736 735 599 600 753 752 
583 584 737 736 600 601 754 753 
584 585 738 737 601 602 755 754 
585 586 739 738 602 603 756 755 
586 587 740 739 603 604 757 756 
587 588 741 740 604 605 758 757 
588 589 742 741 605 606 759 758 
589 590 743 742 606 607 760 759 
590 591 744 743 607 608 761 760 
591 592 745 744 608 609 762 761 
592 593 746 745 609 610 763 762 
593 594 747 746 610 611 764 763 
612 613 766 765 629 630 783 782 
613 614 767 766 630 631 784 783 
614 615 768 767 631 632 785 784 
615 616 769 768 632 633 786 785 
616 617 770 769 633 634 787 786 
617 618 771 770 634 635 788 787 
618 619 772 771 635 636 789 788 
619 620 773 772 636 637 790 789 
620 621 774 773 637 638 791 790 
621 622 775 774 638 639 792 791 
622 623 776 775 639 640 793 792 
623 624 777 776 640 641 794 793 
624 625 778 777 641 642 795 794 
625 626 779 778 642 643 796 795 
626 627 780 779 643 644 797 796 
627 628 781 780 644 645 798 797 
629 630 783 782 646 647 800 799 
630 631 784 783 647 648 801 800 
631 632 785 784 648 649 802 801 
632 633 786 785 649 650 803 802 
633 634 787 786 650 651 804 803 
634 635 788 787 651 652 805 804 
635 636 789 788 652 653 806 805 
636 637 790 789 653 654 807 806 
637 638 791 790 654 655 808 807 
638 639 792 791 655 656 809 808 
639 640 793 792 656 657 810 809 
640 641 794 793 657 658 811 810 
641 642 795 794 658 659 812 811 
642 643 796 795 659 660 813 812 
643 644 797 796 660 661 814 813 
644 645 798 797 661 662 815 814 
646 647 800 799 663 664 817 816 
647 648 801 800 664 665 818 817 
648 649 802 801 665 666 819 818 
649 650 803 802 666 667 820 819 
650 651 804 803 667 668 821 820 
651 652 805 804 668 669 822 821 
652 653 806 805 669 670 823 822 
653 654 807 806 670 671 824 823 
654 655 808 807 671 672 825 824 
655 656 809 808 672 673 826 825 
656 657 810 809 673 674 827 826 
657 658 811 810 674 675 828 827 
658 659 812 811 675 676 829 828 
659 660 813 812 676 677 830 829 
660 661 814 813 677 678 831 830 
661 662 815 814 678 679 832 831 
663 664 817 816 680 681 834 833 
664 665 818 817 681 682 835 834 
665 666 819 818 682 683 836 835 
666 667 820 819 683 684 837 836 
667 668 821 820 684 685 838 837 
668 669 822 821 685 686 839 838 
669 670 823 822 686 687 840 839 
670 671 824 823 687 688 841 840 
671 672 825 824 688 689 842 841 
672 673 826 825 689 690 843 842 
673 674 827 826 690 691 844 843 
674 675 828 827 691 692 845 844 
675 676 829 828 692 693 846 845 
676 677 830 829 693 694 847 846 
677 678 831 830 694 695 848 847 
678 679 832 831 695 696 849 848 
680 681 834 833 697 698 851 850 
681 682 835 834 698 699 852 851 
682 683 836 835 699 700 853 852 
683 684 837 836 700 701 854 853 
684 685 838 837 701 702 855 854 
685 686 839 838 702 703 856 855 
686 687 840 839 703 704 857 856 
687 688 841 840 704 705 858 857 
688 689 842 841 705 706 859 858 
689 690 843 842 706 707 860 859 
690 691 844 843 707 708 861 860 
691 692 845 844 708 709 862 861 
692 693 846 845 709 710 863 862 
693 694 847 846 710 711 864 863 
694 695 848 847 711 712 865 864 
695 696 849 848 712 713 866 865 
697 698 851 850 714 715 868 867 
698 699 852 851 715 716 869 868 
699 700 853 852 716 717 870 869 
700 701 854 853 717 718 871 870 
701 702 855 854 718 719 872 871 
702 703 856 855 719 720 873 872 
703 704 857 856 720 721 874 873 
704 705 858 857 721 722 875 874 
705 706 859 858 722 723 876 875 
706 707 860 859 723 724 877 876 
707 708 861 860 724 725 878 877 
708 709 862 861 725 726 879 878 
709 710 863 862 726 727 880 879 
710 711 864 863 727 728 881 880 
711 712 865 864 728 729 882 881 
712 713 866 865 729 730 883 882 
714 715 868 867 731 732 885 884 
715 716 869 868 732 733 886 885 
716 717 870 869 733 734 887 886 
717 718 871 870 734 735 888 887 
718 719 872 871 735 736 889 888 
719 720 873 872 736 737 890 889 
720 721 874 873 737 738 891 890 
721 722 875 874 738 739 892 891 
722 723 876 875 739 740 893 892 
723 724 877 876 740 741 894 893 
724 725 878 877 741 742 895 894 
725 726 879 878 742 743 896 895 
726 727 880 879 743 744 897 896 
727 728 881 880 744 745 898 897 
728 729 882 881 745 746 899 898 
729 730 883 882 746 747 900 899 
731 732 885 884 748 749 902 901 
732 733 886 885 749 750 903 902 
733 734 887 886 750 751 904 903 
734 735 888 887 751 752 905 904 
735 736 889 888 752 753 906 905 
736 737 890 889 753 754 907 906 
737 738 891 890 754 755 908 907 
738 739 892 891 755 756 909 908 
739 740 893 892 756 757 910 909 
740 741 894 893 757 758 911 910 
741 742 895 894 758 759 912 911 
742 743 896 895 759 760 913 912 
743 744 897 896 760 761 914 913 
744 745 898 897 761 762 915 914 
745 746 899 898 762 763 916 915 
746 747 900 899 763 764 917 916 
765 766 919 918 782 783 936 935 
766 767 920 919 783 784 937 936 
767 768 921 920 784 785 938 937 
768 769 922 921 785 786 939 938 
769 770 923 922 786 787 940 939 
770 771 924 923 787 788 941 940 
771 772 925 924 788 789 942 941 
772 773 926 925 789 790 943 942 
773 774 927 926 790 791 944 943 
774 775 928 927 791 792 945 944 
775 776 929 928 792 793 946 945 
776 777 930 929 793 794 947 946 
777 778 931 930 794 795 948 947 
778 779 932 931 795 796 949 948 
779 780 933 932 796 797 950 949 
780 781 934 933 797 798 951 950 
782 783 936 935 799 800 953 952 
783 784 937 936 800 801 954 953 
784 785 938 937 801 802 955 954 
785 786 939 938 802 803 956 955 
786 787 940 939 803 804 957 956 
787 788 941 940 804 805 958 957 
788 789 942 941 805 806 959 958 
789 790 943 942 806 807 960 959 
790 791 944 943 807 808 961 960 
791 792 945 944 808 809 962 961 
792 793 946 945 809 810 963 962 
793 794 947 946 810 811 964 963 
794 795 948 947 811 812 965 964 
795 796 949 948 812 813 966 965 
796 797 950 949 813 814 967 966 
797 798 951 950 814 815 968 967 
799 800 953 952 816 817 970 969 
800 801 954 953 817 818 971 970 
801 802 955 954 818 819 972 971 
802 803 956 955 819 820 973 972 
803 804 957 956 820 821 974 973 
804 805 958 957 821 822 975 974 
805 806 959 958 822 823 976 975 
806 807 960 959 823 824 977 976 
807 808 961 960 824 825 978 977 
808 809 962 961 825 826 979 978 
809 810 963 962 826 827 980 979 
810 811 964 963 827 828 981 980 
811 812 965 964 828 829 982 981 
812 813 966 965 829 830 983 982 
813 814 967 966 830 831 984 983 
814 815 968 967 831 832 985 984 
816 817 970 969 833 834 987 986 
817 818 971 970 834 835 988 987 
818 819 972 971 835 836 989 988 
819 820 973 972 836 837 990 989 
820 821 974 973 837 838 991 990 
821 822 975 974 838 839 992 991 
822 823 976 975 839 840 993 992 
823 824 977 976 840 841 994 993 
824 825 978 977 841 842 995 994 
825 826 979 978 842 843 996 995 
826 827 980 979 843 844 997 996 
827 828 981 980 844 845 998 997 
828 829 982 981 845 846 999 998 
829 830 983 982 846 847 1000 999 
830 831 984 983 847 848 1001 1000 
831 832 985 984 848 849 1002 1001 
833 834 987 986 850 851 1004 1003 
834 835 988 987 851 852 1005 1004 
835 836 989 988 852 853 1006 1005 
836 837 990 989 853 854 1007 1006 
837 838 991 990 854 855 1008 1007 
838 839 992 991 855 856 1009 1008 
839 840 993 992 856 857 1010 1009 
840 841 994 993 857 858 1011 1010 
841 842 995 994 858 859 1012 1011 
842 843 996 995 859 860 1013 1012 
843 844 997 996 860 861 1014 1013 
844 845 998 997 861 862 1015 1014 
845 846 999 998 862 863 1016 1015 
846 847 1000 999 863 864 1017 1016 
847 848 1001 1000 864 865 1018 1017 
848 849 1002 1001 865 866 1019 1018 
850 851 1004 1003 867 868 1021 1020 
851 852 1005 1004 868 869 1022 1021 
852 853 1006 1005 869 870 1023 1022 
853 854 1007 1006 870 871 1024 1023 
854 855 1008 1007 871 872 1025 1024 
855 856 1009 1008 872 873 1026 1025 
856 857 1010 1009 873 874 1027 1026 
857 858 1011 1010 874 875 1028 1027 
858 859 1012 1011 875 876 1029 1028 
859 860 1013 1012 876 877 1030 1029 
860 861 1014 1013 877 878 1031 1030 
861 862 1015 1014 878 879 1032 1031 
862 863 1016 1015 879 880 1033 1032 
863 864 1017 1016 880 881 1034 1033 
864 865 1018 1017 881 882 1035 1034 
865 866 1019 1018 882 883 1036 1035 
867 868 1021 1020 884 885 1038 1037 
868 869 1022 1021 885 886 1039 1038 
869 870 1023 1022 886 887 1040 1039 
870 871 1024 1023 887 888 1041 1040 
871 872 1025 1024 888 889 1042 1041 
872 873 1026 1025 889 890 1043 1042 
873 874 1027 1026 890 891 1044 1043 
874 875 1028 1027 891 892 1045 1044 
875 876 1029 1028 892 893 1046 1045 
876 877 1030 1029 893 894 1047 1046 
877 878 1031 1030 894 895 1048 1047 
878 879 1032 1031 895 896 1049 1048 
879 880 1033 1032 896 897 1050 1049 
880 881 1034 1033 897 898 1051 1050 
881 882 1035 1034 898 899 1052 1051 
882 883 1036 1035 899 900 1053 1052 
884 885 1038 1037 901 902 1055 1054 
885 886 1039 1038 902 903 1056 1055 
886 887 1040 1039 903 904 1057 1056 
887 888 1041 1040 904 905 1058 1057 
888 889 1042 1041 905 906 1059 1058 
889 890 1043 1042 906 907 1060 1059 
890 891 1044 1043 907 908 1061 1060 
891 892 1045 1044 908 909 1062 1061 
892 893 1046 1045 909 910 1063 1062 
893 894 1047 1046 910 911 1064 1063 
894 895 1048 1047 911 912 1065 1064 
895 896 1049 1048 912 913 1066 1065 
896 897 1050 1049 913 914 1067 1066 
897 898 1051 1050 914 915 1068 1067 
898 899 1052 1051 915 916 1069 1068 
899 900 1053 1052 916 917 1070 1069 
918 919 1072 1071 935 936 1089 1088 
919 920 1073 1072 936 937 1090 1089 
920 921 1074 1073 937 938 1091 1090 
921 922 1075 1074 938 939 1092 1091 
922 923 1076 1075 939 940 1093 1092 
923 924 1077 1076 940 941 1094 1093 
924 925 1078 1077 941 942 1095 1094 
925 926 1079 1078 942 943 1096 1095 
926 927 1080 1079 943 944 1097 1096 
927 928 1081 1080 944 945 1098 1097 
928 929 1082 1081 945 946 1099 1098 
929 930 1083 1082 946 947 1100 1099 
930 931 1084 1083 947 948 1101 1100 
931 932 1085 1084 948 949 1102 1101 
932 933 1086 1085 949 950 1103 1102 
933 934 1087 1086 950 951 1104 1103 
935 936 1089 1088 952 953 1106 1105 
936 937 1090 1089 953 954 1107 1106 
937 938 1091 1090 954 955 1108 1107 
938 939 1092 1091 955 956 1109 1108 
939 940 1093 1092 956 957 1110 1109 
940 941 1094 1093 957 958 1111 1110 
941 942 1095 1094 958 959 1112 1111 
942 943 1096 1095 959 960 1113 1112 
943 944 1097 1096 960 961 1114 1113 
944 945 1098 1097 961 962 1115 1114 
945 946 1099 1098 962 963 1116 1115 
946 947 1100 1099 963 964 1117 1116 
947 948 1101 1100 964 965 1118 1117 
948 949 1102 1101 965 966 1119 1118 
949 950 1103 1102 966 967 1120 1119 
950 951 1104 1103 967 968 1121 1120 
952 953 1106 1105 969 970 1123 1122 
953 954 1107 1106 970 971 1124 1123 
954 955 1108 1107 971 972 1125 1124 
955 956 1109 1108 972 973 1126 1125 
956 957 1110 1109 973 974 1127 1126 
957 958 1111 1110 974 975 1128 1127 
958 959 1112 1111 975 976 1129 1128 
959 960 1113 1112 976 977 1130 1129 
960 961 1114 1113 977 978 1131 1130 
961 962 1115 1114 978 979 1132 1131 
962 963 1116 1115 979 980 1133 1132 
963 964 1117 1116 980 981 1134 1133 
964 965 1118 1117 981 982 1135 1134 
965 966 1119 1118 982 983 1136 1135 
966 967 1120 1119 983 984 1137 1136 
967 968 1121 1120 984 985 1138 1137 
969 970 1123 1122 986 987 1140 1139 
970 971 1124 1123 987 988 1141 1140 
971 972 1125 1124 988 989 1142 1141 
972 973 1126 1125 989 990 1143 1142 
973 974 1127 1126 990 991 1144 1143 
974 975 1128 1127 991 992 1145 1144 
975 976 1129 1128 992 993 1146 1145 
976 977 1130 1129 993 994 1147 1146 
977 978 1131 1130 994 995 1148 1147 
978 979 1132 1131 995 996 1149 1148 
979 980 1133 1132 996 997 1150 1149 
980 981 1134 1133 997 998 1151 1150 
981 982 1135 1134 998 999 1152 1151 
982 983 1136 1135 999 1000 1153 1152 
983 984 1137 1136 1000 1001 1154 1153 
984 985 1138 1137 1001 1002 1155 1154 
986 987 1140 1139 1003 1004 1157 1156 
987 988 1141 1140 1004 1005 1158 1157 
988 989 1142 1141 1005 1006 1159 1158 
989 990 1143 1142 1006 1007 1160 1159 
990 991 1144 1143 1007 1008 1161 1160 
991 992 1145 1144 1008 1009 1162 1161 
992 993 1146 1145 1009 1010 1163 1162 
993 994 1147 1146 1010 1011 1164 1163 
994 995 1148 1147 1011 1012 1165 1164 
995 996 1149 1148 1012 1013 1166 1165 
996 997 1150 1149 1013 1014 1167 1166 
997 998 1151 1150 1014 1015 1168 1167 
998 999 1152 1151 1015 1016 1169 1168 
999 1000 1153 1152 1016 1017 1170 1169 
1000 1001 1154 1153 1017 1018 1171 1170 
1001 1002 1155 1154 1018 1019 1172 1171 
1003 1004 1157 1156 1020 1021 1174 1173 
1004 1005 1158 1157 1021 1022 1175 1174 
1005 1006 1159 1158 1022 1023 1176 1175 
1006 1007 1160 1159 1023 1024 1177 1176 
1007 1008 1161 1160 1024 1025 1178 1177 
1008 1009 1162 1161 1025 1026 1179 1178 
1009 1010 1163 1162 1026 1027 1180 1179 
1010 1011 1164 1163 1027 1028 1181 1180 
1011 1012 1165 1164 1028 1029 1182 1181 
1012 1013 1166 1165 1029 1030 1183 1182 
1013 1014 1167 1166 1030 1031 1184 1183 
1014 1015 1168 1167 1031 1032 1185 1184 
1015 1016 1169 1168 1032 1033 1186 1185 
1016 1017 1170 1169 1033 1034 1187 1186 
1017 1018 1171 1170 1034 1035 1188 1187 
1018 1019 1172 1171 1035 1036 1189 1188 
1020 1021 1174 1173 1037 1038 1191 1190 
1021 1022 1175 1174 1038 1039 1192 1191 
1022 1023 1176 1175 1039 1040 1193 1192 
1023 1024 1177 1176 1040 1041 1194 1193 
1024 1025 1178 1177 1041 1042 1195 1194 
1025 1026 1179 1178 1042 1043 1196 1195 
1026 1027 1180 1179 1043 1044 1197 1196 
1027 1028 1181 1180 1044 1045 1198 1197 
1028 1029 1182 1181 1045 1046 1199 1198 
1029 1030 1183 1182 1046 1047 1200 1199 
1030 1031 1184 1183 1047 1048 1201 1200 
1031 1032 1185 1184 1048 1049 1202 1201 
1032 1033 1186 1185 1049 1050 1203 1202 
1033 1034 1187 1186 1050 1051 1204 1203 
1034 1035 1188 1187 1051 1052 1205 1204 
1035 1036 1189 1188 1052 1053 1206 1205 
1037 1038 1191 1190 1054 1055 1208 1207 
1038 1039 1192 1191 1055 1056 1209 1208 
1039 1040 1193 1192 1056 1057 1210 1209 
1040 1041 1194 1193 1057 1058 1211 1210 
1041 1042 1195 1194 1058 1059 1212 1211 
1042 1043 1196 1195 1059 1060 1213 1212 
1043 1044 1197 1196 1060 1061 1214 1213 
1044 1045 1198 1197 1061 1062 1215 1214 
1045 1046 1199 1198 1062 1063 1216 1215 
1046 1047 1200 1199 1063 1064 1217 1216 
1047 1048 1201 1200 1064 1065 1218 1217 
1048 1049 1202 1201 1065 1066 1219 1218 
1049 1050 1203 1202 1066 1067 1220 1219 
1050 1051 1204 1203 1067 1068 1221 1220 
1051 1052 1205 1204 1068 1069 1222 1221 
1052 1053 1206 1205 1069 1070 1223 1222 
1071 1072 1225 1224 1088 1089 1242 1241 
1072 1073 1226 1225 1089 1090 1243 1242 
1073 1074 1227 1226 1090 1091 1244 1243 
1074 1075 1228 1227 1091 1092 1245 1244 
1075 1076 1229 1228 1092 1093 1246 1245 
1076 1077 1230 1229 1093 1094 1247 1246 
1077 1078 1231 1230 1094 1095 1248 1247 
1078 1079 1232 1231 1095 1096 1249 1248 
1079 1080 1233 1232 1096 1097 1250 1249 
1080 1081 1234 1233 1097 1098 1251 1250 
1081 1082 1235 1234 1098 1099 1252 1251 
1082 1083 1236 1235 1099 1100 1253 1252 
1083 1084 1237 1236 1100 1101 1254 1253 
1084 1085 1238 1237 1101 1102 1255 1254 
1085 1086 1239 1238 1102 1103 1256 1255 
1086 1087 1240 1239 1103 1104 1257 1256 
1088 1089 1242 1241 1105 1106 1259 1258 
1089 1090 1243 1242 1106 1107 1260 1259 
1090 1091 1244 1243 1107 1108 1261 1260 
1091 1092 1245 1244 1108 1109 1262 1261 
1092 1093 1246 1245 1109 1110 1263 1262 
1093 1094 1247 1246 1110 1111 1264 1263 
1094 1095 1248 1247 1111 1112 1265 1264 
1095 1096 1249 1248 1112 1113 1266 1265 
1096 1097 1250 1249 1113 1114 1267 1266 
1097 1098 1251 1250 1114 1115 1268 1267 
1098 1099 1252 1251 1115 1116 1269 1268 
1099 1100 1253 1252 1116 1117 1270 1269 
1100 1101 1254 1253 1117 1118 1271 1270 
1101 1102 1255 1254 1118 1119 1272 1271 
1102 1103 1256 1255 1119 1120 1273 1272 
1103 1104 1257 1256 1120 1121 1274 1273 
1105 1106 1259 1258 1122 1123 1276 1275 
1106 1107 1260 1259 1123 1124 1277 1276 
1107 1108 1261 1260 1124 1125 1278 1277 
1108 1109 1262 1261 1125 1126 1279 1278 
1109 1110 1263 1262 1126 1127 1280 1279 
1110 1111 1264 1263 1127 1128 1281 1280 
1111 1112 1265 1264 1128 1129 1282 1281 
1112 1113 1266 1265 1129 1130 1283 1282 
1113 1114 1267 1266 1130 1131 1284 1283 
1114 1115 1268 1267 1131 1132 1285 1284 
1115 1116 1269 1268 1132 1133 1286 1285 
1116 1117 1270 1269 1133 1134 1287 1286 
1117 1118 1271 1270 1134 1135 1288 1287 
1118 1119 1272 1271 1135 1136 1289 1288 
1119 1120 1273 1272 1136 1137 1290 1289 
1120 1121 1274 1273 1137 1138 1291 1290 
1122 1123 1276 1275 1139 1140 1293 1292 
1123 1124 1277 1276 1140 1141 1294 1293 
1124 1125 1278 1277 1141 1142 1295 1294 
1125 1126 1279 1278 1142 1143 1296 1295 
1126 1127 1280 1279 1143 1144 1297 1296 
1127 1128 1281 1280 1144 1145 1298 1297 
1128 1129 1282 1281 1145 1146 1299 1298 
1129 1130 1283 1282 1146 1147 1300 1299 
1130 1131 1284 1283 1147 1148 1301 1300 
1131 1132 1285 1284 1148 1149 1302 1301 
1132 1133 1286 1285 1149 1150 1303 1302 
1133 1134 1287 1286 1150 1151 1304 1303 
1134 1135 1288 1287 1151 1152 1305 1304 
1135 1136 1289 1288 1152 1153 1306 1305 
1136 1137 1290 1289 1153 1154 1307 1306 
1137 1138 1291 1290 1154 1155 1308 1307 
1139 1140 1293 1292 1156 1157 1310 1309 
1140 1141 1294 1293 1157 1158 1311 1310 
1141 1142 1295 1294 1158 1159 1312 1311 
1142 1143 1296 1295 1159 1160 1313 1312 
1143 1144 1297 1296 1160 1161 1314 1313 
1144 1145 1298 1297 1161 1162 1315 1314 
1145 1146 1299 1298 1162 1163 1316 1315 
1146 1147 1300 1299 1163 1164 1317 1316 
1147 1148 1301 1300 1164 1165 1318 1317 
1148 1149 1302 1301 1165 1166 1319 1318 
1149 1150 1303 1302 1166 1167 1320 1319 
1150 1151 1304 1303 1167 1168 1321 1320 
1151 1152 1305 1304 1168 1169 1322 1321 
1152 1153 1306 1305 1169 1170 1323 1322 
1153 1154 1307 1306 1170 1171 1324 1323 
1154 1155 1308 1307 1171 1172 1325 1324 
1156 1157 1310 1309 1173 1174 1327 1326 
1157 1158 1311 1310 1174 1175 1328 1327 
1158 1159 1312 1311 1175 1176 1329 1328 
1159 1160 1313 1312 1176 1177 1330 1329 
1160 1161 1314 1313 1177 1178 1331 1330 
1161 1162 1315 1314 1178 1179 1332 1331 
1162 1163 1316 1315 1179 1180 1333 1332 
1163 1164 1317 1316 1180 1181 1334 1333 
1164 1165 1318 1317 1181 1182 1335 1334 
1165 1166 1319 1318 1182 1183 1336 1335 
1166 1167 1320 1319 1183 1184 1337 1336 
1167 1168 1321 1320 1184 1185 1338 1337 
1168 1169 1322 1321 1185 1186 1339 1338 
1169 1170 1323 1322 1186 1187 1340 1339 
1170 1171 1324 1323 1187 1188 1341 1340 
1171 1172 1325 1324 1188 1189 1342 1341 
1173 1174 1327 1326 1190 1191 1344 1343 
1174 1175 1328 1327 1191 1192 1345 1344 
1175 1176 1329 1328 1192 1193 1346 1345 
1176 1177 1330 1329 1193 1194 1347 1346 
1177 1178 1331 1330 1194 1195 1348 1347 
1178 1179 1332 1331 1195 1196 1349 1348 
1179 1180 1333 1332 1196 1197 1350 1349 
1180 1181 1334 1333 1197 1198 1351 1350 
1181 1182 1335 1334 1198 1199 1352 1351 
1182 1183 1336 1335 1199 1200 1353 1352 
1183 1184 1337 1336 1200 1201 1354 1353 
1184 1185 1338 1337 1201 1202 1355 1354 
1185 1186 1339 1338 1202 1203 1356 1355 
1186 1187 1340 1339 1203 1204 1357 1356 
1187 1188 1341 1340 1204 1205 1358 1357 
1188 1189 1342 1341 1205 1206 1359 1358 
1190 1191 1344 1343 1207 1208 1361 1360 
1191 1192 1345 1344 1208 1209 1362 1361 
1192 1193 1346 1345 1209 1210 1363 1362 
1193 1194 1347 1346 1210 1211 1364 1363 
1194 1195 1348 1347 1211 1212 1365 1364 
1195 1196 1349 1348 1212 1213 1366 1365 
1196 1197 1350 1349 1213 1214 1367 1366 
1197 1198 1351 1350 1214 1215 1368 1367 
1198 1199 1352 1351 1215 1216 1369 1368 
1199 1200 1353 1352 1216 1217 1370 1369 
1200 1201 1354 1353 1217 1218 1371 1370 
1201 1202 1355 1354 1218 1219 1372 1371 
1202 1203 1356 1355 1219 1220 1373 1372 
1203 1204 1357 1356 1220 1221 1374 1373 
1204 1205 1358 1357 1221 1222 1375 1374 
1205 1206 1359 1358 1222 1223 1376 1375 
CELL_TYPES 1024
12 12 12 12 12 12 12 12 12 12 12 12 12 12 12 12 12 12 12 12 12 12 12 12 12 12 12 12 12 12 12 12 12 12 12 12 12 12 12 12 12 12 12 12 12 12 12 12 12 12 12 12 12 12 12 12 12 12 12 12 12 12 12 12 12 12 12 12 12 12 12 12 12 12 12 12 12 12 12 12 12 12 12 12 12 12 12 12 12 12 12 12 12 12 12 12 12 12 12 12 12 12 12 12 12 12 12 12 12 12 12 12 12 12 12 12 12 12 12 12 12 12 12 12 12 12 12 12 12 12 12 12 12 12 12 12 12 12 12 12 12 12 12 12 12 12 12 12 12 12 12 12 12 12 12 12 12 12 12 12 12 12 12 12 12 12 12 12 12 12 12 12 12 12 12 12 12 12 12 12 12 12 12 12 12 12 12 12 12 12 12 12 12 12 12 12 12 12 12 12 12 12 12 12 12 12 12 12 12 12 12 12 12 12 12 12 12 12 12 12 12 12 12 12 12 12 12 12 12 12 12 12 12 12 12 12 12 12 12 12 12 12 12 12 12 12 12 12 12 12 12 12 12 12 12 12 12 12 12 12 12 12 12 12 12 12 12 12 12 12 12 12 12 12 12 12 12 12 12 12 12 12 12 12 12 12 12 12 12 12 12 12 12 12 12 12 12 12 12 12 12 12 12 12 12 12 12 12 12 12 12 12 12 12 12 12 12 12 12 12 12 12 12 12 12 12 12 12 12 12 12 12 12 12 12 12 12 12 12 12 12 12 12 12 12 12 12 12 12 12 12 12 12 12 12 12 12 12 12 12 12 12 12 12 12 12 12 12 12 12 12 12 12 12 12 12 12 12 12 12 12 12 12 12 12 12 12 12 12 12 12 12 12 12 12 12 12 12 12 12 12 12 12 12 12 12 12 12 12 12 12 12 12 12 12 12 12 12 12 12 12 12 12 12 12 12 12 12 12 12 12 12 12 12 12 12 12 12 12 12 12 12 12 12 12 12 12 12 12 12 12 12 12 12 12 12 12 12 12 12 12 12 12 12 12 12 12 12 12 12 12 12 12 12 12 12 12 12 12 12 12 12 12 12 12 12 12 12 12 12 12 12 12 12 12 12 12 12 12 12 12 12 12 12 12 12 12 12 12 12 12 12 12 12 12 12 12 12 12 12 12 12 12 12 12 12 12 12 12 12 12 12 12 12 12 12 12 12 12 12 12 12 12 12 12 12 12 12 12 12 12 12 12 12 12 12 12 12 12 12 12 12 12 12 12 12 12 12 12 12 12 12 12 12 12 12 12 12 12 12 12 12 12 12 12 12 12 12 12 12 12 12 12 12 12 12 12 12 12 12 12 12 12 12 12 12 12 12 12 12 12 12 12 12 12 12 12 12 12 12 12 12 12 12 12 12 12 12 12 12 12 12 12 12 12 12 12 12 12 12 12 12 12 12 12 12 12 12 12 12 12 12 12 12 12 12 12 12 12 12 12 12 12 12 12 12 12 12 12 12 12 12 12 12 12 12 12 12 12 12 12 12 12 12 12 12 12 12 12 12 12 12 12 12 12 12 12 12 12 12 12 12 12 12 12 12 12 12 12 12 12 12 12 12 12 12 12 12 12 12 12 12 12 12 12 12 12 12 12 12 12 12 12 12 12 12 12 12 12 12 12 12 12 12 12 12 12 12 12 12 12 12 12 12 12 12 12 12 12 12 12 12 12 12 12 12 12 12 12 12 12 12 12 12 12 12 12 12 12 12 12 12 12 12 12 12 12 12 12 12 12 12 12 12 12 12 12 12 12 12 12 12 12 12 12 12 12 12 12 12 12 12 12 12 12 12 12 12 12 12 12 12 12 12 12 12 12 12 12 12 12 12 12 12 12 12 12 12 12 12 12 12 12 12 12 12 12 12 12 12 12 12 12 12 12 12 12 12 12 12 12 12 12 12 12 12 12 12 12 12 12 12 12 12 12 12 12 12 12 12 12 12 12 12 12 12 12 12 12 12 12 12 12 12 12 12 12 12 12 12 12 12 12 12 12 12 12 12 12 12 12 12 12 12 12 12 12 12 12 12 12 12 12 12 12 12 12 12 12 12 12 12 12 12 12 12 12 12 12 12 12 12 12 12 12 12 12 12 12 12 12 12 12 12 12 12 12 12 12 12 12 12 12 12 12 12 12 12 12 12 12 12 12 12 12 12 12 12 12 12 12 12 12 12 12 12 12 12 12 12 12 12 12 12 12 12 12 12 12 12 12 12 12 12 12 12 12 12 12 12 12 12 12 12 12 12 12 12 12 12 12 12 12 12 

POINT_DATA 1377
SCALARS weights float 1
LOOKUP_TABLE default
0.244141 0.488281 0.488281 0.488281 0.488281 0.488281 0.488281 0.488281 0.488281 0.488281 0.488281 0.488281 0.488281 0.488281 0.488281 0.488281 0.244141 0.488281 0.976562 0.976562 0.976562 0.976562 0.976562 0.976563 0.976563 0.976562 0.976562 0.976563 0.976562 0.976563 0.976563 0.976562 0.976562 0.488281 0.488281 0.976562 0.976562 0.976562 0.976562 0.976562 0.976563 0.976562 0.976562 0.976562 0.976562 0.976562 0.976563 0.976563 0.976562 0.976562 0.488281 0.488281 0.976562 0.976562 0.976562 0.976562 0.976562 0.976563 0.976562 0.976562 0.976562 0.976562 0.976562 0.976562 0.976563 0.976562 0.976562 0.488281 0.488281 0.976562 0.976562 0.976562 0.976562 0.976562 0.976563 0.976562 0.976562 0.976562 0.976562 0.976562 0.976562 0.976563 0.976562 0.976562 0.488281 0.488281 0.976562 0.976562 0.976562 0.976562 0.976562 0.976562 0.976562 0.976562 0.976562 0.976562 0.976562 0.976562 0.976563 0.976562 0.976562 0.488281 0.488281 0.976562 0.976562 0.976562 0.976562 0.976562 0.976563 0.976562 0.976562 0.976562 0.976563 0.976562 0.976563 0.976563 0.976562 0.976562 0.488281 0.488281 0.976562 0.976562 0.976562 0.976562 0.976562 0.976563 0.976562 0.976562 0.976562 0.976563 0.976562 0.976563 0.976563 0.976562 0.976562 0.488281 0.244141 0.488281 0.488281 0.488281 0.488281 0.488281 0.488281 0.488281 0.488281 0.488281 0.488281 0.488281 0.488281 0.488281 0.488281 0.488281 0.244141 0.488281 0.976562 0.976562 0.976562 0.976562 0.976562 0.976563 0.976563 0.976562 0.976562 0.976563 0.976562 0.976563 0.976563 0.976562 0.976562 0.488281 0.976562 1.95312 1.95312 1.95312 1.95312 1.95312 1.95313 1.95313 1.95312 1.95312 1.95313 1.95312 1.95313 1.95313 1.95312 1.95312 0.976562 0.976562 1.95312 1.95312 1.95312 1.95312 1.95312 1.95313 1.95312 1.95312 1.95312 1.95312 1.95312 1.95313 1.95313 1.95312 1.95312 0.976562 0.976562 1.95312 1.95312 1.95312 1.95312 1.95312 1.95312 1.95312 1.95312 1.95312 1.95312 1.95312 1.95312 1.95313 1.95312 1.95312 0.976562 0.976562 1.95312 1.95312 1.95312 1.95312 1.95312 1.95313 1.95312 1.95312 1.95312 1.95312 1.95312 1.95312 1.95313 1.95312 1.95312 0.976562 0.976562 1.95312 1.95312 1.95312 1.95312 1.95312 1.95312 1.95312 1.95312 1.95312 1.95312 1.95312 1.95312 1.95313 1.95312 1.95312 0.976562 0.976562 1.95312 1.95312 1.95312 1.95312 1.95312 1.95313 1.95312 1.95312 1.95312 1.95313 1.95312 1.95313 1.95313 1.95312 1.95312 0.976562 0.976562 1.95312 1.95312 1.95312 1.95312 1.95312 1.95313 1.95312 1.95312 1.95312 1.95313 1.95312 1.95313 1.95313 1.95312 1.95312 0.976562 0.488281 0.976562 0.976562 0.976562 0.976562 0.976562 0.976562 0.976562 0.976562 0.976562 0.976562 0.976562 0.976562 0.976563 0.976562 0.976562 0.488281 0.488281 0.976562 0.976562 0.976562 0.976562 0.976562 0.976563 0.976562 0.976562 0.976562 0.976562 0.976562 0.976563 0.976563 0.976562 0.976562 0.488281 0.976562 1.95312 1.95312 1.95312 1.95312 1.95312 1.95313 1.95312 1.95312 1.95312 1.95312 1.95312 1.95313 1.95313 1.95312 1.95312 0.976562 0.976562 1.95312 1.95312 1.95312 1.95312 1.95312 1.95313 1.95312 1.95312 1.95312 1.95312 1.95312 1.95313 1.95313 1.95312 1.95312 0.976562 0.976562 1.95312 1.95312 1.95312 1.95312 1.95312 1.95312 1.95312 1.95312 1.95312 1.95312 1.95312 1.95312 1.95313 1.95312 1.95312 0.976562 0.976562 1.95312 1.95312 1.95312 1.95312 1.95312 1.95312 1.95312 1.95312 1.95312 1.95312 1.95312 1.95312 1.95313 1.95312 1.95312 0.976562 0.976562 1.95312 1.95312 1.95312 1.95312 1.95312 1.95312 1.95312 1.95312 1.95312 1.95312 1.95312 1.95312 1.95313 1.95312 1.95312 0.976562 0.976562 1.95312 1.95312 1.95312 1.95312 1.95312 1.95313 1.95312 1.95312 1.95312 1.95312 1.95312 1.95313 1.95313 1.95312 1.95312 0.976562 0.976562 1.95312 1.95312 1.95312 1.95312 1.95312 1.95313 1.95312 1.95312 1.95312 1.95312 1.95312 1.95313 1.95313 1.95312 1.95312 0.976562 0.488281 0.976562 0.976562 0.976562 0.976562 0.976562 0.976562 0.976562 0.976562 0.976562 0.976562 0.976562 0.976562 0.976563 0.976562 0.976562 0.488281 0.488281 0.976562 0.976562 0.976562 0.976562 0.976562 0.976562 0.976562 0.976562 0.976562 0.976562 0.976562 0.976563 0.976563 0.976562 0.976562 0.488281 0.976562 1.95312 1.95312 1.95312 1.95312 1.95312 1.95312 1.95312 1.95312 1.95312 1.95312 1.95312 1.95313 1.95313 1.95312 1.95312 0.976562 0.976562 1.95312 1.95312 1.95312 1.95312 1.95312 1.95312 1.95312 1.95312 1.95312 1.95312 1.95312 1.95313 1.95313 1.95312 1.95312 0.976562 0.976562 1.95312 1.95312 1.95312 1.95312 1.95312 1.95312 1.95312 1.95312 1.95312 1.95312 1.95312 1.95312 1.95313 1.95312 1.95312 0.976562 0.976562 1.95312 1.95312 1.95312 1.95312 1.95312 1.95312 1.95312 1.95312 1.95312 1.95312 1.95312 1.95312 1.95313 1.95312 1.95312 0.976562 0.976562 1.95312 1.95312 1.95312 1.95312 1.95312 1.95312 1.95312 1.95312 1.95312 1.95312 1.95312 1.95312 1.95313 1.95312 1.95312 0.976562 0.976562 1.95312 1.95312 1.95312 1.95312 1.95312 1.95313 1.95312 1.95312 1.95312 1.95312 1.95312 1.95312 1.95313 1.95312 1.95312 0.976562 0.976562 1.95312 1.95312 1.95312 1.95312 1.95312 1.95313 1.95312 1.95312 1.95312 1.95312 1.95312 1.95312 1.95313 1.95312 1.95312 0.976562 0.488281 0.976562 0.976562 0.976562 0.976562 0.976562 0.976562 0.976562 0.976562 0.976562 0.976562 0.976562 0.976562 0.976563 0.976562 0.976562 0.488281 0.488281 0.976562 0.976562 0.976562 0.976562 0.976562 0.976562 0.976562 0.976562 0.976562 0.976562 0.976562 0.976562 0.976563 0.976562 0.976562 0.488281 0.976562 1.95312 1.95312 1.95312 1.95312 1.95312 1.95312 1.95312 1.95312 1.95312 1.95312 1.95312 1.95312 1.95313 1.95312 1.95312 0.976562 0.976562 1.95312 1.95312 1.95312 1.95312 1.95312 1.95312 1.95312 1.95312 1.95312 1.95312 1.95312 1.95312 1.95313 1.95312 1.95312 0.976562 0.976562 1.95312 1.95312 1.95312 1.95312 1.95312 1.95312 1.95312 1.95312 1.95312 1.95312 1.95312 1.95312 1.95313 1.95312 1.95312 0.976562 0.976562 1.95312 1.95312 1.95312 1.95312 1.95312 1.95312 1.95312 1.95312 1.95312 1.95312 1.95312 1.95312 1.95313 1.95312 1.95312 0.976562 0.976562 1.95312 1.95312 1.95312 1.95312 1.95312 1.95312 1.95312 1.95312 1.95312 1.95312 1.95312 1.95312 1.95313 1.95312 1.95312 0.976562 0.976562 1.95312 1.95312 1.95312 1.95312 1.95312 1.95312 1.95312 1.95312 1.95312 1.95312 1.95312 1.95312 1.95313 1.95312 1.95312 0.976562 0.976562 1.95312 1.95312 1.95312 1.95312 1.95312 1.95312 1.95312 1.95312 1.95312 1.95312 1.95312 1.95312 1.95313 1.95312 1.95312 0.976562 0.488281 0.976562 0.976562 0.976562 0.976562 0.976562 0.976562 0.976562 0.976562 0.976562 0.976562 0.976562 0.976562 0.976562 0.976562 0.976562 0.488281 0.488281 0.976562 0.976562 0.976562 0.976562 0.976562 0.976562 0.976562 0.976562 0.976562 0.976562 0.976562 0.976562 0.976563 0.976562 0.976562 0.488281 0.976562 1.95312 1.95312 1.95312 1.95312 1.95312 1.95312 1.95312 1.95312 1.95312 1.95312 1.95312 1.95312 1.95313 1.95312 1.95312 0.976562 0.976562 1.95312 1.95312 1.95312 1.95312 1.95312 1.95312 1.95312 1.95312 1.95312 1.95312 1.95312 1.95312 1.95313 1.95312 1.95312 0.976562 0.976562 1.95312 1.95312 1.95312 1.95312 1.95312 1.95312 1.95312 1.95312 1.95312 1.95312 1.95312 1.95312 1.95313 1.95312 1.95312 0.976562 0.976562 1.95312 1.95312 1.95312 1.95312 1.95312 1.95312 1.95312 1.95312 1.95312 1.95312 1.95312 1.95312 1.95313 1.95312 1.95312 0.976562 0.976562 1.95312 1.95312 1.95312 1.95312 1.95312 1.95312 1.95312 1.95312 1.95312 1.95312 1.95312 1.95312 1.95313 1.95312 1.95312 0.976562 0.976562 1.95312 1.95312 1.95312 1.95312 1.95312 1.95312 1.95312 1.95312 1.95312 1.95312 1.95312 1.95312 1.95313 1.95312 1.95312 0.976562 0.976562 1.95312 1.95312 1.95312 1.95312 1.95312 1.95312 1.95312 1.95312 1.95312 1.95312 1.95312 1.95312 1.95313 1.95312 1.95312 0.976562 0.488281 0.976562 0.976562 0.976562 0.976562 0.976562 0.976562 0.976562 0.976562 0.976562 0.976562 0.976562 0.976562 0.976562 0.976562 0.976562 0.488281 0.488281 0.976562 0.976562 0.976562 0.976562 0.976562 0.976563 0.976563 0.976562 0.976562 0.976563 0.976562 0.976563 0.976563 0.976562 0.976562 0.488281 0.976562 1.95312 1.95312 1.95312 1.95312 1.95312 1.95313 1.95313 1.95312 1.95312 1.95313 1.95312 1.95313 1.95313 1.95312 1.95312 0.976562 0.976562 1.95312 1.95312 1.95312 1.95312 1.95312 1.95313 1.95313 1.95312 1.95312 1.95313 1.95312 1.95313 1.95313 1.95312 1.95312 0.976562 0.976562 1.95312 1.95312 1.95312 1.95312 1.95312 1.95313 1.95312 1.95312 1.95312 1.95312 1.95312 1.95312 1.95313 1.95312 1.95312 0.976562 0.976562 1.95312 1.95312 1.95312 1.95312 1.95312 1.95313 1.95313 1.95312 1.95312 1.95312 1.95312 1.95312 1.95313 1.95312 1.95312 0.976562 0.976562 1.95312 1.95312 1.95312 1.95312 1.95312 1.95313 1.95312 1.95312 1.95312 1.95312 1.95312 1.95312 1.95313 1.95312 1.95312 0.976562 0.976562 1.95312 1.95312 1.95312 1.95312 1.95312 1.95313 1.95313 1.95312 1.95312 1.95313 1.95312 1.95313 1.95313 1.95312 1.95312 0.976562 0.976562 1.95312 1.95312 1.95312 1.95312 1.95312 1.95313 1.95312 1.95312 1.95312 1.95313 1.95312 1.95313 1.95313 1.95312 1.95312 0.976562 0.488281 0.976562 0.976562 0.976562 0.976562 0.976562 0.976562 0.976562 0.976562 0.976562 0.976562 0.976562 0.976562 0.976563 0.976562 0.976562 0.488281 0.488281 0.976562 0.976562 0.976562 0.976562 0.976562 0.976562 0.976562 0.976562 0.976562 0.976562 0.976562 0.976562 0.976563 0.976562 0.976562 0.488281 0.976562 1.95312 1.95312 1.95312 1.95312 1.95312 1.95313 1.95312 1.95312 1.95312 1.95312 1.95312 1.95312 1.95313 1.95312 1.95312 0.976562 0.976562 1.95312 1.95312 1.95312 1.95312 1.95312 1.95312 1.95312 1.95312 1.95312 1.95312 1.95312 1.95312 1.95313 1.95312 1.95312 0.976562 0.976562 1.95312 1.95312 1.95312 1.95312 1.95312 1.95312 1.95312 1.95312 1.95312 1.95312 1.95312 1.95312 1.95313 1.95312 1.95312 0.976562 0.976562 1.95312 1.95312 1.95312 1.95312 1.95312 1.95313 1.95312 1.95312 1.95312 1.95312 1.95312 1.95312 1.95313 1.95312 1.95312 0.976562 0.976562 1.95312 1.95312 1.95312 1.95312 1.95312 1.95312 1.95312 1.95312 1.95312 1.95312 1.95312 1.95312 1.95313 1.95312 1.95312 0.976562 0.976562 1.95312 1.95312 1.95312 1.95312 1.95312 1.95312 1.95312 1.95312 1.95312 1.95312 1.95312 1.95312 1.95313 1.95312 1.95312 0.976562 0.976562 1.95312 1.95312 1.95312 1.95312 1.95312 1.95312 1.95312 1.95312 1.95312 1.95312 1.95312 1.95312 1.95313 1.95312 1.95312 0.976562 0.488281 0.976562 0.976562 0.976562 0.976562 0.976562 0.976562 0.976562 0.976562 0.976562 0.976562 0.976562 0.976562 0.976562 0.976562 0.976562 0.488281 0.244141 0.488281 0.488281 0.488281 0.488281 0.488281 0.488281 0.488281 0.488281 0.488281 0.488281 0.488281 0.488281 0.488281 0.488281 0.488281 0.244141 0.488281 0.976562 0.976562 0.976562 0.976562 0.976562 0.976562 0.976562 0.976562 0.976562 0.976562 0.976562 0.976562 0.976562 0.976562 0.976562 0.488281 0.488281 0.976562 0.976562 0.976562 0.976562 0.976562 0.976562 0.976562 0.976562 0.976562 0.976562 0.976562 0.976562 0.976562 0.976562 0.976562 0.488281 0.488281 0.976562 0.976562 0.976562 0.976562 0.976562 0.976562 0.976562 0.976562 0.976562 0.976562 0.976562 0.976562 0.976562 0.976562 0.976562 0.488281 0.488281 0.976562 0.976562 0.976562 0.976562 0.976562 0.976562 0.976562 0.976562 0.976562 0.976562 0.976562 0.976562 0.976562 0.976562 0.976562 0.488281 0.488281 0.976562 0.976562 0.976562 0.976562 0.976562 0.976562 0.976562 0.976562 0.976562 0.976562 0.976562 0.976562 0.976562 0.976562 0.976562 0.488281 0.488281 0.976562 0.976562 0.976562 0.976562 0.976562 0.976562 0.976562 0.976562 0.976562 0.976562 0.976562 0.976562 0.976562 0.976562 0.976562 0.488281 0.488281 0.976562 0.976562 0.976562 0.976562 0.976562 0.976562 0.976562 0.976562 0.976562 0.976562 0.976562 0.976562 0.976562 0.976562 0.976562 0.488281 0.24414 0.488281 0.488281 0.488281 0.488281 0.488281 0.488281 0.488281 0.488281 0.488281 0.488281 0.488281 0.488281 0.488281 0.488281 0.488281 0.24414 
VECTORS u float
0 -0.0129188 0.0132588  0.0106489 0.206668 -0.116194  0.0121007 0.478841 -0.175683  0.0034582 0.745152 -0.130171  -0.000549883 0.969202 0.0122713  -0.000921845 1.12102 0.228935  -0.00050354 1.17784 0.487431  -0.000376403 1.13082 0.748171  -0.000498235 0.987119 0.971088  -0.000577569 0.768665 1.12184  -0.000458479 0.509202 1.17712  -1.29938e-05 0.24875 1.12828  -0.000198483 0.0272625 0.983115  -0.00403118 -0.122013 0.763181  -0.0123489 -0.175357 0.497866  -0.0106982 -0.123538 0.223674  0 0 0  0 -0.0129614 0.00998658  -0.0109716 0.179864 -0.0838147  -0.0203984 0.410711 -0.10666  -0.025842 0.641399 -0.0452269  -0.0278464 0.831581 0.0985853  -0.0279124 0.951468 0.30393  -0.0276142 0.982836 0.539711  -0.0275331 0.920985 0.76969  -0.0276253 0.775449 0.958297  -0.0276761 0.568612 1.0766  -0.0277122 0.332215 1.10667  -0.0279918 0.102702 1.04381  -0.0295925 -0.0850022 0.898228  -0.0328577 -0.20254 0.690381  -0.0329173 -0.229165 0.445852  -0.0174977 -0.152664 0.202673  0 0 0  0 -0.0130038 0.00671437  -0.014415 0.181721 -0.0579489  -0.0288479 0.38709 -0.0426369  -0.0350182 0.578434 0.0482969  -0.0358664 0.725327 0.206777  -0.035131 0.80157 0.411091  -0.0346157 0.793327 0.629558  -0.0345407 0.701689 0.828082  -0.0346923 0.540935 0.97616  -0.034894 0.335765 1.05123  -0.0352489 0.1176 1.04202  -0.0361626 -0.0799864 0.949944  -0.0376844 -0.226613 0.788896  -0.0375756 -0.299223 0.580988  -0.0304061 -0.283801 0.354354  -0.0149294 -0.179094 0.148179  0 0 0  0 -0.0130463 0.00344217  -0.0115967 0.18688 -0.0233766  -0.0219466 0.373817 0.0339964  -0.0251914 0.527873 0.159889  -0.0246579 0.625792 0.338028  -0.0236061 0.649021 0.542364  -0.0232282 0.592213 0.740474  -0.0233516 0.463838 0.90139  -0.0236111 0.283672 1.00055  -0.0239691 0.0793989 1.02311  -0.0245501 -0.117653 0.965479  -0.0253407 -0.277336 0.836387  -0.0254588 -0.374868 0.654844  -0.0227214 -0.394696 0.447526  -0.0155263 -0.332326 0.246795  -0.00695348 -0.19695 0.0864068  0 0 0  0 -0.0130888 0.000169963  -0.00329289 0.190692 0.0221601  -0.00483806 0.356408 0.127975  -0.00257903 0.469727 0.291376  -0.000166506 0.513064 0.488025  0.000710845 0.477959 0.68671  0.000497639 0.369648 0.856203  2.89679e-05 0.204721 0.970821  -0.000382364 0.00843042 1.01328  -0.000762701 -0.189183 0.976967  -0.00120175 -0.357697 0.867458  -0.00136161 -0.471409 0.701206  -0.000412464 -0.512534 0.503439  0.0021472 -0.475064 0.305301  0.00459015 -0.366364 0.138361  0.00319088 -0.203433 0.027688  0 0 0  0 -0.0131313 -0.00310224  0.00687237 0.185864 0.0776248  0.0152771 0.325481 0.233829  0.0222973 0.393574 0.432309  0.0249045 0.379956 0.639788  0.024692 0.288089 0.82396  0.0238444 0.132682 0.957746  0.0232323 -0.0623707 1.02139  0.022867 -0.267167 1.00539  0.0226049 -0.450396 0.911816  0.0224539 -0.58376 0.754895  0.0228761 -0.646793 0.558449  0.0240537 -0.629787 0.353214  0.0247433 -0.537171 0.172011  0.0216858 -0.386576 0.0414422  0.0115103 -0.200954 -0.0213167  0 0 0  0 -0.0131738 -0.00637442  0.0148372 0.169685 0.136423  0.0301904 0.280115 0.339203  0.0372019 0.302074 0.564978  0.0371681 0.235724 0.774551  0.0355744 0.0941845 0.939795  0.0345617 -0.100212 1.03768  0.0341604 -0.317772 1.0537  0.0339568 -0.525158 0.985042  0.0337554 -0.690455 0.842118  0.0338062 -0.788275 0.646428  0.0343829 -0.803287 0.42812  0.035275 -0.733263 0.22132  0.0346224 -0.591005 0.0583282  0.0286381 -0.402061 -0.038272  0.0143453 -0.196813 -0.0593675  0 0 0  0 -0.0132163 -0.00964665  0.0174214 0.144767 0.188213  0.032694 0.228069 0.42872  0.0324773 0.208616 0.673549  0.0290812 0.0974437 0.884379  0.0273734 -0.0856006 1.03539  0.0269983 -0.312839 1.10509  0.0269596 -0.54977 1.08252  0.0268348 -0.760119 0.970664  0.0267575 -0.911546 0.786654  0.0268166 -0.980534 0.558605  0.0271924 -0.956461 0.321786  0.0272385 -0.842814 0.112736  0.0254377 -0.656787 -0.0368568  0.0201621 -0.427632 -0.105024  0.0108966 -0.195774 -0.0885927  0 0 0  0 -0.0132588 -0.0129188  0.0106427 0.116234 0.206577  0.0120967 0.17573 0.47871  0.00353664 0.130178 0.744968  -0.000393093 -0.0123207 0.968818  -0.000722766 -0.229035 1.1204  -0.000290632 -0.487617 1.17713  -0.000152051 -0.748453 1.13  -0.000323176 -0.971331 0.986204  -0.000468612 -1.12195 0.76786  -0.000282288 -1.17712 0.508538  0.000180721 -1.12825 0.248219  -1.19209e-07 -0.983044 0.0268618  -0.00382137 -0.763093 -0.122345  -0.0122874 -0.497779 -0.175596  -0.0106899 -0.223577 -0.123674  0 0 0  0 -0.00964665 0.0132163  0.0174287 0.188329 -0.144735  0.0327049 0.428885 -0.228011  0.0324487 0.673835 -0.208558  0.0289727 0.884821 -0.0974356  0.0272171 1.03601 0.0855382  0.026841 1.10584 0.312685  0.0268106 1.08327 0.549599  0.0267233 0.971487 0.759981  0.0266118 0.787426 0.911403  0.0266676 0.559262 0.980537  0.0270108 0.322317 0.95651  0.0270249 0.113174 0.842895  0.0252229 -0.0365234 0.656928  0.020036 -0.104779 0.427777  0.0108693 -0.0884995 0.195874  0 0 0  0 -0.00968915 0.00994408  0.00224508 0.162432 -0.0966023  0.00385195 0.36147 -0.144776  0.00289235 0.564333 -0.110205  0.00120586 0.736352 -0.00015758  9.61423e-05 0.852275 0.166749  -0.000304461 0.8955 0.365264  -0.000419557 0.859345 0.565418  -0.000459313 0.748988 0.736541  -0.000462294 0.581319 0.852189  -0.000577927 0.382146 0.894767  -0.000909925 0.182158 0.857708  -0.00190699 0.0115401 0.746856  -0.00337791 -0.10381 0.578074  -0.00410557 -0.144368 0.376015  -0.00231075 -0.101847 0.175337  0 0 0  0 -0.00973162 0.00667188  -0.00209972 0.152284 -0.0603958  -0.0072671 0.321513 -0.0679295  -0.0115563 0.483173 -0.00919312  -0.0137776 0.611309 0.108413  -0.0145239 0.685333 0.266763  -0.0146267 0.693281 0.441703  -0.0146129 0.63363 0.606488  -0.0146873 0.515247 0.735857  -0.0148984 0.356312 0.80991  -0.0152639 0.181194 0.817383  -0.0158507 0.0167581 0.75719  -0.0162624 -0.11193 0.638086  -0.0153927 -0.184447 0.4771  -0.012028 -0.187812 0.297906  -0.00600135 -0.119071 0.128638  0 0 0  0 -0.00977412 0.00339967  -0.00213509 0.145309 -0.0221118  -0.00721578 0.291677 0.0121394  -0.0110577 0.4147 0.101312  -0.0128251 0.495886 0.231827  -0.0131944 0.521875 0.384382  -0.0131276 0.487768 0.535753  -0.0131099 0.398207 0.66259  -0.0132507 0.26676 0.745283  -0.0135287 0.113672 0.77124  -0.013865 -0.0375187 0.736333  -0.0140057 -0.163689 0.64594  -0.0134519 -0.245341 0.513445  -0.0117406 -0.26952 0.358523  -0.00885785 -0.231424 0.20469  -0.00472641 -0.135403 0.0762958  0 0 0  0 -0.00981662 0.000127465  0.000862405 0.138086 0.0210347  -9.41157e-05 0.261929 0.100524  -0.000699729 0.345648 0.222113  -0.000522643 0.377043 0.366573  -0.000154138 0.351176 0.511997  -1.00732e-05 0.271757 0.636378  -0.00012511 0.150635 0.7207  -0.000384867 0.00631475 0.751968  -0.000630617 -0.138915 0.725253  -0.000730753 -0.262746 0.64471  -0.000507593 -0.346179 0.522738  -1.26362e-05 -0.376534 0.377929  0.00031209 -0.349457 0.232394  -0.000126839 -0.269195 0.108178  -0.000925899 -0.147455 0.0250468  0 0 0  0 -0.00985909 -0.00314474  0.00462443 0.127407 0.0691773  0.00861835 0.226917 0.194575  0.0113505 0.269442 0.346945  0.0129116 0.24994 0.50228  0.013366 0.172474 0.636992  0.0131788 0.0493671 0.731117  0.0128114 -0.100538 0.770633  0.012514 -0.254301 0.749622  0.0123392 -0.388256 0.671068  0.0123914 -0.48184 0.546972  0.0125552 -0.520719 0.396605  0.0122998 -0.49941 0.243108  0.0106747 -0.422126 0.110075  0.00699747 -0.301571 0.017207  0.00205648 -0.155975 -0.0212594  0 0 0  0 -0.00990158 -0.00641695  0.00592825 0.112546 0.118555  0.0117986 0.186013 0.285468  0.0149863 0.187892 0.464357  0.0157086 0.120297 0.627195  0.0152038 -0.00453424 0.749918  0.0145639 -0.166817 0.815025  0.014146 -0.341864 0.813052  0.013938 -0.503021 0.744024  0.0138756 -0.625399 0.618425  0.0139053 -0.690218 0.455465  0.0138716 -0.687687 0.280242  0.0132269 -0.618531 0.119548  0.0111651 -0.493894 -0.0019469  0.00704956 -0.333803 -0.0654534  0.00203252 -0.164085 -0.0626915  0 0 0  0 -0.00994408 -0.00968915  0.00225267 0.0966123 0.16234  0.00388041 0.144791 0.361327  0.00297454 0.110212 0.564083  0.00133282 0.000141144 0.735927  0.000260413 -0.166854 0.85166  -0.000116289 -0.365415 0.894713  -0.000220656 -0.565596 0.858498  -0.000306666 -0.736701 0.74811  -0.000352263 -0.85232 0.580561  -0.000460982 -0.89473 0.381527  -0.000768065 -0.857693 0.181616  -0.00176573 -0.74683 0.011094  -0.00327253 -0.578038 -0.10412  -0.00404394 -0.375974 -0.144581  -0.00232136 -0.175324 -0.101949  0 0 0  0 -0.00998658 -0.0129613  -0.0109632 0.083799 0.179793  -0.020365 0.106693 0.410596  -0.0257574 0.0452077 0.641169  -0.0276947 -0.0986406 0.83118  -0.0277138 -0.304055 0.950848  -0.0274224 -0.539823 0.982103  -0.0273917 -0.769761 0.920208  -0.0275308 -0.958414 0.774648  -0.0275898 -1.07673 0.567834  -0.0275638 -1.10664 0.331576  -0.027869 -1.04383 0.102204  -0.0294619 -0.898213 -0.0854329  -0.0327605 -0.690417 -0.202868  -0.0328705 -0.445828 -0.229395  -0.0174636 -0.202587 -0.152785  0 0 0  0 -0.00637442 0.0131738  0.0148431 0.13652 -0.169647  0.030179 0.339376 -0.280001  0.0371751 0.565232 -0.302008  0.0371021 0.775 -0.23574  0.0354523 0.940387 -0.0942622  0.0344298 1.03843 0.10006  0.034042 1.05447 0.317603  0.0338409 0.985894 0.524987  0.0336651 0.842906 0.690389  0.0336864 0.647066 0.788249  0.0342498 0.428625 0.803349  0.0350705 0.221768 0.733354  0.0344476 0.0586058 0.591153  0.0285155 -0.0380721 0.402193  0.0142921 -0.0592623 0.196907  0 0 0  0 -0.00641695 0.00990158  0.0059336 0.118645 -0.112546  0.0117891 0.285683 -0.18595  0.014952 0.464673 -0.187843  0.015639 0.627639 -0.120328  0.0150914 0.75054 0.00443587  0.0144446 0.815857 0.166708  0.0140256 0.813881 0.341771  0.0138211 0.744889 0.502907  0.0137548 0.619263 0.625294  0.0137576 0.45616 0.690239  0.0137197 0.280816 0.687751  0.0130957 0.119988 0.618587  0.0110539 -0.00167006 0.494007  0.00697458 -0.0652782 0.333895  0.00199556 -0.0626134 0.164158  0 0 0  0 -0.00645941 0.00662941  0.00114134 0.106939 -0.0686899  0.0018844 0.242473 -0.100707  0.00165439 0.378994 -0.0783011  0.000995815 0.495522 -0.00453566  0.000373363 0.574255 0.108572  -4.48823e-05 0.603485 0.243327  -0.000273943 0.578793 0.379124  -0.000418603 0.503916 0.495173  -0.000578523 0.390204 0.573723  -0.000780225 0.2551 0.602718  -0.00112557 0.119269 0.577788  -0.00162375 0.00355276 0.502528  -0.0021019 -0.0738995 0.388267  -0.00214958 -0.100412 0.252281  -0.00122643 -0.0722308 0.115676  0 0 0  0 -0.00650191 0.00335717  -0.000347592 0.0978544 -0.0273675  -0.00136347 0.20611 -0.0176077  -0.00253478 0.302091 0.0330887  -0.00347704 0.371416 0.117033  -0.00405532 0.40336 0.221311  -0.00435865 0.392956 0.330035  -0.00453353 0.341651 0.426514  -0.00466394 0.257223 0.495964  -0.00479937 0.152551 0.527739  -0.00495708 0.0437828 0.516866  -0.0050838 -0.0524538 0.465073  -0.005018 -0.12136 0.379919  -0.00457382 -0.152073 0.274106  -0.0034467 -0.139095 0.163526  -0.00146544 -0.0841207 0.0660582  0 0 0  0 -0.00654441 8.49962e-05  0.00016655 0.0890402 0.0152358  0.000350237 0.172002 0.0679699  0.000250816 0.22812 0.14871  0.000107765 0.24909 0.244408  9.35793e-06 0.23197 0.34045  -7.96914e-05 0.179482 0.422505  -0.000210464 0.0995643 0.478125  -0.000363469 0.00435144 0.498752  -0.00050354 -0.091538 0.481131  -0.000587583 -0.173299 0.428016  -0.000602722 -0.228465 0.347576  -0.000602603 -0.248603 0.251926  -0.000598907 -0.230538 0.155525  -0.000526667 -0.176751 0.0730402  -0.000222087 -0.0952668 0.017872  0 0 0  0 -0.00658691 -0.00318721  0.00137813 0.0792045 0.0603404  0.0031946 0.136899 0.155963  0.00415817 0.153172 0.265885  0.00449044 0.125717 0.37245  0.00446916 0.0595685 0.459469  0.0042823 -0.0348274 0.514176  0.00408429 -0.143067 0.528404  0.0039109 -0.248528 0.500037  0.00377643 -0.335166 0.4333  0.00364816 -0.389555 0.338392  0.00342405 -0.40344 0.229978  0.00297296 -0.374753 0.124604  0.00218534 -0.307957 0.0385426  0.00117195 -0.213388 -0.014999  0.000301003 -0.105321 -0.0278708  0 0 0  0 -0.00662941 -0.00645941  0.00114101 0.0687005 0.106863  0.00188854 0.100789 0.242273  0.00167373 0.0783688 0.378688  0.00104308 0.00453562 0.495025  0.000458062 -0.108649 0.573567  6.6638e-05 -0.243436 0.602654  -0.000156224 -0.379223 0.577972  -0.000291526 -0.495244 0.503053  -0.000432014 -0.573754 0.389392  -0.000642657 -0.602709 0.254364  -0.00099802 -0.577718 0.118702  -0.00151038 -0.502464 0.00313771  -0.00199437 -0.388172 -0.0741374  -0.00205052 -0.252193 -0.10053  -0.00119555 -0.115596 -0.0722817  0 0 0  0 -0.00667191 -0.00973162  -0.00208905 0.0604067 0.1522  -0.00724129 0.0680034 0.321377  -0.0114877 0.00921643 0.48292  -0.0136704 -0.108428 0.610859  -0.0143946 -0.266817 0.684641  -0.0145019 -0.441755 0.692528  -0.0144863 -0.606594 0.63283  -0.0145473 -0.735943 0.514381  -0.0147488 -0.809958 0.355519  -0.015136 -0.817407 0.180484  -0.0157288 -0.75718 0.0162059  -0.0161548 -0.638057 -0.112336  -0.0152985 -0.477069 -0.184705  -0.012001 -0.297924 -0.187977  -0.00599957 -0.128581 -0.119177  0 0 0  0 -0.00671434 -0.0130038  -0.0144193 0.0579365 0.181632  -0.0288357 0.0427263 0.386929  -0.0349324 -0.0483073 0.57821  -0.0357226 -0.206839 0.724901  -0.0349645 -0.411149 0.800911  -0.0344327 -0.629663 0.792567  -0.0344085 -0.828182 0.700909  -0.0345756 -0.976232 0.540117  -0.0347528 -1.05128 0.334952  -0.0351447 -1.04204 0.116914  -0.036064 -0.949965 -0.0805019  -0.0375824 -0.788899 -0.227005  -0.0375077 -0.581056 -0.299517  -0.0303378 -0.354327 -0.283999  -0.0149095 -0.148112 -0.179215  0 0 0  0 -0.00310224 0.0131313  0.00688189 0.0777229 -0.185805  0.0153174 0.234025 -0.325435  0.0223295 0.432621 -0.393515  0.0249133 0.640263 -0.379915  0.024653 0.824554 -0.288136  0.0237831 0.958487 -0.132777  0.0231683 1.02222 0.0622378  0.0228179 1.00616 0.267076  0.0225387 0.912603 0.450324  0.0223871 0.75557 0.583781  0.0227458 0.559038 0.646892  0.02388 0.35366 0.629898  0.0245959 0.172245 0.537269  0.0216094 0.0415863 0.386624  0.0114756 -0.02124 0.201003  0 0 0  0 -0.00314474 0.00985909  0.00463334 0.0692573 -0.1274  0.00862679 0.194759 -0.22689  0.0113483 0.347276 -0.269406  0.012903 0.502737 -0.249947  0.0133712 0.637675 -0.17253  0.0131444 0.731942 -0.0494049  0.0127363 0.771488 0.100467  0.0124136 0.750446 0.254202  0.0122765 0.671867 0.388215  0.0123389 0.547656 0.48191  0.0124713 0.397123 0.520819  0.0122025 0.243521 0.499509  0.0105942 0.110315 0.422214  0.00693178 0.0173603 0.301665  0.00204873 -0.0212094 0.15602  0 0 0  0 -0.00318721 0.00658691  0.00137956 0.0604068 -0.0792039  0.00320241 0.156144 -0.13686  0.00416172 0.266199 -0.153125  0.00448525 0.372961 -0.125763  0.00444758 0.460163 -0.0596644  0.00425243 0.515007 0.0347924  0.00402993 0.529249 0.14303  0.00385869 0.500848 0.248536  0.00371516 0.434083 0.335181  0.00359881 0.339102 0.389645  0.00337827 0.230489 0.403531  0.00290132 0.124992 0.374843  0.00210941 0.0387526 0.30803  0.00111306 -0.0149035 0.213457  0.000263929 -0.0278403 0.10537  0 0 0  0 -0.00322971 0.0033147  -0.000190757 0.0520224 -0.0352999  -5.84722e-05 0.119768 -0.051147  7.03633e-05 0.188657 -0.0396589  0.000111818 0.247431 -0.00262651  4.22597e-05 0.287195 0.0539955  -8.5175e-05 0.302039 0.121506  -0.00023514 0.289756 0.189498  -0.000388265 0.252311 0.247568  -0.000513673 0.195438 0.286897  -0.00061655 0.127781 0.301364  -0.000687242 0.0596908 0.288723  -0.000644803 0.00166044 0.250806  -0.000461578 -0.0373404 0.193184  -0.000153065 -0.0509639 0.124607  0.000129819 -0.0371069 0.0563973  0 0 0  0 -0.00327221 4.24981e-05  -0.000588916 0.0436944 0.0078069  -0.000707626 0.085202 0.0337614  -0.000557154 0.113702 0.0740582  -0.000348657 0.124428 0.121889  -0.000222147 0.11599 0.16989  -0.000209093 0.0898144 0.2109  -0.000281453 0.0499305 0.238709  -0.000383019 0.00238466 0.249005  -0.000458956 -0.0454489 0.240241  -0.000451922 -0.0863181 0.213759  -0.000352025 -0.113929 0.173571  -0.000139594 -0.123967 0.125763  0.0001899 -0.114776 0.0775355  0.000484228 -0.0875324 0.0363628  0.000506282 -0.0468241 0.00914723  0 0 0  0 -0.00331467 -0.00322971  -0.000199184 0.035275 0.0519459  -8.1718e-05 0.0511467 0.119535  3.51071e-05 0.0396955 0.18829  6.81877e-05 0.00259417 0.246912  1.22786e-05 -0.0540687 0.286483  -9.66787e-05 -0.121539 0.301242  -0.000233531 -0.189473 0.288966  -0.000355899 -0.247522 0.251547  -0.000477672 -0.28678 0.194718  -0.000590563 -0.301243 0.12713  -0.000640988 -0.288638 0.0591896  -0.000580311 -0.250728 0.00128892  -0.000393391 -0.193106 -0.0375488  -9.02414e-05 -0.124558 -0.0510318  0.000157595 -0.0563834 -0.0371172  0 0 0  0 -0.00335717 -0.00650191  -0.000350982 0.0273502 0.0977725  -0.00135992 0.0176583 0.205857  -0.00251672 -0.0330289 0.301741  -0.00343835 -0.117013 0.370924  -0.0040018 -0.221375 0.402693  -0.00429249 -0.330121 0.39218  -0.00445306 -0.426566 0.340863  -0.00459492 -0.495971 0.256428  -0.00475025 -0.527681 0.151865  -0.0049206 -0.516842 0.0431828  -0.00504124 -0.465039 -0.0529361  -0.00495517 -0.379896 -0.121729  -0.00447023 -0.274027 -0.152296  -0.00337124 -0.163451 -0.139184  -0.00143409 -0.0660238 -0.0841271  0 0 0  0 -0.00339967 -0.00977412  -0.00213444 0.0221152 0.145199  -0.00719501 -0.0120971 0.291461  -0.011016 -0.101282 0.414362  -0.012755 -0.231808 0.495387  -0.0131078 -0.384415 0.521231  -0.0130308 -0.535809 0.48706  -0.0130085 -0.662666 0.397437  -0.0131457 -0.745353 0.265967  -0.0134215 -0.771214 0.112945  -0.0137862 -0.736345 -0.0381425  -0.0139291 -0.645933 -0.16417  -0.0133635 -0.513396 -0.245693  -0.0116699 -0.358499 -0.269741  -0.00879347 -0.204648 -0.231552  -0.00468647 -0.0762507 -0.13545  0 0 0  0 -0.00344217 -0.0130463  -0.0115888 0.0233785 0.18681  -0.0219235 -0.0339482 0.373596  -0.0251261 -0.159881 0.52754  -0.0245439 -0.338041 0.625281  -0.0234726 -0.542374 0.648389  -0.0230891 -0.740562 0.5915  -0.0232237 -0.901503 0.463038  -0.023515 -1.00066 0.282893  -0.02388 -1.0231 0.0787053  -0.0244237 -0.965465 -0.118356  -0.0252075 -0.836321 -0.27785  -0.0253227 -0.65479 -0.375233  -0.0226077 -0.447523 -0.394941  -0.0154446 -0.246758 -0.332473  -0.0069139 -0.0863361 -0.197005  0 0 0  0 0.000169963 0.0130888  -0.0032349 0.022296 -0.190709  -0.00475176 0.128213 -0.356398  -0.00247279 0.291752 -0.469727  -6.73532e-05 0.488541 -0.513041  0.000776827 0.68735 -0.477997  0.000517905 0.856911 -0.369648  4.89354e-05 0.971594 -0.204701  -0.000325978 1.01405 -0.00838447  -0.000708818 0.977776 0.189241  -0.00121224 0.868199 0.357769  -0.00141335 0.70176 0.471468  -0.0004884 0.503799 0.51267  0.00201499 0.30555 0.47512  0.00447857 0.138496 0.366458  0.00315022 0.0277485 0.20349  0 0 0  0 0.000127465 0.00981659  0.00086619 0.0211273 -0.138048  -6.01709e-05 0.100733 -0.261919  -0.000638902 0.222477 -0.34566  -0.000453264 0.367072 -0.377067  -7.96914e-05 0.512702 -0.351234  5.93066e-05 0.637203 -0.271731  -7.73072e-05 0.721522 -0.15057  -0.00034833 0.752777 -0.00627959  -0.000610471 0.726079 0.138981  -0.000728369 0.645452 0.262857  -0.000548124 0.523265 0.34629  -8.51154e-05 0.378339 0.376655  0.00024116 0.23263 0.349524  -0.000164509 0.108291 0.269291  -0.000959516 0.0250822 0.147526  0 0 0  0 8.49962e-05 0.00654441  0.000181496 0.0153342 -0.0890554  0.000384748 0.068172 -0.171991  0.000308394 0.149043 -0.228135  0.000144184 0.244903 -0.249132  1.22786e-05 0.341115 -0.232045  -9.9957e-05 0.423318 -0.179525  -0.000228882 0.478935 -0.0995289  -0.000362754 0.499565 -0.00427383  -0.000487685 0.481939 0.0916272  -0.000588536 0.428735 0.173442  -0.000621438 0.348086 0.228582  -0.000638247 0.252311 0.248714  -0.000662327 0.155744 0.230621  -0.000585675 0.0731128 0.176824  -0.000239611 0.0178643 0.095292  0 0 0  0 4.24981e-05 0.00327218  -0.000578672 0.00791126 -0.0437217  -0.000691131 0.0339968 -0.0852197  -0.000535756 0.0744146 -0.113709  -0.000319898 0.122412 -0.124473  -0.000185609 0.170594 -0.116035  -0.00018084 0.211718 -0.0898226  -0.000273407 0.239501 -0.0498707  -0.000389218 0.249804 -0.00230914  -0.000482321 0.240987 0.0456207  -0.000485301 0.214403 0.0864818  -0.000382066 0.174065 0.114043  -0.00013876 0.126087 0.12408  0.000233054 0.0776865 0.114847  0.000536323 0.0363923 0.0875466  0.000522256 0.00912395 0.0468357  0 0 0  0 0 0  -0.00102869 4.70877e-05 -4.72069e-05  -0.00144544 0.000122547 -0.000128627  -0.00128415 0.000188231 -0.000191659  -0.000896841 0.000250995 -0.000285387  -0.00055629 0.000306368 -0.000353813  -0.000364661 0.000400722 -0.000373989  -0.000331044 0.000447333 -0.000334859  -0.00037837 0.000463545 -0.00031212  -0.000397682 0.000425994 -0.000268012  -0.000296354 0.000377238 -0.000204206  -1.66893e-06 0.000281334 -0.000156671  0.000457525 0.000189841 -7.03633e-05  0.000978589 9.19104e-05 -2.76566e-05  0.00128102 4.38094e-05 -3.24845e-05  0.00099051 -1.43647e-05 5.78165e-06  0 0 0  0 -4.24981e-05 -0.00327221  -0.000580668 -0.0078162 0.043627  -0.000688076 -0.0337657 0.0849751  -0.000536352 -0.0740529 0.113328  -0.000329822 -0.121936 0.123903  -0.00019443 -0.16998 0.11533  -0.000160158 -0.210931 0.0890719  -0.000218868 -0.238641 0.0491455  -0.000336349 -0.248892 0.00166357  -0.000432014 -0.240127 -0.0461406  -0.000438929 -0.213639 -0.0869111  -0.00033021 -0.173484 -0.114351  -9.89437e-05 -0.12572 -0.124235  0.000244498 -0.0775112 -0.114922  0.000537992 -0.036311 -0.0876178  0.000538707 -0.00914437 -0.0468063  0 0 0  0 -8.49962e-05 -0.00654441  0.000178531 -0.015232 0.0889633  0.000378579 -0.0679375 0.171746  0.000292599 -0.148692 0.227734  0.000136614 -0.244385 0.248565  3.18885e-05 -0.3405 0.231358  -4.45247e-05 -0.422563 0.178768  -0.000152409 -0.4781 0.098816  -0.000278056 -0.49867 0.00357312  -0.000403643 -0.481043 -0.0922158  -0.000475407 -0.427944 -0.173906  -0.000503302 -0.347498 -0.228905  -0.000512004 -0.25188 -0.248882  -0.000561476 -0.155523 -0.230723  -0.000508904 -0.0729905 -0.176854  -0.000214696 -0.0178562 -0.0952701  0 0 0  0 -0.000127435 -0.00981662  0.000866845 -0.0210114 0.137973  -6.28382e-05 -0.10051 0.261669  -0.000640213 -0.222123 0.345254  -0.000452936 -0.366555 0.37652  -5.37634e-05 -0.512056 0.350565  0.000100315 -0.636462 0.27105  -1.7941e-05 -0.720731 0.149839  -0.000276327 -0.7519 0.0055508  -0.000524402 -0.725176 -0.139608  -0.000590205 -0.644642 -0.263361  -0.000354171 -0.522609 -0.346654  0.000122786 -0.377819 -0.376843  0.000418305 -0.23231 -0.349653  -6.92606e-05 -0.108131 -0.269301  -0.000909448 -0.0250307 -0.147503  0 0 0  0 -0.000169992 -0.0130888  -0.00326842 -0.022168 0.190625  -0.00478129 -0.127991 0.356148  -0.00247002 -0.291425 0.469348  -4.45247e-05 -0.488063 0.512504  0.000807166 -0.686699 0.477367  0.000576138 -0.856244 0.369004  0.000118613 -0.970864 0.203953  -0.000273764 -1.01323 0.00765663  -0.00063324 -0.976898 -0.189883  -0.00105894 -0.867377 -0.358326  -0.00116348 -0.701029 -0.471881  -0.00019455 -0.503267 -0.512881  0.00229394 -0.305198 -0.475289  0.0046649 -0.138299 -0.366482  0.00322795 -0.0276399 -0.203446  0 0 0  0 0.00344217 0.0130463  -0.0115229 -0.0232291 -0.186954  -0.02181 0.0342845 -0.373868  -0.0250242 0.160294 -0.527957  -0.0244794 0.338588 -0.625827  -0.023431 0.543074 -0.649021  -0.0230522 0.741295 -0.592112  -0.0232044 0.902249 -0.463689  -0.0234671 1.00147 -0.283509  -0.0238187 1.02391 -0.079261  -0.024392 0.966146 0.117869  -0.0252612 0.836875 0.277452  -0.0254898 0.655223 0.374929  -0.0227922 0.44774 0.394726  -0.0156109 0.246872 0.3324  -0.00698686 0.0864469 0.196968  0 0 0  0 0.00339967 0.00977409  -0.00210454 -0.0220018 -0.145312  -0.00713325 0.0124058 -0.291706  -0.0109401 0.101697 -0.414792  -0.0126896 0.232362 -0.495949  -0.0130596 0.3851 -0.52191  -0.0130007 0.536554 -0.487732  -0.0129744 0.663469 -0.398089  -0.0131133 0.746206 -0.266616  -0.0134039 0.772046 -0.113515  -0.0137838 0.737071 0.0376517  -0.0139635 0.646453 0.163795  -0.0134338 0.513784 0.245415  -0.0117434 0.358719 0.26957  -0.00889516 0.204786 0.231531  -0.00473833 0.0763181 0.135442  0 0 0  0 0.00335717 0.00650191  -0.000331581 -0.0272597 -0.0978819  -0.0012987 -0.0173698 -0.206128  -0.00243881 0.0334295 -0.30217  -0.00335857 0.117561 -0.371509  -0.00394255 0.222022 -0.403421  -0.00425345 0.330871 -0.392916  -0.00443131 0.427386 -0.341535  -0.00458956 0.496823 -0.257077  -0.00477231 0.528526 -0.152461  -0.00494707 0.517567 -0.0436531  -0.00506485 0.465555 0.0525761  -0.00499547 0.380286 0.121455  -0.00454116 0.274278 0.152145  -0.00341904 0.163521 0.139143  -0.00144184 0.0660484 0.0841347  0 0 0  0 0.0033147 0.00322974  -0.000178285 -0.0351985 -0.0520654  -2.80589e-05 -0.0508997 -0.119799  0.000122696 -0.0392944 -0.188728  0.000168383 -0.00208747 -0.247512  9.95994e-05 0.0547177 -0.287232  -4.10676e-05 0.122308 -0.301994  -0.000196874 0.190311 -0.289679  -0.000338137 0.248392 -0.25219  -0.000478983 0.287602 -0.195223  -0.000598669 0.301963 -0.127586  -0.000646949 0.289164 -0.0595511  -0.000602722 0.251087 -0.00155497  -0.000438452 0.19335 0.0374148  -0.000156522 0.124628 0.0510202  0.000118017 0.0563888 0.0371478  0 0 0  0 0.00327218 -4.24981e-05  -0.000578076 -0.0436177 -0.00791585  -0.000671819 -0.0849693 -0.0340352  -0.000492632 -0.113327 -0.074474  -0.00027594 -0.123926 -0.122482  -0.000138462 -0.115357 -0.170629  -0.000132918 -0.0890241 -0.21165  -0.000213146 -0.0490371 -0.239389  -0.000319481 -0.00150234 -0.249629  -0.000395417 0.046312 -0.240786  -0.000401855 0.0870549 -0.214193  -0.000307322 0.114476 -0.173921  -6.29425e-05 0.124347 -0.125979  0.000273943 0.114991 -0.0776258  0.000541568 0.0875629 -0.0363656  0.000520706 0.0467833 -0.00911951  0 0 0  0 0.00322974 -0.00331467  -0.000184149 -0.0519317 0.0351887  -2.77013e-05 -0.119539 0.050882  0.000122696 -0.188349 0.0392684  0.000161171 -0.246962 0.00205272  0.000100851 -0.286573 -0.0547068  -3.3319e-05 -0.301247 -0.122226  -0.000180006 -0.288876 -0.190195  -0.000302434 -0.251399 -0.248223  -0.000409722 -0.194558 -0.287436  -0.000500202 -0.126996 -0.301797  -0.000526071 -0.0590788 -0.289041  -0.000463605 -0.00123787 -0.250956  -0.000292659 0.0375763 -0.19326  -3.44515e-05 0.0510353 -0.124589  0.000160336 0.0371001 -0.0563752  0 0 0  0 0.00318718 -0.00658691  0.00139476 -0.0603016 0.0790984  0.00325027 -0.155977 0.136622  0.00423485 -0.265942 0.152716  0.0045591 -0.372467 0.125207  0.00452548 -0.459548 0.0589871  0.00435042 -0.514233 -0.0355064  0.004152 -0.528371 -0.143761  0.00398684 -0.499907 -0.249249  0.00386727 -0.433171 -0.335781  0.00374627 -0.338297 -0.390081  0.00353587 -0.229893 -0.403833  0.00307941 -0.124541 -0.375007  0.00225747 -0.0384948 -0.308157  0.00120127 0.0150431 -0.213471  0.0002985 0.0278866 -0.105355  0 0 0  0 0.00314474 -0.00985909  0.00464752 -0.0691469 0.127312  0.0086571 -0.194592 0.226627  0.0114026 -0.346972 0.268954  0.0129939 -0.502275 0.24941  0.0134599 -0.637048 0.171892  0.0132737 -0.731197 0.048688  0.012902 -0.770664 -0.101292  0.0125932 -0.749512 -0.254996  0.0124894 -0.670909 -0.388914  0.0125766 -0.546827 -0.482401  0.01272 -0.396425 -0.521127  0.012445 -0.243022 -0.499673  0.0108267 -0.109951 -0.422294  0.00710952 -0.0171041 -0.3016  0.00210905 0.0213075 -0.15596  0 0 0  0 0.0031023 -0.0131313  0.00689469 -0.0776304 0.185777  0.0153461 -0.233882 0.325165  0.0224021 -0.432363 0.393051  0.0250212 -0.639848 0.379382  0.0247861 -0.823991 0.287497  0.0239228 -0.957807 0.132045  0.0233232 -1.02145 -0.0630884  0.023008 -1.00526 -0.267945  0.022752 -0.911665 -0.451042  0.0226771 -0.754691 -0.584356  0.0231385 -0.558192 -0.647212  0.0242923 -0.353013 -0.630042  0.0249316 -0.171805 -0.537296  0.0217817 -0.0413182 -0.386636  0.0115235 0.0213858 -0.200984  0 0 0  0 0.00671437 0.0130038  -0.0143675 -0.0577926 -0.181777  -0.028705 -0.0423444 -0.387187  -0.0348081 0.0487363 -0.578554  -0.0356225 0.207387 -0.725414  -0.034872 0.411864 -0.801529  -0.0343626 0.630401 -0.793188  -0.0343059 0.82893 -0.701461  -0.0344533 0.977039 -0.54066  -0.0346239 1.05209 -0.335445  -0.0350018 1.04268 -0.117338  -0.0359954 0.950475 0.0801733  -0.0376254 0.789226 0.226758  -0.0375938 0.581129 0.29932  -0.0304525 0.354387 0.283831  -0.0149518 0.148176 0.179095  0 0 0  0 0.00667188 0.00973165  -0.00204758 -0.060274 -0.152347  -0.00713053 -0.0676545 -0.32165  -0.0113686 -0.00874824 -0.483308  -0.01357 0.108999 -0.611403  -0.0143141 0.267492 -0.685312  -0.0144234 0.442505 -0.693182  -0.0143954 0.607362 -0.633417  -0.0144446 0.736781 -0.514991  -0.0146549 0.810742 -0.356034  -0.0150694 0.818102 -0.181  -0.0157102 0.757687 -0.0165647  -0.0161744 0.6384 0.112085  -0.0153797 0.477291 0.184567  -0.0120499 0.297983 0.187885  -0.00599921 0.128614 0.119095  0 0 0  0 0.00662941 0.00645941  0.00116205 -0.0685699 -0.106984  0.00195989 -0.10048 -0.242541  0.00179449 -0.0779036 -0.3791  0.00117612 -0.00395243 -0.495612  0.000576079 0.109309 -0.57429  0.000166833 0.244188 -0.603376  -5.23925e-05 0.38002 -0.578606  -0.000194907 0.496112 -0.503662  -0.000328541 0.574521 -0.389923  -0.00056994 0.603377 -0.254827  -0.000968218 0.578204 -0.119046  -0.00151598 0.502848 -0.00339413  -0.00203109 0.388382 0.0740215  -0.00211465 0.252292 0.100477  -0.00122356 0.115664 0.0723041  0 0 0  0 0.00658691 0.00318718  0.00140989 -0.0790983 -0.0604738  0.00328037 -0.136637 -0.156254  0.00426796 -0.15273 -0.266297  0.00460118 -0.125199 -0.373004  0.00456643 -0.0589274 -0.460187  0.00439179 0.0355981 -0.514909  0.0042057 0.14389 -0.52913  0.0040344 0.249433 -0.500645  0.00389111 0.335931 -0.4338  0.00375295 0.390213 -0.33883  0.00351095 0.403933 -0.230303  0.0030359 0.37509 -0.124812  0.00222838 0.308166 -0.0386084  0.00117719 0.213439 0.0149764  0.000297546 0.105333 0.0278916  0 0 0  0 0.00654441 -8.49962e-05  0.000193506 -0.0889546 -0.015363  0.000425011 -0.171746 -0.0682737  0.000379384 -0.227735 -0.149126  0.000233054 -0.248573 -0.244932  0.000113428 -0.231346 -0.341149  1.3411e-05 -0.178718 -0.42324  -0.000110269 -0.0986987 -0.478825  -0.000247061 -0.00345454 -0.499362  -0.000359297 0.0923722 -0.48168  -0.00043571 0.174017 -0.428485  -0.000451446 0.229023 -0.347898  -0.000488162 0.248974 -0.252136  -0.000535369 0.230758 -0.155593  -0.000502229 0.176808 -0.0730559  -0.000219822 0.0952812 -0.0178557  0 0 0  0 0.00650191 -0.00335717  -0.000329114 -0.0977548 0.0272247  -0.00128634 -0.205884 0.0173165  -0.00241551 -0.301809 -0.0334646  -0.0033091 -0.370964 -0.117574  -0.00387442 -0.402754 -0.222034  -0.00418133 -0.392159 -0.330818  -0.00435078 -0.34073 -0.427267  -0.00448143 -0.256271 -0.496667  -0.00464082 -0.151704 -0.528305  -0.00478959 -0.0430312 -0.517354  -0.00489175 0.0530715 -0.465394  -0.0048455 0.121793 -0.380138  -0.00443053 0.152276 -0.274162  -0.00337899 0.139182 -0.163529  -0.00144839 0.0841486 -0.0660461  0 0 0  0 0.00645941 -0.00662941  0.00117023 -0.10686 0.0685582  0.00196159 -0.242315 0.100474  0.00177681 -0.378762 0.0779172  0.00116211 -0.495089 0.00398636  0.00056529 -0.573653 -0.109252  0.000157773 -0.602689 -0.24411  -7.12276e-05 -0.577878 -0.379904  -0.000202835 -0.502942 -0.495923  -0.000323772 -0.389276 -0.574365  -0.000540495 -0.254276 -0.60321  -0.000893474 -0.118632 -0.578099  -0.00141299 -0.00310063 -0.502754  -0.00193596 0.0741553 -0.388342  -0.00202966 0.100542 -0.252275  -0.00117385 0.0722805 -0.115633  0 0 0  0 0.00641692 -0.00990158  0.00596772 -0.118601 0.112435  0.011862 -0.285543 0.185702  0.0150813 -0.464432 0.18742  0.0158216 -0.627237 0.11975  0.015286 -0.749983 -0.00509328  0.0146217 -0.815086 -0.167445  0.0142147 -0.813008 -0.342574  0.0140516 -0.743914 -0.503699  0.0140427 -0.618266 -0.626016  0.0141182 -0.455269 -0.690734  0.0140797 -0.280023 -0.688064  0.013419 -0.11943 -0.618779  0.0113075 0.00203156 -0.494016  0.0071348 0.0655175 -0.333813  0.00204623 0.0627383 -0.164087  0 0 0  0 0.00637436 -0.0131738  0.0148569 -0.136499 0.169567  0.0302494 -0.33924 0.279723  0.0373139 -0.565031 0.30154  0.0372779 -0.774631 0.235166  0.0356404 -0.939838 0.0936378  0.0346234 -1.03773 -0.100832  0.0342446 -1.05365 -0.318465  0.0340725 -0.984934 -0.525823  0.0339826 -0.841865 -0.691126  0.0340714 -0.646169 -0.788811  0.0346329 -0.427908 -0.803663  0.0354904 -0.221159 -0.733523  0.0347662 -0.0581495 -0.591097  0.0287123 0.0383738 -0.402087  0.0143818 0.0594373 -0.196775  0 0 0  0 0.00998658 0.0129613  -0.0108985 -0.0836606 -0.180023  -0.0201946 -0.106327 -0.410951  -0.0255639 -0.0447197 -0.641594  -0.0275473 0.0992521 -0.831715  -0.0276263 0.304731 -0.951485  -0.0273296 0.540572 -0.982714  -0.0272514 0.77057 -0.920741  -0.0273178 0.959237 -0.775082  -0.0273591 1.07749 -0.568223  -0.0273851 1.10735 -0.331933  -0.027725 1.04432 -0.102452  -0.029464 0.898519 0.08523  -0.0328629 0.690527 0.202657  -0.0329388 0.445828 0.229184  -0.0175217 0.202598 0.152681  0 0 0  0 0.00994408 0.00968915  0.0022853 -0.0964543 -0.162514  0.00397888 -0.144468 -0.361587  0.00310677 -0.109716 -0.564473  0.00147653 0.000486329 -0.736464  0.000373244 0.167545 -0.852314  -7.39098e-06 0.366189 -0.895376  -8.88109e-05 0.566417 -0.859061  -0.000138342 0.737492 -0.748668  -0.000176668 0.85304 -0.58099  -0.000284672 0.895435 -0.381906  -0.000696063 0.858185 -0.181916  -0.00174153 0.747108 -0.011297  -0.00327337 0.578142 0.104004  -0.00407088 0.375994 0.144433  -0.00232995 0.175277 0.101896  0 0 0  0 0.00990158 0.00641692  0.00596617 -0.112412 -0.118728  0.01189 -0.185681 -0.285775  0.0151192 -0.18739 -0.464775  0.0158534 -0.119699 -0.627729  0.0153404 0.00519314 -0.750592  0.0146888 0.167574 -0.81575  0.0142835 0.342683 -0.81369  0.0140936 0.503806 -0.744594  0.0140628 0.626149 -0.618881  0.0140951 0.690876 -0.45581  0.0139929 0.688155 -0.280473  0.0133026 0.618851 -0.119707  0.0111861 0.494024 0.00185114  0.00706506 0.333865 0.0653788  0.00203764 0.164059 0.06272  0 0 0  0 0.00985909 0.00314474  0.00466225 -0.127278 -0.0693476  0.00870121 -0.226627 -0.194865  0.0114744 -0.268985 -0.347354  0.0130698 -0.249361 -0.502813  0.013534 -0.1718 -0.637661  0.0133266 -0.0485812 -0.731847  0.0129508 0.101342 -0.771367  0.0126551 0.255086 -0.750208  0.0125325 0.389039 -0.671537  0.0125781 0.482476 -0.547357  0.012717 0.521203 -0.39682  0.0123994 0.499727 -0.243282  0.0107431 0.422327 -0.110119  0.00701165 0.301664 -0.0172661  0.0020647 0.155961 0.0212897  0 0 0  0 0.00981659 -0.000127435  0.000888526 -0.137953 -0.0211845  -6.94394e-06 -0.261654 -0.100859  -0.000565082 -0.345247 -0.222535  -0.000359356 -0.376508 -0.367092  4.43459e-05 -0.350542 -0.51269  0.000202894 -0.270945 -0.637154  7.27773e-05 -0.149743 -0.721424  -0.000165224 -0.00541928 -0.75256  -0.000394106 0.139772 -0.725775  -0.000478387 0.263487 -0.645131  -0.000281453 0.346758 -0.522982  0.000169039 0.376897 -0.378063  0.000439167 0.349676 -0.232411  -5.01871e-05 0.269272 -0.108189  -0.000906348 0.147457 -0.025028  0 0 0  0 0.00977409 -0.00339967  -0.00209966 -0.145203 0.0219443  -0.00711869 -0.291453 -0.0124669  -0.0109212 -0.414415 -0.101701  -0.0126508 -0.495409 -0.232352  -0.0130041 -0.52126 -0.385046  -0.012907 -0.486982 -0.536529  -0.0128617 -0.397279 -0.663364  -0.0129934 -0.26581 -0.746038  -0.0132549 -0.112747 -0.771815  -0.0135753 0.0383447 -0.73681  -0.0137428 0.164335 -0.646261  -0.0132376 0.245793 -0.513616  -0.0116128 0.269735 -0.358609  -0.00879216 0.23155 -0.204713  -0.00468719 0.135424 -0.0762611  0 0 0  0 0.00973165 -0.00667191  -0.00204677 -0.152249 0.0602484  -0.00713699 -0.321424 0.0676585  -0.0113804 -0.482976 0.00878602  -0.0135406 -0.610926 -0.109009  -0.0142583 -0.684713 -0.267489  -0.0143701 -0.692498 -0.442502  -0.0143487 -0.632698 -0.607315  -0.0144038 -0.514266 -0.736632  -0.0145884 -0.35532 -0.810567  -0.0149474 -0.180326 -0.817899  -0.015517 -0.0160504 -0.757517  -0.0159708 0.112434 -0.638278  -0.0151891 0.184718 -0.477155  -0.0119228 0.187942 -0.297905  -0.00597858 0.119131 -0.128595  0 0 0  0 0.00968915 -0.00994408  0.00229311 -0.16244 0.0964712  0.00396931 -0.361395 0.144525  0.00308713 -0.564162 0.109772  0.00144815 -0.735998 -0.00044769  0.000366628 -0.851746 -0.1675  -3.03984e-05 -0.89474 -0.366116  -0.000126481 -0.858417 -0.5663  -0.000151634 -0.747994 -0.737373  -0.000141621 -0.580307 -0.852915  -0.000206828 -0.38129 -0.895228  -0.000543475 -0.181412 -0.858069  -0.00157845 -0.0109825 -0.747075  -0.00313509 0.10417 -0.57812  -0.00398397 0.144596 -0.375957  -0.00228083 0.101921 -0.175234  0 0 0  0 0.00964665 -0.0132163  0.0174402 -0.188327 0.144633  0.0328059 -0.428776 0.227698  0.0326356 -0.673662 0.208123  0.0291991 -0.884505 0.0968254  0.0274638 -1.03547 -0.0862628  0.0270939 -1.10509 -0.313534  0.0270817 -1.08241 -0.550494  0.0270567 -0.970489 -0.760859  0.0269836 -0.786376 -0.912154  0.0270963 -0.55833 -0.981041  0.0274551 -0.321562 -0.956834  0.0274572 -0.112567 -0.843025  0.0255533 0.0370086 -0.65686  0.0202091 0.105053 -0.427634  0.0108994 0.0885823 -0.195754  0 0 0  0 0.0132588 0.0129188  0.0106846 -0.116041 -0.206855  0.0122803 -0.175321 -0.479047  0.00376207 -0.129647 -0.745408  -0.000240266 0.012964 -0.969418  -0.000618637 0.229763 -1.12106  -0.000175953 0.488378 -1.17772  -9.53674e-07 0.749237 -1.13051  -0.000118077 0.97211 -0.986649  -0.000216961 1.12265 -0.768271  -2.07424e-05 1.17773 -0.50884  0.000365257 1.12873 -0.248477  3.69549e-06 0.983309 -0.0269701  -0.00394607 0.763151 0.122204  -0.012387 0.497776 0.175402  -0.0107197 0.223591 0.123517  0 0 0  0 0.0132163 0.00964665  0.0174582 -0.144579 -0.188442  0.0328251 -0.227671 -0.429  0.0326681 -0.208039 -0.674008  0.0292469 -0.0967675 -0.884997  0.0274952 0.0863321 -1.03605  0.0271184 0.313593 -1.10571  0.0271095 0.550578 -1.08304  0.0270748 0.760946 -0.97114  0.0269897 0.912232 -0.787016  0.0270886 0.981154 -0.558906  0.027387 0.956886 -0.321971  0.0272694 0.843034 -0.112864  0.0253763 0.656895 0.036783  0.0200952 0.427634 0.104892  0.0108774 0.195786 0.0885185  0 0 0  0 0.0131738 0.00637436  0.0148839 -0.169519 -0.136657  0.0303133 -0.279727 -0.339545  0.0373788 -0.301527 -0.565418  0.0373409 -0.23508 -0.77516  0.0357134 -0.0934899 -0.94044  0.034707 0.10096 -1.03838  0.0343084 0.318553 -1.05431  0.0341291 0.525919 -0.985573  0.033998 0.69117 -0.842495  0.0340589 0.788885 -0.64675  0.0345879 0.803719 -0.428317  0.0353845 0.733553 -0.221422  0.0345931 0.591144 -0.058395  0.0285783 0.402147 0.0382098  0.0143222 0.196833 0.0594038  0 0 0  0 0.0131313 0.0031023  0.00692427 -0.185711 -0.0778626  0.0154194 -0.325196 -0.234193  0.0224963 -0.393091 -0.43279  0.02513 -0.379304 -0.640445  0.0248977 -0.287357 -0.824646  0.0240327 -0.131883 -0.95847  0.0234339 0.0631982 -1.02212  0.0230772 0.268009 -1.00592  0.022802 0.451084 -0.912299  0.0226935 0.584373 -0.755224  0.0231124 0.647249 -0.558635  0.0242049 0.630083 -0.353349  0.0248322 0.537313 -0.17198  0.0216967 0.386627 -0.0414425  0.0114813 0.200964 0.0213324  0 0 0  0 0.0130888 -0.000169992  -0.00321849 -0.190632 -0.0223693  -0.00469472 -0.356162 -0.128377  -0.00238767 -0.46934 -0.291838  4.35114e-05 -0.51249 -0.488608  0.000897527 -0.477319 -0.687335  0.000687242 -0.368863 -0.85692  0.000234425 -0.203859 -0.971526  -0.000133872 -0.00752613 -1.01384  -0.00048852 0.190021 -0.977466  -0.000900388 0.358473 -0.867818  -0.00108111 0.471957 -0.701419  -0.000176311 0.512918 -0.503534  0.00226653 0.475291 -0.305317  0.00463855 0.366439 -0.138315  0.00320935 0.203386 -0.0276579  0 0 0  0 0.0130463 -0.00344217  -0.0115161 -0.18689 0.0231612  -0.0217829 -0.373668 -0.0343922  -0.0250028 -0.52761 -0.160315  -0.0244308 -0.625312 -0.338597  -0.0233414 -0.648386 -0.543079  -0.0229562 -0.591392 -0.74127  -0.0230973 -0.462922 -0.902155  -0.0233494 -0.282741 -1.00131  -0.0236554 -0.0784606 -1.02367  -0.0242057 0.118538 -0.9659  -0.025 0.278021 -0.836643  -0.0251749 0.375357 -0.654966  -0.0225205 0.394946 -0.447539  -0.0154335 0.33242 -0.246732  -0.00692964 0.19694 -0.086356  0 0 0  0 0.0130038 -0.00671434  -0.0143614 -0.181755 0.0577754  -0.0287226 -0.386989 0.0423446  -0.0348219 -0.578244 -0.0487128  -0.0356195 -0.724942 -0.207359  -0.0348493 -0.800948 -0.411827  -0.0343214 -0.79254 -0.630373  -0.0342598 -0.70078 -0.828893  -0.0343952 -0.539949 -0.976923  -0.0345531 -0.334751 -1.0519  -0.0348835 -0.116672 -1.04249  -0.0358124 0.080668 -0.950283  -0.0373589 0.227145 -0.789041  -0.0373627 0.299543 -0.581061  -0.030311 0.283957 -0.354345  -0.0148908 0.179119 -0.148065  0 0 0  0 0.0129614 -0.00998658  -0.010929 -0.179929 0.0836506  -0.0202464 -0.410725 0.106381  -0.0255953 -0.641305 0.0447632  -0.0275336 -0.831324 -0.0992649  -0.0275965 -0.950959 -0.304754  -0.0273157 -0.982106 -0.540561  -0.0272273 -0.920079 -0.770534  -0.0273005 -0.774435 -0.959124  -0.0273395 -0.567574 -1.07733  -0.027282 -0.331273 -1.10713  -0.0275995 -0.101961 -1.04421  -0.0292885 0.0855525 -0.898461  -0.0326265 0.202892 -0.690504  -0.0327914 0.229409 -0.445766  -0.0174989 0.152759 -0.202577  0 0 0  0 0.0129188 -0.0132588  0.0106822 -0.206786 0.1161  0.0122323 -0.478803 0.175369  0.00369933 -0.745071 0.1297  -0.000244826 -0.969012 -0.0129723  -0.000608385 -1.12053 -0.22974  -0.000193894 -1.17712 -0.488317  -1.58548e-05 -1.1299 -0.749145  -0.000105917 -0.986036 -0.972008  -0.000191689 -0.767569 -1.12259  -7.39098e-06 -0.508224 -1.1776  0.000469565 -0.248008 -1.12865  0.000211 -0.0266874 -0.983248  -0.00370836 0.122485 -0.763135  -0.0122329 0.17563 -0.49777  -0.0106876 0.123633 -0.223548  0 0 0  
SCALARS smooth_stress float 1
LOOKUP_TABLE default
4421.11 4589.38 4565.5 4301.16 4234.73 4251.09 4266.66 4274.57 4279.31 4281.25 4276.97 4264.09 4252.92 4306.61 4506.27 4513.15 4376.77 4024.31 4127.88 4161.15 4052.32 4017.62 4030.42 4044.25 4051.24 4054.23 4054.05 4046.49 4031.44 4035.17 4139.69 4380.87 4448.47 4367.13 3495.44 3481.44 3539.11 3646.71 3702.45 3730.68 3741.06 3742.38 3740.39 3735.77 3726.39 3721.4 3763.44 3912.65 4106.11 4140.87 4090.46 3310.61 3248.83 3288.63 3476.52 3602.24 3647.48 3648.97 3641.43 3635.46 3630.48 3630.1 3647.69 3701.07 3771.11 3767.19 3674.48 3618.14 3279.75 3247.54 3323.02 3503.18 3592.82 3600.92 3584.03 3574 3571.73 3573.99 3584.41 3604.56 3613.49 3559.57 3415.22 3316.89 3312.12 3414.61 3431.7 3506.76 3556.37 3516.63 3466.37 3444.89 3445.05 3451.74 3459.92 3469.93 3472.89 3438.21 3335.64 3184.03 3151.98 3200.79 3732.78 3770.84 3742.12 3569.19 3416.3 3364.58 3366.73 3379.71 3388.75 3394.83 3398.07 3389.06 3350.66 3276.29 3188.61 3209.26 3272.27 4092.82 4130.61 3990.31 3690.52 3549.84 3541.29 3560.43 3573.53 3578.82 3580.69 3579.06 3568.7 3549.61 3535.13 3540.31 3559.3 3569.91 4247.67 4289 4119.7 3812.13 3714.81 3727.66 3746.76 3755.74 3759.46 3759.85 3756.47 3747.31 3740.03 3759.5 3818.64 3821.25 3785.48 4355.39 4471.49 4405.91 4114.22 3992.2 3989.93 4007.25 4019.19 4025.68 4028.6 4025.39 4013.32 4001.54 4024.98 4104.04 4063.14 3970.36 3864.68 3932.71 3905.38 3741.8 3663.91 3661.46 3675.08 3685.02 3689.86 3690.84 3684.82 3672.53 3673.86 3737.11 3871.36 3905.4 3860.48 3153.87 3132.71 3127.4 3151.3 3168.01 3183.45 3193.73 3198.13 3198.48 3195.72 3188.75 3186.06 3217.43 3320.29 3461.52 3492.96 3456.78 2816.02 2762.71 2765.7 2876.35 2958.78 2994.03 3000.5 2998.26 2994.95 2991.67 2991.84 3005.06 3042.71 3093.88 3105.74 3027.89 2963.23 2683.31 2666.96 2721.2 2841.83 2906.69 2918.16 2910.41 2904.65 2903.09 2904.43 2911.09 2923.14 2926.47 2889.88 2795.76 2716.13 2697.59 2776.04 2809.13 2872.83 2896.01 2867.55 2833.39 2817.95 2817.51 2822 2827.3 2832.31 2830.69 2804.34 2737.31 2645.54 2641.69 2685.01 3112.51 3151.23 3129.07 2993.93 2885.14 2845.56 2845.19 2854.5 2861.46 2865.01 2864.7 2855.7 2831.14 2794.27 2769.17 2832.82 2901.82 3562.73 3572.21 3473.18 3285.19 3190.01 3181.29 3195.16 3205.97 3210.27 3210.1 3205.64 3196 3189.99 3212.9 3280.14 3355.29 3386.35 3784.17 3780.22 3672.93 3510.35 3448.61 3456.06 3471.48 3479.74 3482.42 3480.91 3474.76 3465.44 3470.2 3528.52 3648.65 3713.58 3707.39 4040.49 4109.05 4089.17 3880.78 3715.05 3666.3 3671 3685.23 3695.31 3701.62 3703.81 3694.8 3667.51 3614.34 3520.73 3454.73 3448.03 3424.14 3480.44 3463.5 3307.95 3191.78 3154.49 3156.37 3166.95 3174.92 3179.21 3178.02 3169 3153.36 3134.17 3111.3 3120.9 3143.58 2461.71 2475.85 2451.22 2386.98 2351.18 2340.73 2343.61 2349.19 2352.85 2353.61 2350.36 2347.49 2355.11 2384.37 2440.32 2477.61 2480.67 1907.88 1893.82 1878.11 1883.24 1897.04 1908.77 1915.79 1918.69 1919.24 1918.6 1918.82 1924.18 1938.95 1964.1 1990.1 1951.26 1901.34 1644.87 1652.76 1679.7 1713.7 1735.26 1743.35 1744.47 1744.03 1743.99 1744.32 1745.96 1748.59 1748.47 1740.04 1716.05 1670.63 1642.15 1715.85 1753.19 1788.86 1779.18 1762.72 1749.55 1743.77 1743.48 1745.22 1746.68 1746.15 1742.42 1733.68 1720.77 1710.95 1724.17 1740.31 2129.06 2146.69 2123.4 2054.54 2014.04 1999.58 1999.7 2004.18 2007.22 2007.13 2004.02 2000.35 2001.8 2018.76 2064.4 2124.94 2154.11 2764.56 2720.35 2661.42 2638.01 2630.41 2636.8 2645.79 2651.48 2652.44 2649.23 2643.68 2642.41 2662.98 2728.8 2835.09 2896.41 2898.8 3113.1 3035.98 2985.96 3025.55 3047.88 3065.59 3076.88 3081.16 3080.19 3075.69 3068.88 3068.38 3099.68 3194.99 3332.59 3384.36 3366.16 3620.1 3664.16 3756.99 3776.67 3706.17 3644.97 3623.24 3625.75 3634.23 3643.95 3655.29 3655.65 3616.55 3507.33 3341.35 3282.69 3314.59 2969.6 3029.29 3107.97 3104.04 3052.6 3009.89 2993.5 2994.49 3000.97 3008.16 3014.05 3010.03 2979.48 2906.83 2807.27 2797.32 2838.81 1907.84 1961.49 2003.65 1977.42 1951.22 1934.61 1928.29 1928.58 1931.83 1934.71 1934.6 1929.57 1919.11 1905.81 1899.73 1920.56 1940.8 1224.92 1245.89 1261.13 1249.07 1239.39 1235.67 1235.69 1236.79 1238.16 1238.92 1239.08 1239.62 1242.77 1251.31 1262.63 1250.51 1232.92 879.114 892.885 909.971 913.147 912.274 911.348 911.074 911.225 911.757 912.085 912.48 913.417 915.311 918.141 916.123 895.873 879.149 999.827 1017.07 1031.21 1022.47 1013.29 1008.68 1007.51 1007.8 1008.47 1008.76 1008.47 1008.59 1010.8 1016.46 1023.1 1016.41 1006.92 1545.82 1540.88 1525.17 1512.25 1512.29 1516.85 1520.44 1522.49 1523.02 1522.42 1522.13 1525.53 1536.74 1557.44 1582.27 1569.16 1544.11 2348.43 2292.48 2262.33 2318.36 2366.73 2391.26 2398.42 2398.88 2396.76 2394.16 2394.29 2403.38 2428.42 2465.32 2489.53 2449.33 2404.92 2799.88 2714.79 2690.75 2805.59 2886.28 2920.39 2927.4 2925.57 2921.27 2917.6 2918.08 2930.53 2964.08 3009.73 3027.46 2973.27 2924.43 3380.94 3360.2 3448.34 3621.21 3692.04 3684.21 3659.91 3648.25 3647.06 3652.55 3666.65 3684.7 3680.99 3605.84 3443.97 3351.82 3358.67 2754.83 2756.98 2829.65 2942.5 2991.77 2990.97 2977.04 2969.48 2968.95 2973.3 2982.76 2992.57 2985.71 2931.68 2821.84 2755.63 2755.91 1682.63 1707.06 1750.54 1780.25 1793.89 1796.3 1794.07 1792.21 1792.81 1795.18 1798.31 1799.44 1794.48 1777.19 1744.75 1713.07 1701.07 908.649 925.584 946.278 949.348 947.302 945.554 944.694 944.505 945.342 946.523 947.912 949.379 951.205 952.66 949.062 930.729 916.326 471.163 479.729 490.303 490.801 487.871 485.767 484.668 484.303 484.547 485.065 485.926 487.441 490.104 493.405 492.763 481.9 473.296 627.573 637.21 649.081 650.183 648.008 646.263 645.049 644.52 644.512 644.821 645.254 646.201 648.68 652.013 651.447 638.865 628.515 1278.49 1286.02 1302.56 1317.7 1326.84 1330.06 1329.59 1328.83 1328.68 1329.03 1330.15 1331.85 1333.29 1331.61 1321.01 1294.76 1277.05 2176.43 2161.65 2187.06 2255.65 2294.19 2303.95 2301.25 2297.96 2296.6 2297.41 2301.5 2307.18 2306.92 2285.31 2231.73 2185.53 2174.36 2689.46 2657.03 2689.02 2796.65 2853.3 2865.02 2859.54 2853.99 2851.66 2853.02 2859.41 2868.5 2868.31 2833.07 2747.14 2690.21 2688.73 3327.25 3252.15 3274.06 3457.74 3583.26 3625.41 3622.34 3611.09 3602.88 3598.64 3601.96 3623 3671.85 3718.03 3682.68 3601.53 3569.86 2785.03 2726.8 2725.95 2838.54 2921.34 2954.04 2956.79 2951.47 2946.23 2943.47 2946.63 2962.69 2997.28 3030.77 3015.56 2944.03 2899.04 1806.42 1789.3 1777.09 1791.89 1809.57 1821.32 1826.35 1827.15 1826.32 1825.88 1827.95 1835.33 1850.27 1869.13 1879.67 1837.94 1795.05 1062.42 1073.43 1081.05 1074.09 1068.83 1066.88 1066.46 1066.67 1067.13 1067.48 1068.36 1070.94 1076.99 1087.42 1096.39 1081.01 1062.95 661.188 671.713 684.463 685.65 683.587 681.831 680.667 680.239 680.37 680.756 681.84 684.032 687.245 690.689 689.834 676.823 666.266 800.566 809.765 817.513 812.661 807.488 804.902 803.762 803.424 803.432 803.657 804.318 806.141 810.376 817.575 823.44 814.124 803.276 1392.39 1413.79 1429.07 1413.33 1397 1386.75 1382.18 1381.57 1382.34 1382.84 1382.34 1380.29 1377.27 1376.54 1383 1396.89 1405.2 2274.18 2299.22 2328.94 2322 2295.97 2273.74 2264.13 2263.36 2265.84 2268.71 2270.62 2266.61 2247.91 2208.48 2159.64 2181.8 2227.54 2797.15 2816.65 2851.6 2855.1 2823.67 2793.91 2781.55 2780.82 2784.33 2789.03 2793.65 2790.46 2763.68 2697.73 2602.38 2617.1 2682.71 3432.97 3357.35 3334.1 3440.35 3527.58 3572.32 3584.08 3582.08 3576.32 3568.7 3559.75 3558.6 3606.84 3755.83 3933.8 3975.28 3943.14 3027.54 2956.75 2894.75 2927.16 2970.24 2998.81 3010.3 3011.94 3008.89 3003.22 2996.92 2998.55 3036.02 3141.6 3276.75 3303.66 3268.11 2234.44 2212.92 2156.24 2105.16 2085.81 2084.5 2089.22 2093.17 2094.03 2092.15 2089.4 2090.34 2104.89 2144.16 2209.56 2233.35 2218.71 1607.76 1636.2 1649.77 1620.59 1597.38 1584.87 1580.81 1581.34 1582.71 1582.99 1582.03 1579.45 1576.47 1577.6 1590.38 1609.67 1618.56 1323.9 1341.26 1367.75 1380.56 1384.51 1383.51 1381.27 1380.2 1380.3 1380.85 1382.34 1383.94 1382.51 1374.84 1359.69 1342.64 1334.93 1430.41 1420.74 1407.73 1406.3 1411.51 1416.88 1419.5 1420.12 1419.77 1419.15 1420.48 1426 1437.65 1454.39 1467.74 1447.56 1423.1 1877.79 1866.8 1820.4 1765.38 1739.35 1733.26 1735.27 1738.26 1739.54 1738.36 1735.8 1735.06 1743.41 1771.16 1825.32 1867.57 1875.73 2654.01 2659.69 2602.78 2489.08 2415.83 2391.2 2392.06 2398.39 2402.78 2403.86 2401.09 2393.03 2380.26 2370.92 2382.65 2466.9 2537.19 3134.18 3147.45 3087.19 2943.73 2843.02 2808.68 2809.74 2818.23 2824.24 2827.05 2826.22 2816.76 2792.35 2752.87 2712.09 2793.2 2892.05 3749.66 3733.27 3696.17 3680.76 3701.06 3725.46 3738.51 3742.68 3741.98 3738.16 3729.35 3713.92 3722.09 3852.66 4138.59 4292.91 4274.5 3526.88 3498.33 3410.29 3325.52 3302.34 3311.85 3324.3 3330.95 3332.03 3329.27 3321.93 3311.01 3319.29 3406.57 3583.67 3683.4 3679.24 2988.57 2992.33 2923.55 2797.74 2724.53 2703.65 2706.72 2713.94 2718.1 2718.76 2715.43 2708.12 2702.37 2707.51 2726.71 2776.35 2813.38 2479.75 2521.63 2554.46 2523.15 2481.79 2454.39 2445.06 2445.94 2449.63 2453.03 2454.59 2449.29 2427.38 2380.74 2325.11 2349.94 2400.41 2244.39 2248.01 2288.36 2346.82 2372.44 2372.96 2366.34 2362.41 2362.29 2364.2 2368.93 2374.26 2367.83 2330.62 2260.45 2228.62 2238.1 2294.61 2240.66 2214.6 2272.78 2320.08 2342.12 2346.5 2344.74 2342.41 2340.21 2341.88 2353.54 2378.15 2403.84 2404.38 2364.91 2334.98 2595.67 2516.95 2424.53 2415.91 2430.4 2446.88 2456.89 2460.07 2459.27 2455.27 2449.64 2450.7 2477.76 2551.86 2658.83 2704.92 2694.81 3175.84 3120.08 2992.11 2880.08 2834.81 2835.94 2848.22 2855.81 2858.01 2856.16 2849.17 2839.29 2841.7 2891.66 3003.36 3117.54 3162.49 3547.25 3513.54 3373.87 3201.37 3122.24 3116.15 3129.72 3139.36 3142.86 3142.72 3137.79 3126.18 3115.03 3133 3202.46 3318.87 3387.17 3974.89 3999.54 3957.54 3872.94 3861.33 3874.77 3886.05 3891.72 3892.83 3891.73 3886.56 3871.51 3860.46 3947.38 4230.03 4403.73 4382.18 3855.04 3858.04 3762.2 3612.27 3555.19 3555.51 3567.65 3575.87 3578.42 3577.95 3572.96 3560.83 3554.49 3607.99 3755.08 3851.45 3852.81 3460.38 3478.59 3408.26 3245.21 3142.48 3112.32 3115.3 3124.06 3129.66 3132.49 3130.95 3122.23 3105.97 3081.4 3039.88 3066.69 3120.65 3006.99 3047.28 3087.76 3062.43 3011.89 2976.05 2963.88 2964.82 2969.71 2975.48 2980.11 2976.1 2945.38 2866.86 2753.49 2760.9 2828.42 2776.38 2764.09 2809.44 2901.58 2941.88 2942.42 2932.15 2925.99 2925.61 2928.48 2935.81 2945.18 2938.06 2882.51 2772.1 2727.66 2749.34 2779.81 2699.27 2674.2 2780.14 2855.69 2886.44 2889.94 2885.65 2881.85 2878.66 2880.25 2895.8 2929.1 2960.37 2948.62 2901.1 2875.74 2989.31 2875.87 2780.84 2826.4 2872.91 2901.73 2913.59 2915.02 2912.55 2907.22 2899.59 2900.86 2938.2 3040.86 3176.48 3223.76 3205.83 3439.54 3353.98 3220.29 3155.24 3144.35 3159.27 3173.21 3178.83 3179.31 3176.54 3167.83 3156.62 3166.12 3251.53 3426.09 3550.94 3571.96 3735.76 3680.48 3534.28 3400.83 3358.39 3366.81 3381.23 3388.47 3390.11 3389.15 3383.05 3370.64 3365.25 3416.59 3559.62 3688.85 3724.04 
CELL_DATA 1024
SCALARS stress float 1
LOOKUP_TABLE default
1079.37 1161.54 1067.71 1032.46 1035.27 1040.45 1042.88 1044.32 1045.19 1045.26 1043.1 1038.97 1037.65 1065.19 1135.14 1068.55 885.623 904.599 929.777 927.387 928.331 931.899 934.23 934.867 934.837 933.745 929.543 925.332 938.641 1001.19 1076.68 1063.84 821.135 788.486 833.298 870.782 889.169 893.839 893.414 892.162 890.857 888.778 886.99 892.311 918.948 962.169 969.838 933.454 795.375 767.69 822.077 868.88 888.979 890.009 886.188 884.322 882.909 882.846 886.406 896.491 906.573 895.034 851.851 833.217 806.064 802.297 853.077 877.037 873.717 863.823 860.012 859.717 861.074 863.393 867.753 869.431 856.305 818.234 770.057 784.029 861.224 881.68 887.52 855.384 828.072 819.511 820.804 823.774 826.276 828.08 829.381 824.931 806.963 775.958 745.157 778.858 961.421 978.138 907.079 835.553 817.22 820.923 826.588 829.33 829.942 830.962 830.001 825.315 814.917 801.667 791.096 818.932 1037.03 1057.21 954.362 907.029 906.843 913.302 916.169 917.689 917.984 917.879 916.334 913.407 912.781 922.914 941.657 924.188 1047.28 1078.5 994.898 922.718 908.177 912.511 917.484 920.31 921.514 922.211 920.464 916.722 914.412 913.401 894.12 870.108 761.825 762.333 728.339 704.908 696.815 697.822 700.611 702.6 703.129 702.776 699.814 698.961 704.829 723.743 751.8 767.505 611.368 583.212 578.154 582.237 587.891 591.916 594.018 594.451 594.122 593.391 592.984 596.845 608.167 627.256 648.102 610.961 522.136 506.518 522.324 540.11 550.815 555.106 555.865 555.553 555.135 555.065 556.971 560.256 563.207 561.378 550.27 516.142 496.842 511.976 528.886 538.049 539.542 537.536 535.855 535.632 535.762 536.519 536.773 535.17 528.33 515.237 498.404 500.976 546.849 579.654 565.899 550.411 538.468 533.303 532.966 534.187 535.285 535.688 534.273 530.988 525.105 520.171 523.855 558.22 670.063 675.724 635.769 609.907 600.021 600.226 602.701 604.853 605.136 604.356 602.37 600.275 601.086 611.698 638.932 677.8 810.713 786.667 788.607 778.08 775.827 779.09 781.556 782.768 782.359 781.103 778.004 776.475 786.203 823.926 874.633 886.06 925.614 961.355 958.574 913.63 883.456 876.23 878.736 882.327 884.549 886.586 887.74 883.272 867.15 834.671 796.026 813.501 609.17 651.655 628.996 608.771 595.463 590.635 590.758 592.615 593.972 594.655 592.834 589.654 583.907 579.318 583.669 618.786 421.653 434.419 420.431 410.231 405.826 405.375 406.233 406.982 407.538 407.31 406.775 407.08 410.376 419.369 432.995 425.273 308.01 311.556 311.56 313.164 314.881 316.256 317.009 317.32 317.409 317.289 317.914 319.346 321.736 324.634 322.902 304.399 279.33 291.676 296.174 296.808 295.813 295.025 294.512 294.556 294.871 294.827 294.718 294.07 292.863 291.132 287.711 282.15 352.617 365.263 354.344 344.398 339.329 338.071 338.526 339.008 339.335 339.193 338.465 338.708 340.864 347.172 358.021 358.176 509.634 492.94 477.67 474.376 476.762 479.245 480.628 481.548 481.004 480.181 479.578 482.272 490.464 506.336 525.846 509.425 709.356 658.083 682.623 705.33 717.206 721.616 722.501 722.118 720.754 719.39 718.461 723.528 740.827 769.151 786.768 757.574 842.013 849.294 899.709 916.237 905.985 893.867 889.49 890.217 891.958 895.455 899.834 899.123 882.242 841.069 791.27 804.95 523.202 554.272 566.403 570.256 568.307 564.739 562.217 562.248 563.377 564.759 564.957 561.542 552.404 536.65 520.275 535.037 309.099 327.565 329.633 327.427 324.701 323.492 322.736 322.968 323.398 323.724 323.512 322.343 320.959 319.299 318.831 316.217 157.445 163.638 164.349 162.803 161.65 161.232 161.131 161.221 161.451 161.641 161.915 162.256 163.191 164.399 163.64 158.137 113.725 118.536 119.796 118.835 117.831 117.288 116.989 116.999 116.95 116.98 116.903 116.896 117.359 117.93 116.955 113.858 230.722 234.597 233.705 232.95 233.113 233.611 233.774 233.992 233.949 234.139 234.453 235.682 237.784 240.161 239.159 229.138 416.619 407.147 413.175 422.987 429.775 432.7 433.059 433.072 432.743 432.94 433.953 436.446 439.226 439.868 433.807 411.183 657.775 625.944 661.031 690.845 705.247 707.877 706.79 705.59 704.339 704.733 707.103 712.754 717.496 711.715 688.865 670.372 808.834 781.303 837.218 883.177 900.108 897.902 892.872 890.167 889.244 890.282 895.145 904.233 909.117 888.898 842.018 835.027 516.215 509.589 528.881 545.184 554.047 556.781 556.674 555.874 555.642 556.505 558.757 561.273 561.53 554.023 537.202 516.306 294.671 299.489 303.188 306.073 307.702 308.633 308.764 308.931 309.15 309.644 310.464 311.689 313.101 313.101 308.331 293.643 126.136 129.736 130.601 130.122 129.721 129.654 129.463 129.523 129.728 129.939 130.55 131.526 132.757 133.857 132.178 126.852 62.8141 64.9397 66.0267 66.0614 65.8481 65.5402 65.3191 65.2594 65.2496 65.4529 65.693 66.2944 66.956 67.2339 66.2352 63.3548 205.603 213.613 216.523 215.991 215.011 213.99 213.351 213.146 213.269 213.427 213.214 212.976 213.005 213.035 211.649 207.433 395.581 407.873 417.422 420.884 420.763 418.802 417.56 417.42 417.482 417.822 418.001 416.538 412.414 405.315 397.102 399.364 655.44 655.595 683.422 695.802 694.527 690.219 687.63 687.09 687.808 689.266 691.292 690.117 680.718 656.74 625.436 642.484 815.802 769.99 808.811 847.497 868.498 873.932 872.741 870.675 868.346 866.425 865.684 873.019 899.424 933.449 932.005 908.069 578.904 545.14 543.183 550.067 557.17 561.173 562.91 562.673 561.724 560.789 561.542 566.853 578.606 594.422 607.748 571.69 374.287 376.44 364.97 358.233 355.846 355.913 356.237 356.591 356.435 356.278 356.24 357.819 362.936 372.925 383.474 371.341 242.422 253.354 253.651 250.996 248.87 247.402 246.867 246.955 246.922 246.823 246.71 246.674 246.998 248.186 249.339 246.198 214.319 218.218 220.315 221.385 222.126 222.54 222.642 222.562 222.647 222.839 223.711 224.841 226.228 226.786 223.517 214.245 299.066 302.999 294.07 286.857 283.844 283.174 283.293 283.615 283.455 283.304 283.292 284.472 287.992 295.589 304.236 299.417 459.504 477.073 461.579 447.077 438.091 434.811 434.596 435.408 436.092 436.01 434.803 432.581 430.007 431.198 443.05 466.05 710.354 729.245 716.508 692.452 674.711 668.969 669.535 671.387 672.79 673.8 673.815 669.834 658.242 638.801 620.41 667.433 860.455 832.414 844.738 858.668 870.24 875.925 877.478 877.228 876.252 874.04 870.167 866.322 883.536 951.399 1024.75 1017.29 701.418 670.776 638.765 625.38 623.735 626.387 628.945 630.047 629.799 628.299 626.421 626.54 635.421 659.675 696.457 694.463 527.467 547.669 524.471 506.563 496.845 494.228 494.722 496.102 496.538 496.362 494.931 492.357 490.587 493.238 507.614 529.219 425.903 448.165 453.491 452.84 449.689 446.662 445.484 445.595 446.092 446.336 446.231 443.902 437.774 428.603 422.824 433.87 410.231 407.032 417.165 426.552 431.659 433.211 432.98 432.617 432.511 432.794 434.445 436.5 437.29 433.365 423.024 409.329 473.268 449.745 439.929 440.4 444.03 446.756 447.858 448.099 447.486 446.742 447.256 450.635 459.944 473.412 486.745 466.759 601.939 582.507 547.566 530.53 526.346 528.214 530.49 531.683 531.705 530.437 528.396 527.359 532.1 549.049 581.791 599.543 820.006 814.079 754.999 710.778 698.442 700.725 704.656 706.596 707.277 706.925 705.443 701.651 697.181 694.127 695.184 744.703 970.431 982.47 949.921 941.164 944.249 947.73 949.756 950.498 950.296 949.963 947.77 942.614 942.377 985.053 1080.39 1069.87 911.912 902.8 838.832 797.694 788.762 791.431 795.113 796.692 797.058 796.771 794.711 792.275 793.912 802.089 799.536 811.387 777.727 804.623 782.125 750.499 731.868 727.31 728.428 730.606 731.947 733.297 732.785 729.284 717.698 695.481 671.521 712.37 690.531 702.974 725.669 732.362 726.57 720.548 718.129 718.166 719.382 721.115 723.063 721.218 708.151 678.343 643.608 668.691 665.122 640.683 674.267 701.279 712.717 713.625 711.128 709.983 709.504 709.838 712.986 718.883 720.95 707.51 677.668 673.758 692.208 637.994 658.579 680.852 693.912 698.534 698.92 697.983 696.833 695.015 694.903 701.155 719.459 743.068 751.269 730.411 767.413 710.851 708.239 712.486 718.325 722.947 724.901 724.894 724.572 722.662 719.046 717.767 730.954 776.109 831.586 834.932 912.05 885.059 840.662 819.9 819.94 824.009 826.979 827.548 827.779 827.077 824.802 821.017 822.171 846.088 892.005 909.188 
SCALARS volume float 1
LOOKUP_TABLE default
0.319029 0.313472 0.314777 0.316012 0.316129 0.315943 0.315826 0.315776 0.315768 0.315818 0.315927 0.316112 0.316002 0.314885 0.313523 0.318119 0.30835 0.311564 0.311369 0.311638 0.311579 0.311357 0.311235 0.311244 0.311295 0.311339 0.311426 0.311215 0.310383 0.309194 0.310656 0.314356 0.305087 0.309057 0.309571 0.309098 0.308522 0.308284 0.308264 0.308301 0.308369 0.30837 0.308252 0.307826 0.307262 0.307459 0.309234 0.310022 0.304148 0.307581 0.307749 0.306964 0.306484 0.306441 0.306545 0.306632 0.3066 0.306553 0.306366 0.306156 0.306328 0.307372 0.308543 0.306649 0.30565 0.307539 0.306834 0.306238 0.306301 0.306537 0.306675 0.306712 0.30667 0.306569 0.306483 0.306649 0.307395 0.308515 0.30864 0.304802 0.309347 0.30913 0.307794 0.307973 0.308527 0.308832 0.308897 0.30884 0.308783 0.308727 0.308776 0.309127 0.309833 0.310391 0.309735 0.30506 0.314602 0.311935 0.310722 0.311995 0.312657 0.312737 0.312644 0.312574 0.312522 0.312514 0.312658 0.312923 0.313124 0.312836 0.312036 0.30796 0.320239 0.314601 0.316084 0.31738 0.317482 0.317286 0.31716 0.317129 0.317119 0.317158 0.317268 0.317472 0.317439 0.316379 0.314521 0.317246 0.314429 0.310447 0.308832 0.310084 0.310912 0.311113 0.311043 0.310942 0.310892 0.310891 0.311008 0.31126 0.311434 0.311246 0.31113 0.307285 0.309231 0.308087 0.308264 0.308687 0.309033 0.309149 0.309117 0.309058 0.309062 0.309087 0.309161 0.309021 0.308659 0.308188 0.307766 0.308848 0.306295 0.30606 0.306183 0.306522 0.306584 0.306527 0.30645 0.306405 0.306412 0.306388 0.306302 0.30612 0.305909 0.305833 0.305603 0.307684 0.305302 0.304663 0.304753 0.304723 0.304602 0.304482 0.304428 0.304419 0.304408 0.30437 0.304323 0.304342 0.304437 0.304586 0.304745 0.30628 0.305919 0.304618 0.304604 0.304459 0.304346 0.304327 0.304354 0.30438 0.3044 0.304384 0.304466 0.304595 0.304748 0.304825 0.304909 0.305505 0.307777 0.306228 0.306334 0.306297 0.306409 0.306534 0.306613 0.306574 0.306592 0.30663 0.306718 0.306775 0.306715 0.306369 0.30611 0.306136 0.309864 0.309411 0.309332 0.309626 0.309913 0.310018 0.309967 0.309918 0.309948 0.309984 0.310035 0.309912 0.309577 0.309045 0.308407 0.308807 0.310482 0.312816 0.312618 0.313038 0.313124 0.312986 0.31288 0.312848 0.312884 0.312964 0.313018 0.312885 0.312178 0.311027 0.312033 0.313969 0.309704 0.308663 0.306713 0.306556 0.307154 0.307591 0.307695 0.307661 0.307589 0.307513 0.30753 0.307835 0.308536 0.30913 0.308579 0.304151 0.307759 0.305536 0.30564 0.305646 0.305811 0.306001 0.306078 0.306065 0.306061 0.306078 0.306196 0.306244 0.30621 0.305812 0.305611 0.305988 0.305036 0.304227 0.304257 0.30443 0.304565 0.30463 0.304637 0.304635 0.304614 0.304627 0.304611 0.304517 0.304364 0.304126 0.304061 0.304938 0.303868 0.303203 0.303221 0.303261 0.303305 0.303315 0.303303 0.30328 0.303255 0.303259 0.303245 0.303209 0.303124 0.303021 0.30317 0.304038 0.303925 0.303296 0.3032 0.303165 0.303154 0.303135 0.303113 0.303135 0.30313 0.303147 0.303159 0.303124 0.303063 0.303023 0.30316 0.303868 0.305136 0.304731 0.304663 0.304666 0.304654 0.304667 0.304676 0.304669 0.304668 0.304684 0.304658 0.304575 0.304439 0.304264 0.304212 0.304899 0.306832 0.307268 0.307166 0.307314 0.307314 0.30729 0.307226 0.307201 0.307214 0.307202 0.307129 0.306935 0.306739 0.306619 0.306264 0.307511 0.307118 0.310439 0.310862 0.310658 0.310312 0.310126 0.310071 0.310105 0.310149 0.310157 0.310077 0.309757 0.309258 0.309309 0.310537 0.310178 0.306204 0.30782 0.306546 0.305498 0.305402 0.305641 0.305823 0.305883 0.305863 0.305763 0.30563 0.305678 0.306284 0.307259 0.307269 0.303651 0.306203 0.304425 0.30421 0.304029 0.303901 0.303882 0.303917 0.303937 0.303941 0.303929 0.303993 0.304129 0.304283 0.304328 0.304332 0.305211 0.304032 0.303145 0.30298 0.303055 0.30314 0.303146 0.30316 0.303152 0.303155 0.303157 0.303163 0.303145 0.303087 0.303036 0.303064 0.303838 0.30297 0.302339 0.302253 0.302354 0.302414 0.302438 0.30245 0.302427 0.302425 0.30243 0.302408 0.302364 0.302306 0.302204 0.302313 0.302961 0.3029 0.302381 0.302273 0.30228 0.302284 0.302269 0.302263 0.302265 0.30226 0.302249 0.302257 0.302215 0.302176 0.302131 0.302299 0.302902 0.303901 0.303506 0.303439 0.303366 0.303341 0.303301 0.303296 0.303281 0.303279 0.303268 0.303252 0.30323 0.3032 0.303201 0.30336 0.304002 0.305593 0.305664 0.305691 0.305621 0.305528 0.305449 0.305403 0.305411 0.305401 0.305361 0.305294 0.305293 0.305372 0.305515 0.305561 0.306251 0.305727 0.308914 0.309245 0.308797 0.308477 0.308375 0.308406 0.308459 0.308471 0.308417 0.30829 0.308107 0.308165 0.308922 0.309732 0.307398 0.304412 0.307971 0.307841 0.306723 0.306024 0.305897 0.306005 0.306105 0.306146 0.306081 0.305894 0.305627 0.305562 0.306353 0.307355 0.305678 0.30542 0.30452 0.304444 0.3044 0.304262 0.304134 0.304044 0.304046 0.304032 0.303984 0.303929 0.303966 0.30407 0.30426 0.304392 0.306058 0.303861 0.303069 0.302954 0.303022 0.303123 0.303153 0.30313 0.303114 0.303098 0.303069 0.303074 0.303094 0.303077 0.303057 0.303211 0.303981 0.302946 0.302328 0.302163 0.302252 0.302318 0.302358 0.302356 0.302349 0.302326 0.30234 0.302328 0.302314 0.302305 0.302247 0.302374 0.302923 0.30288 0.302367 0.302188 0.302188 0.302194 0.302191 0.302176 0.302173 0.302163 0.302158 0.302168 0.302163 0.302184 0.302165 0.302367 0.302876 0.303862 0.303351 0.303225 0.303192 0.303186 0.303174 0.303175 0.303173 0.303185 0.303182 0.303211 0.303221 0.303277 0.303363 0.303546 0.303959 0.305842 0.305266 0.305328 0.305289 0.305249 0.305266 0.305286 0.305313 0.305307 0.305299 0.305328 0.305467 0.305638 0.305826 0.305953 0.305818 0.306436 0.308686 0.308496 0.308184 0.308175 0.308258 0.308339 0.308356 0.308353 0.308282 0.308199 0.308283 0.308836 0.309723 0.309853 0.30618 0.304763 0.3092 0.309909 0.309334 0.30862 0.308278 0.30825 0.308303 0.308375 0.308406 0.308322 0.307947 0.307299 0.307203 0.308836 0.309731 0.306048 0.305735 0.306048 0.306447 0.306533 0.306477 0.306384 0.306337 0.306347 0.306346 0.306245 0.306086 0.305964 0.306006 0.305916 0.307926 0.304876 0.304104 0.304177 0.304374 0.304557 0.304642 0.304666 0.304647 0.304654 0.304631 0.304626 0.304597 0.304553 0.304508 0.304545 0.305132 0.304046 0.303376 0.303199 0.303241 0.303297 0.303341 0.303349 0.303339 0.303332 0.30334 0.303344 0.303357 0.303368 0.303384 0.303393 0.303872 0.303978 0.303528 0.303359 0.303293 0.303281 0.30328 0.303275 0.303243 0.303231 0.303215 0.303214 0.303225 0.303227 0.303239 0.303336 0.303907 0.304972 0.3046 0.304572 0.304597 0.304658 0.304685 0.304706 0.3047 0.304689 0.304684 0.304687 0.304665 0.304622 0.304639 0.304694 0.305099 0.30731 0.306388 0.306719 0.306824 0.307002 0.307134 0.307179 0.307173 0.307172 0.307181 0.307243 0.307331 0.307346 0.307284 0.307352 0.306785 0.309077 0.309928 0.309364 0.309523 0.309854 0.310056 0.310117 0.310094 0.310056 0.310011 0.310038 0.310285 0.310816 0.31134 0.311054 0.306939 0.307525 0.311642 0.312377 0.312583 0.312337 0.312062 0.311937 0.311946 0.311998 0.31205 0.312172 0.31204 0.311261 0.309933 0.31136 0.315013 0.308591 0.308019 0.308657 0.30915 0.309468 0.309586 0.309544 0.309508 0.309489 0.309537 0.309564 0.309451 0.309164 0.308838 0.308869 0.309695 0.307466 0.306042 0.306323 0.306391 0.306581 0.306748 0.306839 0.306843 0.306829 0.306847 0.306895 0.306962 0.306944 0.306754 0.306747 0.306533 0.306372 0.305499 0.305351 0.305201 0.305097 0.305093 0.305139 0.30516 0.305163 0.305156 0.305186 0.305266 0.305362 0.305373 0.30526 0.305366 0.305949 0.305901 0.305779 0.30565 0.305479 0.305354 0.305306 0.305288 0.30529 0.305266 0.305231 0.305193 0.305224 0.305202 0.305059 0.305874 0.306718 0.307201 0.307275 0.307451 0.307473 0.307414 0.307344 0.307318 0.307304 0.30732 0.307271 0.307135 0.30695 0.30682 0.306458 0.307645 0.309264 0.309217 0.309687 0.310129 0.310404 0.310476 0.310428 0.310385 0.310382 0.31042 0.310468 0.310412 0.310144 0.309741 0.309438 0.309691 0.313215 0.312309 0.311876 0.312849 0.313357 0.313442 0.313379 0.313314 0.313278 0.313289 0.313413 0.31361 0.3137 0.313403 0.313159 0.310041 0.316877 0.314294 0.315753 0.316714 0.316757 0.316586 0.316474 0.316435 0.316435 0.316475 0.316599 0.316797 0.316678 0.315386 0.313973 0.320061 0.313683 0.311464 0.31012 0.311111 0.311834 0.312037 0.311981 0.311909 0.311866 0.31188 0.311974 0.31213 0.312134 0.311772 0.312097 0.309234 0.310123 0.310197 0.308672 0.308366 0.308821 0.309177 0.309291 0.309282 0.309246 0.309198 0.309208 0.309411 0.309819 0.310175 0.309718 0.305798 0.307617 0.309713 0.308733 0.307753 0.307576 0.30773 0.307885 0.30794 0.30794 0.307874 0.307829 0.307872 0.308203 0.308674 0.308333 0.304687 0.306534 0.30999 0.309901 0.30893 0.308287 0.308143 0.308213 0.308277 0.308309 0.308288 0.308185 0.308045 0.307949 0.308172 0.308366 0.306009 0.30712 0.311175 0.311692 0.311264 0.310696 0.310405 0.310352 0.310387 0.310429 0.310453 0.310419 0.310197 0.309757 0.309437 0.309948 0.309454 0.309865 0.313204 0.313945 0.314281 0.314164 0.313924 0.313802 0.313787 0.313826 0.313881 0.313956 0.313906 0.313386 0.312263 0.312629 0.314231 0.31759 0.315367 0.317264 0.318167 0.318176 0.317985 0.31788 0.317854 0.317848 0.317876 0.317991 0.318172 0.318181 0.317216 0.315275 0.318925 
SCALARS volume_diff float 1
LOOKUP_TABLE default
0.317076 0.311519 0.312824 0.314059 0.314176 0.31399 0.313873 0.313823 0.313814 0.313865 0.313974 0.314159 0.314049 0.312932 0.31157 0.316166 0.306397 0.309611 0.309416 0.309685 0.309626 0.309404 0.309281 0.309291 0.309342 0.309386 0.309472 0.309262 0.30843 0.307241 0.308703 0.312403 0.303134 0.307103 0.307617 0.307145 0.306569 0.306331 0.306311 0.306348 0.306416 0.306417 0.306299 0.305873 0.305309 0.305506 0.307281 0.308069 0.302195 0.305628 0.305796 0.305011 0.304531 0.304487 0.304592 0.304679 0.304646 0.3046 0.304413 0.304203 0.304375 0.305419 0.30659 0.304696 0.303697 0.305586 0.304881 0.304284 0.304347 0.304584 0.304722 0.304759 0.304717 0.304616 0.304529 0.304696 0.305442 0.306562 0.306687 0.302849 0.307394 0.307177 0.305841 0.30602 0.306574 0.306879 0.306944 0.306887 0.30683 0.306773 0.306823 0.307174 0.30788 0.308438 0.307782 0.303107 0.312649 0.309982 0.308769 0.310042 0.310703 0.310784 0.310691 0.310621 0.310569 0.310561 0.310705 0.31097 0.311171 0.310883 0.310083 0.306007 0.318286 0.312648 0.314131 0.315426 0.315529 0.315333 0.315207 0.315176 0.315166 0.315205 0.315315 0.315519 0.315486 0.314426 0.312568 0.315293 0.312476 0.308494 0.306879 0.308131 0.308959 0.30916 0.30909 0.308989 0.308939 0.308938 0.309055 0.309307 0.309481 0.309293 0.309177 0.305331 0.307278 0.306133 0.306311 0.306734 0.30708 0.307196 0.307164 0.307105 0.307109 0.307134 0.307208 0.307068 0.306706 0.306235 0.305813 0.306894 0.304341 0.304107 0.30423 0.304569 0.304631 0.304574 0.304497 0.304452 0.304459 0.304434 0.304349 0.304167 0.303956 0.303879 0.30365 0.305731 0.303349 0.30271 0.302799 0.30277 0.302649 0.302529 0.302475 0.302466 0.302455 0.302417 0.30237 0.302389 0.302484 0.302633 0.302792 0.304327 0.303965 0.302665 0.30265 0.302506 0.302393 0.302374 0.302401 0.302426 0.302447 0.302431 0.302513 0.302642 0.302795 0.302872 0.302956 0.303551 0.305824 0.304275 0.304381 0.304344 0.304456 0.304581 0.30466 0.304621 0.304639 0.304677 0.304765 0.304822 0.304761 0.304416 0.304157 0.304182 0.30791 0.307458 0.307379 0.307673 0.30796 0.308065 0.308013 0.307965 0.307995 0.308031 0.308082 0.307959 0.307623 0.307092 0.306454 0.306854 0.308528 0.310863 0.310665 0.311085 0.311171 0.311033 0.310926 0.310895 0.310931 0.311011 0.311065 0.310932 0.310224 0.309074 0.310079 0.312016 0.30775 0.306709 0.30476 0.304602 0.305201 0.305638 0.305742 0.305708 0.305636 0.30556 0.305577 0.305882 0.306582 0.307177 0.306626 0.302197 0.305806 0.303583 0.303687 0.303693 0.303858 0.304048 0.304125 0.304112 0.304108 0.304125 0.304243 0.304291 0.304257 0.303859 0.303658 0.304035 0.303083 0.302274 0.302304 0.302477 0.302612 0.302677 0.302684 0.302682 0.302661 0.302674 0.302658 0.302564 0.302411 0.302173 0.302107 0.302985 0.301915 0.30125 0.301268 0.301308 0.301352 0.301362 0.30135 0.301327 0.301301 0.301306 0.301292 0.301256 0.30117 0.301068 0.301217 0.302085 0.301972 0.301343 0.301247 0.301212 0.3012 0.301182 0.30116 0.301181 0.301176 0.301194 0.301206 0.301171 0.30111 0.30107 0.301207 0.301915 0.303183 0.302778 0.30271 0.302712 0.302701 0.302713 0.302723 0.302715 0.302715 0.30273 0.302705 0.302622 0.302486 0.302311 0.302259 0.302945 0.304878 0.305314 0.305213 0.305361 0.305361 0.305337 0.305273 0.305247 0.305261 0.305248 0.305175 0.304982 0.304786 0.304666 0.304311 0.305558 0.305165 0.308486 0.308909 0.308705 0.308359 0.308173 0.308118 0.308152 0.308196 0.308204 0.308124 0.307804 0.307304 0.307355 0.308583 0.308224 0.30425 0.305866 0.304593 0.303545 0.303449 0.303688 0.30387 0.30393 0.30391 0.30381 0.303676 0.303725 0.304331 0.305305 0.305316 0.301698 0.304249 0.302472 0.302257 0.302076 0.301948 0.301929 0.301964 0.301984 0.301988 0.301976 0.30204 0.302176 0.302329 0.302375 0.302379 0.303258 0.302079 0.301192 0.301027 0.301102 0.301187 0.301193 0.301207 0.301199 0.301202 0.301204 0.30121 0.301192 0.301134 0.301083 0.301111 0.301885 0.301017 0.300386 0.3003 0.300401 0.300461 0.300485 0.300497 0.300474 0.300472 0.300477 0.300455 0.300411 0.300353 0.300251 0.30036 0.301008 0.300947 0.300428 0.30032 0.300327 0.300331 0.300315 0.30031 0.300312 0.300307 0.300296 0.300304 0.300262 0.300223 0.300178 0.300345 0.300949 0.301948 0.301553 0.301486 0.301412 0.301387 0.301348 0.301343 0.301328 0.301325 0.301314 0.301299 0.301277 0.301247 0.301247 0.301407 0.302049 0.30364 0.303711 0.303738 0.303668 0.303575 0.303496 0.30345 0.303458 0.303448 0.303408 0.303341 0.30334 0.303418 0.303562 0.303608 0.304298 0.303774 0.306961 0.307292 0.306844 0.306524 0.306422 0.306453 0.306506 0.306518 0.306464 0.306337 0.306154 0.306212 0.306969 0.307779 0.305445 0.302459 0.306018 0.305888 0.30477 0.304071 0.303944 0.304051 0.304152 0.304193 0.304127 0.303941 0.303674 0.303609 0.3044 0.305402 0.303725 0.303467 0.302567 0.302491 0.302447 0.302309 0.302181 0.302091 0.302093 0.302079 0.302031 0.301976 0.302013 0.302117 0.302307 0.302439 0.304105 0.301908 0.301116 0.301 0.301069 0.30117 0.3012 0.301176 0.301161 0.301145 0.301116 0.301121 0.301141 0.301124 0.301104 0.301258 0.302028 0.300993 0.300375 0.30021 0.300299 0.300365 0.300405 0.300403 0.300396 0.300372 0.300386 0.300375 0.300361 0.300352 0.300294 0.300421 0.30097 0.300927 0.300413 0.300235 0.300235 0.300241 0.300238 0.300223 0.30022 0.30021 0.300205 0.300215 0.30021 0.300231 0.300212 0.300414 0.300923 0.301909 0.301398 0.301272 0.301239 0.301233 0.301221 0.301222 0.30122 0.301232 0.301229 0.301258 0.301268 0.301324 0.30141 0.301593 0.302006 0.303889 0.303313 0.303375 0.303336 0.303296 0.303313 0.303333 0.30336 0.303353 0.303346 0.303375 0.303514 0.303685 0.303873 0.304 0.303865 0.304483 0.306733 0.306542 0.306231 0.306222 0.306305 0.306385 0.306403 0.3064 0.306328 0.306245 0.306329 0.306883 0.30777 0.3079 0.304227 0.30281 0.307246 0.307956 0.307381 0.306667 0.306325 0.306297 0.30635 0.306421 0.306453 0.306369 0.305994 0.305346 0.30525 0.306883 0.307778 0.304095 0.303782 0.304095 0.304493 0.30458 0.304524 0.304431 0.304384 0.304394 0.304393 0.304292 0.304133 0.30401 0.304052 0.303963 0.305973 0.302923 0.302151 0.302223 0.302421 0.302603 0.302689 0.302713 0.302694 0.302701 0.302678 0.302673 0.302644 0.3026 0.302555 0.302592 0.303179 0.302092 0.301423 0.301246 0.301288 0.301344 0.301388 0.301396 0.301386 0.301379 0.301387 0.301391 0.301404 0.301415 0.301431 0.30144 0.301918 0.302025 0.301575 0.301406 0.30134 0.301328 0.301327 0.301322 0.30129 0.301277 0.301262 0.301261 0.301272 0.301274 0.301285 0.301383 0.301954 0.303018 0.302646 0.302618 0.302644 0.302705 0.302732 0.302753 0.302746 0.302736 0.302731 0.302734 0.302712 0.302669 0.302685 0.30274 0.303145 0.305357 0.304434 0.304766 0.30487 0.305049 0.305181 0.305226 0.30522 0.305218 0.305228 0.30529 0.305378 0.305392 0.305331 0.305399 0.304832 0.307124 0.307974 0.30741 0.30757 0.307901 0.308103 0.308164 0.308141 0.308103 0.308057 0.308085 0.308332 0.308863 0.309387 0.309101 0.304986 0.305572 0.309689 0.310424 0.31063 0.310384 0.310109 0.309984 0.309993 0.310045 0.310097 0.310219 0.310087 0.309308 0.30798 0.309407 0.31306 0.306638 0.306066 0.306704 0.307197 0.307515 0.307633 0.30759 0.307555 0.307536 0.307584 0.307611 0.307498 0.307211 0.306885 0.306915 0.307742 0.305513 0.304089 0.30437 0.304437 0.304628 0.304795 0.304886 0.30489 0.304876 0.304894 0.304942 0.305009 0.304991 0.304801 0.304794 0.30458 0.304419 0.303546 0.303398 0.303248 0.303144 0.30314 0.303185 0.303207 0.30321 0.303203 0.303233 0.303313 0.303409 0.303419 0.303307 0.303412 0.303996 0.303948 0.303826 0.303697 0.303526 0.303401 0.303353 0.303335 0.303337 0.303313 0.303278 0.30324 0.303271 0.303249 0.303106 0.303921 0.304765 0.305248 0.305322 0.305498 0.30552 0.305461 0.30539 0.305365 0.305351 0.305367 0.305318 0.305182 0.304997 0.304867 0.304505 0.305692 0.307311 0.307264 0.307734 0.308176 0.308451 0.308523 0.308475 0.308432 0.308428 0.308467 0.308515 0.308459 0.308191 0.307788 0.307484 0.307738 0.311262 0.310356 0.309923 0.310896 0.311404 0.311489 0.311426 0.311361 0.311325 0.311336 0.31146 0.311656 0.311747 0.31145 0.311206 0.308088 0.314924 0.31234 0.3138 0.31476 0.314804 0.314633 0.314521 0.314481 0.314482 0.314522 0.314646 0.314844 0.314725 0.313433 0.312019 0.318108 0.31173 0.309511 0.308167 0.309158 0.309881 0.310083 0.310028 0.309956 0.309913 0.309927 0.310021 0.310177 0.310181 0.309819 0.310144 0.307281 0.30817 0.308244 0.306719 0.306413 0.306867 0.307223 0.307338 0.307329 0.307293 0.307245 0.307255 0.307458 0.307865 0.308222 0.307765 0.303844 0.305664 0.30776 0.30678 0.3058 0.305623 0.305777 0.305932 0.305987 0.305987 0.305921 0.305876 0.305918 0.30625 0.306721 0.306379 0.302733 0.304581 0.308037 0.307947 0.306976 0.306333 0.30619 0.30626 0.306324 0.306356 0.306335 0.306232 0.306091 0.305996 0.306219 0.306413 0.304056 0.305167 0.309222 0.309739 0.309311 0.308743 0.308452 0.308399 0.308434 0.308476 0.3085 0.308466 0.308244 0.307804 0.307484 0.307995 0.307501 0.307912 0.311251 0.311992 0.312328 0.312211 0.311971 0.311848 0.311834 0.311873 0.311928 0.312003 0.311953 0.311432 0.31031 0.310676 0.312278 0.315636 0.313414 0.315311 0.316214 0.316223 0.316032 0.315927 0.315901 0.315895 0.315923 0.316038 0.316219 0.316228 0.315263 0.313322 0.316971 
