# vtk DataFile Version 5.1
vtk output
ASCII

DATASET UNSTRUCTURED_GRID
POINTS 425 float
0 0 0
0.25 0 0
0.5 0 0
0.75 0 0
1 0 0
1.25 0 0
1.5 0 0
1.75 0 0
2 0 0
2.25 0 0
2.5 0 0
2.75 0 0
3 0 0
3.25 0 0
3.5 0 0
3.75 0 0
4 0 0
0 0.25 0
0.25 0.25 0
0.5 0.25 0
0.75 0.25 0
1 0.25 0
1.25 0.25 0
1.5 0.25 0
1.75 0.25 0
2 0.25 0
2.25 0.25 0
2.5 0.25 0
2.75 0.25 0
3 0.25 0
3.25 0.25 0
3.5 0.25 0
3.75 0.25 0
4 0.25 0
0 0.5 0
0.25 0.5 0
0.5 0.5 0
0.75 0.5 0
1 0.5 0
1.25 0.5 0
1.5 0.5 0
1.75 0.5 0
2 0.5 0
2.25 0.5 0
2.5 0.5 0
2.75 0.5 0
3 0.5 0
3.25 0.5 0
3.5 0.5 0
3.75 0.5 0
4 0.5 0
0 0.75 0
0.25 0.75 0
0.5 0.75 0
0.75 0.75 0
1 0.75 0
1.25 0.75 0
1.5 0.75 0
1.75 0.75 0
2 0.75 0
2.25 0.75 0
2.5 0.75 0
2.75 0.75 0
3 0.75 0
3.25 0.75 0
3.5 0.75 0
3.75 0.75 0
4 0.75 0
0 1 0
0.25 1 0
0.5 1 0
0.75 1 0
1 1 0
1.25 1 0
1.5 1 0
1.75 1 0
2 1 0
2.25 1 0
2.5 1 0
2.75 1 0
3 1 0
3.25 1 0
3.5 1 0
3.75 1 0
4 1 0
0 0 0.25
0.25 0 0.25
0.5 0 0.25
0.75 0 0.25
1 0 0.25
1.25 0 0.25
1.5 0 0.25
1.75 0 0.25
2 0 0.25
2.25 0 0.25
2.5 0 0.25
2.75 0 0.25
3 0 0.25
3.25 0 0.25
3.5 0 0.25
3.75 0 0.25
4 0 0.25
0 0.25 0.25
0.25 0.25 0.25
0.5 0.25 0.25
0.75 0.25 0.25
1 0.25 0.25
1.25 0.25 0.25
1.5 0.25 0.25
1.75 0.25 0.25
2 0.25 0.25
2.25 0.25 0.25
2.5 0.25 0.25
2.75 0.25 0.25
3 0.25 0.25
3.25 0.25 0.25
3.5 0.25 0.25
3.75 0.25 0.25
4 0.25 0.25
0 0.5 0.25
0.25 0.5 0.25
0.5 0.5 0.25
0.75 0.5 0.25
1 0.5 0.25
1.25 0.5 0.25
1.5 0.5 0.25
1.75 0.5 0.25
2 0.5 0.25
2.25 0.5 0.25
2.5 0.5 0.25
2.75 0.5 0.25
3 0.5 0.25
3.25 0.5 0.25
3.5 0.5 0.25
3.75 0.5 0.25
4 0.5 0.25
0 0.75 0.25
0.25 0.75 0.25
0.5 0.75 0.25
0.75 0.75 0.25
1 0.75 0.25
1.25 0.75 0.25
1.5 0.75 0.25
1.75 0.75 0.25
2 0.75 0.25
2.25 0.75 0.25
2.5 0.75 0.25
2.75 0.75 0.25
3 0.75 0.25
3.25 0.75 0.25
3.5 0.75 0.25
3.75 0.75 0.25
4 0.75 0.25
0 1 0.25
0.25 1 0.25
0.5 1 0.25
0.75 1 0.25
1 1 0.25
1.25 1 0.25
1.5 1 0.25
1.75 1 0.25
2 1 0.25
2.25 1 0.25
2.5 1 0.25
2.75 1 0.25
3 1 0.25
3.25 1 0.25
3.5 1 0.25
3.75 1 0.25
4 1 0.25
0 0 0.5
0.25 0 0.5
0.5 0 0.5
0.75 0 0.5
1 0 0.5
1.25 0 0.5
1.5 0 0.5
1.75 0 0.5
2 0 0.5
2.25 0 0.5
2.5 0 0.5
2.75 0 0.5
3 0 0.5
3.25 0 0.5
3.5 0 0.5
3.75 0 0.5
4 0 0.5
0 0.25 0.5
0.25 0.25 0.5
0.5 0.25 0.5
0.75 0.25 0.5
1 0.25 0.5
1.25 0.25 0.5
1.5 0.25 0.5
1.75 0.25 0.5
2 0.25 0.5
2.25 0.25 0.5
2.5 0.25 0.5
2.75 0.25 0.5
3 0.25 0.5
3.25 0.25 0.5
3.5 0.25 0.5
3.75 0.25 0.5
4 0.25 0.5
0 0.5 0.5
0.25 0.5 0.5
0.5 0.5 0.5
0.75 0.5 0.5
1 0.5 0.5
1.25 0.5 0.5
1.5 0.5 0.5
1.75 0.5 0.5
2 0.5 0.5
2.25 0.5 0.5
2.5 0.5 0.5
2.75 0.5 0.5
3 0.5 0.5
3.25 0.5 0.5
3.5 0.5 0.5
3.75 0.5 0.5
4 0.5 0.5
0 0.75 0.5
0.25 0.75 0.5
0.5 0.75 0.5
0.75 0.75 0.5
1 0.75 0.5
1.25 0.75 0.5
1.5 0.75 0.5
1.75 0.75 0.5
2 0.75 0.5
2.25 0.75 0.5
2.5 0.75 0.5
2.75 0.75 0.5
3 0.75 0.5
3.25 0.75 0.5
3.5 0.75 0.5
3.75 0.75 0.5
4 0.75 0.5
0 1 0.5
0.25 1 0.5
0.5 1 0.5
0.75 1 0.5
1 1 0.5
1.25 1 0.5
1.5 1 0.5
1.75 1 0.5
2 1 0.5
2.25 1 0.5
2.5 1 0.5
2.75 1 0.5
3 1 0.5
3.25 1 0.5
3.5 1 0.5
3.75 1 0.5
4 1 0.5
0 0 0.75
0.25 0 0.75
0.5 0 0.75
0.75 0 0.75
1 0 0.75
1.25 0 0.75
1.5 0 0.75
1.75 0 0.75
2 0 0.75
2.25 0 0.75
2.5 0 0.75
2.75 0 0.75
3 0 0.75
3.25 0 0.75
3.5 0 0.75
3.75 0 0.75
4 0 0.75
0 0.25 0.75
0.25 0.25 0.75
0.5 0.25 0.75
0.75 0.25 0.75
1 0.25 0.75
1.25 0.25 0.75
1.5 0.25 0.75
1.75 0.25 0.75
2 0.25 0.75
2.25 0.25 0.75
2.5 0.25 0.75
2.75 0.25 0.75
3 0.25 0.75
3.25 0.25 0.75
3.5 0.25 0.75
3.75 0.25 0.75
4 0.25 0.75
0 0.5 0.75
0.25 0.5 0.75
0.5 0.5 0.75
0.75 0.5 0.75
1 0.5 0.75
1.25 0.5 0.75
1.5 0.5 0.75
1.75 0.5 0.75
2 0.5 0.75
2.25 0.5 0.75
2.5 0.5 0.75
2.75 0.5 0.75
3 0.5 0.75
3.25 0.5 0.75
3.5 0.5 0.75
3.75 0.5 0.75
4 0.5 0.75
0 0.75 0.75
0.25 0.75 0.75
0.5 0.75 0.75
0.75 0.75 0.75
1 0.75 0.75
1.25 0.75 0.75
1.5 0.75 0.75
1.75 0.75 0.75
2 0.75 0.75
2.25 0.75 0.75
2.5 0.75 0.75
2.75 0.75 0.75
3 0.75 0.75
3.25 0.75 0.75
3.5 0.75 0.75
3.75 0.75 0.75
4 0.75 0.75
0 1 0.75
0.25 1 0.75
0.5 1 0.75
0.75 1 0.75
1 1 0.75
1.25 1 0.75
1.5 1 0.75
1.75 1 0.75
2 1 0.75
2.25 1 0.75
2.5 1 0.75
2.75 1 0.75
3 1 0.75
3.25 1 0.75
3.5 1 0.75
3.75 1 0.75
4 1 0.75
0 0 1
0.25 0 1
0.5 0 1
0.75 0 1
1 0 1
1.25 0 1
1.5 0 1
1.75 0 1
2 0 1
2.25 0 1
2.5 0 1
2.75 0 1
3 0 1
3.25 0 1
3.5 0 1
3.75 0 1
4 0 1
0 0.25 1
0.25 0.25 1
0.5 0.25 1
0.75 0.25 1
1 0.25 1
1.25 0.25 1
1.5 0.25 1
1.75 0.25 1
2 0.25 1
2.25 0.25 1
2.5 0.25 1
2.75 0.25 1
3 0.25 1
3.25 0.25 1
3.5 0.25 1
3.75 0.25 1
4 0.25 1
0 0.5 1
0.25 0.5 1
0.5 0.5 1
0.75 0.5 1
1 0.5 1
1.25 0.5 1
1.5 0.5 1
1.75 0.5 1
2 0.5 1
2.25 0.5 1
2.5 0.5 1
2.75 0.5 1
3 0.5 1
3.25 0.5 1
3.5 0.5 1
3.75 0.5 1
4 0.5 1
0 0.75 1
0.25 0.75 1
0.5 0.75 1
0.75 0.75 1
1 0.75 1
1.25 0.75 1
1.5 0.75 1
1.75 0.75 1
2 0.75 1
2.25 0.75 1
2.5 0.75 1
2.75 0.75 1
3 0.75 1
3.25 0.75 1
3.5 0.75 1
3.75 0.75 1
4 0.75 1
0 1 1
0.25 1 1
0.5 1 1
0.75 1 1
1 1 1
1.25 1 1
1.5 1 1
1.75 1 1
2 1 1
2.25 1 1
2.5 1 1
2.75 1 1
3 1 1
3.25 1 1
3.5 1 1
3.75 1 1
4 1 1

CELLS 257 2048
OFFSETS vtktypeint64
0 8 16 24 32 40 48 56 64 72 80 88 96 104 112 120 128 136 144 152 160 168 176 184 192 200 208 216 224 232 240 248 256 264 272 280 288 296 304 312 320 328 336 344 352 360 368 376 384 392 400 408 416 424 432 440 448 456 464 472 480 488 496 504 512 520 528 536 544 552 560 568 576 584 592 600 608 616 624 632 640 648 656 664 672 680 688 696 704 712 720 728 736 744 752 760 768 776 784 792 800 808 816 824 832 840 848 856 864 872 880 888 896 904 912 920 928 936 944 952 960 968 976 984 992 1000 1008 1016 1024 1032 1040 1048 1056 1064 1072 1080 1088 1096 1104 1112 1120 1128 1136 1144 1152 1160 1168 1176 1184 1192 1200 1208 1216 1224 1232 1240 1248 1256 1264 1272 1280 1288 1296 1304 1312 1320 1328 1336 1344 1352 1360 1368 1376 1384 1392 1400 1408 1416 1424 1432 1440 1448 1456 1464 1472 1480 1488 1496 1504 1512 1520 1528 1536 1544 1552 1560 1568 1576 1584 1592 1600 1608 1616 1624 1632 1640 1648 1656 1664 1672 1680 1688 1696 1704 1712 1720 1728 1736 1744 1752 1760 1768 1776 1784 1792 1800 1808 1816 1824 1832 1840 1848 1856 1864 1872 1880 1888 1896 1904 1912 1920 1928 1936 1944 1952 1960 1968 1976 1984 1992 2000 2008 2016 2024 2032 2040 2048 
CONNECTIVITY vtktypeint64
0 1 86 85 17 18 103 102 
1 2 87 86 18 19 104 103 
2 3 88 87 19 20 105 104 
3 4 89 88 20 21 106 105 
4 5 90 89 21 22 107 106 
5 6 91 90 22 23 108 107 
6 7 92 91 23 24 109 108 
7 8 93 92 24 25 110 109 
8 9 94 93 25 26 111 110 
9 10 95 94 26 27 112 111 
10 11 96 95 27 28 113 112 
11 12 97 96 28 29 114 113 
12 13 98 97 29 30 115 114 
13 14 99 98 30 31 116 115 
14 15 100 99 31 32 117 116 
15 16 101 100 32 33 118 117 
17 18 103 102 34 35 120 119 
18 19 104 103 35 36 121 120 
19 20 105 104 36 37 122 121 
20 21 106 105 37 38 123 122 
21 22 107 106 38 39 124 123 
22 23 108 107 39 40 125 124 
23 24 109 108 40 41 126 125 
24 25 110 109 41 42 127 126 
25 26 111 110 42 43 128 127 
26 27 112 111 43 44 129 128 
27 28 113 112 44 45 130 129 
28 29 114 113 45 46 131 130 
29 30 115 114 46 47 132 131 
30 31 116 115 47 48 133 132 
31 32 117 116 48 49 134 133 
32 33 118 117 49 50 135 134 
34 35 120 119 51 52 137 136 
35 36 121 120 52 53 138 137 
36 37 122 121 53 54 139 138 
37 38 123 122 54 55 140 139 
38 39 124 123 55 56 141 140 
39 40 125 124 56 57 142 141 
40 41 126 125 57 58 143 142 
41 42 127 126 58 59 144 143 
42 43 128 127 59 60 145 144 
43 44 129 128 60 61 146 145 
44 45 130 129 61 62 147 146 
45 46 131 130 62 63 148 147 
46 47 132 131 63 64 149 148 
47 48 133 132 64 65 150 149 
48 49 134 133 65 66 151 150 
49 50 135 134 66 67 152 151 
51 52 137 136 68 69 154 153 
52 53 138 137 69 70 155 154 
53 54 139 138 70 71 156 155 
54 55 140 139 71 72 157 156 
55 56 141 140 72 73 158 157 
56 57 142 141 73 74 159 158 
57 58 143 142 74 75 160 159 
58 59 144 143 75 76 161 160 
59 60 145 144 76 77 162 161 
60 61 146 145 77 78 163 162 
61 62 147 146 78 79 164 163 
62 63 148 147 79 80 165 164 
63 64 149 148 80 81 166 165 
64 65 150 149 81 82 167 166 
65 66 151 150 82 83 168 167 
66 67 152 151 83 84 169 168 
85 86 171 170 102 103 188 187 
86 87 172 171 103 104 189 188 
87 88 173 172 104 105 190 189 
88 89 174 173 105 106 191 190 
89 90 175 174 106 107 192 191 
90 91 176 175 107 108 193 192 
91 92 177 176 108 109 194 193 
92 93 178 177 109 110 195 194 
93 94 179 178 110 111 196 195 
94 95 180 179 111 112 197 196 
95 96 181 180 112 113 198 197 
96 97 182 181 113 114 199 198 
97 98 183 182 114 115 200 199 
98 99 184 183 115 116 201 200 
99 100 185 184 116 117 202 201 
100 101 186 185 117 118 203 202 
102 103 188 187 119 120 205 204 
103 104 189 188 120 121 206 205 
104 105 190 189 121 122 207 206 
105 106 191 190 122 123 208 207 
106 107 192 191 123 124 209 208 
107 108 193 192 124 125 210 209 
108 109 194 193 125 126 211 210 
109 110 195 194 126 127 212 211 
110 111 196 195 127 128 213 212 
111 112 197 196 128 129 214 213 
112 113 198 197 129 130 215 214 
113 114 199 198 130 131 216 215 
114 115 200 199 131 132 217 216 
115 116 201 200 132 133 218 217 
116 117 202 201 133 134 219 218 
117 118 203 202 134 135 220 219 
119 120 205 204 136 137 222 221 
120 121 206 205 137 138 223 222 
121 122 207 206 138 139 224 223 
122 123 208 207 139 140 225 224 
123 124 209 208 140 141 226 225 
124 125 210 209 141 142 227 226 
125 126 211 210 142 143 228 227 
126 127 212 211 143 144 229 228 
127 128 213 212 144 145 230 229 
128 129 214 213 145 146 231 230 
129 130 215 214 146 147 232 231 
130 131 216 215 147 148 233 232 
131 132 217 216 148 149 234 233 
132 133 218 217 149 150 235 234 
133 134 219 218 150 151 236 235 
134 135 220 219 151 152 237 236 
136 137 222 221 153 154 239 238 
137 138 223 222 154 155 240 239 
138 139 224 223 155 156 241 240 
139 140 225 224 156 157 242 241 
140 141 226 225 157 158 243 242 
141 142 227 226 158 159 244 243 
142 143 228 227 159 160 245 244 
143 144 229 228 160 161 246 245 
144 145 230 229 161 162 247 246 
145 146 231 230 162 163 248 247 
146 147 232 231 163 164 249 248 
147 148 233 232 164 165 250 249 
148 149 234 233 165 166 251 250 
149 150 235 234 166 167 252 251 
150 151 236 235 167 168 253 252 
151 152 237 236 168 169 254 253 
170 171 256 255 187 188 273 272 
171 172 257 256 188 189 274 273 
172 173 258 257 189 190 275 274 
173 174 259 258 190 191 276 275 
174 175 260 259 191 192 277 276 
175 176 261 260 192 193 278 277 
176 177 262 261 193 194 279 278 
177 178 263 262 194 195 280 279 
178 179 264 263 195 196 281 280 
179 180 265 264 196 197 282 281 
180 181 266 265 197 198 283 282 
181 182 267 266 198 199 284 283 
182 183 268 267 199 200 285 284 
183 184 269 268 200 201 286 285 
184 185 270 269 201 202 287 286 
185 186 271 270 202 203 288 287 
187 188 273 272 204 205 290 289 
188 189 274 273 205 206 291 290 
189 190 275 274 206 207 292 291 
190 191 276 275 207 208 293 292 
191 192 277 276 208 209 294 293 
192 193 278 277 209 210 295 294 
193 194 279 278 210 211 296 295 
194 195 280 279 211 212 297 296 
195 196 281 280 212 213 298 297 
196 197 282 281 213 214 299 298 
197 198 283 282 214 215 300 299 
198 199 284 283 215 216 301 300 
199 200 285 284 216 217 302 301 
200 201 286 285 217 218 303 302 
201 202 287 286 218 219 304 303 
202 203 288 287 219 220 305 304 
204 205 290 289 221 222 307 306 
205 206 291 290 222 223 308 307 
206 207 292 291 223 224 309 308 
207 208 293 292 224 225 310 309 
208 209 294 293 225 226 311 310 
209 210 295 294 226 227 312 311 
210 211 296 295 227 228 313 312 
211 212 297 296 228 229 314 313 
212 213 298 297 229 230 315 314 
213 214 299 298 230 231 316 315 
214 215 300 299 231 232 317 316 
215 216 301 300 232 233 318 317 
216 217 302 301 233 234 319 318 
217 218 303 302 234 235 320 319 
218 219 304 303 235 236 321 320 
219 220 305 304 236 237 322 321 
221 222 307 306 238 239 324 323 
222 223 308 307 239 240 325 324 
223 224 309 308 240 241 326 325 
224 225 310 309 241 242 327 326 
225 226 311 310 242 243 328 327 
226 227 312 311 243 244 329 328 
227 228 313 312 244 245 330 329 
228 229 314 313 245 246 331 330 
229 230 315 314 246 247 332 331 
230 231 316 315 247 248 333 332 
231 232 317 316 248 249 334 333 
232 233 318 317 249 250 335 334 
233 234 319 318 250 251 336 335 
234 235 320 319 251 252 337 336 
235 236 321 320 252 253 338 337 
236 237 322 321 253 254 339 338 
255 256 341 340 272 273 358 357 
256 257 342 341 273 274 359 358 
257 258 343 342 274 275 360 359 
258 259 344 343 275 276 361 360 
259 260 345 344 276 277 362 361 
260 261 346 345 277 278 363 362 
261 262 347 346 278 279 364 363 
262 263 348 347 279 280 365 364 
263 264 349 348 280 281 366 365 
264 265 350 349 281 282 367 366 
265 266 351 350 282 283 368 367 
266 267 352 351 283 284 369 368 
267 268 353 352 284 285 370 369 
268 269 354 353 285 286 371 370 
269 270 355 354 286 287 372 371 
270 271 356 355 287 288 373 372 
272 273 358 357 289 290 375 374 
273 274 359 358 290 291 376 375 
274 275 360 359 291 292 377 376 
275 276 361 360 292 293 378 377 
276 277 362 361 293 294 379 378 
277 278 363 362 294 295 380 379 
278 279 364 363 295 296 381 380 
279 280 365 364 296 297 382 381 
280 281 366 365 297 298 383 382 
281 282 367 366 298 299 384 383 
282 283 368 367 299 300 385 384 
283 284 369 368 300 301 386 385 
284 285 370 369 301 302 387 386 
285 286 371 370 302 303 388 387 
286 287 372 371 303 304 389 388 
287 288 373 372 304 305 390 389 
289 290 375 374 306 307 392 391 
290 291 376 375 307 308 393 392 
291 292 377 376 308 309 394 393 
292 293 378 377 309 310 395 394 
293 294 379 378 310 311 396 395 
294 295 380 379 311 312 397 396 
295 296 381 380 312 313 398 397 
296 297 382 381 313 314 399 398 
297 298 383 382 314 315 400 399 
298 299 384 383 315 316 401 400 
299 300 385 384 316 317 402 401 
300 301 386 385 317 318 403 402 
301 302 387 386 318 319 404 403 
302 303 388 387 319 320 405 404 
303 304 389 388 320 321 406 405 
304 305 390 389 321 322 407 406 
306 307 392 391 323 324 409 408 
307 308 393 392 324 325 410 409 
308 309 394 393 325 326 411 410 
309 310 395 394 326 327 412 411 
310 311 396 395 327 328 413 412 
311 312 397 396 328 329 414 413 
312 313 398 397 329 330 415 414 
313 314 399 398 330 331 416 415 
314 315 400 399 331 332 417 416 
315 316 401 400 332 333 418 417 
316 317 402 401 333 334 419 418 
317 318 403 402 334 335 420 419 
318 319 404 403 335 336 421 420 
319 320 405 404 336 337 422 421 
320 321 406 405 337 338 423 422 
321 322 407 406 338 339 424 423 
CELL_TYPES 256
12 12 12 12 12 12 12 12 12 12 12 12 12 12 12 12 12 12 12 12 12 12 12 12 12 12 12 12 12 12 12 12 12 12 12 12 12 12 12 12 12 12 12 12 12 12 12 12 12 12 12 12 12 12 12 12 12 12 12 12 12 12 12 12 12 12 12 12 12 12 12 12 12 12 12 12 12 12 12 12 12 12 12 12 12 12 12 12 12 12 12 12 12 12 12 12 12 12 12 12 12 12 12 12 12 12 12 12 12 12 12 12 12 12 12 12 12 12 12 12 12 12 12 12 12 12 12 12 12 12 12 12 12 12 12 12 12 12 12 12 12 12 12 12 12 12 12 12 12 12 12 12 12 12 12 12 12 12 12 12 12 12 12 12 12 12 12 12 12 12 12 12 12 12 12 12 12 12 12 12 12 12 12 12 12 12 12 12 12 12 12 12 12 12 12 12 12 12 12 12 12 12 12 12 12 12 12 12 12 12 12 12 12 12 12 12 12 12 12 12 12 12 12 12 12 12 12 12 12 12 12 12 12 12 12 12 12 12 12 12 12 12 12 12 12 12 12 12 12 12 12 12 12 12 12 12 

POINT_DATA 425
SCALARS weights float 1
LOOKUP_TABLE default
1.95312 3.90625 3.90625 3.90625 3.90625 3.90625 3.90625 3.90625 3.90625 3.90625 3.90625 3.90625 3.90625 3.90625 3.90625 3.90625 1.95312 3.90625 7.8125 7.8125 7.8125 7.8125 7.8125 7.8125 7.8125 7.8125 7.8125 7.8125 7.8125 7.8125 7.8125 7.8125 7.8125 3.90625 3.90625 7.8125 7.8125 7.8125 7.8125 7.8125 7.8125 7.8125 7.8125 7.8125 7.8125 7.8125 7.8125 7.8125 7.8125 7.8125 3.90625 3.90625 7.8125 7.8125 7.8125 7.8125 7.8125 7.8125 7.8125 7.8125 7.8125 7.8125 7.8125 7.8125 7.8125 7.8125 7.8125 3.90625 1.95312 3.90625 3.90625 3.90625 3.90625 3.90625 3.90625 3.90625 3.90625 3.90625 3.90625 3.90625 3.90625 3.90625 3.90625 3.90625 1.95312 3.90625 7.8125 7.8125 7.8125 7.8125 7.8125 7.8125 7.8125 7.8125 7.8125 7.8125 7.8125 7.8125 7.8125 7.8125 7.8125 3.90625 7.8125 15.625 15.625 15.625 15.625 15.625 15.625 15.625 15.625 15.625 15.625 15.625 15.625 15.625 15.625 15.625 7.8125 7.8125 15.625 15.625 15.625 15.625 15.625 15.625 15.625 15.625 15.625 15.625 15.625 15.625 15.625 15.625 15.625 7.8125 7.8125 15.625 15.625 15.625 15.625 15.625 15.625 15.625 15.625 15.625 15.625 15.625 15.625 15.625 15.625 15.625 7.8125 3.90625 7.8125 7.8125 7.8125 7.8125 7.8125 7.8125 7.8125 7.8125 7.8125 7.8125 7.8125 7.8125 7.8125 7.8125 7.8125 3.90625 3.90625 7.8125 7.8125 7.8125 7.8125 7.8125 7.8125 7.8125 7.8125 7.8125 7.8125 7.8125 7.8125 7.8125 7.8125 7.8125 3.90625 7.8125 15.625 15.625 15.625 15.625 15.625 15.625 15.625 15.625 15.625 15.625 15.625 15.625 15.625 15.625 15.625 7.8125 7.8125 15.625 15.625 15.625 15.625 15.625 15.625 15.625 15.625 15.625 15.625 15.625 15.625 15.625 15.625 15.625 7.8125 7.8125 15.625 15.625 15.625 15.625 15.625 15.625 15.625 15.625 15.625 15.625 15.625 15.625 15.625 15.625 15.625 7.8125 3.90625 7.8125 7.8125 7.8125 7.8125 7.8125 7.8125 7.8125 7.8125 7.8125 7.8125 7.8125 7.8125 7.8125 7.8125 7.8125 3.90625 3.90625 7.8125 7.8125 7.8125 7.8125 7.8125 7.8125 7.8125 7.8125 7.8125 7.8125 7.8125 7.8125 7.8125 7.8125 7.8125 3.90625 7.8125 15.625 15.625 15.625 15.625 15.625 15.625 15.625 15.625 15.625 15.625 15.625 15.625 15.625 15.625 15.625 7.8125 7.8125 15.625 15.625 15.625 15.625 15.625 15.625 15.625 15.625 15.625 15.625 15.625 15.625 15.625 15.625 15.625 7.8125 7.8125 15.625 15.625 15.625 15.625 15.625 15.625 15.625 15.625 15.625 15.625 15.625 15.625 15.625 15.625 15.625 7.8125 3.90625 7.8125 7.8125 7.8125 7.8125 7.8125 7.8125 7.8125 7.8125 7.8125 7.8125 7.8125 7.8125 7.8125 7.8125 7.8125 3.90625 1.95312 3.90625 3.90625 3.90625 3.90625 3.90625 3.90625 3.90625 3.90625 3.90625 3.90625 3.90625 3.90625 3.90625 3.90625 3.90625 1.95312 3.90625 7.8125 7.8125 7.8125 7.8125 7.8125 7.8125 7.8125 7.8125 7.8125 7.8125 7.8125 7.8125 7.8125 7.8125 7.8125 3.90625 3.90625 7.8125 7.8125 7.8125 7.8125 7.8125 7.8125 7.8125 7.8125 7.8125 7.8125 7.8125 7.8125 7.8125 7.8125 7.8125 3.90625 3.90625 7.8125 7.8125 7.8125 7.8125 7.8125 7.8125 7.8125 7.8125 7.8125 7.8125 7.8125 7.8125 7.8125 7.8125 7.8125 3.90625 1.95312 3.90625 3.90625 3.90625 3.90625 3.90625 3.90625 3.90625 3.90625 3.90625 3.90625 3.90625 3.90625 3.90625 3.90625 3.90625 1.95312 
VECTORS u float
0 0 0  -0.0372116 -0.00766082 -0.114805  -0.0999393 -0.0650272 -0.128277  -0.179576 -0.174095 -0.114182  -0.27649 -0.316135 -0.0939235  -0.386465 -0.47819 -0.0728829  -0.506096 -0.655404 -0.0552997  -0.631682 -0.843514 -0.0404504  -0.762469 -1.04178 -0.0293203  -0.89654 -1.24754 -0.0202497  -1.03375 -1.46013 -0.0137128  -1.1724 -1.67716 -0.00836732  -1.31233 -1.89801 -0.00482398  -1.45198 -2.12062 -0.00204859  -1.5914 -2.34464 -0.000794253  -1.72939 -2.56835 -0.000101827  -1.86648 -2.79182 -0.000232933  0 0 0  -0.00749896 -0.017957 -0.0357472  -0.0306705 -0.0925232 -0.0449302  -0.0729957 -0.214721 -0.0399129  -0.137438 -0.370317 -0.0316585  -0.221564 -0.547214 -0.0239107  -0.322064 -0.739123 -0.0175823  -0.434341 -0.940823 -0.0125081  -0.5561 -1.15043 -0.00856445  -0.684202 -1.3654 -0.00550378  -0.817466 -1.58479 -0.00322231  -0.9536 -1.80679 -0.00156684  -1.09194 -2.03076 -0.000484826  -1.23069 -2.25531 0.000133904  -1.36963 -2.48012 0.000340338  -1.50744 -2.70422 0.000294366  -1.64424 -2.92767 0.000403428  0 0 0  0.00895908 -0.0310483 -0.00198772  0.0194445 -0.115859 0.00449429  0.0137561 -0.247448 0.0101951  -0.0170196 -0.415441 0.0125932  -0.0730639 -0.606794 0.0130012  -0.151983 -0.814242 0.0120623  -0.248176 -1.03019 0.0108383  -0.358575 -1.25249 0.00939123  -0.478514 -1.47755 0.00805856  -0.606226 -1.70506 0.00674162  -0.738349 -1.93286 0.00553678  -0.874055 -2.16119 0.00436934  -1.01085 -2.38845 0.00328655  -1.14861 -2.61518 0.00228103  -1.28552 -2.84019 0.0014103  -1.42186 -3.06427 0.000791022  0 0 0  0.0234338 -0.0525385 0.0276062  0.0667966 -0.147533 0.0473552  0.098273 -0.288548 0.05303  0.100929 -0.468478 0.0503305  0.071981 -0.673734 0.0444847  0.0141315 -0.894704 0.0378827  -0.0664002 -1.12342 0.0315057  -0.1651 -1.35643 0.0257112  -0.276671 -1.59055 0.0205951  -0.398178 -1.82491 0.016154  -0.525991 -2.05808 0.0123318  -0.65847 -2.29 0.00909385  -0.793123 -2.51991 0.00638096  -0.929243 -2.74807 0.00420037  -1.0652 -2.9741 0.00257219  -1.20089 -3.19876 0.00156425  0 0 0  0.044073 -0.0837966 0.0724585  0.128795 -0.191841 0.0937125  0.19883 -0.344781 0.0935777  0.232485 -0.538576 0.085377  0.227593 -0.757524 0.0738446  0.187989 -0.991227 0.0625921  0.121231 -1.23085 0.0513931  0.0327256 -1.47302 0.0417596  -0.0712781 -1.71423 0.032731  -0.187294 -1.95402 0.0253109  -0.311114 -2.19086 0.018532  -0.440795 -2.42526 0.0132588  -0.573481 -2.65639 0.00862307  -0.70829 -2.88517 0.00550896  -0.84336 -3.11121 0.00309321  -0.978889 -3.33603 0.0018058  0 0 0  -0.0467532 -0.0541768 -0.0575861  -0.12565 -0.127825 -0.0687509  -0.216171 -0.227508 -0.0618926  -0.31425 -0.352195 -0.0500715  -0.42036 -0.500467 -0.0383307  -0.532769 -0.667267 -0.0284773  -0.652593 -0.850106 -0.0206646  -0.777422 -1.04477 -0.0147703  -0.907877 -1.24922 -0.0101906  -1.04127 -1.46059 -0.00683415  -1.17798 -1.6774 -0.00419548  -1.31547 -1.89771 -0.00239699  -1.45428 -2.12046 -0.00105502  -1.59226 -2.34418 -0.000413895  -1.7304 -2.56814 -8.5026e-05  -1.86717 -2.79135 -0.000120014  0 0 0  -0.0120763 -0.0503697 -0.0190775  -0.0468291 -0.135241 -0.0251225  -0.0987753 -0.252325 -0.0225495  -0.166241 -0.397441 -0.0175727  -0.248849 -0.565792 -0.0129984  -0.344828 -0.750557 -0.00926135  -0.452683 -0.948528 -0.00646122  -0.569813 -1.15511 -0.00431386  -0.694536 -1.36895 -0.00273974  -0.824589 -1.58697 -0.00155997  -0.958621 -1.80874 -0.000740588  -1.09489 -2.03193 -0.000194296  -1.2325 -2.25662 9.94205e-05  -1.37024 -2.48092 0.00019595  -1.50771 -2.70533 0.000163794  -1.64423 -2.92843 0.000192732  0 0 0  0.00399673 -0.0567422 -0.00200254  0.00679284 -0.14775 0.000890911  -0.00489008 -0.277721 0.00378489  -0.0376023 -0.439572 0.00547254  -0.0936629 -0.625954 0.00588846  -0.169591 -0.82767 0.00574252  -0.26343 -1.04039 0.00521469  -0.37009 -1.2594 0.00462702  -0.487855 -1.48289 0.00397801  -0.612558 -1.70858 0.00336701  -0.743283 -1.93564 0.00275916  -0.876827 -2.16285 0.00218806  -1.013 -2.38981 0.00163653  -1.14934 -2.61581 0.0011346  -1.2863 -2.84081 0.000703484  -1.42196 -3.0645 0.000392735  0 0 0  0.0170817 -0.0729948 0.0124358  0.0548398 -0.173232 0.0225807  0.0836708 -0.314261 0.0256183  0.085692 -0.490845 0.0245732  0.0569115 -0.693043 0.0217901  0.000890732 -0.90981 0.0186651  -0.0778816 -1.13594 0.0155516  -0.174015 -1.36595 0.01274  -0.283669 -1.59851 0.0102142  -0.402943 -1.83085 0.0080255  -0.529317 -2.06314 0.00612265  -0.660183 -2.29361 0.00450969  -0.794039 -2.52304 0.00315517  -0.929212 -2.75015 0.00206727  -1.06499 -2.97608 0.00126284  -1.20036 -3.20005 0.000739455  0 0 0  0.0377574 -0.0994201 0.0342483  0.117253 -0.213248 0.0456076  0.185551 -0.367246 0.0459309  0.219499 -0.558026 0.042232  0.214335 -0.774783 0.0365727  0.176596 -1.00484 0.0310985  0.110697 -1.24233 0.0255507  0.0247359 -1.48179 0.0207991  -0.0780404 -1.72148 0.0163206  -0.191692 -1.95938 0.0126291  -0.314544 -2.19519 0.00926641  -0.442375 -2.4282 0.00662473  -0.574644 -2.65867 0.0043309  -0.708259 -2.88651 0.00275677  -0.843536 -3.11241 0.00157207  -0.978312 -3.33675 0.000904679  0 0 0  -0.0516568 -0.0670549 -2.98023e-08  -0.132465 -0.143885 -1.19209e-07  -0.224046 -0.243404 -3.8743e-07  -0.323356 -0.366708 -5.06639e-07  -0.428507 -0.510923 -1.3113e-06  -0.540556 -0.675189 -1.84774e-06  -0.658244 -0.854975 -2.5928e-06  -0.782365 -1.04841 -3.15905e-06  -0.910944 -1.25138 -3.8445e-06  -1.04399 -1.46243 -4.91738e-06  -1.17932 -1.67851 -5.66244e-06  -1.31684 -1.89885 -6.55651e-06  -1.45464 -2.12111 -7.7188e-06  -1.59293 -2.34499 -9.0301e-06  -1.73026 -2.56862 -9.56655e-06  -1.86723 -2.79219 -1.09375e-05  0 0 0  -0.0145873 -0.0580352 0  -0.0523708 -0.147794 -2.38419e-07  -0.106087 -0.264383 -3.8743e-07  -0.174757 -0.407678 -6.85453e-07  -0.257063 -0.57251 -1.2517e-06  -0.35262 -0.755314 -1.63913e-06  -0.458968 -0.950943 -2.11596e-06  -0.575169 -1.15681 -3.03984e-06  -0.698458 -1.36948 -3.42727e-06  -0.827822 -1.58746 -5.03659e-06  -0.960812 -1.80856 -5.72205e-06  -1.09673 -2.03196 -6.22869e-06  -1.23364 -2.25614 -7.62939e-06  -1.37133 -2.48075 -8.58307e-06  -1.50839 -2.70475 -9.44734e-06  -1.64501 -2.92826 -1.0252e-05  0 0 0  0.00273311 -0.06231 -5.96046e-08  0.00288022 -0.158421 -2.38419e-07  -0.0104627 -0.287557 -4.17233e-07  -0.0443953 -0.448541 -7.15256e-07  -0.0997353 -0.632181 -1.16229e-06  -0.175761 -0.833034 -1.60933e-06  -0.267998 -1.0439 -2.26498e-06  -0.374386 -1.2625 -2.83122e-06  -0.490592 -1.48491 -3.93391e-06  -0.615113 -1.71049 -4.73857e-06  -0.744565 -1.93687 -5.75185e-06  -0.878158 -2.16413 -6.52671e-06  -1.01333 -2.39059 -7.27177e-06  -1.14998 -2.61674 -8.16584e-06  -1.28621 -2.84137 -9.14931e-06  -1.42243 -3.06537 -1.03414e-05  0 0 0  0.0164778 -0.0774114 -1.78814e-07  0.0518248 -0.181715 -2.68221e-07  0.0788632 -0.322259 -5.66244e-07  0.0798856 -0.498403 -7.45058e-07  0.0514927 -0.698672 -1.10269e-06  -0.00446367 -0.914822 -1.66893e-06  -0.0822335 -1.13931 -1.96695e-06  -0.177966 -1.3689 -2.89083e-06  -0.286587 -1.60027 -3.54648e-06  -0.405476 -1.83246 -4.88758e-06  -0.531003 -2.06386 -5.57303e-06  -0.661661 -2.29437 -6.4671e-06  -0.794901 -2.52312 -7.36117e-06  -0.930082 -2.75041 -8.34465e-06  -1.06548 -2.97583 -8.82149e-06  -1.20118 -3.20022 -1.01328e-05  0 0 0  0.0385023 -0.104138 -2.08616e-07  0.115461 -0.22008 -1.49012e-07  0.181676 -0.373409 -5.96046e-07  0.214301 -0.56453 -8.64267e-07  0.209996 -0.779646 -1.04308e-06  0.17183 -1.00955 -1.3411e-06  0.107301 -1.24565 -1.81794e-06  0.0212035 -1.4849 -2.77162e-06  -0.0802109 -1.72362 -3.66569e-06  -0.193919 -1.96142 -4.91738e-06  -0.315578 -2.19655 -5.51343e-06  -0.443567 -2.42958 -6.4671e-06  -0.574853 -2.65955 -7.12276e-06  -0.708807 -2.88752 -7.6592e-06  -0.843332 -3.11299 -8.9705e-06  -0.978918 -3.33766 -9.86457e-06  0 0 0  -0.046753 -0.0541767 0.0575861  -0.125649 -0.127826 0.0687504  -0.21617 -0.227508 0.0618919  -0.314249 -0.352195 0.0500701  -0.420359 -0.500468 0.0383281  -0.532768 -0.667268 0.0284736  -0.652593 -0.850108 0.0206597  -0.777421 -1.04477 0.014764  -0.907876 -1.24922 0.0101827  -1.04127 -1.46059 0.00682402  -1.17798 -1.67741 0.00418407  -1.31547 -1.89771 0.00238401  -1.45428 -2.12046 0.00103945  -1.59226 -2.34418 0.000396252  -1.7304 -2.56814 6.57439e-05  -1.86717 -2.79135 9.78112e-05  0 0 0  -0.0120762 -0.0503697 0.0190774  -0.0468289 -0.135241 0.025122  -0.0987749 -0.252325 0.0225487  -0.166241 -0.397441 0.0175712  -0.248848 -0.565793 0.012996  -0.344827 -0.750557 0.00925803  -0.452683 -0.948529 0.00645667  -0.569812 -1.15511 0.00430787  -0.694535 -1.36895 0.00273204  -0.824588 -1.58697 0.00155038  -0.95862 -1.80874 0.000728905  -1.09489 -2.03193 0.000181496  -1.2325 -2.25662 -0.000114441  -1.37024 -2.48093 -0.000213206  -1.50771 -2.70534 -0.000182569  -1.64423 -2.92843 -0.000213504  0 0 0  0.00399682 -0.0567422 0.00200242  0.00679302 -0.147751 -0.000891387  -0.00488985 -0.277721 -0.00378585  -0.037602 -0.439573 -0.00547403  -0.0936623 -0.625955 -0.00589091  -0.169591 -0.827671 -0.00574589  -0.26343 -1.0404 -0.0052191  -0.37009 -1.2594 -0.00463283  -0.487855 -1.48289 -0.00398576  -0.612556 -1.70858 -0.00337702  -0.743282 -1.93564 -0.00277036  -0.876826 -2.16286 -0.00220072  -1.013 -2.38981 -0.00165111  -1.14934 -2.61581 -0.00115114  -1.2863 -2.84081 -0.000721693  -1.42196 -3.0645 -0.000413656  0 0 0  0.0170817 -0.0729949 -0.012436  0.0548398 -0.173232 -0.0225813  0.083671 -0.314261 -0.0256194  0.0856924 -0.490845 -0.0245747  0.0569119 -0.693044 -0.0217924  0.000891209 -0.909811 -0.0186684  -0.0778812 -1.13594 -0.0155556  -0.174015 -1.36595 -0.0127457  -0.283668 -1.59851 -0.0102217  -0.402942 -1.83085 -0.008035  -0.529316 -2.06314 -0.00613397  -0.660182 -2.29362 -0.00452238  -0.794039 -2.52304 -0.00316954  -0.929211 -2.75015 -0.00208396  -1.06499 -2.97608 -0.00128061  -1.20036 -3.20005 -0.000759602  0 0 0  0.0377574 -0.0994202 -0.0342487  0.117253 -0.213249 -0.0456079  0.185551 -0.367246 -0.0459319  0.219499 -0.558026 -0.0422338  0.214336 -0.774784 -0.0365748  0.176596 -1.00484 -0.0311012  0.110698 -1.24233 -0.0255545  0.0247362 -1.48179 -0.0208049  -0.0780401 -1.72148 -0.0163281  -0.191691 -1.95938 -0.0126395  -0.314544 -2.19519 -0.00927782  -0.442375 -2.4282 -0.00663728  -0.574643 -2.65868 -0.00434518  -0.708258 -2.88651 -0.00277185  -0.843536 -3.11241 -0.00158983  -0.978312 -3.33675 -0.000925004  0 0 0  -0.0372113 -0.00766104 0.114805  -0.0999386 -0.0650274 0.128276  -0.179575 -0.174096 0.114181  -0.276489 -0.316136 0.0939215  -0.386463 -0.478191 0.0728803  -0.506095 -0.655406 0.0552957  -0.63168 -0.843516 0.0404457  -0.762468 -1.04178 0.029314  -0.896539 -1.24755 0.0202411  -1.03375 -1.46014 0.0137028  -1.1724 -1.67716 0.00835621  -1.31233 -1.89801 0.00481021  -1.45198 -2.12062 0.00203311  -1.5914 -2.34464 0.000776649  -1.72939 -2.56835 8.16584e-05  -1.86648 -2.79183 0.000209689  0 0 0  -0.0074987 -0.0179573 0.0357469  -0.0306699 -0.0925235 0.0449295  -0.072995 -0.214722 0.0399121  -0.137438 -0.370318 0.0316569  -0.221563 -0.547215 0.0239085  -0.322063 -0.739125 0.0175785  -0.434339 -0.940825 0.0125036  -0.556099 -1.15044 0.00855863  -0.6842 -1.3654 0.00549591  -0.817464 -1.58479 0.00321305  -0.953598 -1.80679 0.00155532  -1.09194 -2.03076 0.000471711  -1.23068 -2.25531 -0.000149012  -1.36963 -2.48012 -0.00035733  -1.50744 -2.70422 -0.000313461  -1.64424 -2.92767 -0.000424743  0 0 0  0.00895923 -0.0310486 0.00198746  0.019445 -0.115859 -0.00449485  0.013757 -0.247449 -0.0101963  -0.0170185 -0.415442 -0.0125949  -0.0730625 -0.606796 -0.0130038  -0.151983 -0.814243 -0.0120658  -0.248175 -1.03019 -0.0108429  -0.358574 -1.25249 -0.00939685  -0.478512 -1.47755 -0.00806665  -0.606224 -1.70506 -0.0067513  -0.738348 -1.93287 -0.00554782  -0.874053 -2.16119 -0.0043816  -1.01085 -2.38846 -0.00330132  -1.14861 -2.61518 -0.00229788  -1.28552 -2.84019 -0.00142914  -1.42187 -3.06427 -0.000811636  0 0 0  0.023434 -0.0525388 -0.0276065  0.0667968 -0.147534 -0.0473557  0.0982735 -0.288549 -0.0530313  0.10093 -0.468479 -0.0503324  0.0719819 -0.673736 -0.0444871  0.0141326 -0.894706 -0.037886  -0.066399 -1.12342 -0.0315095  -0.165099 -1.35644 -0.0257171  -0.276669 -1.59056 -0.0206029  -0.398176 -1.82491 -0.016164  -0.525989 -2.05808 -0.012343  -0.658468 -2.29001 -0.00910658  -0.793121 -2.51991 -0.00639516  -0.929243 -2.74808 -0.00421685  -1.0652 -2.9741 -0.00259048  -1.20089 -3.19876 -0.00158417  0 0 0  0.0440731 -0.0837969 -0.0724589  0.128795 -0.191842 -0.0937126  0.19883 -0.344782 -0.0935788  0.232486 -0.538577 -0.0853789  0.227594 -0.757525 -0.0738468  0.18799 -0.991228 -0.0625951  0.121233 -1.23085 -0.0513973  0.0327268 -1.47302 -0.0417655  -0.0712762 -1.71423 -0.0327388  -0.187291 -1.95402 -0.0253214  -0.311113 -2.19086 -0.0185434  -0.440794 -2.42526 -0.0132715  -0.57348 -2.65639 -0.00863761  -0.70829 -2.88518 -0.0055244  -0.843359 -3.11121 -0.00311178  -0.978889 -3.33604 -0.00182581  
SCALARS smooth_stress float 1
LOOKUP_TABLE default
12857 26628.6 27173.5 25130.3 21392.3 17309.1 13536.6 10279.5 7632.52 5561.49 3931.48 2742.36 1882.62 1315.43 896.195 544.471 208.909 17404.6 38158.1 41897.9 40234 35246.2 29353.4 23670.7 18623 14402.5 11006.8 8272.12 6163.52 4545.58 3294.82 2228.07 1289.92 456.015 9937.53 26204.3 34132 34738.6 31696.4 27507.6 23226.7 19293.1 15829.7 12871 10363.3 8249.19 6448.72 4792.24 3287.38 1979.72 714.186 15390 40213.5 51546.3 51365.3 45883.3 39006.3 32348.7 26460.2 21389.7 17141.8 13587.6 10571.2 7981.72 5743.02 3889.78 2431.91 916.033 10000.1 25538.6 32138.7 31730.4 28040.8 23543 19256 15510.6 12330 9716.08 7564.87 5743.16 4195.96 2930.16 1934.27 1197.65 448.953 23038.1 51404.7 56277.4 52072 43754.3 34817.4 26800.8 20061.5 14664.5 10511.6 7317.57 5000.77 3390.04 2356.38 1629.1 990.105 342.583 33820.7 77309 86999 81815.6 70001.3 56995.8 45144.4 35044.6 26763 20264.9 15153.8 11234.1 8258.93 5984.18 4123.97 2432.64 815.641 23519.3 57386.1 69201.3 67674.6 60263.2 51446.2 43061.5 35621.4 29139.5 23724.7 19169.7 15293.3 11925 8841.71 6096.79 3730.54 1342.26 33284.3 82693 101968 100634 89318.3 75619.5 62632.3 51195.9 41389.9 33119.8 26165 20305.8 15276.4 10947.1 7360.5 4627.02 1747.62 20547.5 51211.2 63488.4 62703.3 55302.2 46351.8 37914.3 30557.5 24348.8 19148.3 14831.6 11245.9 8220.29 5733.16 3758.57 2339.02 878.422 19975.7 48947 57874.2 53749.3 44706.7 35064.4 26572 19580.5 14046.5 9863.64 6789.13 4573.78 3051.54 2116.12 1522.31 961.395 318.109 32652.4 78063.5 90018.1 82997.4 69342 55123.4 42743.6 32587.8 24496.4 18271.4 13556.9 10020.8 7334.2 5295.89 3710.17 2242.26 748.634 27589.9 63076.3 70284.3 65645 56821.8 47524.5 39278.6 32286.6 26345.5 21451.5 17386.5 13928.2 10848.3 8010.45 5526.38 3440.09 1281.38 36098.2 85366.9 100629 98074.8 86565.2 72991 60319.9 49263.6 39863.2 31881.6 25133.3 19479.6 14603.4 10403.8 6954.12 4390.7 1685.78 21185 51407.1 62488.6 61678 54378.8 45525.5 37212.9 29984.3 23967.7 18837.9 14514.5 10998.4 8037.75 5573.17 3615.6 2231.47 834.92 21302 49540.3 56175.9 52091.6 43610.5 34491.5 26363.9 19617.5 14245.9 10080.5 6965.16 4730.25 3158.11 2169.5 1526.32 938.739 312.152 33029.3 77065.7 87596.6 81477.2 68935.7 55575.2 43605.9 33567.1 25508.6 19112.3 14192.8 10571.3 7739.88 5554.83 3827.09 2274.68 762.462 25630.7 60369.5 69756.6 66501.8 58399 49419.6 41058.4 33806.1 27674.2 22473.8 18123.1 14563.1 11373.9 8414.14 5801.56 3575.83 1306.42 34792.1 84175.6 101279 99269.6 87900.3 74246.2 61339.2 50089.1 40571.9 32431.1 25575.3 19873.4 14895 10604.4 7138.21 4516.48 1715.16 20888.7 51331.5 62942.7 62153.4 54826.5 45910.3 37522.8 30232.6 24160.4 18989.1 14680 11151.4 8102.96 5575.59 3637.43 2276.59 859.049 11507.3 25369.4 27405.5 25284 21265.8 16935.3 13056.1 9819.04 7231.38 5166.91 3562.12 2414.89 1613.99 1094.34 736.922 422.978 127.716 16792.9 38153 42679.6 40061.3 34348.9 28094.3 22336 17400.9 13372.6 10098.9 7517.66 5621.19 4119.03 2948.3 2012.83 1175.14 373.454 11622.5 28475 34541.6 33792.7 30144.1 25833.7 21614.7 17847.8 14638.6 11876 9542.89 7679.03 6001.86 4453.16 3084.6 1886.56 653.11 16588.1 41288.3 51071.3 50463.6 44770 37868.4 31302.9 25561.1 20708.9 16527.5 13019.5 10128.5 7586.35 5404.62 3654.81 2320.89 860.97 10251.2 25597 31803.8 31448.3 27709.1 23193.6 18968.1 15295.2 12211.6 9583.46 7432.16 5655.74 4089.53 2805.43 1846.12 1186.49 453.598 
CELL_DATA 256
SCALARS stress float 1
LOOKUP_TABLE default
12857 13771.6 13402 11728.3 9663.96 7645.13 5891.51 4387.97 3244.55 2316.94 1614.53 1127.83 754.793 560.633 335.561 208.909 4547.54 6981.95 7742.46 7361.24 6492.62 5551.72 4582.33 3761.2 3008.78 2436.58 1904.06 1517.1 1145.86 833.528 498.346 247.105 5389.98 9284.85 10122.8 9512.19 8330.31 7132.96 5959.69 4989.91 4069.79 3355.89 2666.8 2161.23 1624.53 1188.32 767.183 467.081 10000.1 15538.6 16600.2 15130.2 12910.6 10632.4 8623.62 6886.97 5442.99 4273.09 3291.78 2451.38 1744.58 1185.58 748.694 448.953 10181.1 14595 14508.8 12432.8 9929.12 7579.14 5685.04 4097 2934.99 2015.09 1371 887.416 620.004 420.95 311.96 133.674 6234.99 8139.77 7857.42 6782.49 5610.74 4523.37 3686.15 2953.34 2375.15 1932.79 1562.83 1249.37 956.556 691.855 471.135 225.952 7346.76 9460.24 9611.84 8684.15 7489.46 6315.01 5310.29 4378.48 3602.88 2942.89 2367.84 1864.08 1406.25 994.808 651.616 402.123 10547.5 15125.1 16224.6 14748.2 12513.1 10295.7 8362.59 6684.32 5334.52 4097.71 3169.01 2333.71 1690.61 1112.39 711.903 429.469 9794.64 14376.3 14394.1 12413.5 9931.2 7624.99 5682.8 4115.66 2898.86 2014.69 1388.34 927.025 617.096 458.071 331.326 184.436 6441.71 8300.04 7846.63 6761.62 5480.44 4444.35 3517.71 2850.07 2271.37 1828.41 1443.73 1191.04 885.697 645.665 379.205 204.572 7566.47 9586.35 9482.01 8618.81 7394.05 6267.05 5214.65 4375.91 3538.28 2959.72 2348.32 1900.99 1394.28 1035.34 656.756 448.734 10637.5 15097 16041.9 14663.2 12454.2 10262.5 8292.17 6645.21 5303.61 4102.04 3145.75 2349.92 1663.5 1106.66 684.644 405.451 11507.3 13862 13543.5 11740.5 9525.27 7410.08 5646.02 4173.02 3058.36 2108.55 1453.58 961.311 652.674 441.661 295.261 127.716 5285.58 7498.07 7776 7001.33 6081.8 5077.11 4202.82 3379.01 2762.23 2169.79 1785.75 1420.56 1084.49 769.477 506.428 245.738 6336.95 9354.37 9913.12 9102.26 7958.7 6716.07 5618.66 4647.27 3850.08 3093.92 2493.43 1979.29 1517.53 1081.66 727.027 407.372 10251.2 15345.8 16458 14990.3 12718.8 10474.8 8493.33 6801.88 5409.7 4173.76 3258.4 2397.34 1692.2 1113.23 732.893 453.598 
SCALARS volume float 1
LOOKUP_TABLE default
2.45127 2.51025 2.51864 2.52122 2.52311 2.52534 2.527 2.52876 2.52959 2.53074 2.53101 2.53178 2.53171 2.5322 2.53184 2.53191 2.52133 2.51315 2.51635 2.51823 2.52059 2.52276 2.52507 2.52673 2.52836 2.52927 2.53026 2.5306 2.53115 2.53111 2.53128 2.53093 2.54378 2.53763 2.53062 2.52847 2.52793 2.52847 2.52892 2.52987 2.53019 2.53098 2.53099 2.53153 2.53131 2.53164 2.5312 2.5311 2.56865 2.55459 2.54471 2.53938 2.53677 2.535 2.53417 2.53334 2.53305 2.53248 2.53235 2.53185 2.53176 2.53126 2.53111 2.53032 2.44969 2.49578 2.51225 2.52023 2.524 2.52649 2.52783 2.52917 2.52985 2.53077 2.53114 2.53175 2.53187 2.5322 2.53198 2.53185 2.52099 2.50698 2.5136 2.51817 2.52196 2.52431 2.52653 2.52768 2.52911 2.52962 2.53055 2.53064 2.53122 2.53099 2.53122 2.53077 2.53724 2.53316 2.52745 2.52708 2.52768 2.52889 2.52965 2.53051 2.53083 2.53138 2.53144 2.53176 2.53163 2.53174 2.5314 2.53114 2.56309 2.55414 2.54399 2.53813 2.53564 2.53421 2.53376 2.53306 2.53297 2.53238 2.53238 2.5318 2.53181 2.53118 2.53115 2.53033 2.449 2.49659 2.51177 2.5196 2.52358 2.52643 2.52783 2.52935 2.52989 2.53093 2.5311 2.53187 2.53179 2.53228 2.53186 2.5319 2.52052 2.5067 2.51318 2.51796 2.52185 2.52444 2.52656 2.52786 2.52913 2.52976 2.53054 2.53076 2.53119 2.53109 2.5312 2.53087 2.53708 2.5328 2.52726 2.52704 2.52766 2.52888 2.52956 2.5305 2.53071 2.53139 2.5313 2.53178 2.53148 2.53177 2.53126 2.53119 2.56347 2.55314 2.54381 2.53837 2.53581 2.53446 2.53384 2.53324 2.53301 2.53251 2.53238 2.5319 2.53179 2.53128 2.53111 2.53041 2.45157 2.50913 2.51817 2.52154 2.52391 2.52608 2.52772 2.52915 2.53 2.53087 2.53124 2.53177 2.53187 2.53214 2.53195 2.53184 2.51993 2.5116 2.51609 2.51863 2.52133 2.5233 2.5256 2.52696 2.5286 2.52928 2.53034 2.53052 2.53116 2.53097 2.53127 2.5308 2.54108 2.53646 2.53069 2.52897 2.52856 2.52901 2.5294 2.53013 2.53046 2.53103 2.53113 2.53148 2.53139 2.53154 2.53127 2.531 2.56577 2.55379 2.54468 2.53938 2.53699 2.53512 2.53437 2.53337 2.53315 2.53243 2.53239 2.53175 2.53177 2.53116 2.53115 2.53025 
SCALARS volume_diff float 1
LOOKUP_TABLE default
2.43565 2.49462 2.50302 2.5056 2.50748 2.50972 2.51138 2.51313 2.51396 2.51512 2.51538 2.51616 2.51609 2.51658 2.51621 2.51629 2.50571 2.49752 2.50073 2.5026 2.50497 2.50713 2.50944 2.51111 2.51274 2.51364 2.51463 2.51498 2.51552 2.51548 2.51565 2.5153 2.52815 2.522 2.515 2.51284 2.51231 2.51284 2.51329 2.51424 2.51456 2.51535 2.51536 2.51591 2.51568 2.51602 2.51557 2.51548 2.55302 2.53897 2.52909 2.52376 2.52115 2.51938 2.51854 2.51771 2.51742 2.51686 2.51673 2.51622 2.51613 2.51563 2.51549 2.51469 2.43406 2.48016 2.49663 2.5046 2.50838 2.51087 2.5122 2.51355 2.51423 2.51514 2.51551 2.51613 2.51625 2.51658 2.51636 2.51622 2.50536 2.49135 2.49798 2.50255 2.50633 2.50868 2.5109 2.51206 2.51349 2.514 2.51492 2.51502 2.51559 2.51537 2.5156 2.51514 2.52162 2.51753 2.51182 2.51145 2.51206 2.51327 2.51402 2.51488 2.51521 2.51575 2.51581 2.51613 2.516 2.51612 2.51577 2.51552 2.54747 2.53851 2.52837 2.52251 2.52001 2.51858 2.51813 2.51743 2.51735 2.51676 2.51676 2.51617 2.51618 2.51556 2.51552 2.5147 2.43338 2.48096 2.49614 2.50397 2.50796 2.51081 2.5122 2.51373 2.51426 2.51531 2.51548 2.51624 2.51617 2.51666 2.51624 2.51628 2.50489 2.49108 2.49755 2.50233 2.50622 2.50882 2.51094 2.51223 2.5135 2.51413 2.51492 2.51513 2.51557 2.51547 2.51557 2.51525 2.52146 2.51717 2.51163 2.51142 2.51204 2.51326 2.51393 2.51488 2.51509 2.51576 2.51567 2.51615 2.51586 2.51614 2.51563 2.51557 2.54784 2.53752 2.52818 2.52274 2.52019 2.51883 2.51822 2.51761 2.51738 2.51689 2.51675 2.51628 2.51617 2.51566 2.51549 2.51479 2.43594 2.4935 2.50254 2.50592 2.50829 2.51045 2.5121 2.51353 2.51437 2.51525 2.51561 2.51615 2.51624 2.51651 2.51632 2.51622 2.50431 2.49598 2.50047 2.50301 2.50571 2.50768 2.50997 2.51133 2.51298 2.51366 2.51472 2.5149 2.51554 2.51535 2.51565 2.51518 2.52546 2.52084 2.51506 2.51334 2.51294 2.51338 2.51377 2.51451 2.51483 2.51541 2.51551 2.51585 2.51576 2.51592 2.51565 2.51537 2.55015 2.53817 2.52906 2.52376 2.52137 2.51949 2.51874 2.51774 2.51752 2.51681 2.51677 2.51613 2.51614 2.51553 2.51552 2.51463 
