# vtk DataFile Version 5.1
vtk output
ASCII

DATASET UNSTRUCTURED_GRID
POINTS 425 float
0 0 2.2
0.25 0 2.2
0.5 0 2.2
0.75 0 2.2
1 0 2.2
1.25 0 2.2
1.5 0 2.2
1.75 0 2.2
2 0 2.2
2.25 0 2.2
2.5 0 2.2
2.75 0 2.2
3 0 2.2
3.25 0 2.2
3.5 0 2.2
3.75 0 2.2
4 0 2.2
0 0.25 2.2
0.25 0.25 2.2
0.5 0.25 2.2
0.75 0.25 2.2
1 0.25 2.2
1.25 0.25 2.2
1.5 0.25 2.2
1.75 0.25 2.2
2 0.25 2.2
2.25 0.25 2.2
2.5 0.25 2.2
2.75 0.25 2.2
3 0.25 2.2
3.25 0.25 2.2
3.5 0.25 2.2
3.75 0.25 2.2
4 0.25 2.2
0 0.5 2.2
0.25 0.5 2.2
0.5 0.5 2.2
0.75 0.5 2.2
1 0.5 2.2
1.25 0.5 2.2
1.5 0.5 2.2
1.75 0.5 2.2
2 0.5 2.2
2.25 0.5 2.2
2.5 0.5 2.2
2.75 0.5 2.2
3 0.5 2.2
3.25 0.5 2.2
3.5 0.5 2.2
3.75 0.5 2.2
4 0.5 2.2
0 0.75 2.2
0.25 0.75 2.2
0.5 0.75 2.2
0.75 0.75 2.2
1 0.75 2.2
1.25 0.75 2.2
1.5 0.75 2.2
1.75 0.75 2.2
2 0.75 2.2
2.25 0.75 2.2
2.5 0.75 2.2
2.75 0.75 2.2
3 0.75 2.2
3.25 0.75 2.2
3.5 0.75 2.2
3.75 0.75 2.2
4 0.75 2.2
0 1 2.2
0.25 1 2.2
0.5 1 2.2
0.75 1 2.2
1 1 2.2
1.25 1 2.2
1.5 1 2.2
1.75 1 2.2
2 1 2.2
2.25 1 2.2
2.5 1 2.2
2.75 1 2.2
3 1 2.2
3.25 1 2.2
3.5 1 2.2
3.75 1 2.2
4 1 2.2
0 0 2.45
0.25 0 2.45
0.5 0 2.45
0.75 0 2.45
1 0 2.45
1.25 0 2.45
1.5 0 2.45
1.75 0 2.45
2 0 2.45
2.25 0 2.45
2.5 0 2.45
2.75 0 2.45
3 0 2.45
3.25 0 2.45
3.5 0 2.45
3.75 0 2.45
4 0 2.45
0 0.25 2.45
0.25 0.25 2.45
0.5 0.25 2.45
0.75 0.25 2.45
1 0.25 2.45
1.25 0.25 2.45
1.5 0.25 2.45
1.75 0.25 2.45
2 0.25 2.45
2.25 0.25 2.45
2.5 0.25 2.45
2.75 0.25 2.45
3 0.25 2.45
3.25 0.25 2.45
3.5 0.25 2.45
3.75 0.25 2.45
4 0.25 2.45
0 0.5 2.45
0.25 0.5 2.45
0.5 0.5 2.45
0.75 0.5 2.45
1 0.5 2.45
1.25 0.5 2.45
1.5 0.5 2.45
1.75 0.5 2.45
2 0.5 2.45
2.25 0.5 2.45
2.5 0.5 2.45
2.75 0.5 2.45
3 0.5 2.45
3.25 0.5 2.45
3.5 0.5 2.45
3.75 0.5 2.45
4 0.5 2.45
0 0.75 2.45
0.25 0.75 2.45
0.5 0.75 2.45
0.75 0.75 2.45
1 0.75 2.45
1.25 0.75 2.45
1.5 0.75 2.45
1.75 0.75 2.45
2 0.75 2.45
2.25 0.75 2.45
2.5 0.75 2.45
2.75 0.75 2.45
3 0.75 2.45
3.25 0.75 2.45
3.5 0.75 2.45
3.75 0.75 2.45
4 0.75 2.45
0 1 2.45
0.25 1 2.45
0.5 1 2.45
0.75 1 2.45
1 1 2.45
1.25 1 2.45
1.5 1 2.45
1.75 1 2.45
2 1 2.45
2.25 1 2.45
2.5 1 2.45
2.75 1 2.45
3 1 2.45
3.25 1 2.45
3.5 1 2.45
3.75 1 2.45
4 1 2.45
0 0 2.7
0.25 0 2.7
0.5 0 2.7
0.75 0 2.7
1 0 2.7
1.25 0 2.7
1.5 0 2.7
1.75 0 2.7
2 0 2.7
2.25 0 2.7
2.5 0 2.7
2.75 0 2.7
3 0 2.7
3.25 0 2.7
3.5 0 2.7
3.75 0 2.7
4 0 2.7
0 0.25 2.7
0.25 0.25 2.7
0.5 0.25 2.7
0.75 0.25 2.7
1 0.25 2.7
1.25 0.25 2.7
1.5 0.25 2.7
1.75 0.25 2.7
2 0.25 2.7
2.25 0.25 2.7
2.5 0.25 2.7
2.75 0.25 2.7
3 0.25 2.7
3.25 0.25 2.7
3.5 0.25 2.7
3.75 0.25 2.7
4 0.25 2.7
0 0.5 2.7
0.25 0.5 2.7
0.5 0.5 2.7
0.75 0.5 2.7
1 0.5 2.7
1.25 0.5 2.7
1.5 0.5 2.7
1.75 0.5 2.7
2 0.5 2.7
2.25 0.5 2.7
2.5 0.5 2.7
2.75 0.5 2.7
3 0.5 2.7
3.25 0.5 2.7
3.5 0.5 2.7
3.75 0.5 2.7
4 0.5 2.7
0 0.75 2.7
0.25 0.75 2.7
0.5 0.75 2.7
0.75 0.75 2.7
1 0.75 2.7
1.25 0.75 2.7
1.5 0.75 2.7
1.75 0.75 2.7
2 0.75 2.7
2.25 0.75 2.7
2.5 0.75 2.7
2.75 0.75 2.7
3 0.75 2.7
3.25 0.75 2.7
3.5 0.75 2.7
3.75 0.75 2.7
4 0.75 2.7
0 1 2.7
0.25 1 2.7
0.5 1 2.7
0.75 1 2.7
1 1 2.7
1.25 1 2.7
1.5 1 2.7
1.75 1 2.7
2 1 2.7
2.25 1 2.7
2.5 1 2.7
2.75 1 2.7
3 1 2.7
3.25 1 2.7
3.5 1 2.7
3.75 1 2.7
4 1 2.7
0 0 2.95
0.25 0 2.95
0.5 0 2.95
0.75 0 2.95
1 0 2.95
1.25 0 2.95
1.5 0 2.95
1.75 0 2.95
2 0 2.95
2.25 0 2.95
2.5 0 2.95
2.75 0 2.95
3 0 2.95
3.25 0 2.95
3.5 0 2.95
3.75 0 2.95
4 0 2.95
0 0.25 2.95
0.25 0.25 2.95
0.5 0.25 2.95
0.75 0.25 2.95
1 0.25 2.95
1.25 0.25 2.95
1.5 0.25 2.95
1.75 0.25 2.95
2 0.25 2.95
2.25 0.25 2.95
2.5 0.25 2.95
2.75 0.25 2.95
3 0.25 2.95
3.25 0.25 2.95
3.5 0.25 2.95
3.75 0.25 2.95
4 0.25 2.95
0 0.5 2.95
0.25 0.5 2.95
0.5 0.5 2.95
0.75 0.5 2.95
1 0.5 2.95
1.25 0.5 2.95
1.5 0.5 2.95
1.75 0.5 2.95
2 0.5 2.95
2.25 0.5 2.95
2.5 0.5 2.95
2.75 0.5 2.95
3 0.5 2.95
3.25 0.5 2.95
3.5 0.5 2.95
3.75 0.5 2.95
4 0.5 2.95
0 0.75 2.95
0.25 0.75 2.95
0.5 0.75 2.95
0.75 0.75 2.95
1 0.75 2.95
1.25 0.75 2.95
1.5 0.75 2.95
1.75 0.75 2.95
2 0.75 2.95
2.25 0.75 2.95
2.5 0.75 2.95
2.75 0.75 2.95
3 0.75 2.95
3.25 0.75 2.95
3.5 0.75 2.95
3.75 0.75 2.95
4 0.75 2.95
0 1 2.95
0.25 1 2.95
0.5 1 2.95
0.75 1 2.95
1 1 2.95
1.25 1 2.95
1.5 1 2.95
1.75 1 2.95
2 1 2.95
2.25 1 2.95
2.5 1 2.95
2.75 1 2.95
3 1 2.95
3.25 1 2.95
3.5 1 2.95
3.75 1 2.95
4 1 2.95
0 0 3.2
0.25 0 3.2
0.5 0 3.2
0.75 0 3.2
1 0 3.2
1.25 0 3.2
1.5 0 3.2
1.75 0 3.2
2 0 3.2
2.25 0 3.2
2.5 0 3.2
2.75 0 3.2
3 0 3.2
3.25 0 3.2
3.5 0 3.2
3.75 0 3.2
4 0 3.2
0 0.25 3.2
0.25 0.25 3.2
0.5 0.25 3.2
0.75 0.25 3.2
1 0.25 3.2
1.25 0.25 3.2
1.5 0.25 3.2
1.75 0.25 3.2
2 0.25 3.2
2.25 0.25 3.2
2.5 0.25 3.2
2.75 0.25 3.2
3 0.25 3.2
3.25 0.25 3.2
3.5 0.25 3.2
3.75 0.25 3.2
4 0.25 3.2
0 0.5 3.2
0.25 0.5 3.2
0.5 0.5 3.2
0.75 0.5 3.2
1 0.5 3.2
1.25 0.5 3.2
1.5 0.5 3.2
1.75 0.5 3.2
2 0.5 3.2
2.25 0.5 3.2
2.5 0.5 3.2
2.75 0.5 3.2
3 0.5 3.2
3.25 0.5 3.2
3.5 0.5 3.2
3.75 0.5 3.2
4 0.5 3.2
0 0.75 3.2
0.25 0.75 3.2
0.5 0.75 3.2
0.75 0.75 3.2
1 0.75 3.2
1.25 0.75 3.2
1.5 0.75 3.2
1.75 0.75 3.2
2 0.75 3.2
2.25 0.75 3.2
2.5 0.75 3.2
2.75 0.75 3.2
3 0.75 3.2
3.25 0.75 3.2
3.5 0.75 3.2
3.75 0.75 3.2
4 0.75 3.2
0 1 3.2
0.25 1 3.2
0.5 1 3.2
0.75 1 3.2
1 1 3.2
1.25 1 3.2
1.5 1 3.2
1.75 1 3.2
2 1 3.2
2.25 1 3.2
2.5 1 3.2
2.75 1 3.2
3 1 3.2
3.25 1 3.2
3.5 1 3.2
3.75 1 3.2
4 1 3.2

CELLS 257 2048
OFFSETS vtktypeint64
0 8 16 24 32 40 48 56 64 72 80 88 96 104 112 120 128 136 144 152 160 168 176 184 192 200 208 216 224 232 240 248 256 264 272 280 288 296 304 312 320 328 336 344 352 360 368 376 384 392 400 408 416 424 432 440 448 456 464 472 480 488 496 504 512 520 528 536 544 552 560 568 576 584 592 600 608 616 624 632 640 648 656 664 672 680 688 696 704 712 720 728 736 744 752 760 768 776 784 792 800 808 816 824 832 840 848 856 864 872 880 888 896 904 912 920 928 936 944 952 960 968 976 984 992 1000 1008 1016 1024 1032 1040 1048 1056 1064 1072 1080 1088 1096 1104 1112 1120 1128 1136 1144 1152 1160 1168 1176 1184 1192 1200 1208 1216 1224 1232 1240 1248 1256 1264 1272 1280 1288 1296 1304 1312 1320 1328 1336 1344 1352 1360 1368 1376 1384 1392 1400 1408 1416 1424 1432 1440 1448 1456 1464 1472 1480 1488 1496 1504 1512 1520 1528 1536 1544 1552 1560 1568 1576 1584 1592 1600 1608 1616 1624 1632 1640 1648 1656 1664 1672 1680 1688 1696 1704 1712 1720 1728 1736 1744 1752 1760 1768 1776 1784 1792 1800 1808 1816 1824 1832 1840 1848 1856 1864 1872 1880 1888 1896 1904 1912 1920 1928 1936 1944 1952 1960 1968 1976 1984 1992 2000 2008 2016 2024 2032 2040 2048 
CONNECTIVITY vtktypeint64
0 1 86 85 17 18 103 102 
1 2 87 86 18 19 104 103 
2 3 88 87 19 20 105 104 
3 4 89 88 20 21 106 105 
4 5 90 89 21 22 107 106 
5 6 91 90 22 23 108 107 
6 7 92 91 23 24 109 108 
7 8 93 92 24 25 110 109 
8 9 94 93 25 26 111 110 
9 10 95 94 26 27 112 111 
10 11 96 95 27 28 113 112 
11 12 97 96 28 29 114 113 
12 13 98 97 29 30 115 114 
13 14 99 98 30 31 116 115 
14 15 100 99 31 32 117 116 
15 16 101 100 32 33 118 117 
17 18 103 102 34 35 120 119 
18 19 104 103 35 36 121 120 
19 20 105 104 36 37 122 121 
20 21 106 105 37 38 123 122 
21 22 107 106 38 39 124 123 
22 23 108 107 39 40 125 124 
23 24 109 108 40 41 126 125 
24 25 110 109 41 42 127 126 
25 26 111 110 42 43 128 127 
26 27 112 111 43 44 129 128 
27 28 113 112 44 45 130 129 
28 29 114 113 45 46 131 130 
29 30 115 114 46 47 132 131 
30 31 116 115 47 48 133 132 
31 32 117 116 48 49 134 133 
32 33 118 117 49 50 135 134 
34 35 120 119 51 52 137 136 
35 36 121 120 52 53 138 137 
36 37 122 121 53 54 139 138 
37 38 123 122 54 55 140 139 
38 39 124 123 55 56 141 140 
39 40 125 124 56 57 142 141 
40 41 126 125 57 58 143 142 
41 42 127 126 58 59 144 143 
42 43 128 127 59 60 145 144 
43 44 129 128 60 61 146 145 
44 45 130 129 61 62 147 146 
45 46 131 130 62 63 148 147 
46 47 132 131 63 64 149 148 
47 48 133 132 64 65 150 149 
48 49 134 133 65 66 151 150 
49 50 135 134 66 67 152 151 
51 52 137 136 68 69 154 153 
52 53 138 137 69 70 155 154 
53 54 139 138 70 71 156 155 
54 55 140 139 71 72 157 156 
55 56 141 140 72 73 158 157 
56 57 142 141 73 74 159 158 
57 58 143 142 74 75 160 159 
58 59 144 143 75 76 161 160 
59 60 145 144 76 77 162 161 
60 61 146 145 77 78 163 162 
61 62 147 146 78 79 164 163 
62 63 148 147 79 80 165 164 
63 64 149 148 80 81 166 165 
64 65 150 149 81 82 167 166 
65 66 151 150 82 83 168 167 
66 67 152 151 83 84 169 168 
85 86 171 170 102 103 188 187 
86 87 172 171 103 104 189 188 
87 88 173 172 104 105 190 189 
88 89 174 173 105 106 191 190 
89 90 175 174 106 107 192 191 
90 91 176 175 107 108 193 192 
91 92 177 176 108 109 194 193 
92 93 178 177 109 110 195 194 
93 94 179 178 110 111 196 195 
94 95 180 179 111 112 197 196 
95 96 181 180 112 113 198 197 
96 97 182 181 113 114 199 198 
97 98 183 182 114 115 200 199 
98 99 184 183 115 116 201 200 
99 100 185 184 116 117 202 201 
100 101 186 185 117 118 203 202 
102 103 188 187 119 120 205 204 
103 104 189 188 120 121 206 205 
104 105 190 189 121 122 207 206 
105 106 191 190 122 123 208 207 
106 107 192 191 123 124 209 208 
107 108 193 192 124 125 210 209 
108 109 194 193 125 126 211 210 
109 110 195 194 126 127 212 211 
110 111 196 195 127 128 213 212 
111 112 197 196 128 129 214 213 
112 113 198 197 129 130 215 214 
113 114 199 198 130 131 216 215 
114 115 200 199 131 132 217 216 
115 116 201 200 132 133 218 217 
116 117 202 201 133 134 219 218 
117 118 203 202 134 135 220 219 
119 120 205 204 136 137 222 221 
120 121 206 205 137 138 223 222 
121 122 207 206 138 139 224 223 
122 123 208 207 139 140 225 224 
123 124 209 208 140 141 226 225 
124 125 210 209 141 142 227 226 
125 126 211 210 142 143 228 227 
126 127 212 211 143 144 229 228 
127 128 213 212 144 145 230 229 
128 129 214 213 145 146 231 230 
129 130 215 214 146 147 232 231 
130 131 216 215 147 148 233 232 
131 132 217 216 148 149 234 233 
132 133 218 217 149 150 235 234 
133 134 219 218 150 151 236 235 
134 135 220 219 151 152 237 236 
136 137 222 221 153 154 239 238 
137 138 223 222 154 155 240 239 
138 139 224 223 155 156 241 240 
139 140 225 224 156 157 242 241 
140 141 226 225 157 158 243 242 
141 142 227 226 158 159 244 243 
142 143 228 227 159 160 245 244 
143 144 229 228 160 161 246 245 
144 145 230 229 161 162 247 246 
145 146 231 230 162 163 248 247 
146 147 232 231 163 164 249 248 
147 148 233 232 164 165 250 249 
148 149 234 233 165 166 251 250 
149 150 235 234 166 167 252 251 
150 151 236 235 167 168 253 252 
151 152 237 236 168 169 254 253 
170 171 256 255 187 188 273 272 
171 172 257 256 188 189 274 273 
172 173 258 257 189 190 275 274 
173 174 259 258 190 191 276 275 
174 175 260 259 191 192 277 276 
175 176 261 260 192 193 278 277 
176 177 262 261 193 194 279 278 
177 178 263 262 194 195 280 279 
178 179 264 263 195 196 281 280 
179 180 265 264 196 197 282 281 
180 181 266 265 197 198 283 282 
181 182 267 266 198 199 284 283 
182 183 268 267 199 200 285 284 
183 184 269 268 200 201 286 285 
184 185 270 269 201 202 287 286 
185 186 271 270 202 203 288 287 
187 188 273 272 204 205 290 289 
188 189 274 273 205 206 291 290 
189 190 275 274 206 207 292 291 
190 191 276 275 207 208 293 292 
191 192 277 276 208 209 294 293 
192 193 278 277 209 210 295 294 
193 194 279 278 210 211 296 295 
194 195 280 279 211 212 297 296 
195 196 281 280 212 213 298 297 
196 197 282 281 213 214 299 298 
197 198 283 282 214 215 300 299 
198 199 284 283 215 216 301 300 
199 200 285 284 216 217 302 301 
200 201 286 285 217 218 303 302 
201 202 287 286 218 219 304 303 
202 203 288 287 219 220 305 304 
204 205 290 289 221 222 307 306 
205 206 291 290 222 223 308 307 
206 207 292 291 223 224 309 308 
207 208 293 292 224 225 310 309 
208 209 294 293 225 226 311 310 
209 210 295 294 226 227 312 311 
210 211 296 295 227 228 313 312 
211 212 297 296 228 229 314 313 
212 213 298 297 229 230 315 314 
213 214 299 298 230 231 316 315 
214 215 300 299 231 232 317 316 
215 216 301 300 232 233 318 317 
216 217 302 301 233 234 319 318 
217 218 303 302 234 235 320 319 
218 219 304 303 235 236 321 320 
219 220 305 304 236 237 322 321 
221 222 307 306 238 239 324 323 
222 223 308 307 239 240 325 324 
223 224 309 308 240 241 326 325 
224 225 310 309 241 242 327 326 
225 226 311 310 242 243 328 327 
226 227 312 311 243 244 329 328 
227 228 313 312 244 245 330 329 
228 229 314 313 245 246 331 330 
229 230 315 314 246 247 332 331 
230 231 316 315 247 248 333 332 
231 232 317 316 248 249 334 333 
232 233 318 317 249 250 335 334 
233 234 319 318 250 251 336 335 
234 235 320 319 251 252 337 336 
235 236 321 320 252 253 338 337 
236 237 322 321 253 254 339 338 
255 256 341 340 272 273 358 357 
256 257 342 341 273 274 359 358 
257 258 343 342 274 275 360 359 
258 259 344 343 275 276 361 360 
259 260 345 344 276 277 362 361 
260 261 346 345 277 278 363 362 
261 262 347 346 278 279 364 363 
262 263 348 347 279 280 365 364 
263 264 349 348 280 281 366 365 
264 265 350 349 281 282 367 366 
265 266 351 350 282 283 368 367 
266 267 352 351 283 284 369 368 
267 268 353 352 284 285 370 369 
268 269 354 353 285 286 371 370 
269 270 355 354 286 287 372 371 
270 271 356 355 287 288 373 372 
272 273 358 357 289 290 375 374 
273 274 359 358 290 291 376 375 
274 275 360 359 291 292 377 376 
275 276 361 360 292 293 378 377 
276 277 362 361 293 294 379 378 
277 278 363 362 294 295 380 379 
278 279 364 363 295 296 381 380 
279 280 365 364 296 297 382 381 
280 281 366 365 297 298 383 382 
281 282 367 366 298 299 384 383 
282 283 368 367 299 300 385 384 
283 284 369 368 300 301 386 385 
284 285 370 369 301 302 387 386 
285 286 371 370 302 303 388 387 
286 287 372 371 303 304 389 388 
287 288 373 372 304 305 390 389 
289 290 375 374 306 307 392 391 
290 291 376 375 307 308 393 392 
291 292 377 376 308 309 394 393 
292 293 378 377 309 310 395 394 
293 294 379 378 310 311 396 395 
294 295 380 379 311 312 397 396 
295 296 381 380 312 313 398 397 
296 297 382 381 313 314 399 398 
297 298 383 382 314 315 400 399 
298 299 384 383 315 316 401 400 
299 300 385 384 316 317 402 401 
300 301 386 385 317 318 403 402 
301 302 387 386 318 319 404 403 
302 303 388 387 319 320 405 404 
303 304 389 388 320 321 406 405 
304 305 390 389 321 322 407 406 
306 307 392 391 323 324 409 408 
307 308 393 392 324 325 410 409 
308 309 394 393 325 326 411 410 
309 310 395 394 326 327 412 411 
310 311 396 395 327 328 413 412 
311 312 397 396 328 329 414 413 
312 313 398 397 329 330 415 414 
313 314 399 398 330 331 416 415 
314 315 400 399 331 332 417 416 
315 316 401 400 332 333 418 417 
316 317 402 401 333 334 419 418 
317 318 403 402 334 335 420 419 
318 319 404 403 335 336 421 420 
319 320 405 404 336 337 422 421 
320 321 406 405 337 338 423 422 
321 322 407 406 338 339 424 423 
CELL_TYPES 256
12 12 12 12 12 12 12 12 12 12 12 12 12 12 12 12 12 12 12 12 12 12 12 12 12 12 12 12 12 12 12 12 12 12 12 12 12 12 12 12 12 12 12 12 12 12 12 12 12 12 12 12 12 12 12 12 12 12 12 12 12 12 12 12 12 12 12 12 12 12 12 12 12 12 12 12 12 12 12 12 12 12 12 12 12 12 12 12 12 12 12 12 12 12 12 12 12 12 12 12 12 12 12 12 12 12 12 12 12 12 12 12 12 12 12 12 12 12 12 12 12 12 12 12 12 12 12 12 12 12 12 12 12 12 12 12 12 12 12 12 12 12 12 12 12 12 12 12 12 12 12 12 12 12 12 12 12 12 12 12 12 12 12 12 12 12 12 12 12 12 12 12 12 12 12 12 12 12 12 12 12 12 12 12 12 12 12 12 12 12 12 12 12 12 12 12 12 12 12 12 12 12 12 12 12 12 12 12 12 12 12 12 12 12 12 12 12 12 12 12 12 12 12 12 12 12 12 12 12 12 12 12 12 12 12 12 12 12 12 12 12 12 12 12 12 12 12 12 12 12 12 12 12 12 12 12 

POINT_DATA 425
SCALARS weights float 1
LOOKUP_TABLE default
1.95312 3.90625 3.90625 3.90625 3.90625 3.90625 3.90625 3.90625 3.90625 3.90625 3.90625 3.90625 3.90625 3.90625 3.90625 3.90625 1.95312 3.90625 7.8125 7.8125 7.8125 7.8125 7.8125 7.8125 7.8125 7.8125 7.8125 7.8125 7.8125 7.8125 7.8125 7.8125 7.8125 3.90625 3.90625 7.8125 7.8125 7.8125 7.8125 7.8125 7.8125 7.8125 7.8125 7.8125 7.8125 7.8125 7.8125 7.8125 7.8125 7.8125 3.90625 3.90625 7.8125 7.8125 7.8125 7.8125 7.8125 7.8125 7.8125 7.8125 7.8125 7.8125 7.8125 7.8125 7.8125 7.8125 7.8125 3.90625 1.95312 3.90625 3.90625 3.90625 3.90625 3.90625 3.90625 3.90625 3.90625 3.90625 3.90625 3.90625 3.90625 3.90625 3.90625 3.90625 1.95312 3.90625 7.8125 7.8125 7.8125 7.8125 7.8125 7.8125 7.8125 7.8125 7.8125 7.8125 7.8125 7.8125 7.8125 7.8125 7.8125 3.90625 7.8125 15.625 15.625 15.625 15.625 15.625 15.625 15.625 15.625 15.625 15.625 15.625 15.625 15.625 15.625 15.625 7.8125 7.8125 15.625 15.625 15.625 15.625 15.625 15.625 15.625 15.625 15.625 15.625 15.625 15.625 15.625 15.625 15.625 7.8125 7.8125 15.625 15.625 15.625 15.625 15.625 15.625 15.625 15.625 15.625 15.625 15.625 15.625 15.625 15.625 15.625 7.8125 3.90625 7.8125 7.8125 7.8125 7.8125 7.8125 7.8125 7.8125 7.8125 7.8125 7.8125 7.8125 7.8125 7.8125 7.8125 7.8125 3.90625 3.90625 7.8125 7.8125 7.8125 7.8125 7.8125 7.8125 7.8125 7.8125 7.8125 7.8125 7.8125 7.8125 7.8125 7.8125 7.8125 3.90625 7.8125 15.625 15.625 15.625 15.625 15.625 15.625 15.625 15.625 15.625 15.625 15.625 15.625 15.625 15.625 15.625 7.8125 7.8125 15.625 15.625 15.625 15.625 15.625 15.625 15.625 15.625 15.625 15.625 15.625 15.625 15.625 15.625 15.625 7.8125 7.8125 15.625 15.625 15.625 15.625 15.625 15.625 15.625 15.625 15.625 15.625 15.625 15.625 15.625 15.625 15.625 7.8125 3.90625 7.8125 7.8125 7.8125 7.8125 7.8125 7.8125 7.8125 7.8125 7.8125 7.8125 7.8125 7.8125 7.8125 7.8125 7.8125 3.90625 3.90625 7.8125 7.8125 7.8125 7.8125 7.8125 7.8125 7.8125 7.8125 7.8125 7.8125 7.8125 7.8125 7.8125 7.8125 7.8125 3.90625 7.8125 15.625 15.625 15.625 15.625 15.625 15.625 15.625 15.625 15.625 15.625 15.625 15.625 15.625 15.625 15.625 7.8125 7.8125 15.625 15.625 15.625 15.625 15.625 15.625 15.625 15.625 15.625 15.625 15.625 15.625 15.625 15.625 15.625 7.8125 7.8125 15.625 15.625 15.625 15.625 15.625 15.625 15.625 15.625 15.625 15.625 15.625 15.625 15.625 15.625 15.625 7.8125 3.90625 7.8125 7.8125 7.8125 7.8125 7.8125 7.8125 7.8125 7.8125 7.8125 7.8125 7.8125 7.8125 7.8125 7.8125 7.8125 3.90625 1.95313 3.90625 3.90625 3.90625 3.90625 3.90625 3.90625 3.90625 3.90625 3.90625 3.90625 3.90625 3.90625 3.90625 3.90625 3.90625 1.95313 3.90625 7.8125 7.8125 7.8125 7.8125 7.8125 7.8125 7.8125 7.8125 7.8125 7.8125 7.8125 7.8125 7.8125 7.8125 7.8125 3.90625 3.90625 7.8125 7.8125 7.8125 7.8125 7.8125 7.8125 7.8125 7.8125 7.8125 7.8125 7.8125 7.8125 7.8125 7.8125 7.8125 3.90625 3.90625 7.8125 7.8125 7.8125 7.8125 7.8125 7.8125 7.8125 7.8125 7.8125 7.8125 7.8125 7.8125 7.8125 7.8125 7.8125 3.90625 1.95313 3.90625 3.90625 3.90625 3.90625 3.90625 3.90625 3.90625 3.90625 3.90625 3.90625 3.90625 3.90625 3.90625 3.90625 3.90625 1.95313 
VECTORS u float
0 0 0  -0.0173381 -0.00997665 -0.0384579  -0.0460201 -0.0324599 -0.0482399  -0.0771704 -0.0737359 -0.0467696  -0.109653 -0.130762 -0.0416169  -0.142798 -0.200014 -0.0351045  -0.176267 -0.27983 -0.028899  -0.209571 -0.367891 -0.0229933  -0.242584 -0.463161 -0.0179958  -0.274938 -0.563733 -0.0134885  -0.306635 -0.66883 -0.0098877  -0.337371 -0.776807 -0.00672913  -0.367248 -0.887124 -0.00441217  -0.396059 -0.998412 -0.002496  -0.424034 -1.11041 -0.00139523  -0.451112 -1.22207 -0.000658512  -0.477723 -1.33353 -0.000414848  0 0 0  -0.00576384 -0.00633194 -0.0127516  -0.0176265 -0.0317561 -0.0187366  -0.0326809 -0.0757594 -0.0190248  -0.0506761 -0.135553 -0.0170965  -0.0713391 -0.207956 -0.0145392  -0.0944039 -0.291045 -0.0119839  -0.119315 -0.382365 -0.00962877  -0.145746 -0.480549 -0.00755405  -0.173111 -0.583668 -0.00574946  -0.201154 -0.690774 -0.00423503  -0.229362 -0.800327 -0.00297904  -0.257604 -0.911714 -0.00199366  -0.285489 -1.02374 -0.00124478  -0.313028 -1.13613 -0.000732183  -0.339968 -1.24803 -0.000410795  -0.366469 -1.35947 -0.000159264  0 0 0  0.00150701 -0.00679639 -0.000153542  0.00348574 -0.0339856 0.00075531  0.00339973 -0.0796418 0.00155616  -0.000265062 -0.141594 0.00190949  -0.00801504 -0.216495 0.00198102  -0.0199913 -0.302499 0.00185251  -0.0356649 -0.39662 0.00167298  -0.0546674 -0.497549 0.00145078  -0.0761647 -0.602956 0.00124407  -0.0997539 -0.712085 0.00103402  -0.124625 -0.823124 0.000845432  -0.150511 -0.93574 0.000661612  -0.176747 -1.04853 0.000497103  -0.203251 -1.16153 0.000347137  -0.229537 -1.27371 0.000220776  -0.255648 -1.38536 0.000137806  0 0 0  0.00833255 -0.0119625 0.0118752  0.0239416 -0.0409177 0.0190856  0.0389023 -0.088046 0.0207937  0.0496231 -0.151778 0.0196519  0.0547169 -0.228949 0.0173903  0.0537578 -0.317236 0.0148439  0.0472147 -0.41373 0.0123439  0.0356352 -0.516713 0.0100367  0.0199764 -0.624023 0.00795841  0.00091958 -0.734599 0.00614214  -0.0205896 -0.846878 0.00457358  -0.0440073 -0.960295 0.00327253  -0.0685582 -1.07374 0.0022161  -0.0939164 -1.18704 0.00141668  -0.119528 -1.29948 0.000858545  -0.145203 -1.41126 0.000486374  0 0 0  0.0176938 -0.0215828 0.0321002  0.0500202 -0.0525885 0.0419743  0.0812966 -0.101311 0.0421154  0.10649 -0.16709 0.0386617  0.123984 -0.246389 0.0336738  0.133394 -0.336794 0.0286479  0.135339 -0.435159 0.0236061  0.13053 -0.539797 0.0191395  0.120143 -0.648395 0.0149038  0.105039 -0.759977 0.0113621  0.0863786 -0.872888 0.00811958  0.0648777 -0.986702 0.0056169  0.0415256 -1.10025 0.00346327  0.0168247 -1.21354 0.00210476  -0.00845456 -1.32584 0.00112915  -0.0340505 -1.43769 0.000695467  0 0 0  -0.0169482 -0.0236761 -0.0185633  -0.0476655 -0.0530066 -0.0242443  -0.0816929 -0.0944241 -0.023772  -0.115907 -0.148084 -0.0211253  -0.149719 -0.21406 -0.0177894  -0.182815 -0.290322 -0.0145564  -0.215501 -0.376011 -0.0115633  -0.24748 -0.468854 -0.00900364  -0.279015 -0.568033 -0.00675035  -0.309689 -0.671531 -0.00492573  -0.339764 -0.778773 -0.00336337  -0.368822 -0.888049 -0.00219369  -0.397224 -0.999077 -0.00125599  -0.42467 -1.11047 -0.000697851  -0.451689 -1.22224 -0.000338554  -0.478164 -1.33344 -0.000203371  0 0 0  -0.0055014 -0.0184324 -0.00639296  -0.0189571 -0.0485347 -0.009727  -0.0363536 -0.0927671 -0.00994515  -0.0558996 -0.150417 -0.00887775  -0.0771846 -0.220523 -0.0074923  -0.100055 -0.300935 -0.00611281  -0.12444 -0.390268 -0.00487733  -0.150051 -0.486396 -0.00379205  -0.176654 -0.588178 -0.00287223  -0.203852 -0.693838 -0.00209785  -0.231406 -0.802588 -0.00146747  -0.258968 -0.91301 -0.000969172  -0.286406 -1.02466 -0.000598431  -0.313496 -1.13648 -0.000343561  -0.340249 -1.24835 -0.000188351  -0.3666 -1.35958 -6.69956e-05  0 0 0  0.000708938 -0.0179127 -0.000219822  0.00145012 -0.0484831 0.000168324  0.000294924 -0.0946975 0.000553608  -0.00391644 -0.155127 0.000795841  -0.0119337 -0.228599 0.000865221  -0.0236624 -0.312326 0.000855207  -0.0390694 -0.40489 0.000785589  -0.0574496 -0.503805 0.000704527  -0.078527 -0.608037 0.000609636  -0.101445 -0.715601 0.000517368  -0.125967 -0.82589 0.000423908  -0.151298 -0.937364 0.000336647  -0.177348 -1.0498 0.000252724  -0.203472 -1.16203 0.000179052  -0.229753 -1.27421 0.000115871  -0.255688 -1.38549 7.48634e-05  0 0 0  0.00642404 -0.0219489 0.00556564  0.0209758 -0.0544269 0.00932693  0.0360403 -0.102207 0.0102427  0.0471258 -0.164813 0.00971437  0.0524535 -0.240733 0.00860262  0.051805 -0.327134 0.00735474  0.0455186 -0.422159 0.00611949  0.0343468 -0.523362 0.00498319  0.0190046 -0.629446 0.00395441  0.000366688 -0.738564 0.00305319  -0.0208895 -0.849955 0.00227237  -0.0440001 -0.96227 0.00162244  -0.0684493 -1.07518 0.00109625  -0.0936558 -1.18776 0.00069809  -0.119295 -1.30005 0.00042367  -0.144952 -1.41153 0.000236034  0 0 0  0.0155517 -0.0303236 0.01526  0.0467311 -0.065641 0.0205133  0.0783709 -0.115273 0.0207629  0.104241 -0.179657 0.0191472  0.12206 -0.257764 0.0167046  0.131871 -0.34623 0.0142279  0.133978 -0.443327 0.0117364  0.129601 -0.54618 0.00952148  0.119403 -0.653705 0.00742769  0.104741 -0.763772 0.00566363  0.0862103 -0.87589 0.0040617  0.0650549 -0.988508 0.00280881  0.0416903 -1.10161 0.00174856  0.0171888 -1.21411 0.00106311  -0.00820947 -1.32642 0.000585079  -0.0336583 -1.43793 0.000355244  0 0 0  -0.017896 -0.0279461 0  -0.048722 -0.0587546 7.15256e-07  -0.0826648 -0.100298 1.66893e-06  -0.117082 -0.153982 2.38419e-06  -0.150937 -0.218845 3.33786e-06  -0.184181 -0.294537 5.24521e-06  -0.216663 -0.379035 6.4373e-06  -0.248619 -0.471458 7.86781e-06  -0.279821 -0.569716 8.82149e-06  -0.310442 -0.673038 9.53674e-06  -0.340188 -0.77959 1.04904e-05  -0.369245 -0.888875 1.12057e-05  -0.39738 -0.999382 1.16825e-05  -0.424895 -1.11092 1.23978e-05  -0.451686 -1.22231 1.35899e-05  -0.478208 -1.33379 1.33514e-05  0 0 0  -0.00596148 -0.0214321 -4.76837e-07  -0.0198857 -0.0538116 7.15256e-07  -0.037571 -0.0982088 1.66893e-06  -0.0574344 -0.155602 2.6226e-06  -0.0788642 -0.224724 3.8147e-06  -0.101819 -0.304551 4.76837e-06  -0.126056 -0.392938 6.4373e-06  -0.151539 -0.488641 7.39098e-06  -0.17786 -0.589694 8.34465e-06  -0.204889 -0.695126 8.58307e-06  -0.232166 -0.803333 8.82149e-06  -0.259607 -0.913687 1.00136e-05  -0.28683 -1.02494 1.07288e-05  -0.313879 -1.13682 1.14441e-05  -0.340499 -1.24843 1.12057e-05  -0.366876 -1.35985 1.19209e-05  0 0 0  0.00049147 -0.0204436 0  0.000790417 -0.053461 7.15256e-07  -0.00068301 -0.0996933 1.66893e-06  -0.00515461 -0.160029 2.14577e-06  -0.0131453 -0.232523 3.8147e-06  -0.0249318 -0.315939 5.00679e-06  -0.0401119 -0.407559 5.72205e-06  -0.0584584 -0.506232 6.19888e-06  -0.0792279 -0.609664 7.39098e-06  -0.102105 -0.717112 7.15256e-06  -0.126323 -0.826749 7.86781e-06  -0.151657 -0.938236 8.58307e-06  -0.177452 -1.05015 9.29832e-06  -0.203643 -1.16253 1.0252e-05  -0.229736 -1.27433 1.07288e-05  -0.255813 -1.3859 1.09673e-05  0 0 0  0.00636268 -0.0243136 0  0.0204673 -0.0588915 0  0.0351492 -0.106812 1.19209e-06  0.0460598 -0.169348 1.90735e-06  0.0514662 -0.244548 2.6226e-06  0.0508645 -0.330621 4.05312e-06  0.0447452 -0.424882 5.00679e-06  0.033637 -0.525777 5.72205e-06  0.018481 -0.631182 6.91414e-06  -9.72748e-05 -0.740085 6.67572e-06  -0.0211794 -0.850915 6.67572e-06  -0.0442634 -0.963132 7.39098e-06  -0.0685763 -1.07561 8.10623e-06  -0.0938022 -1.18822 8.58307e-06  -0.119358 -1.30022 9.29832e-06  -0.145102 -1.41189 9.29832e-06  0 0 0  0.0159627 -0.0331134 -4.76837e-07  0.0465277 -0.0696397 -2.38419e-07  0.0774962 -0.119275 9.53674e-07  0.103048 -0.183896 1.43051e-06  0.121011 -0.261241 2.86102e-06  0.130828 -0.34955 3.57628e-06  0.133202 -0.445808 4.29153e-06  0.128825 -0.548506 5.24521e-06  0.118908 -0.655275 5.24521e-06  0.104233 -0.765265 5.72205e-06  0.0859814 -0.876742 5.72205e-06  0.0647869 -0.989391 6.19888e-06  0.0416698 -1.10198 6.91414e-06  0.017086 -1.21463 7.15256e-06  -0.00813413 -1.32653 7.86781e-06  -0.0337908 -1.43831 7.62939e-06  0 0 0  -0.0169485 -0.0236757 0.0185635  -0.0476662 -0.0530065 0.0242462  -0.0816936 -0.0944237 0.0237751  -0.115907 -0.148083 0.0211301  -0.149719 -0.214059 0.0177958  -0.182816 -0.290322 0.0145667  -0.215501 -0.376009 0.0115759  -0.24748 -0.468852 0.00901937  -0.279016 -0.568031 0.00676799  -0.309689 -0.671529 0.00494552  -0.339764 -0.77877 0.00338435  -0.368821 -0.888046 0.00221634  -0.397223 -0.999074 0.00127935  -0.42467 -1.11046 0.000721931  -0.451686 -1.22224 0.00036478  -0.47816 -1.33343 0.000229836  0 0 0  -0.00550151 -0.0184321 0.00639248  -0.0189577 -0.0485343 0.00972795  -0.0363544 -0.0927666 0.00994849  -0.0559003 -0.150416 0.00888252  -0.0771852 -0.220522 0.00749946  -0.100056 -0.300934 0.0061233  -0.124441 -0.390266 0.00488973  -0.150051 -0.486394 0.00380659  -0.176654 -0.588176 0.00288796  -0.203852 -0.693836 0.00211453  -0.231406 -0.802585 0.00148559  -0.258968 -0.913007 0.000988722  -0.286405 -1.02466 0.00061965  -0.313496 -1.13648 0.000366211  -0.340249 -1.24835 0.000211477  -0.366599 -1.35958 9.01222e-05  0 0 0  0.000708699 -0.0179122 0.000219822  0.0014497 -0.0484825 -0.000166893  0.000294209 -0.0946969 -0.00055027  -0.00391781 -0.155126 -0.000791073  -0.011935 -0.228598 -0.00085783  -0.0236638 -0.312325 -0.000845432  -0.0390705 -0.404888 -0.000774622  -0.0574503 -0.503803 -0.000692844  -0.0785277 -0.608035 -0.000594854  -0.101446 -0.715599 -0.000503063  -0.125967 -0.825887 -0.000407696  -0.151297 -0.937361 -0.000320196  -0.177347 -1.04979 -0.000234127  -0.203471 -1.16203 -0.000158787  -0.229753 -1.2742 -9.46522e-05  -0.255687 -1.38548 -5.31673e-05  0 0 0  0.0064241 -0.0219485 -0.00556564  0.0209755 -0.0544259 -0.00932717  0.0360398 -0.102206 -0.0102406  0.0471247 -0.164812 -0.00971031  0.052452 -0.240733 -0.00859714  0.0518035 -0.327133 -0.00734687  0.0455172 -0.422157 -0.00610924  0.0343456 -0.52336 -0.00497174  0.0190036 -0.629444 -0.00394154  0.000366211 -0.738562 -0.0030396  -0.0208895 -0.849953 -0.00225925  -0.0439994 -0.962267 -0.00160766  -0.0684485 -1.07518 -0.00108027  -0.0936553 -1.18775 -0.000681162  -0.119295 -1.30005 -0.00040555  -0.144952 -1.41152 -0.000217199  0 0 0  0.0155515 -0.0303227 -0.0152612  0.0467303 -0.0656396 -0.0205133  0.0783699 -0.115272 -0.0207613  0.104239 -0.179656 -0.0191445  0.122059 -0.257764 -0.0166991  0.13187 -0.346229 -0.014221  0.133977 -0.443326 -0.0117273  0.1296 -0.546178 -0.00951195  0.119402 -0.653703 -0.00741768  0.104741 -0.76377 -0.00565219  0.08621 -0.875888 -0.00405025  0.0650544 -0.988506 -0.00279641  0.0416908 -1.10161 -0.00173593  0.0171902 -1.21411 -0.00104904  -0.00820827 -1.32642 -0.000569582  -0.0336578 -1.43793 -0.000339508  0 0 0  -0.0173388 -0.00997626 0.0384588  -0.0460221 -0.0324597 0.0482421  -0.0771722 -0.0737354 0.046772  -0.109655 -0.130761 0.0416226  -0.1428 -0.200013 0.0351114  -0.17627 -0.279827 0.0289083  -0.209573 -0.367888 0.0230055  -0.242585 -0.463156 0.0180125  -0.27494 -0.563729 0.0135062  -0.306636 -0.668824 0.00990796  -0.337371 -0.776801 0.00675035  -0.367247 -0.887118 0.00443459  -0.396058 -0.998406 0.00252032  -0.424033 -1.1104 0.00141978  -0.45111 -1.22206 0.000684738  -0.47772 -1.33353 0.000441074  0 0 0  -0.00576399 -0.00633146 0.0127513  -0.0176275 -0.0317555 0.0187376  -0.032683 -0.0757581 0.0190287  -0.0506786 -0.135552 0.017101  -0.0713415 -0.207954 0.0145462  -0.0944059 -0.291042 0.0119951  -0.119317 -0.382361 0.00964093  -0.145748 -0.480545 0.00756812  -0.173111 -0.583664 0.00576425  -0.201154 -0.69077 0.00425243  -0.229361 -0.800322 0.00299764  -0.257604 -0.911708 0.00201321  -0.285488 -1.02374 0.00126553  -0.313027 -1.13612 0.000754595  -0.339967 -1.24803 0.000434637  -0.366467 -1.35946 0.000182867  0 0 0  0.00150627 -0.00679544 0.000154018  0.00348455 -0.033984 -0.000754356  0.00339776 -0.07964 -0.0015521  -0.000267506 -0.141592 -0.00190496  -0.00801802 -0.216493 -0.00197315  -0.0199941 -0.302496 -0.00184321  -0.0356663 -0.396617 -0.00166202  -0.054669 -0.497546 -0.00143886  -0.0761654 -0.602952 -0.00122976  -0.0997543 -0.712081 -0.00101924  -0.124624 -0.823119 -0.000828981  -0.15051 -0.935734 -0.000645638  -0.176745 -1.04852 -0.000478029  -0.20325 -1.16152 -0.000326633  -0.229537 -1.27371 -0.000199318  -0.255648 -1.38535 -0.000115156  0 0 0  0.00833225 -0.0119609 -0.0118754  0.0239408 -0.0409157 -0.0190856  0.0389006 -0.088044 -0.0207915  0.0496207 -0.151775 -0.0196471  0.0547136 -0.228947 -0.0173852  0.0537549 -0.317234 -0.0148358  0.0472124 -0.413727 -0.0123336  0.0356338 -0.51671 -0.0100257  0.0199759 -0.624019 -0.00794554  0.000919104 -0.734595 -0.00612926  -0.0205891 -0.846874 -0.00456047  -0.0440063 -0.96029 -0.00325775  -0.0685575 -1.07373 -0.00219941  -0.0939152 -1.18703 -0.00140023  -0.119526 -1.29947 -0.000840187  -0.145202 -1.41125 -0.000467062  0 0 0  0.0176927 -0.0215803 -0.0321012  0.0500184 -0.0525863 -0.0419743  0.0812952 -0.101308 -0.0421145  0.106488 -0.167088 -0.0386593  0.123982 -0.246386 -0.0336688  0.13339 -0.336792 -0.0286407  0.135335 -0.435157 -0.0235965  0.130527 -0.539793 -0.01913  0.120142 -0.648391 -0.0148945  0.105039 -0.759974 -0.0113511  0.0863783 -0.872884 -0.00810742  0.0648787 -0.986696 -0.00560474  0.0415256 -1.10024 -0.00345087  0.0168257 -1.21353 -0.00209212  -0.00845408 -1.32584 -0.00111437  -0.034049 -1.43768 -0.000679731  
SCALARS smooth_stress float 1
LOOKUP_TABLE default
4423.37 9960.22 11300.8 11134.6 10106.8 8791.39 7430.97 6078.77 4851.92 3781.94 2848.03 2068.06 1429.01 936.194 562.887 327.339 124.644 5979.44 14053.7 16768.9 17007.8 15782 14010.5 12101 10147.9 8323.83 6684.3 5270.69 4058.23 2952.4 2048.1 1319.86 764.339 276.693 2855.48 7880.03 10799 11550.9 11142.9 10246.5 9166.81 8029.96 6924.72 5851.98 4903.66 4023.79 3143.09 2346.22 1616.29 940.156 317.487 4444.93 11812.9 15462.4 15889.4 14864 13279 11527.4 9766.79 8162.83 6735.46 5406.43 4240.67 3238.76 2363.94 1599.67 960.739 342.473 3145.52 8026.29 10131.4 10211.7 9396.3 8251.62 7030.57 5805.95 4710.03 3785.85 2925.42 2207.04 1619.07 1129.63 740.355 457.584 177.035 8223.85 19425.9 22982.6 22685.3 20470.9 17704.4 14832.4 12063.7 9562.02 7369.81 5512.65 3969.38 2703.57 1709.19 1036.37 609.987 213.374 12012.6 28752 34605.7 34636.3 31632.3 27692.4 23616.8 19616.2 15921.3 12677.6 9917.96 7522.35 5417.7 3717.33 2423.67 1415.54 481.782 7304.35 18156.5 22667.9 23183 21691.1 19502.3 17188 14862.1 12685 10705.1 8914.27 7238.79 5639.7 4231.68 2926.46 1714.43 576.988 9920.06 24929.3 31271 31689 29250.7 25863.2 22270.7 18714.2 15578 12805 10227 7964.25 5993.01 4341.48 2914.4 1759.98 641.611 6404.44 16099 20226.2 20457 18721 16348.9 13867.1 11404.7 9252.3 7407.76 5718.02 4278.42 3067.43 2117.94 1375.24 851.104 333.03 7562.45 18865.3 23326.3 23107.3 20764.5 17858.4 14835.3 11977 9409.77 7164.01 5323.82 3815.5 2543.85 1567.87 956.038 560.589 193.912 12118.9 29498.9 35728.6 35260.4 31695.7 27362 22991.8 18849.5 15117.5 11912.4 9208.76 6867.05 4883.32 3311.86 2149.65 1254.34 422.307 9093.87 20894.6 23910.7 23267.8 20983.6 18364.2 15880.4 13528.1 11399.5 9579.99 7902.19 6320.17 4905.38 3678.64 2556.35 1538.38 539.981 11086.7 26433.8 31643.7 31530.4 28695.5 25005.9 21330.5 17867.9 14766.6 12029.6 9541.34 7364.91 5457.53 3908 2630.44 1640.32 628.644 6549.27 16172.8 20135.2 20415.8 18643.1 16145.3 13606.7 11212.4 9074.82 7198 5524.09 4096.29 2891.62 1973.35 1267.7 795.688 317.059 7842.66 19052.4 23111.3 22887.1 20562.3 17684.2 14768.7 11989.5 9458.73 7250.1 5453.05 3934.32 2621.66 1657.06 989.947 579.92 226.25 11989.6 29048.6 35207.6 34972.9 31622.9 27457.1 23229.8 19168.2 15490.6 12296.1 9556.26 7172.79 5130.66 3509.62 2264.24 1350.65 484.245 8200.85 19589.5 23426.6 23295.4 21329.4 18917.9 16496.6 14167.3 12039.3 10118.7 8348.83 6727.52 5235.51 3874.89 2712.31 1672.03 573.817 10510.5 25656.5 31437.8 31589.5 28924.8 25340.9 21711.2 18297.3 15148.7 12330.6 9829.88 7668.69 5705.82 4047.85 2742.09 1710.62 631.219 6456.64 16063.2 20107.5 20379.8 18655.9 16195.9 13675.7 11308.8 9141.27 7257.91 5584.26 4179.64 2979.32 2025.53 1304.08 809.327 315.396 4080.68 9652.78 11466.8 11330.6 10161.8 8738.85 7334.84 5997.35 4759.05 3673.96 2793.85 2020.15 1352.37 862.183 507.387 301.979 121.068 5903.86 14248.1 17315.9 17340.9 15777.4 13777 11753.9 9787.03 7970.53 6376.99 4994.77 3769.87 2712.63 1866.99 1218.41 747.505 267.027 3555.85 8971.36 11384.8 11659.7 10894.1 9809.48 8637.42 7471.38 6400.12 5391.79 4457.24 3622.35 2826.74 2081.71 1466.13 907.919 293.338 4898.96 12339.2 15602.8 15858.6 14615.9 12919.2 11124 9376.84 7797.36 6370.58 5109.09 4027.36 3002.54 2117.38 1426.37 869.551 301.713 3166.28 7963.12 10067.1 10209.3 9337.53 8147.9 6905.64 5695.13 4608.73 3681.83 2852.77 2154.73 1536.07 1040.49 671.261 407.159 154.334 
CELL_DATA 256
SCALARS stress float 1
LOOKUP_TABLE default
4423.37 5536.85 5764 5370.6 4736.24 4055.16 3375.81 2702.96 2148.97 1632.98 1215.06 853.006 576.001 360.193 202.694 124.644 1556.07 2537.39 2930.62 2942.56 2732.64 2486.42 2183.57 1885.55 1586.36 1316 1106.66 883.506 639.892 472.019 284.952 152.049 1299.41 2487.16 2843.88 2833.84 2633.88 2393.53 2103.29 1857.55 1595.25 1354.36 1126.64 906.981 712.708 521.602 337.716 165.438 3145.52 4880.77 5250.58 4961.1 4435.2 3816.42 3214.15 2591.81 2118.22 1667.62 1257.8 949.241 669.827 459.806 280.55 177.035 3800.48 5665.18 6016.59 5534.14 4829.89 4083.13 3318.27 2666.65 2043.45 1544.42 1120.19 781.126 493.433 279.559 193.918 88.7298 2232.66 3000.03 3155.1 2922.68 2563.51 2205.42 1909.03 1574.38 1312.96 1092.49 890.166 672.64 518.093 378.143 252.194 116.359 2216.21 2827.53 2886.24 2668.06 2393.96 2092.93 1813.79 1534.95 1338 1109.67 918.284 733.916 571.97 417.255 262.581 143.142 3258.92 4813.81 5281.05 4964.26 4360.42 3736.85 3099.71 2498.99 2043.28 1578.63 1213.96 857.419 590.947 397.361 237.524 155.996 3761.97 5637.66 6006.86 5549.67 4850.82 4094.52 3339.33 2652.78 2046.9 1529.24 1129.96 784.216 485.072 309.801 172.759 105.182 2323.8 3077.1 3170.06 2905.32 2539.64 2195.08 1847 1542.09 1278.3 1064.64 837.651 651.091 497.652 350.108 213.164 112.036 2321.2 2896.07 2898.59 2661.78 2328.64 2045.06 1772.05 1534.78 1284.03 1099.91 889.389 727.036 532.986 412.439 270.463 168.443 3290.36 4809.73 5230.66 4939.82 4378.6 3669.41 3100.68 2512.98 2019.57 1556.52 1174.98 849.928 593.329 391.712 241.105 161.063 4080.68 5572.1 5894.69 5435.86 4725.9 4012.94 3321.9 2675.45 2083.6 1590.36 1203.48 816.661 535.707 326.476 180.91 121.068 1823.17 2772.15 3076.95 2933.43 2682.24 2355.92 2063.11 1726.56 1484.92 1218.11 982.813 766.913 593.351 411.458 299.568 145.958 1732.68 2643.36 2892.3 2756.99 2521.4 2249.93 1968.46 1713.25 1475.39 1213.37 1042.95 829.675 636.802 440.096 315.013 147.379 3166.28 4796.84 5270.25 4939.09 4398.44 3749.47 3156.18 2538.95 2069.77 1612.05 1240.72 914.018 622.05 418.436 252.825 154.334 
SCALARS volume float 1
LOOKUP_TABLE default
2.50482 2.52068 2.5243 2.52587 2.5269 2.52778 2.52852 2.5292 2.52974 2.53026 2.53063 2.53099 2.53121 2.53143 2.5315 2.53157 2.5249 2.52356 2.52485 2.52575 2.52659 2.52737 2.5281 2.52875 2.52934 2.52983 2.53025 2.53057 2.53084 2.531 2.53111 2.53117 2.53495 2.53191 2.5302 2.52975 2.52967 2.5298 2.52998 2.53023 2.53043 2.53066 2.53081 2.53098 2.53106 2.53117 2.53118 2.53111 2.54732 2.53836 2.53534 2.53389 2.53308 2.53253 2.53217 2.53189 2.5317 2.53152 2.5314 2.53128 2.5312 2.5311 2.53103 2.53086 2.50624 2.51751 2.52269 2.52543 2.52689 2.5279 2.52861 2.52928 2.52979 2.5303 2.53066 2.53103 2.53126 2.53149 2.53155 2.53158 2.52632 2.52298 2.52464 2.52585 2.52693 2.52771 2.52846 2.52902 2.52957 2.52995 2.53035 2.53059 2.53086 2.53096 2.53109 2.53111 2.53289 2.53127 2.52955 2.52922 2.52931 2.52966 2.52995 2.53029 2.53052 2.53077 2.53092 2.5311 2.53117 2.53127 2.53126 2.53119 2.54478 2.53897 2.53558 2.53361 2.53271 2.5322 2.53197 2.53175 2.53164 2.53147 2.53141 2.53126 2.53122 2.53108 2.53105 2.53088 2.50616 2.51792 2.52267 2.52528 2.5268 2.52786 2.52861 2.52929 2.52981 2.53032 2.53068 2.53104 2.53126 2.53148 2.53153 2.53156 2.52625 2.52297 2.52455 2.5258 2.52689 2.52773 2.52846 2.52905 2.52957 2.52999 2.53035 2.53063 2.53086 2.531 2.53109 2.53114 2.53287 2.53119 2.52952 2.52922 2.52935 2.52966 2.52995 2.53027 2.5305 2.53075 2.5309 2.53107 2.53114 2.53124 2.53123 2.53116 2.5449 2.5385 2.53546 2.53366 2.53274 2.53226 2.53198 2.53179 2.53164 2.53151 2.53141 2.53129 2.53121 2.53111 2.53104 2.5309 2.50557 2.52072 2.52429 2.52597 2.52704 2.52794 2.52866 2.52932 2.52984 2.53033 2.53069 2.53103 2.53124 2.53144 2.53152 2.53158 2.52484 2.52339 2.5249 2.52587 2.52675 2.52747 2.52821 2.52879 2.52939 2.52982 2.53027 2.53053 2.53083 2.53095 2.5311 2.53113 2.53412 2.53168 2.53032 2.52992 2.52979 2.5299 2.53004 2.53028 2.53046 2.53068 2.53081 2.53097 2.53104 2.53115 2.53117 2.53111 2.5462 2.53809 2.53534 2.53386 2.53308 2.5325 2.53217 2.53185 2.53169 2.53148 2.53139 2.53123 2.53119 2.53107 2.53104 2.53084 
SCALARS volume_diff float 1
LOOKUP_TABLE default
2.48919 2.50506 2.50868 2.51025 2.51127 2.51215 2.51289 2.51357 2.51411 2.51464 2.51501 2.51537 2.51559 2.5158 2.51588 2.51594 2.50927 2.50794 2.50923 2.51013 2.51096 2.51175 2.51248 2.51312 2.51371 2.5142 2.51463 2.51494 2.51521 2.51537 2.51549 2.51555 2.51933 2.51628 2.51458 2.51412 2.51405 2.51417 2.51436 2.51461 2.51481 2.51504 2.51518 2.51535 2.51543 2.51554 2.51555 2.51549 2.5317 2.52273 2.51971 2.51826 2.51746 2.51691 2.51654 2.51626 2.51607 2.5159 2.51578 2.51565 2.51557 2.51547 2.5154 2.51523 2.49061 2.50189 2.50707 2.5098 2.51127 2.51227 2.51299 2.51365 2.51416 2.51467 2.51504 2.5154 2.51563 2.51586 2.51592 2.51595 2.5107 2.50735 2.50902 2.51023 2.5113 2.51209 2.51284 2.51339 2.51395 2.51433 2.51473 2.51496 2.51523 2.51534 2.51547 2.51548 2.51726 2.51565 2.51392 2.51359 2.51369 2.51403 2.51433 2.51467 2.5149 2.51515 2.5153 2.51547 2.51555 2.51564 2.51563 2.51556 2.52915 2.52335 2.51996 2.51798 2.51708 2.51658 2.51635 2.51612 2.51602 2.51585 2.51578 2.51564 2.51559 2.51546 2.51542 2.51525 2.49054 2.5023 2.50704 2.50966 2.51118 2.51223 2.51299 2.51367 2.51419 2.51469 2.51505 2.51541 2.51564 2.51585 2.5159 2.51593 2.51063 2.50735 2.50892 2.51017 2.51126 2.51211 2.51283 2.51342 2.51394 2.51436 2.51473 2.515 2.51523 2.51537 2.51547 2.51552 2.51724 2.51556 2.5139 2.5136 2.51372 2.51403 2.51433 2.51465 2.51488 2.51512 2.51527 2.51544 2.51551 2.51561 2.5156 2.51554 2.52928 2.52288 2.51983 2.51803 2.51712 2.51663 2.51636 2.51616 2.51601 2.51588 2.51578 2.51567 2.51559 2.51549 2.51541 2.51527 2.48995 2.50509 2.50866 2.51035 2.51142 2.51231 2.51304 2.5137 2.51422 2.51471 2.51507 2.5154 2.51562 2.51582 2.51589 2.51595 2.50921 2.50776 2.50927 2.51024 2.51113 2.51184 2.51258 2.51316 2.51377 2.51419 2.51464 2.51491 2.5152 2.51532 2.51547 2.51551 2.51849 2.51606 2.51469 2.51429 2.51417 2.51427 2.51441 2.51465 2.51483 2.51505 2.51518 2.51534 2.51542 2.51553 2.51555 2.51549 2.53058 2.52246 2.51971 2.51823 2.51746 2.51688 2.51654 2.51623 2.51607 2.51585 2.51577 2.51561 2.51556 2.51544 2.51541 2.51522 
