# vtk DataFile Version 5.1
vtk output
ASCII

DATASET UNSTRUCTURED_GRID
POINTS 425 float
0 0 3.3
0.25 0 3.3
0.5 0 3.3
0.75 0 3.3
1 0 3.3
1.25 0 3.3
1.5 0 3.3
1.75 0 3.3
2 0 3.3
2.25 0 3.3
2.5 0 3.3
2.75 0 3.3
3 0 3.3
3.25 0 3.3
3.5 0 3.3
3.75 0 3.3
4 0 3.3
0 0.25 3.3
0.25 0.25 3.3
0.5 0.25 3.3
0.75 0.25 3.3
1 0.25 3.3
1.25 0.25 3.3
1.5 0.25 3.3
1.75 0.25 3.3
2 0.25 3.3
2.25 0.25 3.3
2.5 0.25 3.3
2.75 0.25 3.3
3 0.25 3.3
3.25 0.25 3.3
3.5 0.25 3.3
3.75 0.25 3.3
4 0.25 3.3
0 0.5 3.3
0.25 0.5 3.3
0.5 0.5 3.3
0.75 0.5 3.3
1 0.5 3.3
1.25 0.5 3.3
1.5 0.5 3.3
1.75 0.5 3.3
2 0.5 3.3
2.25 0.5 3.3
2.5 0.5 3.3
2.75 0.5 3.3
3 0.5 3.3
3.25 0.5 3.3
3.5 0.5 3.3
3.75 0.5 3.3
4 0.5 3.3
0 0.75 3.3
0.25 0.75 3.3
0.5 0.75 3.3
0.75 0.75 3.3
1 0.75 3.3
1.25 0.75 3.3
1.5 0.75 3.3
1.75 0.75 3.3
2 0.75 3.3
2.25 0.75 3.3
2.5 0.75 3.3
2.75 0.75 3.3
3 0.75 3.3
3.25 0.75 3.3
3.5 0.75 3.3
3.75 0.75 3.3
4 0.75 3.3
0 1 3.3
0.25 1 3.3
0.5 1 3.3
0.75 1 3.3
1 1 3.3
1.25 1 3.3
1.5 1 3.3
1.75 1 3.3
2 1 3.3
2.25 1 3.3
2.5 1 3.3
2.75 1 3.3
3 1 3.3
3.25 1 3.3
3.5 1 3.3
3.75 1 3.3
4 1 3.3
0 0 3.55
0.25 0 3.55
0.5 0 3.55
0.75 0 3.55
1 0 3.55
1.25 0 3.55
1.5 0 3.55
1.75 0 3.55
2 0 3.55
2.25 0 3.55
2.5 0 3.55
2.75 0 3.55
3 0 3.55
3.25 0 3.55
3.5 0 3.55
3.75 0 3.55
4 0 3.55
0 0.25 3.55
0.25 0.25 3.55
0.5 0.25 3.55
0.75 0.25 3.55
1 0.25 3.55
1.25 0.25 3.55
1.5 0.25 3.55
1.75 0.25 3.55
2 0.25 3.55
2.25 0.25 3.55
2.5 0.25 3.55
2.75 0.25 3.55
3 0.25 3.55
3.25 0.25 3.55
3.5 0.25 3.55
3.75 0.25 3.55
4 0.25 3.55
0 0.5 3.55
0.25 0.5 3.55
0.5 0.5 3.55
0.75 0.5 3.55
1 0.5 3.55
1.25 0.5 3.55
1.5 0.5 3.55
1.75 0.5 3.55
2 0.5 3.55
2.25 0.5 3.55
2.5 0.5 3.55
2.75 0.5 3.55
3 0.5 3.55
3.25 0.5 3.55
3.5 0.5 3.55
3.75 0.5 3.55
4 0.5 3.55
0 0.75 3.55
0.25 0.75 3.55
0.5 0.75 3.55
0.75 0.75 3.55
1 0.75 3.55
1.25 0.75 3.55
1.5 0.75 3.55
1.75 0.75 3.55
2 0.75 3.55
2.25 0.75 3.55
2.5 0.75 3.55
2.75 0.75 3.55
3 0.75 3.55
3.25 0.75 3.55
3.5 0.75 3.55
3.75 0.75 3.55
4 0.75 3.55
0 1 3.55
0.25 1 3.55
0.5 1 3.55
0.75 1 3.55
1 1 3.55
1.25 1 3.55
1.5 1 3.55
1.75 1 3.55
2 1 3.55
2.25 1 3.55
2.5 1 3.55
2.75 1 3.55
3 1 3.55
3.25 1 3.55
3.5 1 3.55
3.75 1 3.55
4 1 3.55
0 0 3.8
0.25 0 3.8
0.5 0 3.8
0.75 0 3.8
1 0 3.8
1.25 0 3.8
1.5 0 3.8
1.75 0 3.8
2 0 3.8
2.25 0 3.8
2.5 0 3.8
2.75 0 3.8
3 0 3.8
3.25 0 3.8
3.5 0 3.8
3.75 0 3.8
4 0 3.8
0 0.25 3.8
0.25 0.25 3.8
0.5 0.25 3.8
0.75 0.25 3.8
1 0.25 3.8
1.25 0.25 3.8
1.5 0.25 3.8
1.75 0.25 3.8
2 0.25 3.8
2.25 0.25 3.8
2.5 0.25 3.8
2.75 0.25 3.8
3 0.25 3.8
3.25 0.25 3.8
3.5 0.25 3.8
3.75 0.25 3.8
4 0.25 3.8
0 0.5 3.8
0.25 0.5 3.8
0.5 0.5 3.8
0.75 0.5 3.8
1 0.5 3.8
1.25 0.5 3.8
1.5 0.5 3.8
1.75 0.5 3.8
2 0.5 3.8
2.25 0.5 3.8
2.5 0.5 3.8
2.75 0.5 3.8
3 0.5 3.8
3.25 0.5 3.8
3.5 0.5 3.8
3.75 0.5 3.8
4 0.5 3.8
0 0.75 3.8
0.25 0.75 3.8
0.5 0.75 3.8
0.75 0.75 3.8
1 0.75 3.8
1.25 0.75 3.8
1.5 0.75 3.8
1.75 0.75 3.8
2 0.75 3.8
2.25 0.75 3.8
2.5 0.75 3.8
2.75 0.75 3.8
3 0.75 3.8
3.25 0.75 3.8
3.5 0.75 3.8
3.75 0.75 3.8
4 0.75 3.8
0 1 3.8
0.25 1 3.8
0.5 1 3.8
0.75 1 3.8
1 1 3.8
1.25 1 3.8
1.5 1 3.8
1.75 1 3.8
2 1 3.8
2.25 1 3.8
2.5 1 3.8
2.75 1 3.8
3 1 3.8
3.25 1 3.8
3.5 1 3.8
3.75 1 3.8
4 1 3.8
0 0 4.05
0.25 0 4.05
0.5 0 4.05
0.75 0 4.05
1 0 4.05
1.25 0 4.05
1.5 0 4.05
1.75 0 4.05
2 0 4.05
2.25 0 4.05
2.5 0 4.05
2.75 0 4.05
3 0 4.05
3.25 0 4.05
3.5 0 4.05
3.75 0 4.05
4 0 4.05
0 0.25 4.05
0.25 0.25 4.05
0.5 0.25 4.05
0.75 0.25 4.05
1 0.25 4.05
1.25 0.25 4.05
1.5 0.25 4.05
1.75 0.25 4.05
2 0.25 4.05
2.25 0.25 4.05
2.5 0.25 4.05
2.75 0.25 4.05
3 0.25 4.05
3.25 0.25 4.05
3.5 0.25 4.05
3.75 0.25 4.05
4 0.25 4.05
0 0.5 4.05
0.25 0.5 4.05
0.5 0.5 4.05
0.75 0.5 4.05
1 0.5 4.05
1.25 0.5 4.05
1.5 0.5 4.05
1.75 0.5 4.05
2 0.5 4.05
2.25 0.5 4.05
2.5 0.5 4.05
2.75 0.5 4.05
3 0.5 4.05
3.25 0.5 4.05
3.5 0.5 4.05
3.75 0.5 4.05
4 0.5 4.05
0 0.75 4.05
0.25 0.75 4.05
0.5 0.75 4.05
0.75 0.75 4.05
1 0.75 4.05
1.25 0.75 4.05
1.5 0.75 4.05
1.75 0.75 4.05
2 0.75 4.05
2.25 0.75 4.05
2.5 0.75 4.05
2.75 0.75 4.05
3 0.75 4.05
3.25 0.75 4.05
3.5 0.75 4.05
3.75 0.75 4.05
4 0.75 4.05
0 1 4.05
0.25 1 4.05
0.5 1 4.05
0.75 1 4.05
1 1 4.05
1.25 1 4.05
1.5 1 4.05
1.75 1 4.05
2 1 4.05
2.25 1 4.05
2.5 1 4.05
2.75 1 4.05
3 1 4.05
3.25 1 4.05
3.5 1 4.05
3.75 1 4.05
4 1 4.05
0 0 4.3
0.25 0 4.3
0.5 0 4.3
0.75 0 4.3
1 0 4.3
1.25 0 4.3
1.5 0 4.3
1.75 0 4.3
2 0 4.3
2.25 0 4.3
2.5 0 4.3
2.75 0 4.3
3 0 4.3
3.25 0 4.3
3.5 0 4.3
3.75 0 4.3
4 0 4.3
0 0.25 4.3
0.25 0.25 4.3
0.5 0.25 4.3
0.75 0.25 4.3
1 0.25 4.3
1.25 0.25 4.3
1.5 0.25 4.3
1.75 0.25 4.3
2 0.25 4.3
2.25 0.25 4.3
2.5 0.25 4.3
2.75 0.25 4.3
3 0.25 4.3
3.25 0.25 4.3
3.5 0.25 4.3
3.75 0.25 4.3
4 0.25 4.3
0 0.5 4.3
0.25 0.5 4.3
0.5 0.5 4.3
0.75 0.5 4.3
1 0.5 4.3
1.25 0.5 4.3
1.5 0.5 4.3
1.75 0.5 4.3
2 0.5 4.3
2.25 0.5 4.3
2.5 0.5 4.3
2.75 0.5 4.3
3 0.5 4.3
3.25 0.5 4.3
3.5 0.5 4.3
3.75 0.5 4.3
4 0.5 4.3
0 0.75 4.3
0.25 0.75 4.3
0.5 0.75 4.3
0.75 0.75 4.3
1 0.75 4.3
1.25 0.75 4.3
1.5 0.75 4.3
1.75 0.75 4.3
2 0.75 4.3
2.25 0.75 4.3
2.5 0.75 4.3
2.75 0.75 4.3
3 0.75 4.3
3.25 0.75 4.3
3.5 0.75 4.3
3.75 0.75 4.3
4 0.75 4.3
0 1 4.3
0.25 1 4.3
0.5 1 4.3
0.75 1 4.3
1 1 4.3
1.25 1 4.3
1.5 1 4.3
1.75 1 4.3
2 1 4.3
2.25 1 4.3
2.5 1 4.3
2.75 1 4.3
3 1 4.3
3.25 1 4.3
3.5 1 4.3
3.75 1 4.3
4 1 4.3

CELLS 257 2048
OFFSETS vtktypeint64
0 8 16 24 32 40 48 56 64 72 80 88 96 104 112 120 128 136 144 152 160 168 176 184 192 200 208 216 224 232 240 248 256 264 272 280 288 296 304 312 320 328 336 344 352 360 368 376 384 392 400 408 416 424 432 440 448 456 464 472 480 488 496 504 512 520 528 536 544 552 560 568 576 584 592 600 608 616 624 632 640 648 656 664 672 680 688 696 704 712 720 728 736 744 752 760 768 776 784 792 800 808 816 824 832 840 848 856 864 872 880 888 896 904 912 920 928 936 944 952 960 968 976 984 992 1000 1008 1016 1024 1032 1040 1048 1056 1064 1072 1080 1088 1096 1104 1112 1120 1128 1136 1144 1152 1160 1168 1176 1184 1192 1200 1208 1216 1224 1232 1240 1248 1256 1264 1272 1280 1288 1296 1304 1312 1320 1328 1336 1344 1352 1360 1368 1376 1384 1392 1400 1408 1416 1424 1432 1440 1448 1456 1464 1472 1480 1488 1496 1504 1512 1520 1528 1536 1544 1552 1560 1568 1576 1584 1592 1600 1608 1616 1624 1632 1640 1648 1656 1664 1672 1680 1688 1696 1704 1712 1720 1728 1736 1744 1752 1760 1768 1776 1784 1792 1800 1808 1816 1824 1832 1840 1848 1856 1864 1872 1880 1888 1896 1904 1912 1920 1928 1936 1944 1952 1960 1968 1976 1984 1992 2000 2008 2016 2024 2032 2040 2048 
CONNECTIVITY vtktypeint64
0 1 86 85 17 18 103 102 
1 2 87 86 18 19 104 103 
2 3 88 87 19 20 105 104 
3 4 89 88 20 21 106 105 
4 5 90 89 21 22 107 106 
5 6 91 90 22 23 108 107 
6 7 92 91 23 24 109 108 
7 8 93 92 24 25 110 109 
8 9 94 93 25 26 111 110 
9 10 95 94 26 27 112 111 
10 11 96 95 27 28 113 112 
11 12 97 96 28 29 114 113 
12 13 98 97 29 30 115 114 
13 14 99 98 30 31 116 115 
14 15 100 99 31 32 117 116 
15 16 101 100 32 33 118 117 
17 18 103 102 34 35 120 119 
18 19 104 103 35 36 121 120 
19 20 105 104 36 37 122 121 
20 21 106 105 37 38 123 122 
21 22 107 106 38 39 124 123 
22 23 108 107 39 40 125 124 
23 24 109 108 40 41 126 125 
24 25 110 109 41 42 127 126 
25 26 111 110 42 43 128 127 
26 27 112 111 43 44 129 128 
27 28 113 112 44 45 130 129 
28 29 114 113 45 46 131 130 
29 30 115 114 46 47 132 131 
30 31 116 115 47 48 133 132 
31 32 117 116 48 49 134 133 
32 33 118 117 49 50 135 134 
34 35 120 119 51 52 137 136 
35 36 121 120 52 53 138 137 
36 37 122 121 53 54 139 138 
37 38 123 122 54 55 140 139 
38 39 124 123 55 56 141 140 
39 40 125 124 56 57 142 141 
40 41 126 125 57 58 143 142 
41 42 127 126 58 59 144 143 
42 43 128 127 59 60 145 144 
43 44 129 128 60 61 146 145 
44 45 130 129 61 62 147 146 
45 46 131 130 62 63 148 147 
46 47 132 131 63 64 149 148 
47 48 133 132 64 65 150 149 
48 49 134 133 65 66 151 150 
49 50 135 134 66 67 152 151 
51 52 137 136 68 69 154 153 
52 53 138 137 69 70 155 154 
53 54 139 138 70 71 156 155 
54 55 140 139 71 72 157 156 
55 56 141 140 72 73 158 157 
56 57 142 141 73 74 159 158 
57 58 143 142 74 75 160 159 
58 59 144 143 75 76 161 160 
59 60 145 144 76 77 162 161 
60 61 146 145 77 78 163 162 
61 62 147 146 78 79 164 163 
62 63 148 147 79 80 165 164 
63 64 149 148 80 81 166 165 
64 65 150 149 81 82 167 166 
65 66 151 150 82 83 168 167 
66 67 152 151 83 84 169 168 
85 86 171 170 102 103 188 187 
86 87 172 171 103 104 189 188 
87 88 173 172 104 105 190 189 
88 89 174 173 105 106 191 190 
89 90 175 174 106 107 192 191 
90 91 176 175 107 108 193 192 
91 92 177 176 108 109 194 193 
92 93 178 177 109 110 195 194 
93 94 179 178 110 111 196 195 
94 95 180 179 111 112 197 196 
95 96 181 180 112 113 198 197 
96 97 182 181 113 114 199 198 
97 98 183 182 114 115 200 199 
98 99 184 183 115 116 201 200 
99 100 185 184 116 117 202 201 
100 101 186 185 117 118 203 202 
102 103 188 187 119 120 205 204 
103 104 189 188 120 121 206 205 
104 105 190 189 121 122 207 206 
105 106 191 190 122 123 208 207 
106 107 192 191 123 124 209 208 
107 108 193 192 124 125 210 209 
108 109 194 193 125 126 211 210 
109 110 195 194 126 127 212 211 
110 111 196 195 127 128 213 212 
111 112 197 196 128 129 214 213 
112 113 198 197 129 130 215 214 
113 114 199 198 130 131 216 215 
114 115 200 199 131 132 217 216 
115 116 201 200 132 133 218 217 
116 117 202 201 133 134 219 218 
117 118 203 202 134 135 220 219 
119 120 205 204 136 137 222 221 
120 121 206 205 137 138 223 222 
121 122 207 206 138 139 224 223 
122 123 208 207 139 140 225 224 
123 124 209 208 140 141 226 225 
124 125 210 209 141 142 227 226 
125 126 211 210 142 143 228 227 
126 127 212 211 143 144 229 228 
127 128 213 212 144 145 230 229 
128 129 214 213 145 146 231 230 
129 130 215 214 146 147 232 231 
130 131 216 215 147 148 233 232 
131 132 217 216 148 149 234 233 
132 133 218 217 149 150 235 234 
133 134 219 218 150 151 236 235 
134 135 220 219 151 152 237 236 
136 137 222 221 153 154 239 238 
137 138 223 222 154 155 240 239 
138 139 224 223 155 156 241 240 
139 140 225 224 156 157 242 241 
140 141 226 225 157 158 243 242 
141 142 227 226 158 159 244 243 
142 143 228 227 159 160 245 244 
143 144 229 228 160 161 246 245 
144 145 230 229 161 162 247 246 
145 146 231 230 162 163 248 247 
146 147 232 231 163 164 249 248 
147 148 233 232 164 165 250 249 
148 149 234 233 165 166 251 250 
149 150 235 234 166 167 252 251 
150 151 236 235 167 168 253 252 
151 152 237 236 168 169 254 253 
170 171 256 255 187 188 273 272 
171 172 257 256 188 189 274 273 
172 173 258 257 189 190 275 274 
173 174 259 258 190 191 276 275 
174 175 260 259 191 192 277 276 
175 176 261 260 192 193 278 277 
176 177 262 261 193 194 279 278 
177 178 263 262 194 195 280 279 
178 179 264 263 195 196 281 280 
179 180 265 264 196 197 282 281 
180 181 266 265 197 198 283 282 
181 182 267 266 198 199 284 283 
182 183 268 267 199 200 285 284 
183 184 269 268 200 201 286 285 
184 185 270 269 201 202 287 286 
185 186 271 270 202 203 288 287 
187 188 273 272 204 205 290 289 
188 189 274 273 205 206 291 290 
189 190 275 274 206 207 292 291 
190 191 276 275 207 208 293 292 
191 192 277 276 208 209 294 293 
192 193 278 277 209 210 295 294 
193 194 279 278 210 211 296 295 
194 195 280 279 211 212 297 296 
195 196 281 280 212 213 298 297 
196 197 282 281 213 214 299 298 
197 198 283 282 214 215 300 299 
198 199 284 283 215 216 301 300 
199 200 285 284 216 217 302 301 
200 201 286 285 217 218 303 302 
201 202 287 286 218 219 304 303 
202 203 288 287 219 220 305 304 
204 205 290 289 221 222 307 306 
205 206 291 290 222 223 308 307 
206 207 292 291 223 224 309 308 
207 208 293 292 224 225 310 309 
208 209 294 293 225 226 311 310 
209 210 295 294 226 227 312 311 
210 211 296 295 227 228 313 312 
211 212 297 296 228 229 314 313 
212 213 298 297 229 230 315 314 
213 214 299 298 230 231 316 315 
214 215 300 299 231 232 317 316 
215 216 301 300 232 233 318 317 
216 217 302 301 233 234 319 318 
217 218 303 302 234 235 320 319 
218 219 304 303 235 236 321 320 
219 220 305 304 236 237 322 321 
221 222 307 306 238 239 324 323 
222 223 308 307 239 240 325 324 
223 224 309 308 240 241 326 325 
224 225 310 309 241 242 327 326 
225 226 311 310 242 243 328 327 
226 227 312 311 243 244 329 328 
227 228 313 312 244 245 330 329 
228 229 314 313 245 246 331 330 
229 230 315 314 246 247 332 331 
230 231 316 315 247 248 333 332 
231 232 317 316 248 249 334 333 
232 233 318 317 249 250 335 334 
233 234 319 318 250 251 336 335 
234 235 320 319 251 252 337 336 
235 236 321 320 252 253 338 337 
236 237 322 321 253 254 339 338 
255 256 341 340 272 273 358 357 
256 257 342 341 273 274 359 358 
257 258 343 342 274 275 360 359 
258 259 344 343 275 276 361 360 
259 260 345 344 276 277 362 361 
260 261 346 345 277 278 363 362 
261 262 347 346 278 279 364 363 
262 263 348 347 279 280 365 364 
263 264 349 348 280 281 366 365 
264 265 350 349 281 282 367 366 
265 266 351 350 282 283 368 367 
266 267 352 351 283 284 369 368 
267 268 353 352 284 285 370 369 
268 269 354 353 285 286 371 370 
269 270 355 354 286 287 372 371 
270 271 356 355 287 288 373 372 
272 273 358 357 289 290 375 374 
273 274 359 358 290 291 376 375 
274 275 360 359 291 292 377 376 
275 276 361 360 292 293 378 377 
276 277 362 361 293 294 379 378 
277 278 363 362 294 295 380 379 
278 279 364 363 295 296 381 380 
279 280 365 364 296 297 382 381 
280 281 366 365 297 298 383 382 
281 282 367 366 298 299 384 383 
282 283 368 367 299 300 385 384 
283 284 369 368 300 301 386 385 
284 285 370 369 301 302 387 386 
285 286 371 370 302 303 388 387 
286 287 372 371 303 304 389 388 
287 288 373 372 304 305 390 389 
289 290 375 374 306 307 392 391 
290 291 376 375 307 308 393 392 
291 292 377 376 308 309 394 393 
292 293 378 377 309 310 395 394 
293 294 379 378 310 311 396 395 
294 295 380 379 311 312 397 396 
295 296 381 380 312 313 398 397 
296 297 382 381 313 314 399 398 
297 298 383 382 314 315 400 399 
298 299 384 383 315 316 401 400 
299 300 385 384 316 317 402 401 
300 301 386 385 317 318 403 402 
301 302 387 386 318 319 404 403 
302 303 388 387 319 320 405 404 
303 304 389 388 320 321 406 405 
304 305 390 389 321 322 407 406 
306 307 392 391 323 324 409 408 
307 308 393 392 324 325 410 409 
308 309 394 393 325 326 411 410 
309 310 395 394 326 327 412 411 
310 311 396 395 327 328 413 412 
311 312 397 396 328 329 414 413 
312 313 398 397 329 330 415 414 
313 314 399 398 330 331 416 415 
314 315 400 399 331 332 417 416 
315 316 401 400 332 333 418 417 
316 317 402 401 333 334 419 418 
317 318 403 402 334 335 420 419 
318 319 404 403 335 336 421 420 
319 320 405 404 336 337 422 421 
320 321 406 405 337 338 423 422 
321 322 407 406 338 339 424 423 
CELL_TYPES 256
12 12 12 12 12 12 12 12 12 12 12 12 12 12 12 12 12 12 12 12 12 12 12 12 12 12 12 12 12 12 12 12 12 12 12 12 12 12 12 12 12 12 12 12 12 12 12 12 12 12 12 12 12 12 12 12 12 12 12 12 12 12 12 12 12 12 12 12 12 12 12 12 12 12 12 12 12 12 12 12 12 12 12 12 12 12 12 12 12 12 12 12 12 12 12 12 12 12 12 12 12 12 12 12 12 12 12 12 12 12 12 12 12 12 12 12 12 12 12 12 12 12 12 12 12 12 12 12 12 12 12 12 12 12 12 12 12 12 12 12 12 12 12 12 12 12 12 12 12 12 12 12 12 12 12 12 12 12 12 12 12 12 12 12 12 12 12 12 12 12 12 12 12 12 12 12 12 12 12 12 12 12 12 12 12 12 12 12 12 12 12 12 12 12 12 12 12 12 12 12 12 12 12 12 12 12 12 12 12 12 12 12 12 12 12 12 12 12 12 12 12 12 12 12 12 12 12 12 12 12 12 12 12 12 12 12 12 12 12 12 12 12 12 12 12 12 12 12 12 12 12 12 12 12 12 12 

POINT_DATA 425
SCALARS weights float 1
LOOKUP_TABLE default
1.95313 3.90625 3.90625 3.90625 3.90625 3.90625 3.90625 3.90625 3.90625 3.90625 3.90625 3.90625 3.90625 3.90625 3.90625 3.90625 1.95313 3.90625 7.8125 7.8125 7.8125 7.8125 7.8125 7.8125 7.8125 7.8125 7.8125 7.8125 7.8125 7.8125 7.8125 7.8125 7.8125 3.90625 3.90625 7.8125 7.8125 7.8125 7.8125 7.8125 7.8125 7.8125 7.8125 7.8125 7.8125 7.8125 7.8125 7.8125 7.8125 7.8125 3.90625 3.90625 7.8125 7.8125 7.8125 7.8125 7.8125 7.8125 7.8125 7.8125 7.8125 7.8125 7.8125 7.8125 7.8125 7.8125 7.8125 3.90625 1.95313 3.90625 3.90625 3.90625 3.90625 3.90625 3.90625 3.90625 3.90625 3.90625 3.90625 3.90625 3.90625 3.90625 3.90625 3.90625 1.95312 3.90625 7.8125 7.8125 7.8125 7.8125 7.8125 7.8125 7.8125 7.8125 7.8125 7.8125 7.8125 7.8125 7.8125 7.8125 7.8125 3.90625 7.8125 15.625 15.625 15.625 15.625 15.625 15.625 15.625 15.625 15.625 15.625 15.625 15.625 15.625 15.625 15.625 7.8125 7.8125 15.625 15.625 15.625 15.625 15.625 15.625 15.625 15.625 15.625 15.625 15.625 15.625 15.625 15.625 15.625 7.8125 7.8125 15.625 15.625 15.625 15.625 15.625 15.625 15.625 15.625 15.625 15.625 15.625 15.625 15.625 15.625 15.625 7.8125 3.90625 7.8125 7.8125 7.8125 7.8125 7.8125 7.8125 7.8125 7.8125 7.8125 7.8125 7.8125 7.8125 7.8125 7.8125 7.8125 3.90625 3.90625 7.8125 7.8125 7.8125 7.8125 7.8125 7.81251 7.8125 7.8125 7.8125 7.8125 7.8125 7.8125 7.81251 7.8125 7.8125 3.90625 7.8125 15.625 15.625 15.625 15.625 15.625 15.625 15.625 15.625 15.625 15.625 15.625 15.625 15.625 15.625 15.625 7.8125 7.8125 15.625 15.625 15.625 15.625 15.625 15.625 15.625 15.625 15.625 15.625 15.625 15.625 15.625 15.625 15.625 7.8125 7.8125 15.625 15.625 15.625 15.625 15.625 15.625 15.625 15.625 15.625 15.625 15.625 15.625 15.625 15.625 15.625 7.8125 3.90625 7.8125 7.8125 7.8125 7.8125 7.8125 7.8125 7.8125 7.8125 7.8125 7.8125 7.8125 7.8125 7.81251 7.8125 7.8125 3.90625 3.90625 7.81251 7.81251 7.81251 7.81251 7.81251 7.81251 7.81251 7.8125 7.81251 7.81251 7.81251 7.81251 7.81251 7.81251 7.81251 3.90625 7.81251 15.625 15.625 15.625 15.625 15.625 15.625 15.625 15.625 15.625 15.625 15.625 15.625 15.625 15.625 15.625 7.81251 7.81251 15.625 15.625 15.625 15.625 15.625 15.625 15.625 15.625 15.625 15.625 15.625 15.625 15.625 15.625 15.625 7.81251 7.81251 15.625 15.625 15.625 15.625 15.625 15.625 15.625 15.625 15.625 15.625 15.625 15.625 15.625 15.625 15.625 7.81251 3.90625 7.81251 7.81251 7.81251 7.81251 7.81251 7.81251 7.81251 7.8125 7.8125 7.81251 7.81251 7.81251 7.81251 7.81251 7.8125 3.90625 1.95312 3.90625 3.90625 3.90625 3.90625 3.90625 3.90625 3.90625 3.90625 3.90625 3.90625 3.90625 3.90625 3.90625 3.90625 3.90625 1.95312 3.90625 7.8125 7.8125 7.8125 7.8125 7.8125 7.8125 7.8125 7.8125 7.8125 7.8125 7.8125 7.8125 7.8125 7.8125 7.8125 3.90625 3.90625 7.8125 7.8125 7.8125 7.8125 7.8125 7.8125 7.8125 7.8125 7.8125 7.8125 7.8125 7.8125 7.8125 7.8125 7.8125 3.90625 3.90625 7.8125 7.8125 7.8125 7.8125 7.8125 7.8125 7.8125 7.8125 7.8125 7.8125 7.8125 7.8125 7.8125 7.8125 7.8125 3.90625 1.95312 3.90625 3.90625 3.90625 3.90625 3.90625 3.90625 3.90625 3.90625 3.90625 3.90625 3.90625 3.90625 3.90625 3.90625 3.90625 1.95312 
VECTORS u float
0 0 0  -0.00928722 -0.0067366 -0.0193586  -0.0249813 -0.0193396 -0.0247316  -0.041544 -0.0415628 -0.0243084  -0.0579551 -0.0723181 -0.02191  -0.0737821 -0.109934 -0.0187192  -0.0888405 -0.153523 -0.0155993  -0.102983 -0.201792 -0.0125692  -0.116211 -0.254111 -0.00995255  -0.128483 -0.309372 -0.00755215  -0.139875 -0.367094 -0.00560069  -0.150387 -0.426332 -0.00386763  -0.160139 -0.486773 -0.00256991  -0.169167 -0.547644 -0.00148749  -0.177635 -0.608813 -0.000846148  -0.185627 -0.669719 -0.000410557  -0.193375 -0.730484 -0.000245094  0 0 0  -0.0034374 -0.0038622 -0.00659633  -0.0102041 -0.017346 -0.0099721  -0.018144 -0.04047 -0.0103655  -0.0267625 -0.0721365 -0.00948811  -0.0358144 -0.110803 -0.00820065  -0.0451573 -0.155498 -0.00685573  -0.054613 -0.204888 -0.00558138  -0.0641057 -0.258224 -0.00443721  -0.0734951 -0.31439 -0.00342679  -0.0827482 -0.372841 -0.00256515  -0.091753 -0.432668 -0.00183868  -0.100521 -0.493525 -0.0012567  -0.108976 -0.5547 -0.000803947  -0.117169 -0.616051 -0.000484705  -0.12506 -0.677083 -0.000274897  -0.132751 -0.737828 -0.000118732  0 0 0  0.00042361 -0.00335622 -3.50475e-05  0.000985503 -0.0173263 0.000214338  0.000989199 -0.040946 0.000431776  1.00136e-05 -0.0732691 0.000528574  -0.00210738 -0.112678 0.00054884  -0.00541961 -0.158271 0.000514746  -0.00979507 -0.208513 0.000465393  -0.0151387 -0.262711 0.000405073  -0.0212183 -0.319585 0.000348568  -0.0279179 -0.378688 0.000291586  -0.0350025 -0.438985 0.000239611  -0.0423903 -0.500252 0.000189781  -0.0498853 -0.561674 0.000145435  -0.0574613 -0.623245 0.000104904  -0.0649726 -0.684368 7.03335e-05  -0.0724311 -0.745183 5.05447e-05  0 0 0  0.00414985 -0.00544155 0.00636554  0.0119788 -0.0199155 0.0100756  0.0199519 -0.0439169 0.0108469  0.0266311 -0.0766876 0.0101848  0.0314338 -0.116692 0.00897741  0.0341318 -0.162857 0.00763893  0.0348078 -0.213722 0.00632596  0.0336072 -0.268436 0.00512314  0.0308287 -0.325814 0.00404072  0.0267005 -0.385276 0.00309896  0.0215452 -0.445904 0.00228977  0.0155659 -0.507357 0.00162411  0.00904322 -0.568952 0.00108886  0.00211525 -0.630575 0.000691175  -0.00500822 -0.691767 0.000417709  -0.0122204 -0.752613 0.000232697  0 0 0  0.00936106 -0.00995499 0.0176077  0.0260688 -0.0249442 0.0229604  0.0427182 -0.0492555 0.0229635  0.057192 -0.0824853 0.0210214  0.0687538 -0.122943 0.0182559  0.0771639 -0.169544 0.0154734  0.0825545 -0.220766 0.0126948  0.0851455 -0.275789 0.0102391  0.0853283 -0.33338 0.00792885  0.0834267 -0.392999 0.00600433  0.0798681 -0.453687 0.00425577  0.0749576 -0.515159 0.00291538  0.0690863 -0.5767 0.00177169  0.0625031 -0.638255 0.00106072  0.0555358 -0.699353 0.000560999  0.0483708 -0.76023 0.000346184  0 0 0  -0.0087398 -0.0132366 -0.00928807  -0.0249726 -0.0291981 -0.0122907  -0.0426818 -0.0517403 -0.0122123  -0.059913 -0.0811344 -0.0110192  -0.0761417 -0.117379 -0.00940895  -0.0912031 -0.15934 -0.00781631  -0.1052 -0.206486 -0.00629139  -0.118122 -0.257555 -0.00496864  -0.130118 -0.31206 -0.00377035  -0.141163 -0.368869 -0.00278974  -0.151419 -0.427653 -0.00192857  -0.160871 -0.487455 -0.00127769  -0.169713 -0.548131 -0.000741959  -0.177977 -0.608918 -0.000419855  -0.18592 -0.669868 -0.000204563  -0.193622 -0.730469 -0.000117064  0 0 0  -0.00303137 -0.0100153 -0.00324893  -0.0102392 -0.0258904 -0.00508451  -0.0191146 -0.0493036 -0.00531983  -0.0284328 -0.0800663 -0.00485253  -0.0378242 -0.11771 -0.00417328  -0.0471848 -0.161107 -0.00346565  -0.0565103 -0.209499 -0.00280952  -0.0657511 -0.261732 -0.00221968  -0.0748897 -0.317151 -0.00170851  -0.0838513 -0.374763 -0.00127077  -0.0926197 -0.4341 -0.000906229  -0.101133 -0.494366 -0.000611782  -0.109408 -0.555291 -0.000385761  -0.117419 -0.616281 -0.000226259  -0.125224 -0.677273 -0.000124454  -0.132846 -0.737887 -4.74453e-05  0 0 0  0.000199527 -0.00927326 -5.67436e-05  0.000415325 -0.0251009 4.81606e-05  0.000118852 -0.0490943 0.000153065  -0.00102174 -0.0807068 0.000217676  -0.00322235 -0.119401 0.000237465  -0.00647748 -0.16382 0.000235796  -0.0107824 -0.213231 0.000217438  -0.0159556 -0.266332 0.000196218  -0.0219138 -0.322541 0.000171661  -0.0284219 -0.380756 0.000147343  -0.0354006 -0.440608 0.000122547  -0.0426278 -0.501212 9.9659e-05  -0.0500638 -0.562411 7.79629e-05  -0.0575285 -0.623538 5.8651e-05  -0.0650353 -0.684646 4.17233e-05  -0.072444 -0.745255 3.19481e-05  0 0 0  0.00329122 -0.0109928 0.00302792  0.0108249 -0.0275303 0.00497556  0.0190986 -0.0519236 0.00539637  0.0261266 -0.084064 0.00507402  0.0311319 -0.123341 0.00446939  0.0339694 -0.168438 0.00380039  0.0347164 -0.218463 0.00314641  0.0336089 -0.272163 0.0025475  0.0308819 -0.328835 0.00200963  0.0268338 -0.387461 0.00154042  0.0217035 -0.447577 0.00113821  0.0157688 -0.508402 0.00080514  0.00922537 -0.5697 0.000540495  0.00230145 -0.630917 0.000341654  -0.00486493 -0.692035 0.000209332  -0.0120916 -0.752722 0.000115156  0 0 0  0.0083518 -0.0150749 0.00838447  0.0247274 -0.032692 0.0112531  0.0418134 -0.0575054 0.0113578  0.0567783 -0.0898948 0.0104396  0.0686116 -0.129562 0.00907516  0.077206 -0.175 0.0076952  0.0826538 -0.22543 0.00631595  0.0853395 -0.279403 0.00509548  0.085536 -0.336348 0.00395083  0.0837097 -0.395088 0.00299358  0.0801351 -0.455312 0.00212789  0.0752647 -0.516104 0.00146055  0.0693347 -0.577397 0.000894785  0.0627592 -0.638516 0.000539303  0.0557327 -0.699625 0.000292063  0.048604 -0.76032 0.00018239  0 0 0  -0.00913425 -0.0152938 7.15256e-07  -0.0253143 -0.0320368 7.15256e-07  -0.0428985 -0.0546493 1.43051e-06  -0.0601717 -0.084095 2.38419e-06  -0.0764457 -0.119827 3.33786e-06  -0.0915836 -0.16155 4.29153e-06  -0.10555 -0.208115 4.29153e-06  -0.118476 -0.258992 6.19888e-06  -0.130384 -0.313013 7.15256e-06  -0.141412 -0.369733 8.10623e-06  -0.151572 -0.42813 1.00136e-05  -0.161018 -0.487934 1.21593e-05  -0.169783 -0.548311 1.50204e-05  -0.178063 -0.609177 1.64509e-05  -0.185933 -0.669902 1.62125e-05  -0.193631 -0.730661 1.85966e-05  0 0 0  -0.00319798 -0.0115321 4.76837e-07  -0.0105269 -0.0286224 -2.38419e-07  -0.0194649 -0.052138 7.15256e-07  -0.0288934 -0.0828227 2.38419e-07  -0.0383611 -0.119999 1.66893e-06  -0.0477765 -0.163133 1.43051e-06  -0.057073 -0.211044 2.14577e-06  -0.066282 -0.263065 3.8147e-06  -0.075331 -0.318081 5.24521e-06  -0.0842373 -0.375567 6.19888e-06  -0.0929098 -0.434586 8.58307e-06  -0.10138 -0.494805 1.07288e-05  -0.109577 -0.555491 1.23978e-05  -0.117569 -0.616512 1.38283e-05  -0.125324 -0.677344 1.43051e-05  -0.132949 -0.738068 1.54972e-05  0 0 0  0.000138134 -0.0106384 4.76837e-07  0.000229716 -0.0277694 -4.76837e-07  -0.000157475 -0.0518113 -1.43051e-06  -0.00137079 -0.0833907 -9.53674e-07  -0.0035702 -0.121594 -4.76837e-07  -0.0068419 -0.165844 -7.15256e-07  -0.0110871 -0.214758 2.38419e-07  -0.0162494 -0.26772 2.38419e-06  -0.0221231 -0.323487 4.05312e-06  -0.0286171 -0.381628 5.00679e-06  -0.0355105 -0.441108 6.67572e-06  -0.0427344 -0.50171 8.34465e-06  -0.0500982 -0.562614 1.04904e-05  -0.0575793 -0.623814 1.14441e-05  -0.0650327 -0.684709 1.26362e-05  -0.0724797 -0.745481 1.3113e-05  0 0 0  0.00331569 -0.0123323 -4.76837e-07  0.0107092 -0.0300286 -1.43051e-06  0.0188556 -0.0545175 -2.6226e-06  0.0258516 -0.0866299 -2.6226e-06  0.0309108 -0.125512 -2.6226e-06  0.0337826 -0.17042 -2.38419e-06  0.0345881 -0.220016 -1.66893e-06  0.0334959 -0.273541 -7.15256e-07  0.0308175 -0.329826 9.53674e-07  0.0267735 -0.388331 3.09944e-06  0.0216854 -0.448124 5.48363e-06  0.0157428 -0.508896 6.91414e-06  0.00923276 -0.569945 7.62939e-06  0.00229192 -0.631184 8.58307e-06  -0.00485349 -0.692133 1.07288e-05  -0.0121157 -0.75293 1.04904e-05  0 0 0  0.00859877 -0.0167132 -1.90735e-06  0.024718 -0.0350328 -3.09944e-06  0.0415165 -0.0598855 -3.57628e-06  0.0563774 -0.0923764 -5.00679e-06  0.0682733 -0.131628 -5.72205e-06  0.0769023 -0.176946 -5.00679e-06  0.0824422 -0.226894 -4.05312e-06  0.0851393 -0.280754 -3.57628e-06  0.0854173 -0.337263 -7.15256e-07  0.0835881 -0.395945 4.76837e-07  0.0800889 -0.455799 2.6226e-06  0.0752075 -0.516601 5.24521e-06  0.0693462 -0.577596 5.48363e-06  0.062748 -0.638794 6.4373e-06  0.055763 -0.69967 7.86781e-06  0.0485597 -0.760524 9.29832e-06  0 0 0  -0.00873938 -0.0132356 0.00928926  -0.0249719 -0.0291965 0.0122929  -0.0426812 -0.0517379 0.0122151  -0.0599121 -0.0811305 0.011024  -0.0761415 -0.117376 0.0094161  -0.0912037 -0.159335 0.00782537  -0.105202 -0.206481 0.0063014  -0.118124 -0.257549 0.00498104  -0.13012 -0.312057 0.00378513  -0.141166 -0.368864 0.00280619  -0.151422 -0.427648 0.00194883  -0.160873 -0.48745 0.00130224  -0.169716 -0.548126 0.000772476  -0.177979 -0.608912 0.000452995  -0.185922 -0.669863 0.000238419  -0.193625 -0.730463 0.000154495  0 0 0  -0.00303085 -0.0100141 0.00325012  -0.0102392 -0.0258887 0.00508499  -0.0191146 -0.0493006 0.00532055  -0.028433 -0.0800623 0.0048542  -0.0378243 -0.117706 0.00417662  -0.0471854 -0.161102 0.00346899  -0.0565114 -0.209494 0.00281382  -0.0657519 -0.261727 0.00222826  -0.0748906 -0.317147 0.00171947  -0.0838525 -0.374759 0.00128365  -0.0926208 -0.434096 0.000923634  -0.101135 -0.494362 0.000634193  -0.10941 -0.555286 0.00041151  -0.11742 -0.616276 0.000253677  -0.125224 -0.677268 0.000154018  -0.132847 -0.737881 7.82013e-05  0 0 0  0.000199825 -0.00927216 5.76973e-05  0.000415921 -0.0250989 -4.91142e-05  0.00011909 -0.0490912 -0.000154972  -0.00102204 -0.0807025 -0.000219822  -0.00322282 -0.119397 -0.000238419  -0.00647795 -0.163814 -0.000236511  -0.0107838 -0.213226 -0.000216007  -0.0159572 -0.266327 -0.000192642  -0.0219157 -0.322537 -0.000163555  -0.0284231 -0.380752 -0.000136852  -0.0354028 -0.440603 -0.000108719  -0.0426295 -0.501207 -8.29697e-05  -0.050066 -0.562406 -5.67436e-05  -0.0575302 -0.623533 -3.52859e-05  -0.0650363 -0.684641 -1.62125e-05  -0.0724447 -0.74525 -4.76837e-06  0 0 0  0.00329107 -0.0109921 -0.00302696  0.0108245 -0.0275278 -0.0049777  0.0190985 -0.0519204 -0.00540161  0.0261269 -0.0840595 -0.00507879  0.0311319 -0.123336 -0.00447464  0.0339689 -0.168432 -0.00380421  0.0347152 -0.218458 -0.00315046  0.033608 -0.272158 -0.00254869  0.0308802 -0.32883 -0.00200748  0.0268321 -0.387456 -0.00153494  0.0217016 -0.447572 -0.00112772  0.0157669 -0.508398 -0.000791073  0.00922394 -0.569695 -0.000524521  0.00230002 -0.630912 -0.000324726  -0.00486636 -0.692029 -0.000187874  -0.0120928 -0.752717 -9.34601e-05  0 0 0  0.0083513 -0.0150741 -0.00838804  0.0247268 -0.0326899 -0.0112586  0.0418126 -0.057502 -0.0113645  0.0567776 -0.0898905 -0.0104499  0.0686109 -0.129557 -0.00908613  0.077206 -0.174996 -0.00770569  0.082654 -0.225425 -0.00632334  0.0853395 -0.279398 -0.00510263  0.0855358 -0.336344 -0.00395203  0.0837097 -0.395083 -0.00299215  0.0801337 -0.455307 -0.00212145  0.0752625 -0.5161 -0.00145054  0.0693336 -0.577392 -0.000882626  0.0627577 -0.63851 -0.000525475  0.0557323 -0.69962 -0.000277042  0.048604 -0.760317 -0.000163555  0 0 0  -0.0092877 -0.00673532 0.0193596  -0.0249814 -0.0193359 0.0247335  -0.0415437 -0.0415573 0.0243111  -0.0579545 -0.0723106 0.021914  -0.0737828 -0.109926 0.0187259  -0.0888417 -0.153512 0.0156078  -0.102985 -0.201784 0.0125785  -0.116216 -0.254103 0.00996351  -0.128487 -0.309364 0.00756645  -0.139879 -0.367086 0.00561714  -0.150391 -0.426326 0.00388718  -0.160143 -0.486764 0.00259495  -0.16917 -0.547633 0.0015173  -0.177639 -0.608802 0.000878811  -0.185629 -0.669708 0.000443935  -0.193377 -0.730471 0.000282764  0 0 0  -0.00343719 -0.00386047 0.00659704  -0.0102037 -0.0173425 0.00997162  -0.018144 -0.0404639 0.010366  -0.0267631 -0.0721281 0.00948954  -0.035815 -0.110793 0.00820255  -0.0451587 -0.155488 0.0068593  -0.0546155 -0.20488 0.00558519  -0.0641086 -0.258216 0.00444555  -0.0734985 -0.314382 0.00343752  -0.082752 -0.372833 0.00257874  -0.0917587 -0.43266 0.00185633  -0.100526 -0.493515 0.00127935  -0.10898 -0.55469 0.00082922  -0.117171 -0.61604 0.000511646  -0.125062 -0.677072 0.000303745  -0.132753 -0.737816 0.00014925  0 0 0  0.000423849 -0.00335413 3.57628e-05  0.000986099 -0.0173225 -0.000216007  0.000989676 -0.0409395 -0.000433922  9.89437e-06 -0.0732608 -0.000529766  -0.00210786 -0.112668 -0.000549316  -0.00542104 -0.158261 -0.000514984  -0.00979769 -0.208503 -0.000463486  -0.0151423 -0.262702 -0.000401497  -0.0212219 -0.319576 -0.000341892  -0.0279212 -0.378681 -0.000281334  -0.0350056 -0.438977 -0.000226021  -0.0423939 -0.500243 -0.000172615  -0.0498886 -0.561664 -0.000124931  -0.0574622 -0.623234 -8.24928e-05  -0.0649734 -0.684357 -4.43459e-05  -0.0724318 -0.745171 -2.24113e-05  0 0 0  0.00415045 -0.00543863 -0.0063653  0.0119793 -0.0199117 -0.0100775  0.0199521 -0.0439111 -0.0108528  0.0266327 -0.0766789 -0.0101905  0.0314344 -0.116682 -0.0089817  0.0341313 -0.162847 -0.00764275  0.0348061 -0.213713 -0.00632954  0.0336049 -0.268425 -0.00512552  0.0308254 -0.325805 -0.00403833  0.0266967 -0.385267 -0.00309372  0.0215411 -0.445895 -0.0022788  0.0155623 -0.507348 -0.0016098  0.00903988 -0.568943 -0.00107288  0.00211263 -0.630564 -0.000674725  -0.00500917 -0.691756 -0.000397205  -0.0122211 -0.752604 -0.000210762  0 0 0  0.0093607 -0.00995225 -0.0176115  0.0260677 -0.0249408 -0.0229654  0.0427187 -0.0492501 -0.0229707  0.0571924 -0.0824762 -0.0210309  0.0687536 -0.122933 -0.0182676  0.0771631 -0.169532 -0.0154834  0.0825527 -0.220756 -0.0127029  0.0851443 -0.275777 -0.0102458  0.0853255 -0.33337 -0.00793028  0.0834236 -0.39299 -0.00600243  0.079865 -0.453679 -0.0042491  0.0749543 -0.515151 -0.00290489  0.0690823 -0.576692 -0.00175905  0.0625005 -0.638244 -0.00104761  0.0555332 -0.699342 -0.000545979  0.0483694 -0.760223 -0.000328064  
SCALARS smooth_stress float 1
LOOKUP_TABLE default
2307.89 5318.69 6120.17 6063.7 5592.32 4881.46 4145.32 3413.65 2729.22 2168.3 1671.29 1242.75 884.428 575.612 346.093 227.339 94.7594 3157.69 7562.84 9136.77 9289.42 8714.29 7797.46 6774.25 5698.01 4657.63 3801.27 3027.54 2336.04 1755.89 1231.5 794.157 498.704 197.051 1480.65 4059.2 5569.88 5999.56 5827.76 5424.67 4907.7 4312.52 3710.5 3164.54 2644.13 2174.65 1764.62 1331.88 913.363 582.359 230.78 2209.48 5834.12 7574.59 7797.35 7350.45 6612.21 5793.42 4962.01 4162.91 3449.71 2809.99 2231.91 1726.42 1243.25 846.913 564.974 221.369 1578.62 4019.08 5021.3 5023.52 4644.66 4103.54 3514.64 2933.85 2380.83 1918.14 1522.11 1150.54 833.259 567.257 381.613 253.98 92.8803 4352.49 10395.3 12407.2 12377.1 11316.1 9796.68 8243.46 6733.55 5374.03 4263.24 3258.76 2371.75 1699.48 1104.11 639.325 419.168 170.007 6417.13 15490.7 18773.4 18916 17469 15404.7 13223.6 10995.2 8952.07 7264.32 5708.06 4357.46 3288.05 2281.38 1442.74 916.147 351.745 3821.61 9438.25 11761.1 12061 11359.8 10349.2 9207.76 7985.23 6838.33 5803.04 4802.45 3945.52 3193.99 2417.72 1642.93 1021.55 393.607 4971.14 12427.5 15476.8 15625 14501.5 12916.1 11217.6 9538.56 7920.44 6527.94 5293.82 4163.48 3187.57 2304.06 1551.21 1002.41 385.047 3214.16 8084.6 10081.9 10102.8 9294.59 8174.93 6989.99 5814.97 4660.14 3725.98 2940.67 2203.66 1582.14 1063.62 711.696 477.842 173.178 4041.17 10100.7 12555.7 12603.6 11434.4 9811.24 8196.51 6678.32 5324.63 4189.15 3151.26 2254.87 1582.35 1015.78 612.176 418.375 173.825 6509.97 15882.7 19305.5 19246.9 17507.6 15172.8 12847.5 10599.3 8588.38 6901.52 5335.54 4005.07 2988.21 2043.65 1299.59 887.382 357.059 4775.03 10931 12457.9 12137 11063.5 9805.34 8538.52 7291.5 6185.38 5223.43 4302.03 3482.58 2785.87 2102.51 1416.67 906.281 354.756 5584.81 13281 15821.1 15657.2 14290.9 12587.4 10824.6 9097.6 7489.96 6148.33 4945.25 3821.43 2902.4 2116.08 1398.96 882.69 333.792 3278.58 8132 10113 10163.5 9300.48 8143.59 6937.06 5727.04 4568.33 3637.27 2827.5 2089.05 1522.39 1041.45 669.713 445.416 162.27 4158.02 10192.6 12458.5 12445.9 11301 9736.94 8211.48 6773.45 5421.27 4221.72 3155.5 2285.47 1574.48 1012.05 633.295 407.084 161.536 6412.12 15638.4 19052 19077.8 17428.8 15187.1 12957.1 10807.9 8821.78 7079.02 5493.29 4154 3070.69 2119.73 1372.06 892.425 348.576 4305.46 10233.9 12169.1 12159.5 11237.6 10033 8814.56 7601.76 6480.03 5509.5 4585.25 3702.25 2941.42 2182.07 1500.53 964.396 352.444 5272.58 12853.2 15660.4 15685.1 14406.9 12760.1 11057 9321.32 7719.24 6347.82 5097.46 3952.15 2999.81 2162.74 1477.31 946.048 337.729 3221.21 8065.08 10084.7 10157.5 9297.11 8177.29 6988.06 5753.98 4639.72 3695.62 2850.01 2118.43 1554.61 1088.36 715.541 466.992 172.324 2161.45 5168.51 6189.92 6155.7 5590.41 4840.91 4113.11 3415.03 2741.45 2127.5 1591.71 1159.6 807.185 524.768 314.351 180.538 62.9594 3161.58 7683.44 9383.1 9457.54 8675.99 7621.51 6558.93 5505.8 4527.83 3640.54 2838.27 2170.34 1614.65 1125.96 721.045 422.485 146.212 1871.4 4681.91 5902.44 6084.01 5706.1 5152.22 4576.1 3982.97 3422.48 2924.57 2441.53 1990.54 1584.93 1165.4 813.433 497.306 160.515 2449.44 6165.58 7741.53 7855.52 7267.08 6476.71 5656.64 4800.27 3986.81 3277.72 2636.04 2062.3 1558.57 1107.48 782.649 500.796 167.615 1578.17 3998.6 5032.27 5073.34 4646.56 4105.09 3526.35 2908.06 2350.71 1866.19 1441.07 1082.5 781.104 543.274 375.91 245.438 90.3517 
CELL_DATA 256
SCALARS stress float 1
LOOKUP_TABLE default
2307.89 3010.79 3109.38 2954.32 2638 2243.46 1901.86 1511.79 1217.44 950.868 720.424 522.329 362.099 213.513 132.58 94.7594 849.796 1394.36 1622.23 1603.49 1518.48 1397.52 1231.4 1052.96 875.449 757.521 598.729 494.558 376.899 278.99 169.073 102.292 630.854 1184.19 1369.1 1404.73 1301.05 1207.62 1071.16 957 825.087 706.482 581.4 499.963 393.196 282.794 182.505 128.489 1578.62 2440.46 2580.84 2442.68 2201.98 1901.56 1613.08 1320.77 1060.06 858.083 664.029 486.515 346.744 220.513 161.1 92.8803 2044.6 3032.01 3255.06 3058.39 2665.43 2249.79 1848.35 1471.55 1173.26 921.676 665.792 463.208 351.843 176.651 116.581 75.248 1214.84 1636.36 1713.18 1599.95 1430.97 1261.01 1090.22 887.056 762.566 605.537 487.511 404.905 312.208 209.18 146.167 79.4464 1126.13 1401.72 1439.91 1308.4 1192.68 1039.86 908.973 786.459 691.752 578.644 486.624 391.831 320.432 244.022 130.197 83.3804 1635.54 2429.98 2630.58 2448.74 2201.2 1870.19 1605.16 1275.96 1003.35 804.479 614.082 439.04 309.845 186.518 143.564 80.2974 1996.57 3027.5 3241.11 3049.05 2661.56 2234.47 1863.9 1494.52 1185.3 908.911 654.877 470.991 296.307 190.976 127.969 98.577 1253.96 1676.9 1723.34 1606.79 1435.43 1234.15 1065.63 878.025 736.104 608.168 483.069 374.719 314.027 192.462 139.606 103.787 1180.1 1441.02 1425.44 1319.95 1169.34 1041.9 896.776 778.356 665.059 575.605 476.871 377.047 290.7 219.477 135.555 88.1419 1643.04 2423.44 2628.96 2455.19 2195.35 1876.85 1584.86 1261.06 1027.95 801.479 607.463 428.469 345.034 200.049 139.582 81.9721 2161.45 3007.06 3182.87 2972.83 2617.58 2223.33 1889.78 1525.25 1216.2 911.301 680.408 479.19 327.995 196.772 117.579 62.9594 1000.13 1514.8 1678.38 1623.45 1462.13 1318.48 1127.34 963.43 822.947 690.09 556.47 454.272 353.192 247.999 158.695 83.2522 871.262 1295.71 1413.55 1368.63 1251.9 1119.72 1010.56 881.645 754.461 657.069 537.902 441.898 335.564 228.644 178.095 77.2631 1578.17 2420.43 2611.84 2461.5 2185.06 1920.03 1606.32 1301.74 1048.97 817.222 623.848 458.654 322.45 220.824 155.086 90.3517 
SCALARS volume float 1
LOOKUP_TABLE default
2.51806 2.52548 2.52738 2.52825 2.52883 2.52931 2.52971 2.53007 2.53037 2.53064 2.53086 2.53105 2.5312 2.53131 2.53137 2.53141 2.52763 2.52715 2.52785 2.52836 2.5288 2.52921 2.52957 2.52991 2.53021 2.53047 2.53069 2.53087 2.53101 2.53111 2.53117 2.53123 2.53297 2.53136 2.53055 2.53035 2.53034 2.53043 2.53054 2.53066 2.53078 2.53089 2.53098 2.53106 2.53112 2.53117 2.5312 2.53116 2.54007 2.53464 2.53311 2.53244 2.53207 2.53183 2.53166 2.53153 2.53143 2.53135 2.5313 2.53124 2.5312 2.53116 2.53112 2.53106 2.51891 2.52406 2.52665 2.52804 2.52882 2.52936 2.52975 2.5301 2.53039 2.53066 2.53087 2.53107 2.53121 2.53134 2.53138 2.53142 2.52852 2.52698 2.5278 2.52841 2.52894 2.52935 2.52972 2.53002 2.5303 2.53052 2.53073 2.53087 2.53101 2.53109 2.53116 2.5312 2.53197 2.53114 2.53026 2.53008 2.53013 2.53031 2.53048 2.53065 2.53079 2.53093 2.53102 2.53112 2.53117 2.53122 2.53123 2.53121 2.53869 2.53509 2.53331 2.53233 2.53189 2.53166 2.53155 2.53145 2.5314 2.53133 2.5313 2.53124 2.5312 2.53115 2.53113 2.53107 2.5189 2.52429 2.52666 2.52799 2.52879 2.52934 2.52976 2.53012 2.53041 2.53068 2.53089 2.53108 2.53123 2.53134 2.53139 2.53142 2.52851 2.52699 2.52777 2.52839 2.52892 2.52936 2.52972 2.53004 2.5303 2.53054 2.53073 2.53089 2.53102 2.53111 2.53117 2.53122 2.53199 2.53111 2.53026 2.53011 2.53016 2.53032 2.53049 2.53065 2.53079 2.53092 2.53101 2.53111 2.53116 2.53121 2.53123 2.5312 2.53877 2.53484 2.53323 2.53235 2.53191 2.53169 2.53155 2.53147 2.5314 2.53135 2.53129 2.53125 2.53121 2.53117 2.53113 2.53108 2.51851 2.52554 2.5274 2.5283 2.52888 2.52937 2.52976 2.53012 2.53041 2.53067 2.53088 2.53107 2.5312 2.53131 2.53137 2.53142 2.52767 2.52712 2.5279 2.52842 2.52887 2.52924 2.52961 2.52992 2.53022 2.53046 2.53069 2.53085 2.531 2.53109 2.53116 2.5312 2.53258 2.53128 2.53062 2.53044 2.53039 2.53046 2.53054 2.53067 2.53077 2.53089 2.53096 2.53105 2.5311 2.53117 2.53119 2.53116 2.53949 2.53451 2.53312 2.53243 2.53206 2.5318 2.53164 2.5315 2.53142 2.53133 2.53128 2.53122 2.53119 2.53115 2.53113 2.53105 
SCALARS volume_diff float 1
LOOKUP_TABLE default
2.50243 2.50986 2.51176 2.51263 2.51321 2.51368 2.51409 2.51445 2.51475 2.51502 2.51524 2.51543 2.51557 2.51568 2.51574 2.51579 2.512 2.51153 2.51222 2.51273 2.51317 2.51358 2.51395 2.51429 2.51458 2.51485 2.51506 2.51524 2.51538 2.51548 2.51555 2.5156 2.51735 2.51573 2.51492 2.51472 2.51472 2.5148 2.51491 2.51503 2.51515 2.51526 2.51535 2.51543 2.51549 2.51555 2.51557 2.51554 2.52444 2.51902 2.51749 2.51682 2.51644 2.5162 2.51603 2.5159 2.51581 2.51573 2.51567 2.51562 2.51558 2.51554 2.51549 2.51543 2.50329 2.50844 2.51102 2.51242 2.5132 2.51373 2.51412 2.51448 2.51476 2.51504 2.51525 2.51545 2.51559 2.51571 2.51576 2.51579 2.5129 2.51135 2.51217 2.51279 2.51331 2.51373 2.5141 2.5144 2.51468 2.51489 2.5151 2.51525 2.51538 2.51546 2.51553 2.51557 2.51635 2.51551 2.51463 2.51446 2.5145 2.51468 2.51485 2.51503 2.51517 2.5153 2.5154 2.51549 2.51555 2.5156 2.51561 2.51558 2.52306 2.51946 2.51768 2.5167 2.51626 2.51603 2.51592 2.51583 2.51577 2.51571 2.51567 2.51561 2.51558 2.51553 2.5155 2.51545 2.50327 2.50867 2.51104 2.51237 2.51317 2.51372 2.51414 2.51449 2.51479 2.51505 2.51526 2.51546 2.5156 2.51571 2.51577 2.51579 2.51288 2.51136 2.51215 2.51276 2.5133 2.51373 2.5141 2.51441 2.51468 2.51491 2.5151 2.51527 2.51539 2.51548 2.51554 2.51559 2.51637 2.51549 2.51464 2.51449 2.51454 2.5147 2.51486 2.51502 2.51516 2.5153 2.51539 2.51548 2.51554 2.51559 2.5156 2.51557 2.52314 2.51921 2.51761 2.51673 2.51628 2.51606 2.51593 2.51584 2.51578 2.51572 2.51567 2.51563 2.51559 2.51555 2.51551 2.51546 2.50289 2.50991 2.51177 2.51267 2.51326 2.51374 2.51414 2.51449 2.51478 2.51505 2.51526 2.51545 2.51558 2.51569 2.51574 2.51579 2.51204 2.51149 2.51227 2.5128 2.51325 2.51362 2.51398 2.5143 2.5146 2.51484 2.51506 2.51523 2.51537 2.51546 2.51554 2.51558 2.51695 2.51566 2.515 2.51481 2.51477 2.51483 2.51492 2.51504 2.51514 2.51526 2.51534 2.51542 2.51548 2.51554 2.51556 2.51554 2.52386 2.51889 2.5175 2.51681 2.51643 2.51618 2.51601 2.51588 2.51579 2.51571 2.51566 2.5156 2.51557 2.51552 2.5155 2.51543 
