# vtk DataFile Version 5.1
vtk output
ASCII

DATASET UNSTRUCTURED_GRID
POINTS 425 float
0 0 6.6
0.25 0 6.6
0.5 0 6.6
0.75 0 6.6
1 0 6.6
1.25 0 6.6
1.5 0 6.6
1.75 0 6.6
2 0 6.6
2.25 0 6.6
2.5 0 6.6
2.75 0 6.6
3 0 6.6
3.25 0 6.6
3.5 0 6.6
3.75 0 6.6
4 0 6.6
0 0.25 6.6
0.25 0.25 6.6
0.5 0.25 6.6
0.75 0.25 6.6
1 0.25 6.6
1.25 0.25 6.6
1.5 0.25 6.6
1.75 0.25 6.6
2 0.25 6.6
2.25 0.25 6.6
2.5 0.25 6.6
2.75 0.25 6.6
3 0.25 6.6
3.25 0.25 6.6
3.5 0.25 6.6
3.75 0.25 6.6
4 0.25 6.6
0 0.5 6.6
0.25 0.5 6.6
0.5 0.5 6.6
0.75 0.5 6.6
1 0.5 6.6
1.25 0.5 6.6
1.5 0.5 6.6
1.75 0.5 6.6
2 0.5 6.6
2.25 0.5 6.6
2.5 0.5 6.6
2.75 0.5 6.6
3 0.5 6.6
3.25 0.5 6.6
3.5 0.5 6.6
3.75 0.5 6.6
4 0.5 6.6
0 0.75 6.6
0.25 0.75 6.6
0.5 0.75 6.6
0.75 0.75 6.6
1 0.75 6.6
1.25 0.75 6.6
1.5 0.75 6.6
1.75 0.75 6.6
2 0.75 6.6
2.25 0.75 6.6
2.5 0.75 6.6
2.75 0.75 6.6
3 0.75 6.6
3.25 0.75 6.6
3.5 0.75 6.6
3.75 0.75 6.6
4 0.75 6.6
0 1 6.6
0.25 1 6.6
0.5 1 6.6
0.75 1 6.6
1 1 6.6
1.25 1 6.6
1.5 1 6.6
1.75 1 6.6
2 1 6.6
2.25 1 6.6
2.5 1 6.6
2.75 1 6.6
3 1 6.6
3.25 1 6.6
3.5 1 6.6
3.75 1 6.6
4 1 6.6
0 0 6.85
0.25 0 6.85
0.5 0 6.85
0.75 0 6.85
1 0 6.85
1.25 0 6.85
1.5 0 6.85
1.75 0 6.85
2 0 6.85
2.25 0 6.85
2.5 0 6.85
2.75 0 6.85
3 0 6.85
3.25 0 6.85
3.5 0 6.85
3.75 0 6.85
4 0 6.85
0 0.25 6.85
0.25 0.25 6.85
0.5 0.25 6.85
0.75 0.25 6.85
1 0.25 6.85
1.25 0.25 6.85
1.5 0.25 6.85
1.75 0.25 6.85
2 0.25 6.85
2.25 0.25 6.85
2.5 0.25 6.85
2.75 0.25 6.85
3 0.25 6.85
3.25 0.25 6.85
3.5 0.25 6.85
3.75 0.25 6.85
4 0.25 6.85
0 0.5 6.85
0.25 0.5 6.85
0.5 0.5 6.85
0.75 0.5 6.85
1 0.5 6.85
1.25 0.5 6.85
1.5 0.5 6.85
1.75 0.5 6.85
2 0.5 6.85
2.25 0.5 6.85
2.5 0.5 6.85
2.75 0.5 6.85
3 0.5 6.85
3.25 0.5 6.85
3.5 0.5 6.85
3.75 0.5 6.85
4 0.5 6.85
0 0.75 6.85
0.25 0.75 6.85
0.5 0.75 6.85
0.75 0.75 6.85
1 0.75 6.85
1.25 0.75 6.85
1.5 0.75 6.85
1.75 0.75 6.85
2 0.75 6.85
2.25 0.75 6.85
2.5 0.75 6.85
2.75 0.75 6.85
3 0.75 6.85
3.25 0.75 6.85
3.5 0.75 6.85
3.75 0.75 6.85
4 0.75 6.85
0 1 6.85
0.25 1 6.85
0.5 1 6.85
0.75 1 6.85
1 1 6.85
1.25 1 6.85
1.5 1 6.85
1.75 1 6.85
2 1 6.85
2.25 1 6.85
2.5 1 6.85
2.75 1 6.85
3 1 6.85
3.25 1 6.85
3.5 1 6.85
3.75 1 6.85
4 1 6.85
0 0 7.1
0.25 0 7.1
0.5 0 7.1
0.75 0 7.1
1 0 7.1
1.25 0 7.1
1.5 0 7.1
1.75 0 7.1
2 0 7.1
2.25 0 7.1
2.5 0 7.1
2.75 0 7.1
3 0 7.1
3.25 0 7.1
3.5 0 7.1
3.75 0 7.1
4 0 7.1
0 0.25 7.1
0.25 0.25 7.1
0.5 0.25 7.1
0.75 0.25 7.1
1 0.25 7.1
1.25 0.25 7.1
1.5 0.25 7.1
1.75 0.25 7.1
2 0.25 7.1
2.25 0.25 7.1
2.5 0.25 7.1
2.75 0.25 7.1
3 0.25 7.1
3.25 0.25 7.1
3.5 0.25 7.1
3.75 0.25 7.1
4 0.25 7.1
0 0.5 7.1
0.25 0.5 7.1
0.5 0.5 7.1
0.75 0.5 7.1
1 0.5 7.1
1.25 0.5 7.1
1.5 0.5 7.1
1.75 0.5 7.1
2 0.5 7.1
2.25 0.5 7.1
2.5 0.5 7.1
2.75 0.5 7.1
3 0.5 7.1
3.25 0.5 7.1
3.5 0.5 7.1
3.75 0.5 7.1
4 0.5 7.1
0 0.75 7.1
0.25 0.75 7.1
0.5 0.75 7.1
0.75 0.75 7.1
1 0.75 7.1
1.25 0.75 7.1
1.5 0.75 7.1
1.75 0.75 7.1
2 0.75 7.1
2.25 0.75 7.1
2.5 0.75 7.1
2.75 0.75 7.1
3 0.75 7.1
3.25 0.75 7.1
3.5 0.75 7.1
3.75 0.75 7.1
4 0.75 7.1
0 1 7.1
0.25 1 7.1
0.5 1 7.1
0.75 1 7.1
1 1 7.1
1.25 1 7.1
1.5 1 7.1
1.75 1 7.1
2 1 7.1
2.25 1 7.1
2.5 1 7.1
2.75 1 7.1
3 1 7.1
3.25 1 7.1
3.5 1 7.1
3.75 1 7.1
4 1 7.1
0 0 7.35
0.25 0 7.35
0.5 0 7.35
0.75 0 7.35
1 0 7.35
1.25 0 7.35
1.5 0 7.35
1.75 0 7.35
2 0 7.35
2.25 0 7.35
2.5 0 7.35
2.75 0 7.35
3 0 7.35
3.25 0 7.35
3.5 0 7.35
3.75 0 7.35
4 0 7.35
0 0.25 7.35
0.25 0.25 7.35
0.5 0.25 7.35
0.75 0.25 7.35
1 0.25 7.35
1.25 0.25 7.35
1.5 0.25 7.35
1.75 0.25 7.35
2 0.25 7.35
2.25 0.25 7.35
2.5 0.25 7.35
2.75 0.25 7.35
3 0.25 7.35
3.25 0.25 7.35
3.5 0.25 7.35
3.75 0.25 7.35
4 0.25 7.35
0 0.5 7.35
0.25 0.5 7.35
0.5 0.5 7.35
0.75 0.5 7.35
1 0.5 7.35
1.25 0.5 7.35
1.5 0.5 7.35
1.75 0.5 7.35
2 0.5 7.35
2.25 0.5 7.35
2.5 0.5 7.35
2.75 0.5 7.35
3 0.5 7.35
3.25 0.5 7.35
3.5 0.5 7.35
3.75 0.5 7.35
4 0.5 7.35
0 0.75 7.35
0.25 0.75 7.35
0.5 0.75 7.35
0.75 0.75 7.35
1 0.75 7.35
1.25 0.75 7.35
1.5 0.75 7.35
1.75 0.75 7.35
2 0.75 7.35
2.25 0.75 7.35
2.5 0.75 7.35
2.75 0.75 7.35
3 0.75 7.35
3.25 0.75 7.35
3.5 0.75 7.35
3.75 0.75 7.35
4 0.75 7.35
0 1 7.35
0.25 1 7.35
0.5 1 7.35
0.75 1 7.35
1 1 7.35
1.25 1 7.35
1.5 1 7.35
1.75 1 7.35
2 1 7.35
2.25 1 7.35
2.5 1 7.35
2.75 1 7.35
3 1 7.35
3.25 1 7.35
3.5 1 7.35
3.75 1 7.35
4 1 7.35
0 0 7.6
0.25 0 7.6
0.5 0 7.6
0.75 0 7.6
1 0 7.6
1.25 0 7.6
1.5 0 7.6
1.75 0 7.6
2 0 7.6
2.25 0 7.6
2.5 0 7.6
2.75 0 7.6
3 0 7.6
3.25 0 7.6
3.5 0 7.6
3.75 0 7.6
4 0 7.6
0 0.25 7.6
0.25 0.25 7.6
0.5 0.25 7.6
0.75 0.25 7.6
1 0.25 7.6
1.25 0.25 7.6
1.5 0.25 7.6
1.75 0.25 7.6
2 0.25 7.6
2.25 0.25 7.6
2.5 0.25 7.6
2.75 0.25 7.6
3 0.25 7.6
3.25 0.25 7.6
3.5 0.25 7.6
3.75 0.25 7.6
4 0.25 7.6
0 0.5 7.6
0.25 0.5 7.6
0.5 0.5 7.6
0.75 0.5 7.6
1 0.5 7.6
1.25 0.5 7.6
1.5 0.5 7.6
1.75 0.5 7.6
2 0.5 7.6
2.25 0.5 7.6
2.5 0.5 7.6
2.75 0.5 7.6
3 0.5 7.6
3.25 0.5 7.6
3.5 0.5 7.6
3.75 0.5 7.6
4 0.5 7.6
0 0.75 7.6
0.25 0.75 7.6
0.5 0.75 7.6
0.75 0.75 7.6
1 0.75 7.6
1.25 0.75 7.6
1.5 0.75 7.6
1.75 0.75 7.6
2 0.75 7.6
2.25 0.75 7.6
2.5 0.75 7.6
2.75 0.75 7.6
3 0.75 7.6
3.25 0.75 7.6
3.5 0.75 7.6
3.75 0.75 7.6
4 0.75 7.6
0 1 7.6
0.25 1 7.6
0.5 1 7.6
0.75 1 7.6
1 1 7.6
1.25 1 7.6
1.5 1 7.6
1.75 1 7.6
2 1 7.6
2.25 1 7.6
2.5 1 7.6
2.75 1 7.6
3 1 7.6
3.25 1 7.6
3.5 1 7.6
3.75 1 7.6
4 1 7.6

CELLS 257 2048
OFFSETS vtktypeint64
0 8 16 24 32 40 48 56 64 72 80 88 96 104 112 120 128 136 144 152 160 168 176 184 192 200 208 216 224 232 240 248 256 264 272 280 288 296 304 312 320 328 336 344 352 360 368 376 384 392 400 408 416 424 432 440 448 456 464 472 480 488 496 504 512 520 528 536 544 552 560 568 576 584 592 600 608 616 624 632 640 648 656 664 672 680 688 696 704 712 720 728 736 744 752 760 768 776 784 792 800 808 816 824 832 840 848 856 864 872 880 888 896 904 912 920 928 936 944 952 960 968 976 984 992 1000 1008 1016 1024 1032 1040 1048 1056 1064 1072 1080 1088 1096 1104 1112 1120 1128 1136 1144 1152 1160 1168 1176 1184 1192 1200 1208 1216 1224 1232 1240 1248 1256 1264 1272 1280 1288 1296 1304 1312 1320 1328 1336 1344 1352 1360 1368 1376 1384 1392 1400 1408 1416 1424 1432 1440 1448 1456 1464 1472 1480 1488 1496 1504 1512 1520 1528 1536 1544 1552 1560 1568 1576 1584 1592 1600 1608 1616 1624 1632 1640 1648 1656 1664 1672 1680 1688 1696 1704 1712 1720 1728 1736 1744 1752 1760 1768 1776 1784 1792 1800 1808 1816 1824 1832 1840 1848 1856 1864 1872 1880 1888 1896 1904 1912 1920 1928 1936 1944 1952 1960 1968 1976 1984 1992 2000 2008 2016 2024 2032 2040 2048 
CONNECTIVITY vtktypeint64
0 1 86 85 17 18 103 102 
1 2 87 86 18 19 104 103 
2 3 88 87 19 20 105 104 
3 4 89 88 20 21 106 105 
4 5 90 89 21 22 107 106 
5 6 91 90 22 23 108 107 
6 7 92 91 23 24 109 108 
7 8 93 92 24 25 110 109 
8 9 94 93 25 26 111 110 
9 10 95 94 26 27 112 111 
10 11 96 95 27 28 113 112 
11 12 97 96 28 29 114 113 
12 13 98 97 29 30 115 114 
13 14 99 98 30 31 116 115 
14 15 100 99 31 32 117 116 
15 16 101 100 32 33 118 117 
17 18 103 102 34 35 120 119 
18 19 104 103 35 36 121 120 
19 20 105 104 36 37 122 121 
20 21 106 105 37 38 123 122 
21 22 107 106 38 39 124 123 
22 23 108 107 39 40 125 124 
23 24 109 108 40 41 126 125 
24 25 110 109 41 42 127 126 
25 26 111 110 42 43 128 127 
26 27 112 111 43 44 129 128 
27 28 113 112 44 45 130 129 
28 29 114 113 45 46 131 130 
29 30 115 114 46 47 132 131 
30 31 116 115 47 48 133 132 
31 32 117 116 48 49 134 133 
32 33 118 117 49 50 135 134 
34 35 120 119 51 52 137 136 
35 36 121 120 52 53 138 137 
36 37 122 121 53 54 139 138 
37 38 123 122 54 55 140 139 
38 39 124 123 55 56 141 140 
39 40 125 124 56 57 142 141 
40 41 126 125 57 58 143 142 
41 42 127 126 58 59 144 143 
42 43 128 127 59 60 145 144 
43 44 129 128 60 61 146 145 
44 45 130 129 61 62 147 146 
45 46 131 130 62 63 148 147 
46 47 132 131 63 64 149 148 
47 48 133 132 64 65 150 149 
48 49 134 133 65 66 151 150 
49 50 135 134 66 67 152 151 
51 52 137 136 68 69 154 153 
52 53 138 137 69 70 155 154 
53 54 139 138 70 71 156 155 
54 55 140 139 71 72 157 156 
55 56 141 140 72 73 158 157 
56 57 142 141 73 74 159 158 
57 58 143 142 74 75 160 159 
58 59 144 143 75 76 161 160 
59 60 145 144 76 77 162 161 
60 61 146 145 77 78 163 162 
61 62 147 146 78 79 164 163 
62 63 148 147 79 80 165 164 
63 64 149 148 80 81 166 165 
64 65 150 149 81 82 167 166 
65 66 151 150 82 83 168 167 
66 67 152 151 83 84 169 168 
85 86 171 170 102 103 188 187 
86 87 172 171 103 104 189 188 
87 88 173 172 104 105 190 189 
88 89 174 173 105 106 191 190 
89 90 175 174 106 107 192 191 
90 91 176 175 107 108 193 192 
91 92 177 176 108 109 194 193 
92 93 178 177 109 110 195 194 
93 94 179 178 110 111 196 195 
94 95 180 179 111 112 197 196 
95 96 181 180 112 113 198 197 
96 97 182 181 113 114 199 198 
97 98 183 182 114 115 200 199 
98 99 184 183 115 116 201 200 
99 100 185 184 116 117 202 201 
100 101 186 185 117 118 203 202 
102 103 188 187 119 120 205 204 
103 104 189 188 120 121 206 205 
104 105 190 189 121 122 207 206 
105 106 191 190 122 123 208 207 
106 107 192 191 123 124 209 208 
107 108 193 192 124 125 210 209 
108 109 194 193 125 126 211 210 
109 110 195 194 126 127 212 211 
110 111 196 195 127 128 213 212 
111 112 197 196 128 129 214 213 
112 113 198 197 129 130 215 214 
113 114 199 198 130 131 216 215 
114 115 200 199 131 132 217 216 
115 116 201 200 132 133 218 217 
116 117 202 201 133 134 219 218 
117 118 203 202 134 135 220 219 
119 120 205 204 136 137 222 221 
120 121 206 205 137 138 223 222 
121 122 207 206 138 139 224 223 
122 123 208 207 139 140 225 224 
123 124 209 208 140 141 226 225 
124 125 210 209 141 142 227 226 
125 126 211 210 142 143 228 227 
126 127 212 211 143 144 229 228 
127 128 213 212 144 145 230 229 
128 129 214 213 145 146 231 230 
129 130 215 214 146 147 232 231 
130 131 216 215 147 148 233 232 
131 132 217 216 148 149 234 233 
132 133 218 217 149 150 235 234 
133 134 219 218 150 151 236 235 
134 135 220 219 151 152 237 236 
136 137 222 221 153 154 239 238 
137 138 223 222 154 155 240 239 
138 139 224 223 155 156 241 240 
139 140 225 224 156 157 242 241 
140 141 226 225 157 158 243 242 
141 142 227 226 158 159 244 243 
142 143 228 227 159 160 245 244 
143 144 229 228 160 161 246 245 
144 145 230 229 161 162 247 246 
145 146 231 230 162 163 248 247 
146 147 232 231 163 164 249 248 
147 148 233 232 164 165 250 249 
148 149 234 233 165 166 251 250 
149 150 235 234 166 167 252 251 
150 151 236 235 167 168 253 252 
151 152 237 236 168 169 254 253 
170 171 256 255 187 188 273 272 
171 172 257 256 188 189 274 273 
172 173 258 257 189 190 275 274 
173 174 259 258 190 191 276 275 
174 175 260 259 191 192 277 276 
175 176 261 260 192 193 278 277 
176 177 262 261 193 194 279 278 
177 178 263 262 194 195 280 279 
178 179 264 263 195 196 281 280 
179 180 265 264 196 197 282 281 
180 181 266 265 197 198 283 282 
181 182 267 266 198 199 284 283 
182 183 268 267 199 200 285 284 
183 184 269 268 200 201 286 285 
184 185 270 269 201 202 287 286 
185 186 271 270 202 203 288 287 
187 188 273 272 204 205 290 289 
188 189 274 273 205 206 291 290 
189 190 275 274 206 207 292 291 
190 191 276 275 207 208 293 292 
191 192 277 276 208 209 294 293 
192 193 278 277 209 210 295 294 
193 194 279 278 210 211 296 295 
194 195 280 279 211 212 297 296 
195 196 281 280 212 213 298 297 
196 197 282 281 213 214 299 298 
197 198 283 282 214 215 300 299 
198 199 284 283 215 216 301 300 
199 200 285 284 216 217 302 301 
200 201 286 285 217 218 303 302 
201 202 287 286 218 219 304 303 
202 203 288 287 219 220 305 304 
204 205 290 289 221 222 307 306 
205 206 291 290 222 223 308 307 
206 207 292 291 223 224 309 308 
207 208 293 292 224 225 310 309 
208 209 294 293 225 226 311 310 
209 210 295 294 226 227 312 311 
210 211 296 295 227 228 313 312 
211 212 297 296 228 229 314 313 
212 213 298 297 229 230 315 314 
213 214 299 298 230 231 316 315 
214 215 300 299 231 232 317 316 
215 216 301 300 232 233 318 317 
216 217 302 301 233 234 319 318 
217 218 303 302 234 235 320 319 
218 219 304 303 235 236 321 320 
219 220 305 304 236 237 322 321 
221 222 307 306 238 239 324 323 
222 223 308 307 239 240 325 324 
223 224 309 308 240 241 326 325 
224 225 310 309 241 242 327 326 
225 226 311 310 242 243 328 327 
226 227 312 311 243 244 329 328 
227 228 313 312 244 245 330 329 
228 229 314 313 245 246 331 330 
229 230 315 314 246 247 332 331 
230 231 316 315 247 248 333 332 
231 232 317 316 248 249 334 333 
232 233 318 317 249 250 335 334 
233 234 319 318 250 251 336 335 
234 235 320 319 251 252 337 336 
235 236 321 320 252 253 338 337 
236 237 322 321 253 254 339 338 
255 256 341 340 272 273 358 357 
256 257 342 341 273 274 359 358 
257 258 343 342 274 275 360 359 
258 259 344 343 275 276 361 360 
259 260 345 344 276 277 362 361 
260 261 346 345 277 278 363 362 
261 262 347 346 278 279 364 363 
262 263 348 347 279 280 365 364 
263 264 349 348 280 281 366 365 
264 265 350 349 281 282 367 366 
265 266 351 350 282 283 368 367 
266 267 352 351 283 284 369 368 
267 268 353 352 284 285 370 369 
268 269 354 353 285 286 371 370 
269 270 355 354 286 287 372 371 
270 271 356 355 287 288 373 372 
272 273 358 357 289 290 375 374 
273 274 359 358 290 291 376 375 
274 275 360 359 291 292 377 376 
275 276 361 360 292 293 378 377 
276 277 362 361 293 294 379 378 
277 278 363 362 294 295 380 379 
278 279 364 363 295 296 381 380 
279 280 365 364 296 297 382 381 
280 281 366 365 297 298 383 382 
281 282 367 366 298 299 384 383 
282 283 368 367 299 300 385 384 
283 284 369 368 300 301 386 385 
284 285 370 369 301 302 387 386 
285 286 371 370 302 303 388 387 
286 287 372 371 303 304 389 388 
287 288 373 372 304 305 390 389 
289 290 375 374 306 307 392 391 
290 291 376 375 307 308 393 392 
291 292 377 376 308 309 394 393 
292 293 378 377 309 310 395 394 
293 294 379 378 310 311 396 395 
294 295 380 379 311 312 397 396 
295 296 381 380 312 313 398 397 
296 297 382 381 313 314 399 398 
297 298 383 382 314 315 400 399 
298 299 384 383 315 316 401 400 
299 300 385 384 316 317 402 401 
300 301 386 385 317 318 403 402 
301 302 387 386 318 319 404 403 
302 303 388 387 319 320 405 404 
303 304 389 388 320 321 406 405 
304 305 390 389 321 322 407 406 
306 307 392 391 323 324 409 408 
307 308 393 392 324 325 410 409 
308 309 394 393 325 326 411 410 
309 310 395 394 326 327 412 411 
310 311 396 395 327 328 413 412 
311 312 397 396 328 329 414 413 
312 313 398 397 329 330 415 414 
313 314 399 398 330 331 416 415 
314 315 400 399 331 332 417 416 
315 316 401 400 332 333 418 417 
316 317 402 401 333 334 419 418 
317 318 403 402 334 335 420 419 
318 319 404 403 335 336 421 420 
319 320 405 404 336 337 422 421 
320 321 406 405 337 338 423 422 
321 322 407 406 338 339 424 423 
CELL_TYPES 256
12 12 12 12 12 12 12 12 12 12 12 12 12 12 12 12 12 12 12 12 12 12 12 12 12 12 12 12 12 12 12 12 12 12 12 12 12 12 12 12 12 12 12 12 12 12 12 12 12 12 12 12 12 12 12 12 12 12 12 12 12 12 12 12 12 12 12 12 12 12 12 12 12 12 12 12 12 12 12 12 12 12 12 12 12 12 12 12 12 12 12 12 12 12 12 12 12 12 12 12 12 12 12 12 12 12 12 12 12 12 12 12 12 12 12 12 12 12 12 12 12 12 12 12 12 12 12 12 12 12 12 12 12 12 12 12 12 12 12 12 12 12 12 12 12 12 12 12 12 12 12 12 12 12 12 12 12 12 12 12 12 12 12 12 12 12 12 12 12 12 12 12 12 12 12 12 12 12 12 12 12 12 12 12 12 12 12 12 12 12 12 12 12 12 12 12 12 12 12 12 12 12 12 12 12 12 12 12 12 12 12 12 12 12 12 12 12 12 12 12 12 12 12 12 12 12 12 12 12 12 12 12 12 12 12 12 12 12 12 12 12 12 12 12 12 12 12 12 12 12 12 12 12 12 12 12 

POINT_DATA 425
SCALARS weights float 1
LOOKUP_TABLE default
1.95313 3.90625 3.90625 3.90625 3.90625 3.90625 3.90625 3.90625 3.90625 3.90625 3.90625 3.90625 3.90625 3.90625 3.90625 3.90625 1.95313 3.90625 7.81251 7.81251 7.81251 7.81251 7.81251 7.81251 7.81251 7.81251 7.81251 7.81251 7.81251 7.81251 7.81251 7.81251 7.81251 3.90625 3.90625 7.81251 7.81251 7.81251 7.81251 7.81251 7.81251 7.81251 7.81251 7.81251 7.81251 7.81251 7.81251 7.81251 7.81251 7.81251 3.90625 3.90625 7.81251 7.81251 7.81251 7.81251 7.81251 7.81251 7.81251 7.81251 7.81251 7.81251 7.81251 7.81251 7.81251 7.81251 7.81251 3.90625 1.95313 3.90625 3.90625 3.90625 3.90625 3.90625 3.90625 3.90625 3.90625 3.90625 3.90625 3.90625 3.90625 3.90625 3.90625 3.90625 1.95313 3.90625 7.8125 7.8125 7.8125 7.8125 7.8125 7.8125 7.8125 7.8125 7.8125 7.8125 7.8125 7.8125 7.8125 7.8125 7.8125 3.90625 7.8125 15.625 15.625 15.625 15.625 15.625 15.625 15.625 15.625 15.625 15.625 15.625 15.625 15.625 15.625 15.625 7.8125 7.8125 15.625 15.625 15.625 15.625 15.625 15.625 15.625 15.625 15.625 15.625 15.625 15.625 15.625 15.625 15.625 7.8125 7.8125 15.625 15.625 15.625 15.625 15.625 15.625 15.625 15.625 15.625 15.625 15.625 15.625 15.625 15.625 15.625 7.8125 3.90625 7.8125 7.8125 7.8125 7.8125 7.8125 7.8125 7.8125 7.8125 7.8125 7.8125 7.8125 7.8125 7.8125 7.8125 7.8125 3.90625 3.90625 7.8125 7.8125 7.8125 7.8125 7.8125 7.8125 7.8125 7.8125 7.8125 7.8125 7.8125 7.8125 7.8125 7.8125 7.8125 3.90625 7.8125 15.625 15.625 15.625 15.625 15.625 15.625 15.625 15.625 15.625 15.625 15.625 15.625 15.625 15.625 15.625 7.8125 7.8125 15.625 15.625 15.625 15.625 15.625 15.625 15.625 15.625 15.625 15.625 15.625 15.625 15.625 15.625 15.625 7.8125 7.8125 15.625 15.625 15.625 15.625 15.625 15.625 15.625 15.625 15.625 15.625 15.625 15.625 15.625 15.625 15.625 7.8125 3.90625 7.8125 7.8125 7.8125 7.8125 7.8125 7.8125 7.8125 7.8125 7.8125 7.8125 7.8125 7.8125 7.8125 7.8125 7.8125 3.90625 3.90625 7.8125 7.8125 7.8125 7.8125 7.8125 7.8125 7.8125 7.8125 7.8125 7.8125 7.8125 7.8125 7.8125 7.8125 7.8125 3.90625 7.8125 15.625 15.625 15.625 15.625 15.625 15.625 15.625 15.625 15.625 15.625 15.625 15.625 15.625 15.625 15.625 7.8125 7.8125 15.625 15.625 15.625 15.625 15.625 15.625 15.625 15.625 15.625 15.625 15.625 15.625 15.625 15.625 15.625 7.8125 7.8125 15.625 15.625 15.625 15.625 15.625 15.625 15.625 15.625 15.625 15.625 15.625 15.625 15.625 15.625 15.625 7.8125 3.90625 7.8125 7.8125 7.8125 7.8125 7.8125 7.8125 7.8125 7.8125 7.8125 7.8125 7.8125 7.8125 7.8125 7.8125 7.8125 3.90625 1.95312 3.90625 3.90625 3.90625 3.90625 3.90625 3.90625 3.90625 3.90625 3.90625 3.90625 3.90625 3.90625 3.90625 3.90625 3.90625 1.95312 3.90625 7.81249 7.81249 7.81249 7.81249 7.81249 7.81249 7.81249 7.81249 7.81249 7.81249 7.81249 7.81249 7.8125 7.81249 7.81249 3.90625 3.90625 7.81249 7.81249 7.81249 7.81249 7.81249 7.81249 7.81249 7.81249 7.81249 7.81249 7.81249 7.81249 7.81249 7.81249 7.81249 3.90625 3.90625 7.81249 7.81249 7.81249 7.81249 7.81249 7.81249 7.81249 7.81249 7.81249 7.81249 7.81249 7.81249 7.81249 7.81249 7.81249 3.90625 1.95312 3.90625 3.90625 3.90625 3.90625 3.90625 3.90625 3.90625 3.90625 3.90625 3.90625 3.90625 3.90625 3.90625 3.90625 3.90625 1.95312 
VECTORS u float
0 0 0  -0.0062279 -0.0049281 -0.0127192  -0.0168348 -0.0135395 -0.0163193  -0.0279269 -0.0285667 -0.0161271  -0.0387037 -0.0493112 -0.0145717  -0.0488513 -0.0747565 -0.0125113  -0.0582321 -0.104219 -0.010447  -0.0667816 -0.136898 -0.00846338  -0.0745144 -0.172271 -0.00671005  -0.0814517 -0.209659 -0.00511837  -0.0876577 -0.248643 -0.00378799  -0.0931857 -0.288657 -0.00263882  -0.098125 -0.329407 -0.00174141  -0.102549 -0.370454 -0.00102472  -0.10657 -0.411637 -0.000572681  -0.110283 -0.452663 -0.000292301  -0.113831 -0.493541 -0.00016737  0 0 0  -0.00238341 -0.00280347 -0.00437784  -0.00702488 -0.0118333 -0.00667143  -0.0123314 -0.0273297 -0.006989  -0.0178773 -0.0485378 -0.00643206  -0.0234696 -0.0745232 -0.00558186  -0.028996 -0.104561 -0.00468397  -0.0343746 -0.137831 -0.00382853  -0.0395675 -0.173741 -0.00305176  -0.0445368 -0.211614 -0.0023613  -0.0492756 -0.250992 -0.00176907  -0.053767 -0.291331 -0.00127077  -0.0580263 -0.332316 -0.000873089  -0.0620525 -0.373541 -0.000558853  -0.0658762 -0.414835 -0.000337124  -0.0695136 -0.455941 -0.000197887  -0.0730224 -0.496811 -9.05991e-05  0 0 0  0.000190973 -0.00228119 -1.00136e-05  0.000446737 -0.0115244 9.9659e-05  0.00045532 -0.0272626 0.000198364  2.77758e-05 -0.0487813 0.00024271  -0.000911832 -0.075123 0.000252247  -0.00238335 -0.105592 0.000238895  -0.00433958 -0.139275 0.000217438  -0.00672734 -0.175603 0.000191212  -0.00945425 -0.213822 0.000171661  -0.0124564 -0.253519 0.000145912  -0.015641 -0.294092 0.000121593  -0.0189564 -0.33528 9.87053e-05  -0.022325 -0.376632 7.82013e-05  -0.0257232 -0.418038 5.48363e-05  -0.0291007 -0.459195 3.76701e-05  -0.0324469 -0.500097 2.6226e-05  0 0 0  0.00270665 -0.00350869 0.00428295  0.00783467 -0.0129861 0.0067277  0.01317 -0.0288755 0.00721455  0.0178711 -0.0505765 0.00675488  0.0215787 -0.0771605 0.00593948  0.0241531 -0.107856 0.00504637  0.0256097 -0.141786 0.004179  0.0260253 -0.178317 0.0033803  0.025538 -0.216732 0.00266218  0.0242801 -0.256566 0.00204277  0.0224085 -0.297267 0.00150585  0.0200503 -0.338521 0.00106573  0.0173421 -0.379937 0.000715733  0.0143802 -0.421355 0.000450611  0.0112689 -0.462535 0.000273228  0.00808907 -0.503453 0.000150204  0 0 0  0.00626257 -0.00636595 0.0119462  0.0173289 -0.01605 0.0155315  0.0284709 -0.0320117 0.0155287  0.0384004 -0.0538617 0.0141792  0.0466558 -0.0805809 0.0123086  0.0530835 -0.111393 0.0103998  0.0577245 -0.145397 0.00853157  0.0607023 -0.181986 0.00685596  0.0622168 -0.220421 0.00531673  0.0624623 -0.260258 0.00400448  0.0616682 -0.300929 0.00284433  0.0600283 -0.342144 0.00193357  0.0577562 -0.383497 0.00118399  0.0550237 -0.424856 0.000693798  0.0520151 -0.465971 0.000377655  0.0488768 -0.506908 0.000227928  0 0 0  -0.00579086 -0.00910252 -0.00609207  -0.0166429 -0.0199227 -0.00808811  -0.0284108 -0.0351621 -0.00807381  -0.0397085 -0.0551227 -0.00730753  -0.0501187 -0.0796847 -0.00627232  -0.0595409 -0.108166 -0.00522614  -0.0680237 -0.140085 -0.00422907  -0.07561 -0.174684 -0.00334454  -0.0823934 -0.211525 -0.00254917  -0.0884216 -0.249934 -0.00187874  -0.093797 -0.289588 -0.00130987  -0.0985775 -0.329944 -0.000859261  -0.102882 -0.370805 -0.000506401  -0.106791 -0.411765 -0.000282764  -0.110454 -0.452769 -0.000145912  -0.113974 -0.493579 -8.24928e-05  0 0 0  -0.00205615 -0.00684696 -0.002141  -0.00690067 -0.0174898 -0.00338221  -0.0127584 -0.0331687 -0.00356674  -0.0187396 -0.0538537 -0.00327301  -0.0245481 -0.0791615 -0.00282669  -0.0301123 -0.108398 -0.00236034  -0.0354303 -0.14098 -0.00191927  -0.0405029 -0.176193 -0.00152254  -0.045336 -0.213526 -0.00117159  -0.0499265 -0.252369 -0.000870705  -0.0542815 -0.292332 -0.000618935  -0.0584066 -0.332945 -0.000420094  -0.0623221 -0.373957 -0.000263214  -0.0660479 -0.415037 -0.000155449  -0.0696239 -0.456077 -9.05991e-05  -0.0730929 -0.496886 -3.57628e-05  0 0 0  9.06885e-05 -0.00624231 -2.38419e-05  0.000191987 -0.0167761 2.19345e-05  6.66976e-05 -0.0327288 7.15256e-05  -0.000437319 -0.0538335 0.000101566  -0.0014118 -0.0796571 0.000110626  -0.00286353 -0.109394 0.000112057  -0.0047828 -0.142474 0.000105858  -0.00710022 -0.178112 9.72748e-05  -0.00976658 -0.215832 9.05991e-05  -0.0126886 -0.254973 8.05855e-05  -0.0158176 -0.295192 7.00951e-05  -0.0190666 -0.335976 5.8651e-05  -0.022402 -0.377128 4.62532e-05  -0.025758 -0.41828 3.43323e-05  -0.0291255 -0.459381 2.43187e-05  -0.032455 -0.500185 1.7643e-05  0 0 0  0.00217417 -0.0072841 0.00204468  0.00717473 -0.018225 0.00333786  0.0127784 -0.0343394 0.00360489  0.0177484 -0.0556408 0.00337791  0.0216129 -0.0816774 0.00296593  0.0242679 -0.111677 0.00251818  0.0257584 -0.144991 0.00208521  0.0261981 -0.180866 0.00168896  0.0257196 -0.218761 0.00133038  0.0244718 -0.258062 0.00102425  0.022594 -0.298377 0.000756264  0.0202274 -0.339244 0.000534534  0.017493 -0.380425 0.000361919  0.0145082 -0.421609 0.000226498  0.0113668 -0.462707 0.00013876  0.00816631 -0.503552 7.67708e-05  0 0 0  0.0056203 -0.00992465 0.00569296  0.0165437 -0.0214868 0.00762463  0.0280471 -0.0377358 0.00769567  0.038342 -0.0590364 0.00705051  0.0468065 -0.0851282 0.00612783  0.0533412 -0.115171 0.00517797  0.0580143 -0.148567 0.00425243  0.0610144 -0.184474 0.00341892  0.0625193 -0.222411 0.0026598  0.0627654 -0.261693 0.00200605  0.0619423 -0.301999 0.00143003  0.0602849 -0.342802 0.000977039  0.0579655 -0.383944 0.00060606  0.055203 -0.425056 0.000358105  0.0521553 -0.466133 0.000200748  0.0490122 -0.506989 0.000122547  0 0 0  -0.00603594 -0.010432 9.53674e-07  -0.0168253 -0.0217173 0  -0.0284947 -0.0370599 -4.76837e-07  -0.0397989 -0.0570157 2.38419e-06  -0.0502466 -0.0813006 2.86102e-06  -0.0597119 -0.109587 4.29153e-06  -0.0681969 -0.141181 5.24521e-06  -0.0757823 -0.17561 9.05991e-06  -0.0825329 -0.212179 1.33514e-05  -0.0885439 -0.25048 1.95503e-05  -0.0938821 -0.289923 1.81198e-05  -0.0986502 -0.33023 2.09808e-05  -0.102927 -0.370938 2.00272e-05  -0.106837 -0.411904 1.33514e-05  -0.110477 -0.452804 1.09673e-05  -0.113995 -0.493676 6.19888e-06  0 0 0  -0.00214685 -0.00784704 -9.53674e-07  -0.00704211 -0.0192546 -1.90735e-06  -0.0129215 -0.0350503 -9.53674e-07  -0.0189572 -0.0556538 4.76837e-07  -0.0248177 -0.0807005 3.33786e-06  -0.030414 -0.109733 2.86102e-06  -0.0357279 -0.142038 7.62939e-06  -0.0407814 -0.177075 8.10623e-06  -0.0455749 -0.214176 1.19209e-05  -0.0501294 -0.252892 1.62125e-05  -0.0544398 -0.292677 1.95503e-05  -0.0585322 -0.333219 1.7643e-05  -0.0624118 -0.374107 1.81198e-05  -0.0661187 -0.415168 1.43051e-05  -0.069674 -0.456134 8.10623e-06  -0.0731375 -0.496983 9.53674e-06  0 0 0  6.38664e-05 -0.00715378 -1.43051e-06  0.000109971 -0.0185253 -1.43051e-06  -5.80549e-05 -0.0345646 4.76837e-07  -0.000592768 -0.0556011 2.86102e-06  -0.00157142 -0.0811488 1.90735e-06  -0.0030266 -0.110726 5.24521e-06  -0.00492501 -0.143521 8.10623e-06  -0.00723124 -0.179019 1.00136e-05  -0.00986576 -0.216486 1.43051e-05  -0.0127747 -0.255527 1.66893e-05  -0.0158715 -0.295542 1.81198e-05  -0.0191112 -0.336276 1.85966e-05  -0.0224206 -0.377276 1.57356e-05  -0.0257757 -0.418429 1.23978e-05  -0.0291262 -0.45943 1.09673e-05  -0.0324662 -0.500298 8.58307e-06  0 0 0  0.00220433 -0.0082078 -3.8147e-06  0.00714046 -0.0198851 -9.53674e-07  0.0126771 -0.036114 -9.53674e-07  0.0176444 -0.0573543 -9.53674e-07  0.0215448 -0.0831634 -4.76837e-07  0.0242304 -0.112991 2.86102e-06  0.0257472 -0.146054 5.72205e-06  0.0261984 -0.181767 1.09673e-05  0.0257337 -0.219439 1.14441e-05  0.0244889 -0.258617 1.90735e-05  0.0226209 -0.298752 1.7643e-05  0.020252 -0.339545 1.7643e-05  0.0175214 -0.380597 1.95503e-05  0.0145302 -0.421756 1.28746e-05  0.011389 -0.462776 1.19209e-05  0.00817537 -0.503658 1.04904e-05  0 0 0  0.00580177 -0.0110702 -3.8147e-06  0.0165727 -0.0230581 -3.33786e-06  0.0278977 -0.0393981 -1.43051e-06  0.0381392 -0.0607142 -1.43051e-06  0.0466378 -0.0865738 -1.43051e-06  0.0532072 -0.116474 1.90735e-06  0.0579224 -0.149588 6.19888e-06  0.0609369 -0.185359 9.05991e-06  0.0624712 -0.223049 1.7643e-05  0.0627253 -0.262239 1.81198e-05  0.0619292 -0.302341 1.85966e-05  0.0602741 -0.3431 2.0504e-05  0.0579777 -0.384089 2.0504e-05  0.0552135 -0.425205 1.66893e-05  0.0521791 -0.466176 1.33514e-05  0.0490127 -0.507092 1.33514e-05  0 0 0  -0.00579154 -0.00909997 0.00609541  -0.016644 -0.0199207 0.00808859  -0.0284129 -0.0351615 0.00807476  -0.0397117 -0.0551231 0.0073123  -0.0501224 -0.0796849 0.00627947  -0.0595453 -0.108166 0.0052352  -0.0680281 -0.140086 0.00424099  -0.075615 -0.174686 0.00336361  -0.082397 -0.211524 0.00257587  -0.088424 -0.249931 0.00191879  -0.0937984 -0.289585 0.00134659  -0.0985777 -0.32994 0.000901699  -0.102882 -0.370803 0.000546455  -0.10679 -0.411764 0.000310898  -0.110451 -0.452768 0.000167847  -0.113972 -0.493581 9.63211e-05  0 0 0  -0.00205602 -0.00684521 0.00213957  -0.00690198 -0.0174883 0.00338078  -0.0127605 -0.0331674 0.0035634  -0.0187418 -0.0538541 0.00327492  -0.0245509 -0.0791619 0.00283384  -0.0301162 -0.108399 0.00236797  -0.035435 -0.140981 0.00193501  -0.0405073 -0.176196 0.00153875  -0.0453403 -0.213525 0.00119686  -0.0499294 -0.252366 0.00090313  -0.0542836 -0.29233 0.000658035  -0.0584071 -0.332944 0.000455856  -0.0623207 -0.373957 0.000299931  -0.0660458 -0.415039 0.000185013  -0.0696208 -0.456078 0.000107288  -0.0730891 -0.496887 5.38826e-05  0 0 0  8.99732e-05 -0.0062401 2.14577e-05  0.000190914 -0.0167747 -2.57492e-05  6.53863e-05 -0.0327271 -6.96182e-05  -0.000439942 -0.0538327 -9.58443e-05  -0.00141597 -0.0796571 -0.000105858  -0.00286865 -0.109395 -0.000101566  -0.00478816 -0.142476 -8.96454e-05  -0.00710535 -0.178114 -7.77245e-05  -0.00977063 -0.215832 -6.19888e-05  -0.0126915 -0.254971 -4.62532e-05  -0.0158188 -0.295191 -3.43323e-05  -0.0190659 -0.335976 -2.19345e-05  -0.0223999 -0.377129 -1.52588e-05  -0.0257554 -0.418283 -8.58307e-06  -0.0291221 -0.459382 -1.90735e-06  -0.0324514 -0.500185 0  0 0 0  0.00217363 -0.00728214 -0.0020504  0.00717324 -0.0182223 -0.00334024  0.012776 -0.0343378 -0.00360632  0.0177455 -0.0556389 -0.00337839  0.0216097 -0.0816776 -0.0029664  0.0242643 -0.111677 -0.00251198  0.025753 -0.144993 -0.00207233  0.0261927 -0.180868 -0.00166798  0.0257151 -0.218763 -0.00130653  0.0244689 -0.258062 -0.000986576  0.0225937 -0.298377 -0.000720978  0.0202281 -0.339246 -0.000499249  0.0174949 -0.380427 -0.000322342  0.0145097 -0.421612 -0.000199795  0.0113673 -0.462708 -0.000114441  0.00816631 -0.503551 -5.48363e-05  0 0 0  0.00561938 -0.0099228 -0.00569963  0.0165417 -0.0214831 -0.0076313  0.0280451 -0.0377328 -0.00769949  0.0383393 -0.059034 -0.00705385  0.0468014 -0.0851275 -0.00613022  0.053335 -0.115171 -0.00517321  0.0580071 -0.148567 -0.00424051  0.0610065 -0.184475 -0.00339985  0.0625134 -0.222413 -0.0026269  0.0627632 -0.261695 -0.00196886  0.0619423 -0.301999 -0.00139332  0.0602853 -0.342805 -0.000936031  0.0579669 -0.383946 -0.000566483  0.0552044 -0.425058 -0.000324726  0.0521553 -0.466133 -0.000174046  0.0490112 -0.506986 -9.53674e-05  0 0 0  -0.00622898 -0.00492348 0.0127244  -0.016838 -0.0135343 0.0163212  -0.027931 -0.0285645 0.0161281  -0.0387089 -0.0493107 0.0145774  -0.0488578 -0.0747564 0.0125189  -0.0582397 -0.104219 0.0104575  -0.0667913 -0.136901 0.00847721  -0.0745237 -0.172272 0.0067296  -0.0814586 -0.209656 0.00514555  -0.0876603 -0.248636 0.00382757  -0.0931849 -0.288651 0.00267553  -0.0981214 -0.329398 0.0017848  -0.102545 -0.370452 0.00106573  -0.106563 -0.411637 0.000601768  -0.110275 -0.452662 0.000315666  -0.113823 -0.49354 0.000179768  0 0 0  -0.00238453 -0.0027992 0.00437689  -0.00702715 -0.0118285 0.00667143  -0.0123353 -0.0273276 0.00698566  -0.017882 -0.0485372 0.00643396  -0.0234752 -0.0745231 0.00558949  -0.029004 -0.104562 0.00469351  -0.034384 -0.137833 0.00384331  -0.0395771 -0.173744 0.00306797  -0.0445447 -0.211613 0.00238657  -0.0492818 -0.250989 0.00180149  -0.0537703 -0.291327 0.00130796  -0.0580249 -0.33231 0.000907898  -0.0620477 -0.373542 0.000594139  -0.0658696 -0.414837 0.000367641  -0.0695045 -0.455944 0.0002141  -0.0730107 -0.496811 0.000105858  0 0 0  0.000191242 -0.00227761 7.62939e-06  0.000446558 -0.0115193 -0.000104427  0.000453055 -0.0272597 -0.00019598  2.36034e-05 -0.0487794 -0.000237465  -0.000919223 -0.0751221 -0.000245571  -0.00239301 -0.105591 -0.000229359  -0.00434935 -0.139277 -0.000201702  -0.00673687 -0.175606 -0.000173092  -0.00946259 -0.213823 -0.000142574  -0.0124621 -0.253518 -0.000112057  -0.0156429 -0.294089 -8.7738e-05  -0.018955 -0.335279 -6.24657e-05  -0.0223229 -0.376634 -4.62532e-05  -0.0257204 -0.418042 -2.90871e-05  -0.0290954 -0.459199 -1.57356e-05  -0.032439 -0.500096 -1.00136e-05  0 0 0  0.00270548 -0.00350654 -0.00428724  0.00783241 -0.0129796 -0.00673103  0.0131668 -0.0288713 -0.00721598  0.0178659 -0.0505735 -0.00675535  0.0215718 -0.077158 -0.00594139  0.0241446 -0.107854 -0.00504017  0.025599 -0.141788 -0.00416565  0.0260139 -0.178319 -0.00336027  0.0255275 -0.216735 -0.00263929  0.0242741 -0.256568 -0.00200701  0.0224068 -0.297267 -0.00147152  0.0200512 -0.338523 -0.00103092  0.0173459 -0.37994 -0.000677586  0.0143847 -0.421361 -0.000423431  0.0112731 -0.462539 -0.000248432  0.00809336 -0.503452 -0.000128269  0 0 0  0.00626191 -0.00636441 -0.0119524  0.0173278 -0.0160418 -0.0155392  0.0284685 -0.0320061 -0.0155354  0.0383971 -0.0538579 -0.0141816  0.0466491 -0.0805759 -0.0123105  0.0530728 -0.111389 -0.0103951  0.0577117 -0.145399 -0.00852108  0.0606904 -0.181987 -0.00683975  0.062207 -0.220425 -0.00528765  0.0624571 -0.260263 -0.00396967  0.0616665 -0.300932 -0.00280809  0.0600293 -0.342148 -0.00189352  0.0577583 -0.383501 -0.00114584  0.0550246 -0.424861 -0.000660896  0.0520148 -0.465974 -0.000350952  0.0488758 -0.506906 -0.000201225  
SCALARS smooth_stress float 1
LOOKUP_TABLE default
1543.98 3573.26 4146.55 4119.67 3783.24 3293.63 2804.95 2346.35 1893.08 1482.29 1133.74 830.388 594.733 410.622 257.162 167.398 66.1681 2151.16 5120.79 6217.79 6371.97 5944.49 5287.79 4605.1 3919.31 3233.36 2602.73 2073.46 1619.31 1246.02 896.814 582.995 377.016 141.356 1017.07 2721.46 3714.44 4027.84 3923.15 3653.7 3303.38 2918.42 2521.24 2138.69 1823.33 1544.41 1242.49 931.108 668.94 438.249 159.837 1437.81 3750.61 4888.7 5099.34 4823.41 4352.42 3836.25 3296.8 2793.11 2311.08 1890.36 1529.75 1144.6 829.998 641.426 461.645 175.963 1027.91 2576.68 3245.51 3323.79 3061.51 2692.88 2333.02 1951.34 1612.15 1292.83 1006.75 774.267 553.396 385.083 298.319 233.014 91.314 2908.31 6979.89 8374.57 8366.85 7626.52 6605.85 5604.72 4615.08 3687.68 2887.18 2230.49 1652 1181.17 806.478 527.687 348.709 120.893 4346.53 10459.3 12709.3 12882.5 11890.3 10470.7 9003.73 7556.72 6179.83 4958.97 3967.38 3104.18 2381.25 1725.58 1172.23 759.36 266.776 2611.47 6327.11 7819.02 8092.62 7679.34 7007.37 6213.67 5428.13 4669.19 3953.7 3360.54 2825.5 2296.66 1763.31 1272.14 823.584 299.277 3285.21 8081.67 10003.4 10235.4 9580.04 8541.55 7419.53 6330.74 5337.31 4390.12 3584.78 2880.46 2163.49 1572.28 1182.39 849.582 325.651 2111.96 5233.93 6519.12 6658.5 6164.51 5399.05 4604.87 3844.26 3160.26 2508.21 1961.13 1507.14 1066.91 728.075 554.793 436.649 172.257 2705.4 6769.12 8433.26 8507.66 7694.97 6621.38 5605.62 4567.31 3630.28 2814.24 2160.42 1625.35 1148.43 767.534 504.649 329.794 119.344 4396.56 10672.3 12989.9 13057.4 11887.9 10328.4 8786.39 7286.02 5915.72 4707.11 3733.82 2933.56 2221.94 1614.54 1119.78 710.82 258.101 3244.88 7319.66 8284.63 8161.94 7481.66 6634.28 5772.42 4960.82 4237.04 3598.43 3032.06 2527.56 2071.9 1607.07 1134.36 725.697 276.486 3727.39 8734.82 10307.3 10296.1 9437.4 8304.92 7129.2 5993.64 5022.92 4134.06 3343.97 2652.79 2015.36 1466.48 1039.12 734.626 294.717 2173.67 5318.38 6579.27 6683.81 6148.69 5377.64 4537.54 3751.53 3071.33 2428.49 1885.31 1433.44 1016.98 706.415 519.893 389.956 156.987 2792.52 6815.53 8352.16 8401.35 7597.51 6600.43 5611.76 4602.18 3724.19 2907.99 2166.26 1598.95 1159.5 776.774 492.787 333.871 140.375 4332.05 10482.9 12805.9 12951.2 11829.6 10373.4 8905.9 7444.13 6129.4 4911.01 3819.86 2954.66 2257.13 1649.34 1128.67 739.842 297.927 2905.52 6813.62 8086.73 8173.54 7571.89 6787.56 6000.44 5196.12 4456.7 3785.74 3170.25 2637.06 2154.44 1659.96 1168.33 760.871 300.188 3509.73 8420.45 10206.4 10323.1 9451.57 8356.03 7266.65 6116.89 5143.37 4252.49 3413.76 2717.56 2095.69 1536.19 1054.07 711.699 293.128 2143.73 5274.16 6573.45 6699.39 6111.78 5341.44 4560.34 3762.72 3091.88 2469.78 1897.11 1436.21 1038.87 748.798 521.627 356.798 150.492 1451.44 3453.05 4146.92 4140.86 3745.82 3291.27 2805.91 2303.6 1888.5 1498.63 1102.59 795.207 597.509 405.097 258.663 185.388 75.7562 2130.85 5149.01 6307.54 6404.41 5887.53 5227.95 4518.14 3795.53 3160.15 2560.15 1979.96 1505.97 1170.42 863.577 598.12 411.366 165.246 1255.04 3099.61 3906.68 4076.38 3846.42 3506.95 3138.31 2745.01 2367.62 2002.32 1675.39 1390.6 1136.71 885.101 637.159 420.51 163.141 1629.74 4016.69 5013.84 5163.12 4770.8 4240.23 3720.73 3157.19 2664.64 2197.47 1764.21 1415.48 1099.21 811.996 555.91 365.009 148.099 1054.11 2613.04 3267.79 3350.29 3066.09 2669.96 2294.65 1904.11 1568.67 1256.66 966.187 735.645 535.41 385.375 258.208 170.477 74.4479 
CELL_DATA 256
SCALARS stress float 1
LOOKUP_TABLE default
1543.98 2029.28 2117.27 2002.4 1780.84 1512.79 1292.16 1054.19 838.895 643.394 490.345 340.043 254.69 155.932 101.23 66.1681 607.179 940.35 1130.9 1121.4 1039.85 954.315 845.839 727.12 613.154 507.285 432.431 356.494 294.789 191.403 134.43 75.1879 409.895 764.037 879.157 896.389 865.518 794.024 709.203 636.258 544.703 473.548 410.07 345.416 245.791 199.125 143.982 84.6494 1027.91 1548.76 1696.75 1627.04 1434.46 1258.42 1074.6 876.734 735.419 557.412 449.333 324.933 228.463 156.619 141.7 91.314 1364.32 2042.31 2185.71 2061.47 1781.81 1530.41 1269.37 999.367 795.231 609.661 487.09 334.518 251.917 143.939 126.585 54.7251 831.044 1100.81 1162.65 1100.73 1001.84 868.87 729.986 638.698 513.174 438.173 359.001 304.256 244.547 188.367 130.339 70.6946 763.356 910.445 930.676 870.722 782.905 700.05 611.382 529.641 466.444 397.214 342.822 275.012 230.359 168.933 115.557 68.7449 1084.05 1573.21 1700.41 1634.3 1468.7 1237.47 1034.38 858.543 689.563 525.812 428.571 304.305 209.21 133.782 122.692 80.9429 1341.08 2021.4 2183.84 2076.64 1775.05 1534.11 1271.74 1026.84 808.846 600.505 463.163 340.576 221.417 150.26 83.8641 64.619 860.118 1111.25 1181.9 1104.42 985.963 850.328 731.579 618.446 515.124 426.391 349.836 295.119 229.596 184.494 111.931 68.062 790.362 952.276 934.631 876.212 758.871 685.454 594.772 506.317 449.193 392.715 325.91 275.6 217.415 143.356 91.3841 68.9844 1089.62 1571.5 1734.16 1614.94 1430.74 1240.73 1024.96 833.643 689.576 523.54 407.386 293.181 210.28 153.142 110.276 76.0446 1451.44 2001.61 2145.31 1995.55 1750.26 1541.01 1264.9 1038.69 849.81 648.824 453.765 341.442 256.066 149.031 109.632 75.7562 679.411 1016.55 1144.07 1119.48 1022.23 914.448 797.781 694.145 577.5 484.013 393.36 317.402 255.511 202.97 136.488 89.4899 575.633 828.021 918.032 894.797 809.913 760.353 665.726 587.356 508.623 432.186 365.835 314.001 249.8 176.821 120.88 73.6516 1054.11 1558.93 1708.86 1641.43 1424.67 1245.3 1049.35 854.759 713.906 542.756 423.431 312.214 223.196 162.179 96.0295 74.4479 
SCALARS volume float 1
LOOKUP_TABLE default
2.5226 2.52735 2.52862 2.52921 2.5296 2.52992 2.5302 2.53044 2.53064 2.53082 2.53098 2.5311 2.5312 2.53127 2.53132 2.53135 2.52878 2.52852 2.52899 2.52932 2.52962 2.5299 2.53014 2.53036 2.53056 2.53073 2.53088 2.531 2.53109 2.53116 2.53121 2.53125 2.53234 2.53126 2.53073 2.53062 2.53062 2.53067 2.53076 2.53084 2.53092 2.53099 2.53105 2.53111 2.53115 2.53118 2.53121 2.53118 2.53724 2.53342 2.53242 2.532 2.53177 2.53161 2.5315 2.53143 2.53137 2.53132 2.53128 2.53125 2.53122 2.5312 2.53117 2.53113 2.52319 2.52646 2.52815 2.52907 2.52959 2.52995 2.53022 2.53045 2.53065 2.53083 2.53098 2.53111 2.53121 2.53129 2.53133 2.53135 2.52941 2.52842 2.52897 2.52937 2.52971 2.52999 2.53023 2.53043 2.53061 2.53076 2.5309 2.531 2.53109 2.53115 2.53119 2.53122 2.53168 2.53115 2.53056 2.53044 2.53047 2.53059 2.53071 2.53082 2.53092 2.53101 2.53108 2.53114 2.53118 2.53121 2.53123 2.53121 2.53631 2.53376 2.53257 2.53193 2.53164 2.5315 2.53143 2.53138 2.53134 2.5313 2.53128 2.53124 2.53123 2.53119 2.53118 2.53114 2.52319 2.52662 2.52816 2.52904 2.52958 2.52995 2.53023 2.53046 2.53066 2.53084 2.53099 2.53111 2.53121 2.53129 2.53133 2.53135 2.5294 2.52843 2.52895 2.52935 2.5297 2.52999 2.53023 2.53044 2.53061 2.53077 2.5309 2.53101 2.5311 2.53116 2.5312 2.53123 2.5317 2.53112 2.53056 2.53046 2.5305 2.5306 2.53071 2.53082 2.53092 2.531 2.53107 2.53113 2.53117 2.53121 2.53123 2.5312 2.53636 2.53359 2.53252 2.53194 2.53166 2.53152 2.53144 2.53138 2.53134 2.53131 2.53128 2.53125 2.53122 2.5312 2.53118 2.53115 2.52291 2.52739 2.52863 2.52923 2.52964 2.52996 2.53023 2.53046 2.53066 2.53084 2.53098 2.53111 2.5312 2.53128 2.53132 2.53135 2.52882 2.5285 2.52903 2.52937 2.52967 2.52992 2.53016 2.53037 2.53056 2.53072 2.53087 2.53098 2.53108 2.53114 2.5312 2.53123 2.53208 2.53122 2.53079 2.53067 2.53065 2.53069 2.53075 2.53083 2.5309 2.53098 2.53104 2.53109 2.53113 2.53117 2.5312 2.53117 2.53685 2.53334 2.53243 2.53199 2.53175 2.53159 2.53148 2.5314 2.53135 2.5313 2.53126 2.53123 2.53121 2.53118 2.53117 2.53113 
SCALARS volume_diff float 1
LOOKUP_TABLE default
2.50698 2.51172 2.51299 2.51358 2.51398 2.5143 2.51457 2.51481 2.51502 2.5152 2.51535 2.51547 2.51557 2.51565 2.5157 2.51572 2.51316 2.51289 2.51336 2.5137 2.514 2.51427 2.51452 2.51474 2.51493 2.51511 2.51525 2.51537 2.51547 2.51554 2.51558 2.51562 2.51672 2.51563 2.51511 2.51499 2.515 2.51505 2.51513 2.51521 2.51529 2.51536 2.51543 2.51548 2.51552 2.51556 2.51558 2.51556 2.52162 2.5178 2.5168 2.51637 2.51614 2.51599 2.51588 2.5158 2.51574 2.51569 2.51566 2.51562 2.5156 2.51557 2.51555 2.51551 2.50757 2.51083 2.51252 2.51345 2.51397 2.51433 2.51459 2.51483 2.51502 2.5152 2.51535 2.51549 2.51558 2.51566 2.5157 2.51572 2.51379 2.51279 2.51334 2.51374 2.51409 2.51436 2.5146 2.51481 2.51499 2.51513 2.51527 2.51537 2.51547 2.51552 2.51557 2.5156 2.51606 2.51552 2.51493 2.51481 2.51485 2.51496 2.51508 2.5152 2.51529 2.51538 2.51545 2.51551 2.51556 2.51559 2.5156 2.51558 2.52069 2.51814 2.51695 2.51631 2.51602 2.51587 2.51581 2.51575 2.51571 2.51567 2.51565 2.51562 2.5156 2.51557 2.51555 2.51551 2.50756 2.51099 2.51254 2.51342 2.51395 2.51432 2.5146 2.51483 2.51504 2.51521 2.51536 2.51549 2.51559 2.51566 2.51571 2.51572 2.51378 2.5128 2.51332 2.51373 2.51408 2.51437 2.51461 2.51481 2.51499 2.51514 2.51528 2.51538 2.51547 2.51553 2.51558 2.51561 2.51607 2.5155 2.51493 2.51483 2.51487 2.51497 2.51509 2.5152 2.51529 2.51538 2.51545 2.5155 2.51555 2.51558 2.5156 2.51558 2.52074 2.51796 2.5169 2.51632 2.51603 2.51589 2.51581 2.51576 2.51572 2.51568 2.51565 2.51562 2.5156 2.51558 2.51555 2.51552 2.50729 2.51177 2.513 2.51361 2.51401 2.51433 2.5146 2.51484 2.51504 2.51521 2.51536 2.51548 2.51558 2.51565 2.5157 2.51572 2.5132 2.51288 2.5134 2.51375 2.51404 2.51429 2.51453 2.51474 2.51494 2.5151 2.51525 2.51536 2.51546 2.51552 2.51557 2.5156 2.51646 2.51559 2.51516 2.51505 2.51502 2.51506 2.51513 2.51521 2.51528 2.51535 2.51541 2.51547 2.51551 2.51555 2.51557 2.51555 2.52123 2.51772 2.5168 2.51637 2.51613 2.51596 2.51586 2.51578 2.51572 2.51567 2.51564 2.5156 2.51559 2.51556 2.51554 2.5155 
