# vtk DataFile Version 5.1
vtk output
ASCII

DATASET UNSTRUCTURED_GRID
POINTS 425 float
0 0 -1
0.25 0 -1
0.5 0 -1
0.75 0 -1
1 0 -1
1.25 0 -1
1.5 0 -1
1.75 0 -1
2 0 -1
2.25 0 -1
2.5 0 -1
2.75 0 -1
3 0 -1
3.25 0 -1
3.5 0 -1
3.75 0 -1
4 0 -1
0 0.25 -1
0.25 0.25 -1
0.5 0.25 -1
0.75 0.25 -1
1 0.25 -1
1.25 0.25 -1
1.5 0.25 -1
1.75 0.25 -1
2 0.25 -1
2.25 0.25 -1
2.5 0.25 -1
2.75 0.25 -1
3 0.25 -1
3.25 0.25 -1
3.5 0.25 -1
3.75 0.25 -1
4 0.25 -1
0 0.5 -1
0.25 0.5 -1
0.5 0.5 -1
0.75 0.5 -1
1 0.5 -1
1.25 0.5 -1
1.5 0.5 -1
1.75 0.5 -1
2 0.5 -1
2.25 0.5 -1
2.5 0.5 -1
2.75 0.5 -1
3 0.5 -1
3.25 0.5 -1
3.5 0.5 -1
3.75 0.5 -1
4 0.5 -1
0 0.75 -1
0.25 0.75 -1
0.5 0.75 -1
0.75 0.75 -1
1 0.75 -1
1.25 0.75 -1
1.5 0.75 -1
1.75 0.75 -1
2 0.75 -1
2.25 0.75 -1
2.5 0.75 -1
2.75 0.75 -1
3 0.75 -1
3.25 0.75 -1
3.5 0.75 -1
3.75 0.75 -1
4 0.75 -1
0 1 -1
0.25 1 -1
0.5 1 -1
0.75 1 -1
1 1 -1
1.25 1 -1
1.5 1 -1
1.75 1 -1
2 1 -1
2.25 1 -1
2.5 1 -1
2.75 1 -1
3 1 -1
3.25 1 -1
3.5 1 -1
3.75 1 -1
4 1 -1
0 0 -0.75
0.25 0 -0.75
0.5 0 -0.75
0.75 0 -0.75
1 0 -0.75
1.25 0 -0.75
1.5 0 -0.75
1.75 0 -0.75
2 0 -0.75
2.25 0 -0.75
2.5 0 -0.75
2.75 0 -0.75
3 0 -0.75
3.25 0 -0.75
3.5 0 -0.75
3.75 0 -0.75
4 0 -0.75
0 0.25 -0.75
0.25 0.25 -0.75
0.5 0.25 -0.75
0.75 0.25 -0.75
1 0.25 -0.75
1.25 0.25 -0.75
1.5 0.25 -0.75
1.75 0.25 -0.75
2 0.25 -0.75
2.25 0.25 -0.75
2.5 0.25 -0.75
2.75 0.25 -0.75
3 0.25 -0.75
3.25 0.25 -0.75
3.5 0.25 -0.75
3.75 0.25 -0.75
4 0.25 -0.75
0 0.5 -0.75
0.25 0.5 -0.75
0.5 0.5 -0.75
0.75 0.5 -0.75
1 0.5 -0.75
1.25 0.5 -0.75
1.5 0.5 -0.75
1.75 0.5 -0.75
2 0.5 -0.75
2.25 0.5 -0.75
2.5 0.5 -0.75
2.75 0.5 -0.75
3 0.5 -0.75
3.25 0.5 -0.75
3.5 0.5 -0.75
3.75 0.5 -0.75
4 0.5 -0.75
0 0.75 -0.75
0.25 0.75 -0.75
0.5 0.75 -0.75
0.75 0.75 -0.75
1 0.75 -0.75
1.25 0.75 -0.75
1.5 0.75 -0.75
1.75 0.75 -0.75
2 0.75 -0.75
2.25 0.75 -0.75
2.5 0.75 -0.75
2.75 0.75 -0.75
3 0.75 -0.75
3.25 0.75 -0.75
3.5 0.75 -0.75
3.75 0.75 -0.75
4 0.75 -0.75
0 1 -0.75
0.25 1 -0.75
0.5 1 -0.75
0.75 1 -0.75
1 1 -0.75
1.25 1 -0.75
1.5 1 -0.75
1.75 1 -0.75
2 1 -0.75
2.25 1 -0.75
2.5 1 -0.75
2.75 1 -0.75
3 1 -0.75
3.25 1 -0.75
3.5 1 -0.75
3.75 1 -0.75
4 1 -0.75
0 0 -0.5
0.25 0 -0.5
0.5 0 -0.5
0.75 0 -0.5
1 0 -0.5
1.25 0 -0.5
1.5 0 -0.5
1.75 0 -0.5
2 0 -0.5
2.25 0 -0.5
2.5 0 -0.5
2.75 0 -0.5
3 0 -0.5
3.25 0 -0.5
3.5 0 -0.5
3.75 0 -0.5
4 0 -0.5
0 0.25 -0.5
0.25 0.25 -0.5
0.5 0.25 -0.5
0.75 0.25 -0.5
1 0.25 -0.5
1.25 0.25 -0.5
1.5 0.25 -0.5
1.75 0.25 -0.5
2 0.25 -0.5
2.25 0.25 -0.5
2.5 0.25 -0.5
2.75 0.25 -0.5
3 0.25 -0.5
3.25 0.25 -0.5
3.5 0.25 -0.5
3.75 0.25 -0.5
4 0.25 -0.5
0 0.5 -0.5
0.25 0.5 -0.5
0.5 0.5 -0.5
0.75 0.5 -0.5
1 0.5 -0.5
1.25 0.5 -0.5
1.5 0.5 -0.5
1.75 0.5 -0.5
2 0.5 -0.5
2.25 0.5 -0.5
2.5 0.5 -0.5
2.75 0.5 -0.5
3 0.5 -0.5
3.25 0.5 -0.5
3.5 0.5 -0.5
3.75 0.5 -0.5
4 0.5 -0.5
0 0.75 -0.5
0.25 0.75 -0.5
0.5 0.75 -0.5
0.75 0.75 -0.5
1 0.75 -0.5
1.25 0.75 -0.5
1.5 0.75 -0.5
1.75 0.75 -0.5
2 0.75 -0.5
2.25 0.75 -0.5
2.5 0.75 -0.5
2.75 0.75 -0.5
3 0.75 -0.5
3.25 0.75 -0.5
3.5 0.75 -0.5
3.75 0.75 -0.5
4 0.75 -0.5
0 1 -0.5
0.25 1 -0.5
0.5 1 -0.5
0.75 1 -0.5
1 1 -0.5
1.25 1 -0.5
1.5 1 -0.5
1.75 1 -0.5
2 1 -0.5
2.25 1 -0.5
2.5 1 -0.5
2.75 1 -0.5
3 1 -0.5
3.25 1 -0.5
3.5 1 -0.5
3.75 1 -0.5
4 1 -0.5
0 0 -0.25
0.25 0 -0.25
0.5 0 -0.25
0.75 0 -0.25
1 0 -0.25
1.25 0 -0.25
1.5 0 -0.25
1.75 0 -0.25
2 0 -0.25
2.25 0 -0.25
2.5 0 -0.25
2.75 0 -0.25
3 0 -0.25
3.25 0 -0.25
3.5 0 -0.25
3.75 0 -0.25
4 0 -0.25
0 0.25 -0.25
0.25 0.25 -0.25
0.5 0.25 -0.25
0.75 0.25 -0.25
1 0.25 -0.25
1.25 0.25 -0.25
1.5 0.25 -0.25
1.75 0.25 -0.25
2 0.25 -0.25
2.25 0.25 -0.25
2.5 0.25 -0.25
2.75 0.25 -0.25
3 0.25 -0.25
3.25 0.25 -0.25
3.5 0.25 -0.25
3.75 0.25 -0.25
4 0.25 -0.25
0 0.5 -0.25
0.25 0.5 -0.25
0.5 0.5 -0.25
0.75 0.5 -0.25
1 0.5 -0.25
1.25 0.5 -0.25
1.5 0.5 -0.25
1.75 0.5 -0.25
2 0.5 -0.25
2.25 0.5 -0.25
2.5 0.5 -0.25
2.75 0.5 -0.25
3 0.5 -0.25
3.25 0.5 -0.25
3.5 0.5 -0.25
3.75 0.5 -0.25
4 0.5 -0.25
0 0.75 -0.25
0.25 0.75 -0.25
0.5 0.75 -0.25
0.75 0.75 -0.25
1 0.75 -0.25
1.25 0.75 -0.25
1.5 0.75 -0.25
1.75 0.75 -0.25
2 0.75 -0.25
2.25 0.75 -0.25
2.5 0.75 -0.25
2.75 0.75 -0.25
3 0.75 -0.25
3.25 0.75 -0.25
3.5 0.75 -0.25
3.75 0.75 -0.25
4 0.75 -0.25
0 1 -0.25
0.25 1 -0.25
0.5 1 -0.25
0.75 1 -0.25
1 1 -0.25
1.25 1 -0.25
1.5 1 -0.25
1.75 1 -0.25
2 1 -0.25
2.25 1 -0.25
2.5 1 -0.25
2.75 1 -0.25
3 1 -0.25
3.25 1 -0.25
3.5 1 -0.25
3.75 1 -0.25
4 1 -0.25
0 0 0
0.25 0 0
0.5 0 0
0.75 0 0
1 0 0
1.25 0 0
1.5 0 0
1.75 0 0
2 0 0
2.25 0 0
2.5 0 0
2.75 0 0
3 0 0
3.25 0 0
3.5 0 0
3.75 0 0
4 0 0
0 0.25 0
0.25 0.25 0
0.5 0.25 0
0.75 0.25 0
1 0.25 0
1.25 0.25 0
1.5 0.25 0
1.75 0.25 0
2 0.25 0
2.25 0.25 0
2.5 0.25 0
2.75 0.25 0
3 0.25 0
3.25 0.25 0
3.5 0.25 0
3.75 0.25 0
4 0.25 0
0 0.5 0
0.25 0.5 0
0.5 0.5 0
0.75 0.5 0
1 0.5 0
1.25 0.5 0
1.5 0.5 0
1.75 0.5 0
2 0.5 0
2.25 0.5 0
2.5 0.5 0
2.75 0.5 0
3 0.5 0
3.25 0.5 0
3.5 0.5 0
3.75 0.5 0
4 0.5 0
0 0.75 0
0.25 0.75 0
0.5 0.75 0
0.75 0.75 0
1 0.75 0
1.25 0.75 0
1.5 0.75 0
1.75 0.75 0
2 0.75 0
2.25 0.75 0
2.5 0.75 0
2.75 0.75 0
3 0.75 0
3.25 0.75 0
3.5 0.75 0
3.75 0.75 0
4 0.75 0
0 1 0
0.25 1 0
0.5 1 0
0.75 1 0
1 1 0
1.25 1 0
1.5 1 0
1.75 1 0
2 1 0
2.25 1 0
2.5 1 0
2.75 1 0
3 1 0
3.25 1 0
3.5 1 0
3.75 1 0
4 1 0

CELLS 257 2048
OFFSETS vtktypeint64
0 8 16 24 32 40 48 56 64 72 80 88 96 104 112 120 128 136 144 152 160 168 176 184 192 200 208 216 224 232 240 248 256 264 272 280 288 296 304 312 320 328 336 344 352 360 368 376 384 392 400 408 416 424 432 440 448 456 464 472 480 488 496 504 512 520 528 536 544 552 560 568 576 584 592 600 608 616 624 632 640 648 656 664 672 680 688 696 704 712 720 728 736 744 752 760 768 776 784 792 800 808 816 824 832 840 848 856 864 872 880 888 896 904 912 920 928 936 944 952 960 968 976 984 992 1000 1008 1016 1024 1032 1040 1048 1056 1064 1072 1080 1088 1096 1104 1112 1120 1128 1136 1144 1152 1160 1168 1176 1184 1192 1200 1208 1216 1224 1232 1240 1248 1256 1264 1272 1280 1288 1296 1304 1312 1320 1328 1336 1344 1352 1360 1368 1376 1384 1392 1400 1408 1416 1424 1432 1440 1448 1456 1464 1472 1480 1488 1496 1504 1512 1520 1528 1536 1544 1552 1560 1568 1576 1584 1592 1600 1608 1616 1624 1632 1640 1648 1656 1664 1672 1680 1688 1696 1704 1712 1720 1728 1736 1744 1752 1760 1768 1776 1784 1792 1800 1808 1816 1824 1832 1840 1848 1856 1864 1872 1880 1888 1896 1904 1912 1920 1928 1936 1944 1952 1960 1968 1976 1984 1992 2000 2008 2016 2024 2032 2040 2048 
CONNECTIVITY vtktypeint64
0 1 86 85 17 18 103 102 
1 2 87 86 18 19 104 103 
2 3 88 87 19 20 105 104 
3 4 89 88 20 21 106 105 
4 5 90 89 21 22 107 106 
5 6 91 90 22 23 108 107 
6 7 92 91 23 24 109 108 
7 8 93 92 24 25 110 109 
8 9 94 93 25 26 111 110 
9 10 95 94 26 27 112 111 
10 11 96 95 27 28 113 112 
11 12 97 96 28 29 114 113 
12 13 98 97 29 30 115 114 
13 14 99 98 30 31 116 115 
14 15 100 99 31 32 117 116 
15 16 101 100 32 33 118 117 
17 18 103 102 34 35 120 119 
18 19 104 103 35 36 121 120 
19 20 105 104 36 37 122 121 
20 21 106 105 37 38 123 122 
21 22 107 106 38 39 124 123 
22 23 108 107 39 40 125 124 
23 24 109 108 40 41 126 125 
24 25 110 109 41 42 127 126 
25 26 111 110 42 43 128 127 
26 27 112 111 43 44 129 128 
27 28 113 112 44 45 130 129 
28 29 114 113 45 46 131 130 
29 30 115 114 46 47 132 131 
30 31 116 115 47 48 133 132 
31 32 117 116 48 49 134 133 
32 33 118 117 49 50 135 134 
34 35 120 119 51 52 137 136 
35 36 121 120 52 53 138 137 
36 37 122 121 53 54 139 138 
37 38 123 122 54 55 140 139 
38 39 124 123 55 56 141 140 
39 40 125 124 56 57 142 141 
40 41 126 125 57 58 143 142 
41 42 127 126 58 59 144 143 
42 43 128 127 59 60 145 144 
43 44 129 128 60 61 146 145 
44 45 130 129 61 62 147 146 
45 46 131 130 62 63 148 147 
46 47 132 131 63 64 149 148 
47 48 133 132 64 65 150 149 
48 49 134 133 65 66 151 150 
49 50 135 134 66 67 152 151 
51 52 137 136 68 69 154 153 
52 53 138 137 69 70 155 154 
53 54 139 138 70 71 156 155 
54 55 140 139 71 72 157 156 
55 56 141 140 72 73 158 157 
56 57 142 141 73 74 159 158 
57 58 143 142 74 75 160 159 
58 59 144 143 75 76 161 160 
59 60 145 144 76 77 162 161 
60 61 146 145 77 78 163 162 
61 62 147 146 78 79 164 163 
62 63 148 147 79 80 165 164 
63 64 149 148 80 81 166 165 
64 65 150 149 81 82 167 166 
65 66 151 150 82 83 168 167 
66 67 152 151 83 84 169 168 
85 86 171 170 102 103 188 187 
86 87 172 171 103 104 189 188 
87 88 173 172 104 105 190 189 
88 89 174 173 105 106 191 190 
89 90 175 174 106 107 192 191 
90 91 176 175 107 108 193 192 
91 92 177 176 108 109 194 193 
92 93 178 177 109 110 195 194 
93 94 179 178 110 111 196 195 
94 95 180 179 111 112 197 196 
95 96 181 180 112 113 198 197 
96 97 182 181 113 114 199 198 
97 98 183 182 114 115 200 199 
98 99 184 183 115 116 201 200 
99 100 185 184 116 117 202 201 
100 101 186 185 117 118 203 202 
102 103 188 187 119 120 205 204 
103 104 189 188 120 121 206 205 
104 105 190 189 121 122 207 206 
105 106 191 190 122 123 208 207 
106 107 192 191 123 124 209 208 
107 108 193 192 124 125 210 209 
108 109 194 193 125 126 211 210 
109 110 195 194 126 127 212 211 
110 111 196 195 127 128 213 212 
111 112 197 196 128 129 214 213 
112 113 198 197 129 130 215 214 
113 114 199 198 130 131 216 215 
114 115 200 199 131 132 217 216 
115 116 201 200 132 133 218 217 
116 117 202 201 133 134 219 218 
117 118 203 202 134 135 220 219 
119 120 205 204 136 137 222 221 
120 121 206 205 137 138 223 222 
121 122 207 206 138 139 224 223 
122 123 208 207 139 140 225 224 
123 124 209 208 140 141 226 225 
124 125 210 209 141 142 227 226 
125 126 211 210 142 143 228 227 
126 127 212 211 143 144 229 228 
127 128 213 212 144 145 230 229 
128 129 214 213 145 146 231 230 
129 130 215 214 146 147 232 231 
130 131 216 215 147 148 233 232 
131 132 217 216 148 149 234 233 
132 133 218 217 149 150 235 234 
133 134 219 218 150 151 236 235 
134 135 220 219 151 152 237 236 
136 137 222 221 153 154 239 238 
137 138 223 222 154 155 240 239 
138 139 224 223 155 156 241 240 
139 140 225 224 156 157 242 241 
140 141 226 225 157 158 243 242 
141 142 227 226 158 159 244 243 
142 143 228 227 159 160 245 244 
143 144 229 228 160 161 246 245 
144 145 230 229 161 162 247 246 
145 146 231 230 162 163 248 247 
146 147 232 231 163 164 249 248 
147 148 233 232 164 165 250 249 
148 149 234 233 165 166 251 250 
149 150 235 234 166 167 252 251 
150 151 236 235 167 168 253 252 
151 152 237 236 168 169 254 253 
170 171 256 255 187 188 273 272 
171 172 257 256 188 189 274 273 
172 173 258 257 189 190 275 274 
173 174 259 258 190 191 276 275 
174 175 260 259 191 192 277 276 
175 176 261 260 192 193 278 277 
176 177 262 261 193 194 279 278 
177 178 263 262 194 195 280 279 
178 179 264 263 195 196 281 280 
179 180 265 264 196 197 282 281 
180 181 266 265 197 198 283 282 
181 182 267 266 198 199 284 283 
182 183 268 267 199 200 285 284 
183 184 269 268 200 201 286 285 
184 185 270 269 201 202 287 286 
185 186 271 270 202 203 288 287 
187 188 273 272 204 205 290 289 
188 189 274 273 205 206 291 290 
189 190 275 274 206 207 292 291 
190 191 276 275 207 208 293 292 
191 192 277 276 208 209 294 293 
192 193 278 277 209 210 295 294 
193 194 279 278 210 211 296 295 
194 195 280 279 211 212 297 296 
195 196 281 280 212 213 298 297 
196 197 282 281 213 214 299 298 
197 198 283 282 214 215 300 299 
198 199 284 283 215 216 301 300 
199 200 285 284 216 217 302 301 
200 201 286 285 217 218 303 302 
201 202 287 286 218 219 304 303 
202 203 288 287 219 220 305 304 
204 205 290 289 221 222 307 306 
205 206 291 290 222 223 308 307 
206 207 292 291 223 224 309 308 
207 208 293 292 224 225 310 309 
208 209 294 293 225 226 311 310 
209 210 295 294 226 227 312 311 
210 211 296 295 227 228 313 312 
211 212 297 296 228 229 314 313 
212 213 298 297 229 230 315 314 
213 214 299 298 230 231 316 315 
214 215 300 299 231 232 317 316 
215 216 301 300 232 233 318 317 
216 217 302 301 233 234 319 318 
217 218 303 302 234 235 320 319 
218 219 304 303 235 236 321 320 
219 220 305 304 236 237 322 321 
221 222 307 306 238 239 324 323 
222 223 308 307 239 240 325 324 
223 224 309 308 240 241 326 325 
224 225 310 309 241 242 327 326 
225 226 311 310 242 243 328 327 
226 227 312 311 243 244 329 328 
227 228 313 312 244 245 330 329 
228 229 314 313 245 246 331 330 
229 230 315 314 246 247 332 331 
230 231 316 315 247 248 333 332 
231 232 317 316 248 249 334 333 
232 233 318 317 249 250 335 334 
233 234 319 318 250 251 336 335 
234 235 320 319 251 252 337 336 
235 236 321 320 252 253 338 337 
236 237 322 321 253 254 339 338 
255 256 341 340 272 273 358 357 
256 257 342 341 273 274 359 358 
257 258 343 342 274 275 360 359 
258 259 344 343 275 276 361 360 
259 260 345 344 276 277 362 361 
260 261 346 345 277 278 363 362 
261 262 347 346 278 279 364 363 
262 263 348 347 279 280 365 364 
263 264 349 348 280 281 366 365 
264 265 350 349 281 282 367 366 
265 266 351 350 282 283 368 367 
266 267 352 351 283 284 369 368 
267 268 353 352 284 285 370 369 
268 269 354 353 285 286 371 370 
269 270 355 354 286 287 372 371 
270 271 356 355 287 288 373 372 
272 273 358 357 289 290 375 374 
273 274 359 358 290 291 376 375 
274 275 360 359 291 292 377 376 
275 276 361 360 292 293 378 377 
276 277 362 361 293 294 379 378 
277 278 363 362 294 295 380 379 
278 279 364 363 295 296 381 380 
279 280 365 364 296 297 382 381 
280 281 366 365 297 298 383 382 
281 282 367 366 298 299 384 383 
282 283 368 367 299 300 385 384 
283 284 369 368 300 301 386 385 
284 285 370 369 301 302 387 386 
285 286 371 370 302 303 388 387 
286 287 372 371 303 304 389 388 
287 288 373 372 304 305 390 389 
289 290 375 374 306 307 392 391 
290 291 376 375 307 308 393 392 
291 292 377 376 308 309 394 393 
292 293 378 377 309 310 395 394 
293 294 379 378 310 311 396 395 
294 295 380 379 311 312 397 396 
295 296 381 380 312 313 398 397 
296 297 382 381 313 314 399 398 
297 298 383 382 314 315 400 399 
298 299 384 383 315 316 401 400 
299 300 385 384 316 317 402 401 
300 301 386 385 317 318 403 402 
301 302 387 386 318 319 404 403 
302 303 388 387 319 320 405 404 
303 304 389 388 320 321 406 405 
304 305 390 389 321 322 407 406 
306 307 392 391 323 324 409 408 
307 308 393 392 324 325 410 409 
308 309 394 393 325 326 411 410 
309 310 395 394 326 327 412 411 
310 311 396 395 327 328 413 412 
311 312 397 396 328 329 414 413 
312 313 398 397 329 330 415 414 
313 314 399 398 330 331 416 415 
314 315 400 399 331 332 417 416 
315 316 401 400 332 333 418 417 
316 317 402 401 333 334 419 418 
317 318 403 402 334 335 420 419 
318 319 404 403 335 336 421 420 
319 320 405 404 336 337 422 421 
320 321 406 405 337 338 423 422 
321 322 407 406 338 339 424 423 
CELL_TYPES 256
12 12 12 12 12 12 12 12 12 12 12 12 12 12 12 12 12 12 12 12 12 12 12 12 12 12 12 12 12 12 12 12 12 12 12 12 12 12 12 12 12 12 12 12 12 12 12 12 12 12 12 12 12 12 12 12 12 12 12 12 12 12 12 12 12 12 12 12 12 12 12 12 12 12 12 12 12 12 12 12 12 12 12 12 12 12 12 12 12 12 12 12 12 12 12 12 12 12 12 12 12 12 12 12 12 12 12 12 12 12 12 12 12 12 12 12 12 12 12 12 12 12 12 12 12 12 12 12 12 12 12 12 12 12 12 12 12 12 12 12 12 12 12 12 12 12 12 12 12 12 12 12 12 12 12 12 12 12 12 12 12 12 12 12 12 12 12 12 12 12 12 12 12 12 12 12 12 12 12 12 12 12 12 12 12 12 12 12 12 12 12 12 12 12 12 12 12 12 12 12 12 12 12 12 12 12 12 12 12 12 12 12 12 12 12 12 12 12 12 12 12 12 12 12 12 12 12 12 12 12 12 12 12 12 12 12 12 12 12 12 12 12 12 12 12 12 12 12 12 12 12 12 12 12 12 12 

POINT_DATA 425
SCALARS weights float 1
LOOKUP_TABLE default
1.95312 3.90625 3.90625 3.90625 3.90625 3.90625 3.90625 3.90625 3.90625 3.90625 3.90625 3.90625 3.90625 3.90625 3.90625 3.90625 1.95312 3.90625 7.8125 7.8125 7.8125 7.8125 7.8125 7.8125 7.8125 7.8125 7.8125 7.8125 7.8125 7.8125 7.8125 7.8125 7.8125 3.90625 3.90625 7.8125 7.8125 7.8125 7.8125 7.8125 7.8125 7.8125 7.8125 7.8125 7.8125 7.8125 7.8125 7.8125 7.8125 7.8125 3.90625 3.90625 7.8125 7.8125 7.8125 7.8125 7.8125 7.8125 7.8125 7.8125 7.8125 7.8125 7.8125 7.8125 7.8125 7.8125 7.8125 3.90625 1.95312 3.90625 3.90625 3.90625 3.90625 3.90625 3.90625 3.90625 3.90625 3.90625 3.90625 3.90625 3.90625 3.90625 3.90625 3.90625 1.95312 3.90625 7.8125 7.8125 7.8125 7.8125 7.8125 7.8125 7.8125 7.8125 7.8125 7.8125 7.8125 7.8125 7.8125 7.8125 7.8125 3.90625 7.8125 15.625 15.625 15.625 15.625 15.625 15.625 15.625 15.625 15.625 15.625 15.625 15.625 15.625 15.625 15.625 7.8125 7.8125 15.625 15.625 15.625 15.625 15.625 15.625 15.625 15.625 15.625 15.625 15.625 15.625 15.625 15.625 15.625 7.8125 7.8125 15.625 15.625 15.625 15.625 15.625 15.625 15.625 15.625 15.625 15.625 15.625 15.625 15.625 15.625 15.625 7.8125 3.90625 7.8125 7.8125 7.8125 7.8125 7.8125 7.8125 7.8125 7.8125 7.8125 7.8125 7.8125 7.8125 7.8125 7.8125 7.8125 3.90625 3.90625 7.8125 7.8125 7.8125 7.8125 7.8125 7.8125 7.8125 7.8125 7.8125 7.8125 7.8125 7.8125 7.8125 7.8125 7.8125 3.90625 7.8125 15.625 15.625 15.625 15.625 15.625 15.625 15.625 15.625 15.625 15.625 15.625 15.625 15.625 15.625 15.625 7.8125 7.8125 15.625 15.625 15.625 15.625 15.625 15.625 15.625 15.625 15.625 15.625 15.625 15.625 15.625 15.625 15.625 7.8125 7.8125 15.625 15.625 15.625 15.625 15.625 15.625 15.625 15.625 15.625 15.625 15.625 15.625 15.625 15.625 15.625 7.8125 3.90625 7.8125 7.8125 7.8125 7.8125 7.8125 7.8125 7.8125 7.8125 7.8125 7.8125 7.8125 7.8125 7.8125 7.8125 7.8125 3.90625 3.90625 7.8125 7.8125 7.8125 7.8125 7.8125 7.8125 7.8125 7.8125 7.8125 7.8125 7.8125 7.8125 7.8125 7.8125 7.8125 3.90625 7.8125 15.625 15.625 15.625 15.625 15.625 15.625 15.625 15.625 15.625 15.625 15.625 15.625 15.625 15.625 15.625 7.8125 7.8125 15.625 15.625 15.625 15.625 15.625 15.625 15.625 15.625 15.625 15.625 15.625 15.625 15.625 15.625 15.625 7.8125 7.8125 15.625 15.625 15.625 15.625 15.625 15.625 15.625 15.625 15.625 15.625 15.625 15.625 15.625 15.625 15.625 7.8125 3.90625 7.8125 7.8125 7.8125 7.8125 7.8125 7.8125 7.8125 7.8125 7.8125 7.8125 7.8125 7.8125 7.8125 7.8125 7.8125 3.90625 1.95312 3.90625 3.90625 3.90625 3.90625 3.90625 3.90625 3.90625 3.90625 3.90625 3.90625 3.90625 3.90625 3.90625 3.90625 3.90625 1.95312 3.90625 7.8125 7.8125 7.8125 7.8125 7.8125 7.8125 7.8125 7.8125 7.8125 7.8125 7.8125 7.8125 7.8125 7.8125 7.8125 3.90625 3.90625 7.8125 7.8125 7.8125 7.8125 7.8125 7.8125 7.8125 7.8125 7.8125 7.8125 7.8125 7.8125 7.8125 7.8125 7.8125 3.90625 3.90625 7.8125 7.8125 7.8125 7.8125 7.8125 7.8125 7.8125 7.8125 7.8125 7.8125 7.8125 7.8125 7.8125 7.8125 7.8125 3.90625 1.95312 3.90625 3.90625 3.90625 3.90625 3.90625 3.90625 3.90625 3.90625 3.90625 3.90625 3.90625 3.90625 3.90625 3.90625 3.90625 1.95312 
VECTORS u float
0 0 0  -0.00336833 -0.00283123 -0.00676358  -0.00915399 -0.00758289 -0.00870275  -0.0151516 -0.015805 -0.00863886  -0.0208714 -0.027108 -0.00781763  -0.0261276 -0.0410069 -0.00674319  -0.03084 -0.0570705 -0.00563824  -0.0349911 -0.0749096 -0.00459409  -0.0385938 -0.094177 -0.00364447  -0.0416856 -0.114553 -0.00280344  -0.0443113 -0.135752 -0.00207341  -0.0465243 -0.157517 -0.00146306  -0.0483849 -0.179636 -0.000964284  -0.0499501 -0.201926 -0.00058198  -0.0512865 -0.224248 -0.000318885  -0.0524609 -0.246502 -0.000171423  -0.0535529 -0.268642 -9.19104e-05  0 0 0  -0.00132906 -0.00158209 -0.0023489  -0.00389528 -0.00648329 -0.00360608  -0.00676298 -0.0148876 -0.00380051  -0.00965255 -0.0263687 -0.00351429  -0.0124415 -0.040474 -0.00306308  -0.0150639 -0.0567667 -0.0025785  -0.0174891 -0.0748413 -0.00211537  -0.0197072 -0.0943291 -0.00169325  -0.021723 -0.114902 -0.00131905  -0.0235455 -0.136268 -0.000994444  -0.0251887 -0.158169 -0.00072217  -0.0266714 -0.180395 -0.000498772  -0.0280142 -0.202766 -0.00032711  -0.0292392 -0.225145 -0.000200391  -0.0303686 -0.247437 -0.00011754  -0.0314348 -0.269573 -5.84126e-05  0 0 0  5.68628e-05 -0.00121424 -1.54972e-06  0.000132799 -0.00616732 3.14116e-05  0.000135005 -0.0146602 5.9545e-05  1.27554e-05 -0.026241 7.29561e-05  -0.000259876 -0.0404728 7.33733e-05  -0.000687003 -0.0569083 6.88434e-05  -0.0012567 -0.0751311 6.22272e-05  -0.00195181 -0.0947616 5.49555e-05  -0.00274801 -0.115462 4.60148e-05  -0.00362253 -0.136935 3.9041e-05  -0.00455332 -0.158926 3.01003e-05  -0.00551939 -0.18122 2.40207e-05  -0.00650501 -0.203644 1.7941e-05  -0.00749683 -0.226062 1.34706e-05  -0.00848389 -0.248378 8.34465e-06  -0.00945663 -0.270521 8.76188e-06  0 0 0  0.00142488 -0.00179023 0.00232512  0.00413632 -0.00681925 0.00362617  0.00701499 -0.0153389 0.00387031  0.00966275 -0.0269639 0.00361115  0.0119053 -0.041244 0.00317019  0.0136715 -0.0577276 0.00268483  0.0149547 -0.0759953 0.00221658  0.0157843 -0.0956653 0.0017845  0.016206 -0.116398 0.00140101  0.0162804 -0.137895 0.00106585  0.0160658 -0.159904 0.00078088  0.0156186 -0.182206 0.000545979  0.0149934 -0.204634 0.000362575  0.0142398 -0.227051 0.0002262  0.0133972 -0.249364 0.00013268  0.0125122 -0.271515 7.09891e-05  0 0 0  0.0033797 -0.0032528 0.00654083  0.00930196 -0.0083161 0.00847614  0.0153158 -0.01681 0.00846589  0.0207914 -0.0284352 0.0077045  0.0254974 -0.0427065 0.0066855  0.0293547 -0.0591636 0.00562394  0.0323644 -0.077391 0.00461096  0.0345819 -0.0970134 0.00368214  0.0360901 -0.117697 0.0028547  0.0369813 -0.139144 0.00212836  0.037349 -0.161103 0.00151372  0.037292 -0.183358 0.00100899  0.0369008 -0.205737 0.000618696  0.0362649 -0.228113 0.000344455  0.0354748 -0.250393 0.000190735  0.034616 -0.272548 0.000103891  0 0 0  -0.0031004 -0.00499808 -0.00323558  -0.00896516 -0.0109321 -0.0043022  -0.0152858 -0.0192512 -0.00431222  -0.0212692 -0.0302005 -0.00391257  -0.0266612 -0.0436257 -0.00337368  -0.0314103 -0.059221 -0.00281823  -0.0355369 -0.0766365 -0.00229359  -0.0390869 -0.0955295 -0.00181806  -0.0421131 -0.11558 -0.00139868  -0.0446701 -0.136501 -0.00103527  -0.0468144 -0.158035 -0.000730872  -0.0486093 -0.179969 -0.000483215  -0.0501156 -0.202121 -0.000292718  -0.0514023 -0.224352 -0.000162184  -0.0525453 -0.246556 -8.7142e-05  -0.0536189 -0.26869 -4.60744e-05  0 0 0  -0.00112514 -0.00373551 -0.00114208  -0.00375697 -0.0095095 -0.00181848  -0.00688517 -0.018001 -0.00192785  -0.00999057 -0.029241 -0.00178039  -0.0128899 -0.0429789 -0.00154608  -0.0155406 -0.0588737 -0.00129682  -0.0179462 -0.0765634 -0.00106019  -0.0201204 -0.0957009 -0.000846326  -0.0220802 -0.11596 -0.000657082  -0.0238438 -0.137055 -0.000493884  -0.0254297 -0.158731 -0.000357628  -0.0268576 -0.180771 -0.00024575  -0.0281496 -0.203001 -0.000159621  -0.0293331 -0.225282 -9.7394e-05  -0.030432 -0.247514 -5.55515e-05  -0.0314798 -0.269638 -2.61664e-05  0 0 0  2.66433e-05 -0.00334924 -6.02007e-06  5.68032e-05 -0.00903276 7.45058e-06  2.3067e-05 -0.0176103 2.19345e-05  -0.000123024 -0.0290066 3.01003e-05  -0.000404596 -0.042926 3.20673e-05  -0.000827551 -0.0590026 3.11732e-05  -0.00138545 -0.0768644 2.93255e-05  -0.00206149 -0.096155 2.61664e-05  -0.00283694 -0.116548 2.28286e-05  -0.00369072 -0.137754 1.91331e-05  -0.00460291 -0.159518 1.51396e-05  -0.00555325 -0.181627 1.17421e-05  -0.00652552 -0.203906 8.58307e-06  -0.00750732 -0.226218 7.09295e-06  -0.00848889 -0.248471 3.51667e-06  -0.00946283 -0.270595 3.27826e-06  0 0 0  0.00115979 -0.00386298 0.00111651  0.00383914 -0.0097248 0.00180709  0.00689733 -0.0183425 0.0019424  0.00971138 -0.0297616 0.00181234  0.0120476 -0.0437123 0.00158775  0.0138532 -0.0598295 0.00134236  0.0151455 -0.0777338 0.00110573  0.0159688 -0.0970632 0.000889361  0.0163801 -0.117489 0.000697017  0.0164394 -0.138717 0.000530005  0.016206 -0.160496 0.000387371  0.015738 -0.182612 0.000269413  0.0150898 -0.204892 0.000177622  0.0143118 -0.227202 0.000110209  0.0134487 -0.249451 6.48499e-05  0.0125461 -0.271585 3.25441e-05  0 0 0  0.00305229 -0.00523818 0.00312006  0.00893945 -0.0113907 0.0041694  0.0151865 -0.0200014 0.0042035  0.0208789 -0.0313424 0.00383812  0.0257103 -0.0452124 0.00333238  0.0296171 -0.0612638 0.00280309  0.0326371 -0.0791098 0.00229853  0.0348468 -0.0983867 0.00183517  0.0363374 -0.118759 0.00142229  0.0372045 -0.139936 0.00106144  0.0375452 -0.161661 0.000755489  0.0374539 -0.183726 0.000505686  0.0370297 -0.20596 0.0003106  0.036365 -0.228235 0.000175238  0.035552 -0.25046 9.74536e-05  0.0346766 -0.272607 5.20945e-05  0 0 0  -0.00322612 -0.00569887 2.68221e-07  -0.0090439 -0.0118473 2.08616e-07  -0.0153014 -0.0202566 8.04663e-07  -0.0212786 -0.0311695 4.76837e-07  -0.0266908 -0.0444871 1.10269e-06  -0.0314596 -0.0599493 -4.17233e-07  -0.0355961 -0.0772304 -7.7486e-07  -0.0391461 -0.096001 8.64267e-07  -0.0421658 -0.115943 1.49012e-07  -0.0447125 -0.136771 -5.36442e-07  -0.0468493 -0.158229 -1.13249e-06  -0.0486364 -0.1801 1.19209e-07  -0.0501394 -0.202204 -5.36442e-07  -0.0514259 -0.2244 2.08616e-07  -0.0525694 -0.246587 1.63913e-06  -0.0536454 -0.268721 1.90735e-06  0 0 0  -0.00116542 -0.00426346 0  -0.0038099 -0.0104288 4.17233e-07  -0.00693882 -0.0190053 5.66244e-07  -0.0100651 -0.0301831 8.9407e-08  -0.0129911 -0.0438061 0  -0.0156584 -0.0595737 0  -0.0180662 -0.077139 5.96046e-08  -0.020233 -0.0961605 5.96046e-08  -0.0221798 -0.116318 1.19209e-07  -0.0239284 -0.137323 3.27826e-07  -0.0254967 -0.158923 8.9407e-08  -0.0269101 -0.180902 -3.57628e-07  -0.0281901 -0.203085 4.47035e-07  -0.0293617 -0.225332 -1.78814e-07  -0.0304542 -0.247545 -5.96046e-08  -0.031497 -0.26967 8.9407e-07  0 0 0  1.91629e-05 -0.00384706 3.27826e-07  3.3617e-05 -0.00995198 1.78814e-07  -1.48416e-05 -0.0186128 1.49012e-07  -0.000168085 -0.029938 1.07288e-06  -0.000451207 -0.0437439 0  -0.000873446 -0.0596995 2.08616e-07  -0.0014261 -0.0774419 2.38419e-07  -0.00209653 -0.096621 5.96046e-08  -0.00286627 -0.116913 3.27826e-07  -0.00371385 -0.138029 6.55651e-07  -0.00462031 -0.159717 -4.17233e-07  -0.00556469 -0.181763 -5.96046e-08  -0.00653315 -0.203993 1.78814e-07  -0.00751281 -0.226272 4.76837e-07  -0.00849199 -0.248504 -5.36442e-07  -0.00946426 -0.270629 -1.78814e-07  0 0 0  0.00118363 -0.00436932 -4.17233e-07  0.00384283 -0.0106129 4.47035e-07  0.00687474 -0.0193159 -1.19209e-07  0.00969505 -0.0306802 0  0.012053 -0.0445254 2.68221e-07  0.0138774 -0.0605241 -1.19209e-07  0.0151795 -0.0783112 -2.98023e-07  0.0160074 -0.0975297 5.96046e-07  0.0164185 -0.117854 2.38419e-07  0.0164754 -0.138994 0  0.0162392 -0.160697 1.37091e-06  0.0157673 -0.18275 -1.19209e-07  0.0151145 -0.204981 -1.78814e-07  0.0143328 -0.227256 0  0.0134666 -0.249487 8.9407e-08  0.0125613 -0.271623 -2.38419e-07  0 0 0  0.00315851 -0.00588572 -5.96046e-08  0.00897378 -0.0122388 0  0.0151325 -0.0209389 2.08616e-07  0.0208043 -0.0322494 -3.57628e-07  0.025651 -0.0460266 -2.38419e-07  0.0295817 -0.0619576 -1.19209e-07  0.0326198 -0.0796847 6.85453e-07  0.0348403 -0.0988467 0  0.0363359 -0.119117 4.76837e-07  0.0372047 -0.140204 1.13249e-06  0.0375464 -0.161856 -5.96046e-08  0.0374603 -0.18386 5.36442e-07  0.0370409 -0.206047 -7.15256e-07  0.036381 -0.228286 3.57628e-07  0.0355718 -0.250496 -8.34465e-07  0.0346975 -0.272645 -1.43051e-06  0 0 0  -0.00310107 -0.00499867 0.00323556  -0.0089663 -0.0109339 0.0043025  -0.015287 -0.0192522 0.00431289  -0.0212711 -0.0302009 0.0039131  -0.0266619 -0.0436256 0.00337498  -0.0314103 -0.0592203 0.00281748  -0.0355369 -0.076636 0.00229391  -0.0390865 -0.0955289 0.00181867  -0.0421114 -0.115581 0.00139898  -0.0446684 -0.136501 0.00103486  -0.0468135 -0.158035 0.000729457  -0.0486088 -0.179968 0.000483245  -0.0501161 -0.202121 0.000293911  -0.0514042 -0.224351 0.00016281  -0.0525472 -0.246557 9.02861e-05  -0.0536191 -0.26869 4.90397e-05  0 0 0  -0.00112522 -0.00373612 0.00114244  -0.00375786 -0.00950965 0.00181894  -0.00688654 -0.0180011 0.00192888  -0.00999123 -0.0292418 0.00178082  -0.0128911 -0.0429784 0.00154652  -0.0155418 -0.0588733 0.00129676  -0.0179468 -0.0765636 0.00106034  -0.0201203 -0.0956994 0.000846148  -0.0220804 -0.11596 0.000658378  -0.0238435 -0.137056 0.000494584  -0.025429 -0.158729 0.000357598  -0.0268574 -0.18077 0.000246108  -0.0281506 -0.203001 0.000159353  -0.0293331 -0.225282 9.67234e-05  -0.0304329 -0.247514 5.5626e-05  -0.0314803 -0.269639 2.69413e-05  0 0 0  2.69115e-05 -0.00334927 6.02007e-06  5.72801e-05 -0.00903276 -7.30157e-06  2.27094e-05 -0.0176104 -2.0802e-05  -0.00012356 -0.029007 -2.88486e-05  -0.000405073 -0.0429262 -3.21567e-05  -0.000827551 -0.0590025 -3.13818e-05  -0.0013845 -0.0768648 -2.84612e-05  -0.00206125 -0.0961545 -2.51532e-05  -0.00283742 -0.116548 -2.15173e-05  -0.0036912 -0.137754 -1.83582e-05  -0.00460243 -0.159518 -1.51694e-05  -0.00555301 -0.181626 -1.12951e-05  -0.00652599 -0.203905 -8.16584e-06  -0.00750804 -0.226219 -6.4075e-06  -0.00849009 -0.24847 -4.20213e-06  -0.00946426 -0.270596 -3.8445e-06  0 0 0  0.00116003 -0.00386333 -0.0011166  0.00384063 -0.00972384 -0.00180727  0.00689816 -0.0183424 -0.00194228  0.00971115 -0.0297614 -0.00181189  0.0120473 -0.0437125 -0.0015876  0.0138533 -0.0598298 -0.00134179  0.0151453 -0.0777346 -0.00110522  0.0159686 -0.0970642 -0.000888854  0.0163813 -0.117489 -0.00069651  0.0164399 -0.138718 -0.000528365  0.016206 -0.160496 -0.000386268  0.0157382 -0.182611 -0.000268728  0.0150902 -0.204891 -0.000177711  0.0143118 -0.227201 -0.000110269  0.0134494 -0.249451 -6.49691e-05  0.0125484 -0.271588 -3.33488e-05  0 0 0  0.00305191 -0.00523943 -0.00312084  0.00893891 -0.0113898 -0.00416902  0.0151868 -0.0200011 -0.0042035  0.0208794 -0.031341 -0.00383839  0.0257095 -0.0452133 -0.00333205  0.0296167 -0.0612646 -0.00280339  0.0326376 -0.0791106 -0.00229785  0.0348485 -0.098387 -0.00183532  0.0363386 -0.11876 -0.00142169  0.037205 -0.139934 -0.00106108  0.0375452 -0.161662 -0.000754327  0.0374546 -0.183726 -0.000504196  0.0370305 -0.20596 -0.00031054  0.0363667 -0.228234 -0.000175446  0.0355539 -0.250461 -9.87351e-05  0.0346775 -0.272611 -5.42998e-05  0 0 0  -0.00336944 -0.00283199 0.00676389  -0.00915429 -0.00758331 0.00870242  -0.0151536 -0.0158052 0.00864084  -0.020873 -0.0271079 0.00781805  -0.0261272 -0.0410075 0.00674263  -0.0308392 -0.0570695 0.00563779  -0.0349884 -0.0749099 0.00459359  -0.0385909 -0.0941795 0.00364405  -0.0416842 -0.114555 0.00280421  -0.0443091 -0.135751 0.00207603  -0.0465248 -0.157516 0.00146306  -0.0483849 -0.179635 0.000964926  -0.0499499 -0.201925 0.000584197  -0.0512874 -0.224248 0.000319315  -0.0524623 -0.246502 0.000173414  -0.0535545 -0.268643 9.0901e-05  0 0 0  -0.00132917 -0.00158222 0.00234992  -0.00389594 -0.00648341 0.00360689  -0.00676328 -0.0148881 0.00380098  -0.00965273 -0.0263694 0.0035144  -0.0124409 -0.0404749 0.00306337  -0.0150635 -0.0567664 0.00257902  -0.0174878 -0.0748419 0.00211572  -0.0197068 -0.0943304 0.00169275  -0.0217206 -0.114903 0.00131925  -0.0235434 -0.136267 0.0009946  -0.0251868 -0.15817 0.000722645  -0.0266709 -0.180395 0.000500924  -0.0280147 -0.202766 0.000326272  -0.0292394 -0.225145 0.000199933  -0.030369 -0.247437 0.000117001  -0.0314341 -0.269573 5.47896e-05  0 0 0  5.6982e-05 -0.00121439 1.44162e-06  0.000133455 -0.0061672 -3.16916e-05  0.000136852 -0.0146605 -5.86653e-05  1.39475e-05 -0.0262415 -7.15724e-05  -0.00025928 -0.0404727 -7.32324e-05  -0.000686646 -0.0569092 -6.91808e-05  -0.0012567 -0.075132 -6.1536e-05  -0.0019511 -0.0947622 -5.28036e-05  -0.00274801 -0.115461 -4.5051e-05  -0.00362182 -0.136934 -3.84652e-05  -0.00455236 -0.158926 -3.02422e-05  -0.00551963 -0.181221 -2.30361e-05  -0.00650525 -0.203644 -1.7085e-05  -0.00749636 -0.226062 -1.29092e-05  -0.00848365 -0.248379 -8.40585e-06  -0.00945926 -0.270519 -6.2316e-06  0 0 0  0.00142434 -0.00179029 -0.00232536  0.00413567 -0.00681973 -0.00362645  0.00701547 -0.0153382 -0.00387079  0.00966263 -0.0269645 -0.00361064  0.011905 -0.041244 -0.0031705  0.0136721 -0.0577286 -0.00268464  0.0149547 -0.0759945 -0.00221577  0.0157824 -0.0956634 -0.00178489  0.0162051 -0.116397 -0.0014  0.0162799 -0.137895 -0.00106443  0.0160651 -0.159903 -0.000779308  0.0156174 -0.182207 -0.000546179  0.014993 -0.204635 -0.000362139  0.0142386 -0.227051 -0.000226011  0.0133963 -0.249364 -0.000134022  0.0125122 -0.271515 -7.1483e-05  0 0 0  0.00337893 -0.00325274 -0.0065397  0.00930017 -0.00831532 -0.00847709  0.0153149 -0.0168101 -0.00846702  0.0207922 -0.0284358 -0.00770576  0.0254984 -0.042706 -0.00668507  0.0293537 -0.0591635 -0.00562426  0.0323647 -0.0773894 -0.00461274  0.034584 -0.0970114 -0.00368291  0.0360925 -0.117697 -0.00285319  0.0369828 -0.139144 -0.00212846  0.0373504 -0.161101 -0.00151169  0.0372901 -0.183357 -0.0010068  0.0368991 -0.205738 -0.000619362  0.0362663 -0.228112 -0.000346819  0.0354774 -0.250394 -0.000192345  0.0346198 -0.272552 -0.000104216  
SCALARS smooth_stress float 1
LOOKUP_TABLE default
835.788 1956.74 2270.59 2278.89 2124.03 1855.97 1560.96 1311.18 1061.01 807.376 627.435 478.383 361.081 258.029 183 131.097 53.7787 1166.46 2810.99 3392.91 3499.78 3323.52 2943.43 2525.39 2174.85 1807.96 1435.73 1160.05 906.941 694.475 527.056 380.467 268.54 116.095 558.298 1481.77 2013.71 2184.97 2129.19 1965.46 1778.03 1599.95 1397.12 1205.26 1040.24 852.876 664.4 539.529 400.162 284.171 132.84 806.82 2050.48 2611.95 2686.44 2542.74 2328.22 2065.21 1761.46 1480.85 1254.95 1047.55 839.3 633.03 526.63 395.119 259.25 123.456 579.19 1422.96 1720.56 1722.36 1613.04 1450.23 1251.61 1025.19 830.681 678.034 539.933 414.982 302.024 256.129 192.423 112.522 52.9314 1588.79 3842.33 4614.9 4611.62 4256.33 3724.28 3122.47 2589.16 2091.96 1597.76 1221.04 913.148 679.576 489.257 328.905 234.965 98.5455 2380.22 5772.31 6987.72 7077.43 6612.82 5841.72 4972.58 4203.07 3474.84 2751.01 2195.51 1706.82 1311.96 1012.84 711.137 504.59 222.998 1426.4 3453.4 4242.4 4381.04 4152.42 3769.52 3364.76 2981.71 2607.25 2224.08 1884.54 1562.18 1253.17 1016.41 746.23 540.331 251.515 1801.76 4364.67 5312.22 5383.19 5014.07 4523.71 4007.37 3409.7 2843.61 2373.6 1958.63 1560.27 1185.14 952.279 701.306 495.113 238.419 1166.8 2841.24 3442.65 3467.97 3218.14 2871.63 2492.73 2041.9 1619.26 1302.77 1048.56 791.766 564.358 459.457 337.308 224.408 111.358 1495.54 3763.64 4686.37 4644.44 4240.12 3717.03 3078.57 2510.2 2025.84 1563.09 1182.98 871.255 653.06 483.581 319.96 208.673 79.4705 2441.3 5924.64 7186.23 7128.08 6522.97 5748.91 4843.16 4022.31 3298.02 2628.5 2060.58 1577.26 1233.59 960.495 698.35 500.108 206.116 1779.42 3992.46 4490.11 4391.76 4009.26 3591.72 3157.14 2741.38 2372.49 1999.74 1657.54 1394.6 1176.79 935.414 714.175 553.445 243.596 2000.12 4655.57 5400.59 5370.14 4944.62 4423.3 3853.27 3227.42 2709.86 2219.98 1803.21 1468.54 1139.97 855.877 626.42 490.97 233.729 1166.45 2824.12 3410.35 3462.01 3218.22 2863.46 2460.72 1998.15 1609.54 1285.65 1023.27 779.947 543.703 397.377 290.635 228.96 116.778 1520.48 3782.61 4635.87 4596.45 4224.49 3690.92 3067.8 2507.12 2005.58 1562.49 1207.03 905.182 686.826 502.175 333.561 215.297 80.6091 2387.44 5819.18 7079.39 7068.2 6523.36 5747.03 4881.98 4082.59 3322.02 2693.74 2138.1 1626.89 1273.18 982.942 721.736 518.341 211.711 1616.06 3739.38 4416.12 4422.71 4076.42 3684.36 3259.54 2841.96 2442.27 2088.18 1754.29 1448.33 1195.22 962.791 757.218 570.436 240.989 1878.71 4498.03 5379.85 5413.06 5029.75 4520.66 3891.27 3254.56 2772.13 2274.95 1861.25 1537.29 1196.11 904.334 683.918 527.997 237.897 1129.61 2795.22 3407.25 3462.1 3252.2 2892.41 2445.9 1988.07 1646.3 1318.02 1038.02 810.668 587.246 422.311 314.875 260.606 128.01 777.94 1904.56 2293.82 2284.73 2116.68 1842.2 1550.73 1274.9 1010.69 789.781 617.654 468.691 352.262 249.821 159.505 110.492 45.9054 1159.92 2855.85 3487.97 3517.76 3289.69 2896.4 2486.01 2088.5 1690.89 1380.53 1112.97 849.509 657.078 508.235 354.056 254.284 112.499 704.746 1718.55 2154.71 2227.01 2090.39 1896.71 1689.14 1482.34 1279.9 1107.26 941.055 763.03 607.193 504.257 389.111 273.15 116.068 873.538 2156.65 2679.54 2739.68 2556.45 2292.85 1980.15 1675.39 1425.03 1173.63 969.121 789.718 608.255 474.106 363.685 272.889 119.133 550.768 1389.39 1718.98 1745.69 1639.07 1450.35 1226.29 1006.64 825.329 657.116 523.38 407.505 305.878 228.261 169.126 143.531 69.6587 
CELL_DATA 256
SCALARS stress float 1
LOOKUP_TABLE default
835.788 1120.96 1149.63 1129.26 994.767 861.201 699.761 611.416 449.591 357.785 269.649 208.734 152.347 105.682 77.3186 53.7787 330.667 523.579 598.745 622.147 577.343 510.123 454.307 409.371 337.581 290.768 241.852 186.706 146.688 122.339 75.1272 62.3159 227.631 399.893 491.489 472.587 457.112 420.879 392.719 343.555 306.617 270.298 237.32 186.998 144.009 126.492 76.2035 70.5244 579.19 843.766 876.799 845.561 767.477 682.751 568.863 456.324 374.357 303.677 236.256 178.726 123.297 132.832 59.591 52.9314 753 1132.59 1211.72 1121 1011.3 857.011 704.496 573.483 457.467 332.916 260.694 174.071 144.424 86.8037 59.1007 44.7668 460.769 614.958 635.538 609.381 547.618 482.359 403.323 346.915 289.02 235.882 205.965 159.151 139.84 114.721 70.0453 62.137 407.329 488.574 489.621 461.527 404.704 369.384 331.662 299.863 274.325 219.591 182.867 161.318 128.459 93.8621 67.4401 56.5372 587.613 830.675 891.406 854.2 750.9 670.503 570.608 446.109 342.465 282.274 226.351 150.433 111.901 91.4261 53.4587 58.4266 742.541 1135.51 1206.55 1105.17 1002.64 846.075 670.989 561.231 433.656 339.048 250.324 186.166 148.399 103.955 70.1015 34.7037 484.986 600.291 649.072 589.648 536.211 465.696 413.208 348.666 287.58 252.926 182.828 158.065 123.474 98.8795 94.7442 64.5085 426.331 509.219 502.833 454.143 406.026 379.719 311.785 285.96 240.165 200.249 177.237 167.171 139.316 96.8635 77.6195 60.4132 578.842 826.986 861.278 855.129 757.994 684.068 535.544 445.885 375.084 285.825 228.817 174.345 107.023 87.0268 58.723 58.3517 777.94 1126.62 1167.2 1117.54 999.14 843.063 707.668 567.234 443.46 346.321 271.333 197.359 154.903 94.9181 64.5866 45.9054 381.976 569.314 624.834 608.195 564.815 489.385 445.891 367.703 312.496 278.254 217.061 163.757 141.059 117.354 77.1979 66.5938 322.77 444.493 516.064 477.92 439.462 403.043 350.818 317.93 281.774 234.735 211.005 171.208 131.169 114.675 79.8847 49.4738 550.768 838.623 880.358 865.334 773.738 676.61 549.681 456.958 368.371 288.745 234.635 172.87 133.008 95.2535 73.8722 69.6587 
SCALARS volume float 1
LOOKUP_TABLE default
2.52667 2.52911 2.5298 2.53012 2.53034 2.53052 2.53066 2.53079 2.5309 2.531 2.53108 2.53115 2.53121 2.53124 2.53128 2.53129 2.52989 2.52978 2.53004 2.53022 2.53039 2.53053 2.53067 2.53078 2.53088 2.53098 2.53106 2.53112 2.53117 2.53121 2.53124 2.53126 2.53181 2.53122 2.53094 2.53088 2.53089 2.53092 2.53097 2.53101 2.53105 2.53109 2.53113 2.53116 2.53118 2.5312 2.53121 2.5312 2.53453 2.53238 2.53185 2.53164 2.53152 2.53144 2.53138 2.53135 2.53131 2.53129 2.53127 2.53125 2.53124 2.53123 2.53122 2.5312 2.527 2.52866 2.52956 2.53006 2.53034 2.53053 2.53067 2.5308 2.53091 2.531 2.53109 2.53115 2.53121 2.53126 2.53128 2.53129 2.53025 2.52974 2.53004 2.53025 2.53043 2.53058 2.53071 2.53082 2.53091 2.53099 2.53107 2.53113 2.53117 2.53121 2.53123 2.53125 2.53146 2.53117 2.53085 2.53079 2.53081 2.53087 2.53094 2.531 2.53105 2.5311 2.53114 2.53117 2.5312 2.53121 2.53123 2.53121 2.53402 2.53259 2.53195 2.5316 2.53145 2.53138 2.53134 2.53132 2.5313 2.53129 2.53127 2.53126 2.53125 2.53123 2.53121 2.5312 2.52699 2.52875 2.52957 2.53004 2.53033 2.53053 2.53068 2.5308 2.53091 2.53101 2.53109 2.53116 2.53122 2.53126 2.53128 2.53129 2.53025 2.52975 2.53003 2.53024 2.53043 2.53058 2.53071 2.53082 2.53091 2.531 2.53107 2.53113 2.53117 2.53121 2.53123 2.53125 2.53147 2.53116 2.53086 2.5308 2.53082 2.53088 2.53094 2.531 2.53105 2.5311 2.53113 2.53117 2.5312 2.53121 2.53122 2.53121 2.53405 2.53249 2.53192 2.53161 2.53146 2.53139 2.53135 2.53132 2.5313 2.53128 2.53127 2.53126 2.53125 2.53124 2.53122 2.53121 2.52684 2.52914 2.52981 2.53014 2.53035 2.53053 2.53068 2.5308 2.53091 2.53101 2.53109 2.53115 2.53121 2.53124 2.53127 2.53128 2.52993 2.52978 2.53007 2.53025 2.53041 2.53055 2.53068 2.53078 2.53089 2.53098 2.53105 2.53111 2.53117 2.53121 2.53123 2.53125 2.53167 2.53121 2.53098 2.53091 2.5309 2.53093 2.53096 2.531 2.53105 2.53108 2.53112 2.53115 2.53117 2.53119 2.53121 2.53119 2.53433 2.53235 2.53186 2.53163 2.53151 2.53143 2.53137 2.53133 2.53131 2.53128 2.53127 2.53124 2.53124 2.53123 2.53122 2.5312 
SCALARS volume_diff float 1
LOOKUP_TABLE default
2.51105 2.51348 2.51417 2.51449 2.51471 2.51489 2.51504 2.51517 2.51528 2.51537 2.51546 2.51552 2.51558 2.51562 2.51565 2.51567 2.51427 2.51415 2.51441 2.5146 2.51476 2.51491 2.51504 2.51516 2.51526 2.51535 2.51543 2.5155 2.51555 2.51558 2.51562 2.51563 2.51618 2.51559 2.51531 2.51526 2.51527 2.5153 2.51534 2.51539 2.51543 2.51547 2.5155 2.51553 2.51556 2.51557 2.51559 2.51557 2.51891 2.51676 2.51623 2.51601 2.51589 2.51581 2.51576 2.51572 2.51568 2.51566 2.51565 2.51563 2.51562 2.5156 2.51559 2.51557 2.51137 2.51304 2.51394 2.51443 2.51472 2.5149 2.51505 2.51517 2.51528 2.51538 2.51546 2.51552 2.51559 2.51563 2.51565 2.51566 2.51462 2.51412 2.51441 2.51462 2.51481 2.51496 2.51508 2.51519 2.51529 2.51537 2.51544 2.5155 2.51555 2.51558 2.51561 2.51562 2.51584 2.51555 2.51523 2.51516 2.51518 2.51524 2.51531 2.51537 2.51543 2.51547 2.51551 2.51555 2.51557 2.51559 2.5156 2.51559 2.5184 2.51697 2.51632 2.51598 2.51583 2.51576 2.51572 2.51569 2.51568 2.51566 2.51564 2.51563 2.51562 2.51561 2.51559 2.51558 2.51137 2.51312 2.51394 2.51442 2.51471 2.5149 2.51506 2.51518 2.51529 2.51538 2.51547 2.51553 2.51559 2.51563 2.51566 2.51567 2.51462 2.51412 2.5144 2.51462 2.5148 2.51495 2.51508 2.51519 2.51529 2.51537 2.51544 2.5155 2.51555 2.51558 2.5156 2.51562 2.51585 2.51554 2.51523 2.51518 2.5152 2.51525 2.51532 2.51537 2.51543 2.51548 2.51551 2.51555 2.51557 2.51559 2.5156 2.51558 2.51842 2.51686 2.51629 2.51598 2.51583 2.51577 2.51572 2.5157 2.51568 2.51566 2.51564 2.51563 2.51563 2.51561 2.51559 2.51558 2.51122 2.51352 2.51418 2.51451 2.51473 2.5149 2.51505 2.51518 2.51529 2.51539 2.51546 2.51553 2.51558 2.51562 2.51565 2.51566 2.51431 2.51416 2.51444 2.51463 2.51479 2.51492 2.51505 2.51516 2.51526 2.51535 2.51543 2.51549 2.51554 2.51558 2.51561 2.51562 2.51605 2.51558 2.51535 2.51529 2.51528 2.5153 2.51534 2.51538 2.51542 2.51546 2.5155 2.51552 2.51555 2.51557 2.51558 2.51557 2.5187 2.51672 2.51623 2.51601 2.51588 2.51581 2.51575 2.51571 2.51568 2.51566 2.51564 2.51562 2.51561 2.51561 2.51559 2.51557 
